 [Molden Format]
 [Atoms] Angs
C       1      6      5.60376809     -4.48174231     -0.16759229
C       2      6      6.16361995     -3.63914833      0.77943345
C       3      6      5.69594150     -2.34815871      0.93234609
C       4      6      4.65921650     -1.87551600      0.12720858
N       5      7      4.18485652     -0.56706159      0.27328931
C       6      6      5.07216594      0.47794218      0.55426661
C       7      6      4.69041153      1.52254767      1.39708935
C       8      6      5.56608786      2.55659102      1.66639615
C       9      6      6.83580099      2.56479776      1.11147045
C      10      6      7.22186570      1.52821393      0.27685703
C      11      6      6.34992607      0.49450931     -0.00596311
C      12      6      2.81668537     -0.29872799      0.12774285
C      13      6      1.86959733     -1.19205245      0.63350004
C      14      6      0.51250465     -0.94602327      0.50045174
C      15      6      0.10166314      0.20677819     -0.13338748
C      16      6      1.04533766      1.11124468     -0.64191811
C      17      6      2.39952759      0.86426380     -0.52160408
C      18      6      0.33455705      2.22209429     -1.25772175
C      19      6      0.80023628      3.35932864     -1.89701076
C      20      6     -0.12344983      4.26391066     -2.39677772
C      21      6     -1.48519910      4.03876822     -2.26065229
C      22      6     -1.95686229      2.90083434     -1.61912621
C      23      6     -1.04275293      1.99814504     -1.12161480
C      24      6     -1.31015039      0.69558865     -0.38861412
C      25      6     -2.06365591     -0.26508435     -1.27806221
C      26      6     -1.49401333     -0.64314455     -2.48462623
C      27      6     -2.14336558     -1.50543879     -3.34912487
C      28      6     -3.38965898     -1.99844881     -3.00138466
C      29      6     -3.97200973     -1.63489242     -1.80416839
C      30      6     -3.32031672     -0.76533483     -0.92450298
N      31      7     -3.91660254     -0.40965783      0.27406822
C      32      6     -5.20705854     -0.92950678      0.58658987
C      33      6     -5.32574482     -2.14292311      1.25259366
C      34      6     -6.58095207     -2.64225332      1.55378975
C      35      6     -7.71597825     -1.93471438      1.19238976
C      36      6     -7.59686132     -0.72505027      0.52781598
C      37      6     -6.34459855     -0.21997115      0.22348188
C      38      6     -3.28647931      0.41983723      1.18700722
C      39      6     -3.90264769      0.72416187      2.40455092
C      40      6     -3.28605786      1.54886817      3.32343839
C      41      6     -2.03995764      2.08783249      3.05161359
C      42      6     -1.42488430      1.79100861      1.84912454
C      43      6     -2.02907163      0.96569096      0.91268942
C      44      6      4.10078664     -2.72748311     -0.82614434
C      45      6      4.56951525     -4.01958687     -0.96560105
H      46      1      5.97006695     -5.49095869     -0.28211141
H      47      1      6.96602444     -3.99226421      1.41102923
H      48      1      6.12816633     -1.69672166      1.67814427
H      49      1      3.70476399      1.51474860      1.83974531
H      50      1      5.25723046      3.35747753      2.32263733
H      51      1      7.51857817      3.37289851      1.32720774
H      52      1      8.20755678      1.52823985     -0.16572045
H      53      1      6.65099262     -0.30649826     -0.66551722
H      54      1      2.20835916     -2.08554394      1.13716886
H      55      1     -0.20787268     -1.64558080      0.89903431
H      56      1      3.13000254      1.55283672     -0.91963179
H      57      1      1.86008334      3.53877573     -2.00381561
H      58      1      0.22121686      5.15658755     -2.89881289
H      59      1     -2.18737335      4.75730315     -2.65812432
H      60      1     -3.01833229      2.72794558     -1.51344677
H      61      1     -0.52267842     -0.24809126     -2.74682823
H      62      1     -1.68261641     -1.78633465     -4.28409538
H      63      1     -3.91397461     -2.67119545     -3.66430309
H      64      1     -4.94404093     -2.02510311     -1.54359813
H      65      1     -4.43363289     -2.68568590      1.52931020
H      66      1     -6.67231080     -3.58557333      2.07150680
H      67      1     -8.69402565     -2.32642248      1.42889670
H      68      1     -8.48054416     -0.17221624      0.24544689
H      69      1     -6.23967410      0.72243686     -0.29403727
H      70      1     -4.87370643      0.30927308      2.62797992
H      71      1     -3.78356872      1.76961712      4.25655704
H      72      1     -1.55279272      2.73390445      3.76615462
H      73      1     -0.45327952      2.20774367      1.62437365
H      74      1      3.29968570     -2.36737047     -1.45548086
H      75      1      4.12936559     -4.66725609     -1.71010254
 [GTO]
           1   0
s              4   1.000000
     34.91526837     -0.01198412
      6.01269813     -0.05472052
      0.48314595      0.58055871
      0.18413888      0.47700799
p              4   1.000000
      5.62750765      0.05713170
      1.45912870      0.28574555
      0.51438802      0.55178731
      0.20478673      0.26323149
s              7   1.000000
      0.38350848     -0.19624974
      0.04707223      0.94820660
      0.02222627      0.24901345
     34.91526837      0.00551857
      6.01269813      0.02519829
      0.48314595     -0.26734182
      0.18413888     -0.21965769
p              7   1.000000
      1.83062075     -0.01161259
      0.10124670      0.57066025
      0.03901771      0.59596988
      5.62750765     -0.02527942
      1.45912870     -0.12643562
      0.51438802     -0.24415279
      0.20478673     -0.11647368
 
           2   0
s              4   1.000000
     34.92049078     -0.01198412
      6.01359747     -0.05472052
      0.48321822      0.58055871
      0.18416642      0.47700799
p              4   1.000000
      5.62834937      0.05713170
      1.45934695      0.28574555
      0.51446496      0.55178731
      0.20481737      0.26323149
s              7   1.000000
      0.38350848     -0.19624483
      0.04707223      0.94818291
      0.02222627      0.24900723
     34.92049078      0.00551779
      6.01359747      0.02519469
      0.48321822     -0.26730365
      0.18416642     -0.21962633
p              7   1.000000
      1.83062075     -0.01161231
      0.10124670      0.57064686
      0.03901771      0.59595588
      5.62834937     -0.02527580
      1.45934695     -0.12641750
      0.51446496     -0.24411779
      0.20481737     -0.11645699
 
           3   0
s              4   1.000000
     35.01951084     -0.01198412
      6.03064954     -0.05472052
      0.48458842      0.58055871
      0.18468864      0.47700800
p              4   1.000000
      5.64430904      0.05713170
      1.46348505      0.28574555
      0.51592377      0.55178731
      0.20539814      0.26323149
s              7   1.000000
      0.38350848     -0.19615224
      0.04707223      0.94773556
      0.02222627      0.24888975
     35.01951084      0.00550288
      6.03064954      0.02512665
      0.48458842     -0.26658182
      0.18468864     -0.21903325
p              7   1.000000
      1.83062075     -0.01160717
      0.10124670      0.57039394
      0.03901771      0.59569174
      5.64430904     -0.02520728
      1.46348505     -0.12607481
      0.51592377     -0.24345604
      0.20539814     -0.11614130
 
           4   0
s              4   1.000000
     35.19542646     -0.01198412
      6.06094367     -0.05472052
      0.48702269      0.58055871
      0.18561640      0.47700799
p              4   1.000000
      5.67266244      0.05713170
      1.47083666      0.28574555
      0.51851544      0.55178731
      0.20642993      0.26323149
s              7   1.000000
      0.38350848     -0.19598946
      0.04707223      0.94694905
      0.02222627      0.24868320
     35.19542646      0.00547661
      6.06094367      0.02500667
      0.48702269     -0.26530883
      0.18561640     -0.21798731
p              7   1.000000
      1.83062075     -0.01159812
      0.10124670      0.56994928
      0.03901771      0.59522735
      5.67266244     -0.02508644
      1.47083666     -0.12547043
      0.51851544     -0.24228896
      0.20642993     -0.11558454
 
           5   0
s              4   1.000000
     61.16199242     -0.01198412
     10.53260119     -0.05472052
      0.84633945      0.58055871
      0.32256091      0.47700799
p              4   1.000000
      7.20928490      0.05713170
      1.86925992      0.28574555
      0.65897197      0.55178731
      0.26234810      0.26323149
s              7   1.000000
      0.47894987     -0.18779484
      0.05878681      0.90735565
      0.02775758      0.23828538
     61.16199242      0.00397225
     10.53260119      0.01813762
      0.84633945     -0.19243153
      0.32256091     -0.15810870
p              7   1.000000
      2.28619608     -0.01156714
      0.12644335      0.56842710
      0.04872781      0.59363768
      7.20928490     -0.02466903
      1.86925992     -0.12338275
      0.65897197     -0.23825755
      0.26234810     -0.11366135
 
           6   0
s              4   1.000000
     35.19617683     -0.01198412
      6.06107289     -0.05472052
      0.48703307      0.58055871
      0.18562036      0.47700800
p              4   1.000000
      5.67278338      0.05713170
      1.47086802      0.28574555
      0.51852649      0.55178731
      0.20643433      0.26323149
s              7   1.000000
      0.38350848     -0.19598877
      0.04707223      0.94694572
      0.02222627      0.24868232
     35.19617683      0.00547650
      6.06107289      0.02500616
      0.48703307     -0.26530343
      0.18562036     -0.21798287
p              7   1.000000
      1.83062075     -0.01159808
      0.10124670      0.56994740
      0.03901771      0.59522541
      5.67278338     -0.02508593
      1.47086802     -0.12546787
      0.51852649     -0.24228400
      0.20643433     -0.11558218
 
           7   0
s              4   1.000000
     35.02138604     -0.01198412
      6.03097247     -0.05472052
      0.48461437      0.58055871
      0.18469853      0.47700799
p              4   1.000000
      5.64461128      0.05713170
      1.46356342      0.28574555
      0.51595139      0.55178730
      0.20540914      0.26323149
s              7   1.000000
      0.38350848     -0.19615050
      0.04707223      0.94772713
      0.02222627      0.24888753
     35.02138604      0.00550260
      6.03097247      0.02512537
      0.48461437     -0.26656819
      0.18469853     -0.21902204
p              7   1.000000
      1.83062075     -0.01160707
      0.10124670      0.57038917
      0.03901771      0.59568677
      5.64461128     -0.02520599
      1.46356342     -0.12606834
      0.51595139     -0.24344354
      0.20540914     -0.11613534
 
           8   0
s              4   1.000000
     34.92054406     -0.01198412
      6.01360664     -0.05472052
      0.48321895      0.58055871
      0.18416670      0.47700799
p              4   1.000000
      5.62835796      0.05713170
      1.45934918      0.28574555
      0.51446574      0.55178731
      0.20481768      0.26323149
s              7   1.000000
      0.38350848     -0.19624479
      0.04707223      0.94818268
      0.02222627      0.24900716
     34.92054406      0.00551778
      6.01360664      0.02519465
      0.48321895     -0.26730326
      0.18416670     -0.21962600
p              7   1.000000
      1.83062075     -0.01161231
      0.10124670      0.57064673
      0.03901771      0.59595576
      5.62835796     -0.02527576
      1.45934918     -0.12641731
      0.51446574     -0.24411743
      0.20481768     -0.11645682
 
           9   0
s              4   1.000000
     34.91513793     -0.01198412
      6.01267566     -0.05472052
      0.48314415      0.58055871
      0.18413819      0.47700800
p              4   1.000000
      5.62748662      0.05713170
      1.45912325      0.28574555
      0.51438610      0.55178731
      0.20478597      0.26323149
s              7   1.000000
      0.38350848     -0.19624986
      0.04707223      0.94820720
      0.02222627      0.24901360
     34.91513793      0.00551859
      6.01267566      0.02519838
      0.48314415     -0.26734278
      0.18413819     -0.21965848
p              7   1.000000
      1.83062075     -0.01161259
      0.10124670      0.57066060
      0.03901771      0.59597024
      5.62748662     -0.02527951
      1.45912325     -0.12643608
      0.51438610     -0.24415366
      0.20478597     -0.11647411
 
          10   0
s              4   1.000000
     34.92041029     -0.01198412
      6.01358361     -0.05472052
      0.48321710      0.58055871
      0.18416600      0.47700799
p              4   1.000000
      5.62833640      0.05713170
      1.45934358      0.28574555
      0.51446377      0.55178731
      0.20481689      0.26323149
s              7   1.000000
      0.38350848     -0.19624491
      0.04707223      0.94818329
      0.02222627      0.24900733
     34.92041029      0.00551780
      6.01358361      0.02519474
      0.48321710     -0.26730424
      0.18416600     -0.21962681
p              7   1.000000
      1.83062075     -0.01161232
      0.10124670      0.57064707
      0.03901771      0.59595612
      5.62833640     -0.02527585
      1.45934358     -0.12641778
      0.51446377     -0.24411833
      0.20481689     -0.11645725
 
          11   0
s              4   1.000000
     35.01977365     -0.01198412
      6.03069480     -0.05472052
      0.48459206      0.58055871
      0.18469003      0.47700800
p              4   1.000000
      5.64435140      0.05713170
      1.46349603      0.28574555
      0.51592764      0.55178731
      0.20539968      0.26323149
s              7   1.000000
      0.38350848     -0.19615200
      0.04707223      0.94773438
      0.02222627      0.24888943
     35.01977365      0.00550285
      6.03069480      0.02512647
      0.48459206     -0.26657991
      0.18469003     -0.21903168
p              7   1.000000
      1.83062075     -0.01160715
      0.10124670      0.57039328
      0.03901771      0.59569106
      5.64435140     -0.02520710
      1.46349603     -0.12607390
      0.51592764     -0.24345429
      0.20539968     -0.11614047
 
          12   0
s              4   1.000000
     35.20535404     -0.01198412
      6.06265328     -0.05472052
      0.48716006      0.58055871
      0.18566876      0.47700799
p              4   1.000000
      5.67426253      0.05713170
      1.47125154      0.28574555
      0.51866170      0.55178731
      0.20648816      0.26323149
s              7   1.000000
      0.38350848     -0.19598034
      0.04707223      0.94690498
      0.02222627      0.24867162
     35.20535404      0.00547513
      6.06265328      0.02499993
      0.48716006     -0.26523735
      0.18566876     -0.21792858
p              7   1.000000
      1.83062075     -0.01159761
      0.10124670      0.56992437
      0.03901771      0.59520134
      5.67426253     -0.02507966
      1.47125154     -0.12543649
      0.51866170     -0.24222342
      0.20648816     -0.11555328
 
          13   0
s              4   1.000000
     35.03094765     -0.01198412
      6.03261905     -0.05472052
      0.48474668      0.58055871
      0.18474896      0.47700799
p              4   1.000000
      5.64615238      0.05713170
      1.46396300      0.28574555
      0.51609226      0.55178731
      0.20546522      0.26323149
s              7   1.000000
      0.38350848     -0.19614159
      0.04707223      0.94768410
      0.02222627      0.24887624
     35.03094765      0.00550117
      6.03261905      0.02511882
      0.48474668     -0.26649870
      0.18474896     -0.21896495
p              7   1.000000
      1.83062075     -0.01160657
      0.10124670      0.57036485
      0.03901771      0.59566136
      5.64615238     -0.02519939
      1.46396300     -0.12603535
      0.51609226     -0.24337983
      0.20546522     -0.11610495
 
          14   0
s              4   1.000000
     34.95420350     -0.01198412
      6.01940308     -0.05472052
      0.48368472      0.58055871
      0.18434422      0.47700799
p              4   1.000000
      5.63378306      0.05713170
      1.46075582      0.28574555
      0.51496163      0.55178731
      0.20501510      0.26323149
s              7   1.000000
      0.38350848     -0.19621323
      0.04707223      0.94803023
      0.02222627      0.24896714
     34.95420350      0.00551270
      6.01940308      0.02517148
      0.48368472     -0.26705746
      0.18434422     -0.21942405
p              7   1.000000
      1.83062075     -0.01161056
      0.10124670      0.57056055
      0.03901771      0.59586574
      5.63378306     -0.02525243
      1.46075582     -0.12630062
      0.51496163     -0.24389209
      0.20501510     -0.11634932
 
          15   0
s              4   1.000000
     35.52412801     -0.01198412
      6.11754879     -0.05472053
      0.49157115      0.58055871
      0.18734993      0.47700799
p              4   1.000000
      5.72564128      0.05713170
      1.48457329      0.28574555
      0.52335802      0.55178731
      0.20835785      0.26323149
s              7   1.000000
      0.38350848     -0.19569104
      0.04707223      0.94550718
      0.02222627      0.24830454
     35.52412801      0.00542816
      6.11754879      0.02478545
      0.49157115     -0.26296187
      0.18734993     -0.21605897
p              7   1.000000
      1.83062075     -0.01158153
      0.10124670      0.56913411
      0.03901771      0.59437603
      5.72564128     -0.02486364
      1.48457329     -0.12435609
      0.52335802     -0.24013711
      0.20835785     -0.11455800
 
          16   0
s              4   1.000000
     35.34128995     -0.01198412
      6.08606257     -0.05472052
      0.48904110      0.58055871
      0.18638567      0.47700800
p              4   1.000000
      5.69617215      0.05713170
      1.47693238      0.28574555
      0.52066437      0.55178731
      0.20728546      0.26323149
s              7   1.000000
      0.38350848     -0.19585612
      0.04707223      0.94630480
      0.02222627      0.24851401
     35.34128995      0.00545500
      6.08606257      0.02490803
      0.48904110     -0.26426231
      0.18638567     -0.21712745
p              7   1.000000
      1.83062075     -0.01159071
      0.10124670      0.56958505
      0.03901771      0.59484698
      5.69617215     -0.02498710
      1.47693238     -0.12497355
      0.52066437     -0.24132946
      0.20728546     -0.11512681
 
          17   0
s              4   1.000000
     35.05332110     -0.01198412
      6.03647195     -0.05472052
      0.48505628      0.58055871
      0.18486695      0.47700799
p              4   1.000000
      5.64975845      0.05713170
      1.46489800      0.28574555
      0.51642188      0.55178731
      0.20559645      0.26323149
s              7   1.000000
      0.38350848     -0.19612079
      0.04707223      0.94758358
      0.02222627      0.24884982
     35.05332110      0.00549782
      6.03647195      0.02510350
      0.48505628     -0.26633623
      0.18486695     -0.21883146
p              7   1.000000
      1.83062075     -0.01160542
      0.10124670      0.57030801
      0.03901771      0.59560201
      5.64975845     -0.02518397
      1.46489800     -0.12595821
      0.51642188     -0.24323089
      0.20559645     -0.11603389
 
          18   0
s              4   1.000000
     35.34309472     -0.01198412
      6.08637336     -0.05472052
      0.48906607      0.58055871
      0.18639518      0.47700799
p              4   1.000000
      5.69646304      0.05713170
      1.47700780      0.28574555
      0.52069096      0.55178731
      0.20729604      0.26323149
s              7   1.000000
      0.38350848     -0.19585448
      0.04707223      0.94629688
      0.02222627      0.24851192
     35.34309472      0.00545474
      6.08637336      0.02490681
      0.48906607     -0.26424941
      0.18639518     -0.21711686
p              7   1.000000
      1.83062075     -0.01159061
      0.10124670      0.56958057
      0.03901771      0.59484229
      5.69646304     -0.02498587
      1.47700780     -0.12496743
      0.52069096     -0.24131764
      0.20729604     -0.11512117
 
          19   0
s              4   1.000000
     34.94936506     -0.01198412
      6.01856986     -0.05472052
      0.48361777      0.58055871
      0.18431870      0.47700800
p              4   1.000000
      5.63300322      0.05713170
      1.46055362      0.28574555
      0.51489035      0.55178731
      0.20498672      0.26323149
s              7   1.000000
      0.38350848     -0.19621776
      0.04707223      0.94805213
      0.02222627      0.24897289
     34.94936506      0.00551343
      6.01856986      0.02517481
      0.48361777     -0.26709277
      0.18431870     -0.21945306
p              7   1.000000
      1.83062075     -0.01161081
      0.10124670      0.57057291
      0.03901771      0.59587865
      5.63300322     -0.02525578
      1.46055362     -0.12631738
      0.51489035     -0.24392446
      0.20498672     -0.11636476
 
          20   0
s              4   1.000000
     34.92683265     -0.01198412
      6.01468959     -0.05472052
      0.48330597      0.58055871
      0.18419987      0.47700799
p              4   1.000000
      5.62937153      0.05713170
      1.45961198      0.28574555
      0.51455839      0.55178731
      0.20485456      0.26323149
s              7   1.000000
      0.38350848     -0.19623888
      0.04707223      0.94815416
      0.02222627      0.24899968
     34.92683265      0.00551683
      6.01468959      0.02519032
      0.48330597     -0.26725730
      0.18419987     -0.21958825
p              7   1.000000
      1.83062075     -0.01161198
      0.10124670      0.57063061
      0.03901771      0.59593893
      5.62937153     -0.02527140
      1.45961198     -0.12639550
      0.51455839     -0.24407530
      0.20485456     -0.11643672
 
          21   0
s              4   1.000000
     34.93123676     -0.01198412
      6.01544801     -0.05472053
      0.48336692      0.58055871
      0.18422310      0.47700799
p              4   1.000000
      5.63008137      0.05713170
      1.45979603      0.28574555
      0.51462327      0.55178731
      0.20488039      0.26323149
s              7   1.000000
      0.38350848     -0.19623475
      0.04707223      0.94813421
      0.02222627      0.24899444
     34.93123676      0.00551616
      6.01544801      0.02518729
      0.48336692     -0.26722513
      0.18422310     -0.21956181
p              7   1.000000
      1.83062075     -0.01161175
      0.10124670      0.57061932
      0.03901771      0.59592712
      5.63008137     -0.02526835
      1.45979603     -0.12638022
      0.51462327     -0.24404580
      0.20488039     -0.11642265
 
          22   0
s              4   1.000000
     34.95538411     -0.01198412
      6.01960639     -0.05472053
      0.48370106      0.58055871
      0.18435045      0.47700799
p              4   1.000000
      5.63397335      0.05713170
      1.46080516      0.28574555
      0.51497902      0.55178731
      0.20502202      0.26323149
s              7   1.000000
      0.38350848     -0.19621213
      0.04707223      0.94802489
      0.02222627      0.24896572
     34.95538411      0.00551253
      6.01960639      0.02517067
      0.48370106     -0.26704885
      0.18435045     -0.21941697
p              7   1.000000
      1.83062075     -0.01161050
      0.10124670      0.57055752
      0.03901771      0.59586259
      5.63397335     -0.02525161
      1.46080516     -0.12629653
      0.51497902     -0.24388420
      0.20502202     -0.11634556
 
          23   0
s              4   1.000000
     35.53191541     -0.01198412
      6.11888985     -0.05472052
      0.49167891      0.58055871
      0.18739100      0.47700799
p              4   1.000000
      5.72689643      0.05713170
      1.48489873      0.28574555
      0.52347275      0.55178731
      0.20840352      0.26323149
s              7   1.000000
      0.38350848     -0.19568406
      0.04707223      0.94547344
      0.02222627      0.24829569
     35.53191541      0.00542702
      6.11888985      0.02478026
      0.49167891     -0.26290676
      0.18739100     -0.21601369
p              7   1.000000
      1.83062075     -0.01158114
      0.10124670      0.56911505
      0.03901771      0.59435613
      5.72689643     -0.02485841
      1.48489873     -0.12432992
      0.52347275     -0.24008658
      0.20840352     -0.11453389
 
          24   0
s              4   1.000000
     37.47822312     -0.01198412
      6.45406014     -0.05472052
      0.51861127      0.58055871
      0.19765559      0.47700800
p              4   1.000000
      6.04059476      0.05713170
      1.56623602      0.28574555
      0.55214666      0.55178731
      0.21981910      0.26323149
s              7   1.000000
      0.38350848     -0.19405924
      0.04707223      0.93762292
      0.02222627      0.24623402
     37.47822312      0.00515659
      6.45406014      0.02354543
      0.51861127     -0.24980576
      0.19765559     -0.20524943
p              7   1.000000
      1.83062075     -0.01149084
      0.10124670      0.56467728
      0.03901771      0.58972153
      6.04059476     -0.02361432
      1.56623602     -0.11810756
      0.55214666     -0.22807093
      0.21981910     -0.10880179
 
          25   0
s              4   1.000000
     35.28116503     -0.01198412
      6.07570856     -0.05472052
      0.48820911      0.58055871
      0.18606858      0.47700799
p              4   1.000000
      5.68648145      0.05713170
      1.47441973      0.28574555
      0.51977858      0.55178731
      0.20693281      0.26323149
s              7   1.000000
      0.38350848     -0.19591091
      0.04707223      0.94656950
      0.02222627      0.24858353
     35.28116503      0.00546389
      6.07570856      0.02494859
      0.48820911     -0.26469270
      0.18606858     -0.21748108
p              7   1.000000
      1.83062075     -0.01159375
      0.10124670      0.56973469
      0.03901771      0.59500326
      5.68648145     -0.02502795
      1.47441973     -0.12517790
      0.51977858     -0.24172407
      0.20693281     -0.11531506
 
          26   0
s              4   1.000000
     35.03727154     -0.01198412
      6.03370808     -0.05472053
      0.48483419      0.58055871
      0.18478231      0.47700799
p              4   1.000000
      5.64717164      0.05713170
      1.46422728      0.28574555
      0.51618543      0.55178731
      0.20550231      0.26323149
s              7   1.000000
      0.38350848     -0.19613571
      0.04707223      0.94765568
      0.02222627      0.24886876
     35.03727154      0.00550022
      6.03370808      0.02511449
      0.48483419     -0.26645275
      0.18478231     -0.21892720
p              7   1.000000
      1.83062075     -0.01160625
      0.10124670      0.57034878
      0.03901771      0.59564457
      5.64717164     -0.02519503
      1.46422728     -0.12601354
      0.51618543     -0.24333771
      0.20550231     -0.11608486
 
          27   0
s              4   1.000000
     34.91203442     -0.01198412
      6.01214121     -0.05472053
      0.48310120      0.58055871
      0.18412182      0.47700799
p              4   1.000000
      5.62698641      0.05713170
      1.45899355      0.28574555
      0.51434037      0.55178731
      0.20476777      0.26323149
s              7   1.000000
      0.38350848     -0.19625277
      0.04707223      0.94822128
      0.02222627      0.24901730
     34.91203442      0.00551906
      6.01214121      0.02520052
      0.48310120     -0.26736547
      0.18412182     -0.21967712
p              7   1.000000
      1.83062075     -0.01161275
      0.10124670      0.57066856
      0.03901771      0.59597854
      5.62698641     -0.02528167
      1.45899355     -0.12644685
      0.51434037     -0.24417446
      0.20476777     -0.11648403
 
          28   0
s              4   1.000000
     34.92048701     -0.01198412
      6.01359682     -0.05472053
      0.48321816      0.58055871
      0.18416640      0.47700799
p              4   1.000000
      5.62834877      0.05713170
      1.45934679      0.28574555
      0.51446490      0.55178731
      0.20481734      0.26323149
s              7   1.000000
      0.38350848     -0.19624484
      0.04707223      0.94818294
      0.02222627      0.24900723
     34.92048701      0.00551779
      6.01359682      0.02519469
      0.48321816     -0.26730368
      0.18416640     -0.21962635
p              7   1.000000
      1.83062075     -0.01161231
      0.10124670      0.57064688
      0.03901771      0.59595588
      5.62834877     -0.02527580
      1.45934679     -0.12641751
      0.51446490     -0.24411781
      0.20481734     -0.11645700
 
          29   0
s              4   1.000000
     35.03647174     -0.01198412
      6.03357035     -0.05472052
      0.48482312      0.58055871
      0.18477809      0.47700800
p              4   1.000000
      5.64704274      0.05713170
      1.46419386      0.28574555
      0.51617364      0.55178731
      0.20549762      0.26323149
s              7   1.000000
      0.38350848     -0.19613646
      0.04707223      0.94765928
      0.02222627      0.24886971
     35.03647174      0.00550034
      6.03357035      0.02511504
      0.48482312     -0.26645856
      0.18477809     -0.21893197
p              7   1.000000
      1.83062075     -0.01160629
      0.10124670      0.57035081
      0.03901771      0.59564672
      5.64704274     -0.02519558
      1.46419386     -0.12601629
      0.51617364     -0.24334304
      0.20549762     -0.11608740
 
          30   0
s              4   1.000000
     35.25686805     -0.01198412
      6.07152442     -0.05472052
      0.48787289      0.58055871
      0.18594043      0.47700800
p              4   1.000000
      5.68256536      0.05713170
      1.47340434      0.28574555
      0.51942062      0.55178731
      0.20679030      0.26323149
s              7   1.000000
      0.38350848     -0.19593312
      0.04707223      0.94667681
      0.02222627      0.24861171
     35.25686805      0.00546749
      6.07152442      0.02496502
      0.48787289     -0.26486702
      0.18594043     -0.21762430
p              7   1.000000
      1.83062075     -0.01159499
      0.10124670      0.56979536
      0.03901771      0.59506662
      5.68256536     -0.02504450
      1.47340434     -0.12526067
      0.51942062     -0.24188389
      0.20679030     -0.11539130
 
          31   0
s              4   1.000000
     61.18890358     -0.01198412
     10.53723551     -0.05472052
      0.84671183      0.58055871
      0.32270284      0.47700799
p              4   1.000000
      7.21245697      0.05713170
      1.87008239      0.28574555
      0.65926191      0.55178731
      0.26246353      0.26323149
s              7   1.000000
      0.47894987     -0.18778673
      0.05878681      0.90731648
      0.02775758      0.23827508
     61.18890358      0.00397051
     10.53723551      0.01812971
      0.84671183     -0.19234760
      0.32270284     -0.15803973
p              7   1.000000
      2.28619608     -0.01156637
      0.12644335      0.56838935
      0.04872781      0.59359824
      7.21245697     -0.02465861
      1.87008239     -0.12333061
      0.65926191     -0.23815686
      0.26246353     -0.11361332
 
          32   0
s              4   1.000000
     35.23620307     -0.01198412
      6.06796573     -0.05472052
      0.48758694      0.58055871
      0.18583145      0.47700799
p              4   1.000000
      5.67923466      0.05713170
      1.47254074      0.28574555
      0.51911618      0.55178731
      0.20666910      0.26323149
s              7   1.000000
      0.38350848     -0.19595204
      0.04707223      0.94676824
      0.02222627      0.24863572
     35.23620307      0.00547055
      6.06796573      0.02497901
      0.48758694     -0.26501545
      0.18583145     -0.21774626
p              7   1.000000
      1.83062075     -0.01159604
      0.10124670      0.56984705
      0.03901771      0.59512059
      5.67923466     -0.02505859
      1.47254074     -0.12533114
      0.51911618     -0.24201999
      0.20666910     -0.11545623
 
          33   0
s              4   1.000000
     35.00345591     -0.01198412
      6.02788475     -0.05472052
      0.48436626      0.58055871
      0.18460397      0.47700799
p              4   1.000000
      5.64172137      0.05713170
      1.46281411      0.28574555
      0.51568724      0.55178731
      0.20530398      0.26323149
s              7   1.000000
      0.38350848     -0.19616721
      0.04707223      0.94780786
      0.02222627      0.24890874
     35.00345591      0.00550530
      6.02788475      0.02513766
      0.48436626     -0.26669860
      0.18460397     -0.21912920
p              7   1.000000
      1.83062075     -0.01160800
      0.10124670      0.57043482
      0.03901771      0.59573442
      5.64172137     -0.02521837
      1.46281411     -0.12613025
      0.51568724     -0.24356310
      0.20530398     -0.11619238
 
          34   0
s              4   1.000000
     34.92172657     -0.01198412
      6.01381028     -0.05472052
      0.48323532      0.58055871
      0.18417294      0.47700799
p              4   1.000000
      5.62854855      0.05713170
      1.45939859      0.28574555
      0.51448317      0.55178731
      0.20482461      0.26323149
s              7   1.000000
      0.38350848     -0.19624367
      0.04707223      0.94817732
      0.02222627      0.24900575
     34.92172657      0.00551760
      6.01381028      0.02519384
      0.48323532     -0.26729462
      0.18417294     -0.21961890
p              7   1.000000
      1.83062075     -0.01161225
      0.10124670      0.57064369
      0.03901771      0.59595256
      5.62854855     -0.02527494
      1.45939859     -0.12641321
      0.51448317     -0.24410951
      0.20482461     -0.11645304
 
          35   0
s              4   1.000000
     34.92033157     -0.01198412
      6.01357005     -0.05472052
      0.48321601      0.58055871
      0.18416558      0.47700799
p              4   1.000000
      5.62832371      0.05713170
      1.45934029      0.28574555
      0.51446261      0.55178731
      0.20481643      0.26323149
s              7   1.000000
      0.38350848     -0.19624498
      0.04707223      0.94818364
      0.02222627      0.24900743
     34.92033157      0.00551781
      6.01357005      0.02519480
      0.48321601     -0.26730481
      0.18416558     -0.21962728
p              7   1.000000
      1.83062075     -0.01161232
      0.10124670      0.57064727
      0.03901771      0.59595633
      5.62832371     -0.02527591
      1.45934029     -0.12641805
      0.51446261     -0.24411885
      0.20481643     -0.11645750
 
          36   0
s              4   1.000000
     34.92170779     -0.01198412
      6.01380705     -0.05472053
      0.48323506      0.58055871
      0.18417284      0.47700799
p              4   1.000000
      5.62854553      0.05713170
      1.45939781      0.28574555
      0.51448289      0.55178731
      0.20482450      0.26323149
s              7   1.000000
      0.38350848     -0.19624369
      0.04707223      0.94817740
      0.02222627      0.24900577
     34.92170779      0.00551760
      6.01380705      0.02519385
      0.48323506     -0.26729475
      0.18417284     -0.21961902
p              7   1.000000
      1.83062075     -0.01161225
      0.10124670      0.57064374
      0.03901771      0.59595264
      5.62854553     -0.02527495
      1.45939781     -0.12641328
      0.51448289     -0.24410963
      0.20482450     -0.11645310
 
          37   0
s              4   1.000000
     35.00402604     -0.01198412
      6.02798293     -0.05472052
      0.48437415      0.58055871
      0.18460698      0.47700799
p              4   1.000000
      5.64181326      0.05713170
      1.46283793      0.28574555
      0.51569564      0.55178731
      0.20530732      0.26323149
s              7   1.000000
      0.38350848     -0.19616668
      0.04707223      0.94780530
      0.02222627      0.24890805
     35.00402604      0.00550521
      6.02798293      0.02513727
      0.48437415     -0.26669445
      0.18460698     -0.21912579
p              7   1.000000
      1.83062075     -0.01160797
      0.10124670      0.57043337
      0.03901771      0.59573293
      5.64181326     -0.02521797
      1.46283793     -0.12612828
      0.51569564     -0.24355929
      0.20530732     -0.11619056
 
          38   0
s              4   1.000000
     35.25671658     -0.01198412
      6.07149833     -0.05472052
      0.48787080      0.58055871
      0.18593964      0.47700800
p              4   1.000000
      5.68254095      0.05713170
      1.47339801      0.28574555
      0.51941839      0.55178731
      0.20678941      0.26323149
s              7   1.000000
      0.38350848     -0.19593326
      0.04707223      0.94667748
      0.02222627      0.24861188
     35.25671658      0.00546751
      6.07149833      0.02496513
      0.48787080     -0.26486811
      0.18593964     -0.21762520
p              7   1.000000
      1.83062075     -0.01159499
      0.10124670      0.56979574
      0.03901771      0.59506702
      5.68254095     -0.02504461
      1.47339801     -0.12526118
      0.51941839     -0.24188489
      0.20678941     -0.11539178
 
          39   0
s              4   1.000000
     35.03634296     -0.01198412
      6.03354817     -0.05472052
      0.48482134      0.58055871
      0.18477741      0.47700799
p              4   1.000000
      5.64702198      0.05713170
      1.46418848      0.28574555
      0.51617175      0.55178731
      0.20549687      0.26323149
s              7   1.000000
      0.38350848     -0.19613658
      0.04707223      0.94765985
      0.02222627      0.24886986
     35.03634296      0.00550036
      6.03354817      0.02511512
      0.48482134     -0.26645950
      0.18477741     -0.21893274
p              7   1.000000
      1.83062075     -0.01160630
      0.10124670      0.57035114
      0.03901771      0.59564704
      5.64702198     -0.02519567
      1.46418848     -0.12601674
      0.51617175     -0.24334390
      0.20549687     -0.11608780
 
          40   0
s              4   1.000000
     34.92066905     -0.01198412
      6.01362817     -0.05472052
      0.48322068      0.58055871
      0.18416736      0.47700800
p              4   1.000000
      5.62837811      0.05713170
      1.45935440      0.28574555
      0.51446759      0.55178731
      0.20481841      0.26323149
s              7   1.000000
      0.38350848     -0.19624467
      0.04707223      0.94818211
      0.02222627      0.24900702
     34.92066905      0.00551776
      6.01362817      0.02519457
      0.48322068     -0.26730234
      0.18416736     -0.21962526
p              7   1.000000
      1.83062075     -0.01161230
      0.10124670      0.57064641
      0.03901771      0.59595539
      5.62837811     -0.02527567
      1.45935440     -0.12641688
      0.51446759     -0.24411659
      0.20481841     -0.11645642
 
          41   0
s              4   1.000000
     34.91198297     -0.01198412
      6.01213235     -0.05472052
      0.48310049      0.58055871
      0.18412155      0.47700799
p              4   1.000000
      5.62697812      0.05713170
      1.45899140      0.28574555
      0.51433962      0.55178731
      0.20476747      0.26323149
s              7   1.000000
      0.38350848     -0.19625282
      0.04707223      0.94822151
      0.02222627      0.24901737
     34.91198297      0.00551907
      6.01213235      0.02520055
      0.48310049     -0.26736585
      0.18412155     -0.21967743
p              7   1.000000
      1.83062075     -0.01161276
      0.10124670      0.57066869
      0.03901771      0.59597866
      5.62697812     -0.02528170
      1.45899140     -0.12644703
      0.51433962     -0.24417481
      0.20476747     -0.11648419
 
          42   0
s              4   1.000000
     35.03793293     -0.01198412
      6.03382198     -0.05472052
      0.48484334      0.58055871
      0.18478580      0.47700799
p              4   1.000000
      5.64727824      0.05713170
      1.46425492      0.28574555
      0.51619517      0.55178731
      0.20550619      0.26323149
s              7   1.000000
      0.38350848     -0.19613510
      0.04707223      0.94765271
      0.02222627      0.24886798
     35.03793293      0.00550012
      6.03382198      0.02511403
      0.48484334     -0.26644795
      0.18478580     -0.21892325
p              7   1.000000
      1.83062075     -0.01160621
      0.10124670      0.57034710
      0.03901771      0.59564283
      5.64727824     -0.02519457
      1.46425492     -0.12601125
      0.51619517     -0.24333331
      0.20550619     -0.11608276
 
          43   0
s              4   1.000000
     35.28343253     -0.01198412
      6.07609904     -0.05472053
      0.48824048      0.58055871
      0.18608053      0.47700799
p              4   1.000000
      5.68684692      0.05713170
      1.47451449      0.28574555
      0.51981199      0.55178731
      0.20694611      0.26323149
s              7   1.000000
      0.38350848     -0.19590884
      0.04707223      0.94655949
      0.02222627      0.24858090
     35.28343253      0.00546355
      6.07609904      0.02494706
      0.48824048     -0.26467645
      0.18608053     -0.21746772
p              7   1.000000
      1.83062075     -0.01159364
      0.10124670      0.56972904
      0.03901771      0.59499736
      5.68684692     -0.02502641
      1.47451449     -0.12517018
      0.51981199     -0.24170917
      0.20694611     -0.11530795
 
          44   0
s              4   1.000000
     35.02059967     -0.01198412
      6.03083705     -0.05472052
      0.48460349      0.58055871
      0.18469438      0.47700799
p              4   1.000000
      5.64448454      0.05713170
      1.46353055      0.28574555
      0.51593981      0.55178731
      0.20540453      0.26323149
s              7   1.000000
      0.38350848     -0.19615123
      0.04707223      0.94773065
      0.02222627      0.24888846
     35.02059967      0.00550272
      6.03083705      0.02512591
      0.48460349     -0.26657390
      0.18469438     -0.21902674
p              7   1.000000
      1.83062075     -0.01160711
      0.10124670      0.57039118
      0.03901771      0.59568887
      5.64448454     -0.02520653
      1.46353055     -0.12607105
      0.51593981     -0.24344878
      0.20540453     -0.11613784
 
          45   0
s              4   1.000000
     34.92053041     -0.01198412
      6.01360429     -0.05472052
      0.48321876      0.58055871
      0.18416663      0.47700799
p              4   1.000000
      5.62835576      0.05713170
      1.45934860      0.28574555
      0.51446554      0.55178731
      0.20481760      0.26323149
s              7   1.000000
      0.38350848     -0.19624480
      0.04707223      0.94818273
      0.02222627      0.24900719
     34.92053041      0.00551778
      6.01360429      0.02519466
      0.48321876     -0.26730336
      0.18416663     -0.21962609
p              7   1.000000
      1.83062075     -0.01161231
      0.10124670      0.57064677
      0.03901771      0.59595580
      5.62835576     -0.02527577
      1.45934860     -0.12641736
      0.51446554     -0.24411752
      0.20481760     -0.11645686
 
          46   0
s              4   1.000000
      8.30876094      0.05675242
      1.52040088      0.26014135
      0.42238401      0.53284611
      0.14018546      0.29162544
s              7   1.000000
      0.92936822     -0.06732867
      0.05643440      0.66945778
      0.02166600      0.51461648
      8.30876094     -0.02902321
      1.52040088     -0.13303639
      0.42238401     -0.27249772
      0.14018546     -0.14913737
p              4   1.000000
      0.64737396      0.05713170
      0.16785440      0.28574555
      0.05917387      0.55178731
      0.02355814      0.26323150
 
          47   0
s              4   1.000000
      8.30890252      0.05675242
      1.52042679      0.26014135
      0.42239121      0.53284611
      0.14018785      0.29162544
s              7   1.000000
      0.92936822     -0.06732848
      0.05643440      0.66945596
      0.02166600      0.51461509
      8.30890252     -0.02902283
      1.52042679     -0.13303466
      0.42239121     -0.27249416
      0.14018785     -0.14913542
p              4   1.000000
      0.64737396      0.05713170
      0.16785440      0.28574555
      0.05917387      0.55178731
      0.02355814      0.26323150
 
          48   0
s              4   1.000000
      8.30966861      0.05675242
      1.52056698      0.26014135
      0.42243016      0.53284611
      0.14020077      0.29162544
s              7   1.000000
      0.92936822     -0.06732750
      0.05643440      0.66944617
      0.02166600      0.51460754
      8.30966861     -0.02902078
      1.52056698     -0.13302526
      0.42243016     -0.27247492
      0.14020077     -0.14912489
p              4   1.000000
      0.64737396      0.05713170
      0.16785440      0.28574555
      0.05917387      0.55178731
      0.02355814      0.26323150
 
          49   0
s              4   1.000000
      8.30972884      0.05675242
      1.52057800      0.26014135
      0.42243322      0.53284611
      0.14020179      0.29162544
s              7   1.000000
      0.92936822     -0.06732742
      0.05643440      0.66944540
      0.02166600      0.51460697
      8.30972884     -0.02902062
      1.52057800     -0.13302452
      0.42243322     -0.27247341
      0.14020179     -0.14912406
p              4   1.000000
      0.64737396      0.05713170
      0.16785440      0.28574555
      0.05917387      0.55178731
      0.02355814      0.26323150
 
          50   0
s              4   1.000000
      8.30891760      0.05675242
      1.52042955      0.26014135
      0.42239198      0.53284611
      0.14018810      0.29162544
s              7   1.000000
      0.92936822     -0.06732846
      0.05643440      0.66945577
      0.02166600      0.51461494
      8.30891760     -0.02902279
      1.52042955     -0.13303447
      0.42239198     -0.27249378
      0.14018810     -0.14913522
p              4   1.000000
      0.64737396      0.05713170
      0.16785440      0.28574555
      0.05917387      0.55178731
      0.02355814      0.26323150
 
          51   0
s              4   1.000000
      8.30876234      0.05675242
      1.52040114      0.26014135
      0.42238409      0.53284611
      0.14018548      0.29162544
s              7   1.000000
      0.92936822     -0.06732866
      0.05643440      0.66945776
      0.02166600      0.51461646
      8.30876234     -0.02902321
      1.52040114     -0.13303638
      0.42238409     -0.27249768
      0.14018548     -0.14913735
p              4   1.000000
      0.64737396      0.05713170
      0.16785440      0.28574555
      0.05917387      0.55178731
      0.02355814      0.26323150
 
          52   0
s              4   1.000000
      8.30890501      0.05675242
      1.52042725      0.26014135
      0.42239134      0.53284611
      0.14018789      0.29162544
s              7   1.000000
      0.92936822     -0.06732848
      0.05643440      0.66945594
      0.02166600      0.51461507
      8.30890501     -0.02902283
      1.52042725     -0.13303463
      0.42239134     -0.27249410
      0.14018789     -0.14913539
p              4   1.000000
      0.64737396      0.05713170
      0.16785440      0.28574555
      0.05917387      0.55178731
      0.02355814      0.26323150
 
          53   0
s              4   1.000000
      8.30969630      0.05675242
      1.52057204      0.26014135
      0.42243156      0.53284611
      0.14020124      0.29162544
s              7   1.000000
      0.92936822     -0.06732746
      0.05643440      0.66944581
      0.02166600      0.51460727
      8.30969630     -0.02902071
      1.52057204     -0.13302492
      0.42243156     -0.27247422
      0.14020124     -0.14912451
p              4   1.000000
      0.64737396      0.05713170
      0.16785440      0.28574555
      0.05917387      0.55178731
      0.02355814      0.26323150
 
          54   0
s              4   1.000000
      8.30978557      0.05675242
      1.52058838      0.26014135
      0.42243610      0.53284611
      0.14020274      0.29162544
s              7   1.000000
      0.92936822     -0.06732735
      0.05643440      0.66944467
      0.02166600      0.51460640
      8.30978557     -0.02902047
      1.52058838     -0.13302383
      0.42243610     -0.27247198
      0.14020274     -0.14912328
p              4   1.000000
      0.64737396      0.05713170
      0.16785440      0.28574555
      0.05917387      0.55178731
      0.02355814      0.26323150
 
          55   0
s              4   1.000000
      8.30927651      0.05675242
      1.52049523      0.26014135
      0.42241022      0.53284611
      0.14019416      0.29162544
s              7   1.000000
      0.92936822     -0.06732800
      0.05643440      0.66945119
      0.02166600      0.51461141
      8.30927651     -0.02902183
      1.52049523     -0.13303007
      0.42241022     -0.27248477
      0.14019416     -0.14913028
p              4   1.000000
      0.64737396      0.05713170
      0.16785440      0.28574555
      0.05917387      0.55178731
      0.02355814      0.26323150
 
          56   0
s              4   1.000000
      8.30981851      0.05675242
      1.52059441      0.26014135
      0.42243778      0.53284611
      0.14020330      0.29162544
s              7   1.000000
      0.92936822     -0.06732730
      0.05643440      0.66944426
      0.02166600      0.51460607
      8.30981851     -0.02902038
      1.52059441     -0.13302343
      0.42243778     -0.27247115
      0.14020330     -0.14912283
p              4   1.000000
      0.64737396      0.05713170
      0.16785440      0.28574555
      0.05917387      0.55178731
      0.02355814      0.26323150
 
          57   0
s              4   1.000000
      8.30892762      0.05675242
      1.52043138      0.26014135
      0.42239249      0.53284611
      0.14018827      0.29162544
s              7   1.000000
      0.92936822     -0.06732845
      0.05643440      0.66945565
      0.02166600      0.51461484
      8.30892762     -0.02902276
      1.52043138     -0.13303435
      0.42239249     -0.27249353
      0.14018827     -0.14913508
p              4   1.000000
      0.64737396      0.05713170
      0.16785440      0.28574555
      0.05917387      0.55178731
      0.02355814      0.26323150
 
          58   0
s              4   1.000000
      8.30888547      0.05675242
      1.52042367      0.26014135
      0.42239035      0.53284611
      0.14018756      0.29162544
s              7   1.000000
      0.92936822     -0.06732851
      0.05643440      0.66945618
      0.02166600      0.51461524
      8.30888547     -0.02902288
      1.52042367     -0.13303487
      0.42239035     -0.27249459
      0.14018756     -0.14913566
p              4   1.000000
      0.64737396      0.05713170
      0.16785440      0.28574555
      0.05917387      0.55178731
      0.02355814      0.26323150
 
          59   0
s              4   1.000000
      8.30886861      0.05675242
      1.52042059      0.26014135
      0.42238949      0.53284611
      0.14018727      0.29162544
s              7   1.000000
      0.92936822     -0.06732853
      0.05643440      0.66945640
      0.02166600      0.51461542
      8.30886861     -0.02902292
      1.52042059     -0.13303507
      0.42238949     -0.27249501
      0.14018727     -0.14913589
p              4   1.000000
      0.64737396      0.05713170
      0.16785440      0.28574555
      0.05917387      0.55178731
      0.02355814      0.26323150
 
          60   0
s              4   1.000000
      8.30917368      0.05675242
      1.52047641      0.26014135
      0.42240500      0.53284611
      0.14019242      0.29162544
s              7   1.000000
      0.92936822     -0.06732813
      0.05643440      0.66945250
      0.02166600      0.51461241
      8.30917368     -0.02902211
      1.52047641     -0.13303133
      0.42240500     -0.27248735
      0.14019242     -0.14913170
p              4   1.000000
      0.64737396      0.05713170
      0.16785440      0.28574555
      0.05917387      0.55178731
      0.02355814      0.26323150
 
          61   0
s              4   1.000000
      8.31021734      0.05675242
      1.52066739      0.26014135
      0.42245805      0.53284611
      0.14021003      0.29162544
s              7   1.000000
      0.92936822     -0.06732679
      0.05643440      0.66943916
      0.02166600      0.51460215
      8.31021734     -0.02901931
      1.52066739     -0.13301854
      0.42245805     -0.27246114
      0.14021003     -0.14911735
p              4   1.000000
      0.64737396      0.05713170
      0.16785440      0.28574555
      0.05917387      0.55178731
      0.02355814      0.26323150
 
          62   0
s              4   1.000000
      8.30883245      0.05675242
      1.52041397      0.26014135
      0.42238765      0.53284611
      0.14018666      0.29162544
s              7   1.000000
      0.92936822     -0.06732857
      0.05643440      0.66945686
      0.02166600      0.51461576
      8.30883245     -0.02902302
      1.52041397     -0.13303552
      0.42238765     -0.27249592
      0.14018666     -0.14913639
p              4   1.000000
      0.64737396      0.05713170
      0.16785440      0.28574555
      0.05917387      0.55178731
      0.02355814      0.26323150
 
          63   0
s              4   1.000000
      8.30894551      0.05675242
      1.52043466      0.26014135
      0.42239340      0.53284611
      0.14018857      0.29162544
s              7   1.000000
      0.92936822     -0.06732843
      0.05643440      0.66945542
      0.02166600      0.51461467
      8.30894551     -0.02902272
      1.52043466     -0.13303413
      0.42239340     -0.27249308
      0.14018857     -0.14913483
p              4   1.000000
      0.64737396      0.05713170
      0.16785440      0.28574555
      0.05917387      0.55178731
      0.02355814      0.26323150
 
          64   0
s              4   1.000000
      8.31046749      0.05675242
      1.52071316      0.26014135
      0.42247077      0.53284611
      0.14021425      0.29162544
s              7   1.000000
      0.92936822     -0.06732647
      0.05643440      0.66943596
      0.02166600      0.51459969
      8.31046749     -0.02901865
      1.52071316     -0.13301547
      0.42247077     -0.27245486
      0.14021425     -0.14911391
p              4   1.000000
      0.64737396      0.05713170
      0.16785440      0.28574555
      0.05917387      0.55178731
      0.02355814      0.26323150
 
          65   0
s              4   1.000000
      8.30922934      0.05675242
      1.52048660      0.26014135
      0.42240783      0.53284611
      0.14019336      0.29162544
s              7   1.000000
      0.92936822     -0.06732806
      0.05643440      0.66945178
      0.02166600      0.51461186
      8.30922934     -0.02902196
      1.52048660     -0.13303065
      0.42240783     -0.27248595
      0.14019336     -0.14913093
p              4   1.000000
      0.64737396      0.05713170
      0.16785440      0.28574555
      0.05917387      0.55178731
      0.02355814      0.26323150
 
          66   0
s              4   1.000000
      8.30887589      0.05675242
      1.52042192      0.26014135
      0.42238986      0.53284611
      0.14018740      0.29162544
s              7   1.000000
      0.92936822     -0.06732852
      0.05643440      0.66945630
      0.02166600      0.51461534
      8.30887589     -0.02902290
      1.52042192     -0.13303498
      0.42238986     -0.27249483
      0.14018740     -0.14913579
p              4   1.000000
      0.64737396      0.05713170
      0.16785440      0.28574555
      0.05917387      0.55178731
      0.02355814      0.26323150
 
          67   0
s              4   1.000000
      8.30883942      0.05675242
      1.52041525      0.26014135
      0.42238800      0.53284611
      0.14018678      0.29162544
s              7   1.000000
      0.92936822     -0.06732856
      0.05643440      0.66945678
      0.02166600      0.51461571
      8.30883942     -0.02902300
      1.52041525     -0.13303543
      0.42238800     -0.27249575
      0.14018678     -0.14913629
p              4   1.000000
      0.64737396      0.05713170
      0.16785440      0.28574555
      0.05917387      0.55178731
      0.02355814      0.26323150
 
          68   0
s              4   1.000000
      8.30887374      0.05675242
      1.52042152      0.26014135
      0.42238975      0.53284611
      0.14018736      0.29162544
s              7   1.000000
      0.92936822     -0.06732852
      0.05643440      0.66945634
      0.02166600      0.51461537
      8.30887374     -0.02902291
      1.52042152     -0.13303501
      0.42238975     -0.27249488
      0.14018736     -0.14913582
p              4   1.000000
      0.64737396      0.05713170
      0.16785440      0.28574555
      0.05917387      0.55178731
      0.02355814      0.26323150
 
          69   0
s              4   1.000000
      8.30923041      0.05675242
      1.52048679      0.26014135
      0.42240788      0.53284611
      0.14019338      0.29162544
s              7   1.000000
      0.92936822     -0.06732806
      0.05643440      0.66945177
      0.02166600      0.51461186
      8.30923041     -0.02902196
      1.52048679     -0.13303064
      0.42240788     -0.27248593
      0.14019338     -0.14913091
p              4   1.000000
      0.64737396      0.05713170
      0.16785440      0.28574555
      0.05917387      0.55178731
      0.02355814      0.26323150
 
          70   0
s              4   1.000000
      8.31045974      0.05675242
      1.52071174      0.26014135
      0.42247037      0.53284611
      0.14021412      0.29162544
s              7   1.000000
      0.92936822     -0.06732648
      0.05643440      0.66943605
      0.02166600      0.51459976
      8.31045974     -0.02901867
      1.52071174     -0.13301556
      0.42247037     -0.27245505
      0.14021412     -0.14911402
p              4   1.000000
      0.64737396      0.05713170
      0.16785440      0.28574555
      0.05917387      0.55178731
      0.02355814      0.26323150
 
          71   0
s              4   1.000000
      8.30894647      0.05675242
      1.52043483      0.26014135
      0.42239345      0.53284611
      0.14018859      0.29162544
s              7   1.000000
      0.92936822     -0.06732843
      0.05643440      0.66945541
      0.02166600      0.51461464
      8.30894647     -0.02902271
      1.52043483     -0.13303412
      0.42239345     -0.27249306
      0.14018859     -0.14913482
p              4   1.000000
      0.64737396      0.05713170
      0.16785440      0.28574555
      0.05917387      0.55178731
      0.02355814      0.26323150
 
          72   0
s              4   1.000000
      8.30883436      0.05675242
      1.52041432      0.26014135
      0.42238775      0.53284611
      0.14018670      0.29162544
s              7   1.000000
      0.92936822     -0.06732857
      0.05643440      0.66945684
      0.02166600      0.51461576
      8.30883436     -0.02902301
      1.52041432     -0.13303549
      0.42238775     -0.27249587
      0.14018670     -0.14913636
p              4   1.000000
      0.64737396      0.05713170
      0.16785440      0.28574555
      0.05917387      0.55178731
      0.02355814      0.26323150
 
          73   0
s              4   1.000000
      8.31025210      0.05675242
      1.52067375      0.26014135
      0.42245982      0.53284611
      0.14021062      0.29162544
s              7   1.000000
      0.92936822     -0.06732675
      0.05643440      0.66943871
      0.02166600      0.51460180
      8.31025210     -0.02901922
      1.52067375     -0.13301811
      0.42245982     -0.27246027
      0.14021062     -0.14911687
p              4   1.000000
      0.64737396      0.05713170
      0.16785440      0.28574555
      0.05917387      0.55178731
      0.02355814      0.26323150
 
          74   0
s              4   1.000000
      8.30970562      0.05675242
      1.52057375      0.26014135
      0.42243204      0.53284611
      0.14020140      0.29162544
s              7   1.000000
      0.92936822     -0.06732745
      0.05643440      0.66944570
      0.02166600      0.51460719
      8.30970562     -0.02902068
      1.52057375     -0.13302481
      0.42243204     -0.27247399
      0.14020140     -0.14912438
p              4   1.000000
      0.64737396      0.05713170
      0.16785440      0.28574555
      0.05917387      0.55178731
      0.02355814      0.26323150
 
          75   0
s              4   1.000000
      8.30891124      0.05675242
      1.52042839      0.26014135
      0.42239165      0.53284611
      0.14018799      0.29162544
s              7   1.000000
      0.92936822     -0.06732847
      0.05643440      0.66945586
      0.02166600      0.51461499
      8.30891124     -0.02902281
      1.52042839     -0.13303455
      0.42239165     -0.27249394
      0.14018799     -0.14913530
p              4   1.000000
      0.64737396      0.05713170
      0.16785440      0.28574555
      0.05917387      0.55178731
      0.02355814      0.26323150
 
 [MO]
 Sym= Hole
 Ene=  -1.014362    
 Spin= Alpha
 Occup= 0
           1  3.5805683E-04
           2  1.6393615E-03
           3  8.2644896E-04
           4 -2.1400317E-03
           5 -8.7642467E-05
           6 -2.8333216E-04
           7  2.2469361E-05
           8  1.4687251E-04
           9 -2.4675316E-04
          10  5.4085231E-04
          11  2.3715367E-04
          12 -6.0590979E-04
          13 -1.4007732E-04
          14 -1.5935917E-04
          15  2.1335836E-05
          16  1.1965871E-04
          17  5.2681420E-04
          18 -2.0139127E-03
          19 -5.1851443E-04
          20  1.7957061E-03
          21 -3.6413144E-04
          22  1.5778119E-04
          23 -7.9017242E-05
          24 -3.6198904E-05
          25 -1.2542354E-04
          26 -9.0168131E-04
          27 -4.4192912E-04
          28  1.0293731E-03
          29 -4.2574553E-04
          30  3.1647034E-04
          31  3.9426473E-04
          32 -1.9051137E-04
          33  6.4343243E-04
          34  1.0509863E-03
          35  1.0565727E-03
          36 -4.4890777E-03
          37 -4.7764211E-04
          38  5.0126051E-04
          39  3.2847569E-05
          40  5.3342129E-04
          41  1.1407489E-04
          42 -1.1209490E-04
          43  3.5951201E-05
          44  3.8634628E-04
          45 -3.2890085E-04
          46  2.5295062E-04
          47 -5.7044160E-04
          48 -4.0719492E-04
          49  3.1677322E-04
          50  8.5717847E-04
          51 -1.1912567E-03
          52  6.0382654E-04
          53 -4.9453642E-04
          54  9.6353638E-04
          55  1.4681171E-04
          56 -1.8203008E-04
          57  1.3117463E-04
          58 -2.1628107E-04
          59  4.5166470E-04
          60 -2.8003904E-04
          61 -1.1144489E-04
          62  2.3330157E-04
          63  1.7084186E-06
          64  4.7592712E-06
          65 -1.6389407E-04
          66 -4.2882605E-04
          67  3.4482920E-04
          68 -1.0804349E-03
          69 -6.9333037E-05
          70 -3.9618069E-05
          71 -1.0858209E-04
          72 -3.9116640E-05
          73  2.4308632E-04
          74  3.2296730E-04
          75 -1.1993073E-05
          76  2.1759469E-04
          77 -5.1432708E-05
          78 -9.0387650E-05
          79  2.8847537E-05
          80 -9.2217277E-05
          81 -2.9280086E-04
          82  6.7491975E-04
          83 -6.9247332E-04
          84  7.2675850E-04
          85 -7.5399759E-05
          86 -3.3578186E-04
          87  1.1963267E-05
          88 -2.5678502E-04
          89  2.5281101E-03
          90 -2.2272111E-03
          91  1.5328738E-03
          92  1.7646877E-03
          93 -7.5838820E-04
          94 -1.9739678E-03
          95  3.8719919E-04
          96 -2.5353205E-04
          97  8.2679903E-03
          98 -1.1375779E-02
          99  3.3636026E-03
         100  1.3403363E-03
         101 -3.4598229E-03
         102  2.3998180E-03
         103  2.2678566E-03
         104 -1.5192877E-03
         105 -5.5800597E-03
         106  4.7471151E-03
         107 -1.5882051E-02
         108  7.9872804E-03
         109 -2.3259558E-03
         110  1.0719678E-03
         111  8.1507256E-03
         112 -4.6726833E-03
         113  4.9870837E-02
         114 -9.8333173E-02
         115  1.5573618E-02
         116 -1.2077172E-02
         117 -3.0640323E-02
         118  1.5264221E-02
         119 -1.5823873E-03
         120  8.4957667E-04
         121 -2.9498518E-03
         122  1.1419466E-02
         123  2.0865794E-02
         124 -1.3472350E-02
         125 -2.2131468E-03
         126 -1.2396170E-04
         127 -6.8977140E-03
         128  3.9939145E-03
         129  7.1427729E-03
         130 -1.2058883E-02
         131  4.6132263E-03
         132  1.0762230E-04
         133 -7.1233098E-04
         134 -2.5821768E-03
         135 -1.0817755E-03
         136  7.1721326E-04
         137  4.4445996E-03
         138 -2.9389644E-02
         139  1.7545728E-03
         140 -3.2771530E-04
         141  1.6960693E-03
         142  7.3374645E-03
         143 -3.1401459E-03
         144  1.7248516E-03
         145 -8.2254317E-03
         146  3.4552130E-03
         147  1.2304263E-02
         148 -5.8901720E-03
         149  1.5296912E-03
         150  2.4882839E-03
         151  1.4590049E-03
         152 -8.6174539E-04
         153 -2.7438544E-03
         154 -3.1799218E-04
         155  8.2298584E-04
         156 -6.5406645E-04
         157  1.1609178E-03
         158  9.0868911E-04
         159  1.1808700E-03
         160 -6.9871848E-04
         161 -8.5054478E-03
         162  5.8467393E-03
         163  1.0002335E-02
         164 -6.9142273E-03
         165  4.0233494E-03
         166 -3.6444236E-03
         167 -7.9283188E-04
         168  5.0302886E-04
         169  5.5981516E-03
         170  1.1462274E-02
         171 -1.2856068E-02
         172  6.6983602E-03
         173  2.4528925E-03
         174 -8.8469656E-03
         175  3.7271846E-03
         176 -1.9504596E-03
         177 -5.3230636E-02
         178  3.6934063E-02
         179  8.7679796E-02
         180 -4.8372708E-02
         181  3.2540746E-02
         182 -7.1336282E-03
         183 -1.3223844E-02
         184  7.5071426E-03
         185 -6.2602997E-04
         186  2.2410374E-02
         187 -3.9231610E-02
         188  2.2141771E-02
         189 -3.6241251E-04
         190 -2.2894659E-03
         191  5.5098883E-03
         192 -2.9538078E-03
         193  1.1432349E-03
         194 -0.1387099    
         195  0.2436991    
         196 -0.1405041    
         197 -1.5054489E-03
         198  1.1638204E-02
         199 -2.0613357E-02
         200  1.0793987E-02
         201 -3.7811670E-04
         202  7.3524192E-03
         203 -1.2866390E-02
         204  7.5020306E-03
         205  1.4585821E-04
         206 -2.6440232E-03
         207  4.6939282E-03
         208 -2.4910551E-03
         209  4.2376344E-04
         210  0.1333551    
         211 -0.2396182    
         212  0.1380266    
         213 -1.1330906E-04
         214 -7.9068840E-03
         215  1.4709792E-02
         216 -8.2760714E-03
         217  5.5439241E-04
         218  2.9137010E-02
         219 -5.2867938E-02
         220  3.1580348E-02
         221 -2.8100609E-05
         222 -4.0422678E-03
         223  7.7421055E-03
         224 -4.2768158E-03
         225 -1.7909219E-03
         226 -0.1256980    
         227  0.2221026    
         228 -0.1308044    
         229  8.3334115E-04
         230  7.1496502E-03
         231 -1.1999663E-02
         232  7.4375030E-03
         233  1.2601827E-03
         234 -6.5569408E-02
         235  0.1196432    
         236 -6.5845907E-02
         237 -1.2830941E-03
         238  1.0497362E-02
         239 -1.9379040E-02
         240  9.9695828E-03
         241 -3.8462987E-03
         242  0.2347697    
         243 -0.4419976    
         244  0.2440391    
         245  1.7741917E-03
         246 -2.3628002E-02
         247  4.6236098E-02
         248 -2.5391741E-02
         249  5.6779647E-04
         250 -1.4167215E-02
         251  2.9026989E-02
         252 -1.5866574E-02
         253 -6.0873444E-04
         254  1.0394125E-02
         255 -2.0507293E-02
         256  1.1336990E-02
         257 -5.1010773E-02
         258 -2.0551186E-02
         259 -7.1058080E-02
         260  3.6324330E-02
         261  2.9976295E-02
         262  1.5649803E-02
         263  1.6117280E-02
         264 -8.7934053E-03
         265  1.6418027E-02
         266  1.9683693E-02
         267  1.1036398E-02
         268 -6.5690135E-03
         269 -6.3193827E-03
         270 -1.5547202E-03
         271 -4.1891728E-03
         272  2.2119414E-03
         273  1.7618370E-04
         274  4.2509246E-03
         275 -6.3225925E-03
         276  6.1350903E-03
         277  2.5702393E-05
         278 -1.1699450E-03
         279  2.3746805E-03
         280 -1.5539543E-03
         281 -1.6465489E-02
         282 -2.2250626E-02
         283 -6.1050970E-03
         284  3.7506414E-03
         285  6.3569988E-03
         286  4.9495320E-03
         287 -1.7290444E-03
         288  7.2372617E-04
         289  5.1225584E-02
         290  7.4177749E-02
         291 -3.2081626E-02
         292  1.2883151E-02
         293 -3.0469401E-02
         294 -2.4409600E-02
         295  1.8416594E-04
         296  7.7880593E-04
         297  1.0877196E-03
         298 -6.6548742E-02
         299  0.1205828    
         300 -6.6419922E-02
         301 -1.2503007E-03
         302  1.0558868E-02
         303 -1.8671831E-02
         304  1.1138976E-02
         305 -1.5865655E-03
         306 -0.1270256    
         307  0.2302563    
         308 -0.1186937    
         309  7.6794438E-04
         310  7.2251526E-03
         311 -1.2629085E-02
         312  6.0678334E-03
         313  5.8798469E-04
         314  2.9079812E-02
         315 -5.4480892E-02
         316  2.7640395E-02
         317 -2.2320362E-05
         318 -4.1026827E-03
         319  7.6743634E-03
         320 -4.3133125E-03
         321  5.1367766E-04
         322  0.1344873    
         323 -0.2454399    
         324  0.1296239    
         325 -1.0259736E-04
         326 -7.9689557E-03
         327  1.4738666E-02
         328 -8.1057139E-03
         329 -4.7933479E-04
         330  8.3723627E-03
         331 -1.4402919E-02
         332  7.9988306E-03
         333  1.4024801E-04
         334 -2.7223688E-03
         335  4.5427228E-03
         336 -2.6622175E-03
         337  2.0040132E-03
         338 -0.1381486    
         339  0.2481384    
         340 -0.1325665    
         341 -1.9240204E-03
         342  1.1597238E-02
         343 -2.0050777E-02
         344  1.1779889E-02
         345  3.4497277E-04
         346 -2.6936301E-03
         347 -5.6773814E-04
         348  1.2474041E-03
         349 -1.7974646E-04
         350  4.7423982E-04
         351 -1.0170048E-04
         352  3.7716163E-04
         353 -2.3568774E-04
         354  1.4411993E-04
         355 -2.6354543E-04
         356  4.8436876E-04
         357 -2.0912269E-04
         358 -7.6442111E-06
         359 -3.3011669E-04
         360  2.5698359E-04
         361  7.1108982E-05
         362  5.9538892E-05
         363  2.9865259E-04
         364  8.7659035E-05
         365 -1.3243270E-04
         366 -6.0056434E-05
         367 -1.3894765E-04
         368  1.7855834E-04
         369 -4.2539279E-05
         370 -4.2776275E-05
         371  2.5123270E-04
         372  4.1993175E-05
         373  6.8107605E-05
         374 -2.1644960E-04
         375  1.4493114E-04
         376 -2.4865571E-04
         377 -8.0319442E-04
         378  1.4841578E-03
         379  3.4555688E-04
         380 -1.5087903E-04
         381  4.7188954E-04
         382 -5.0915485E-05
         383  1.1770956E-05
         384  2.3880326E-04
         385 -4.7253034E-05
         386 -3.5221924E-04
         387 -1.0115466E-04
         388  3.7441609E-05
         389  6.7414789E-05
         390 -4.6246554E-05
         391  2.2894998E-04
         392  1.3516347E-04
         393  5.7093286E-05
         394 -5.8213231E-05
         395  6.2192979E-05
         396  1.4431980E-04
         397 -4.0303185E-05
         398 -7.1160175E-05
         399  7.9778634E-05
         400 -8.8268636E-05
         401 -1.0257157E-02
         402  6.9421990E-04
         403  9.7965775E-04
         404  5.9915230E-05
         405 -1.5752514E-04
         406 -1.6350696E-02
         407  1.2520045E-03
         408  8.0929026E-03
         409  4.3663643E-03
         410 -2.4891396E-03
         411 -1.1831544E-02
         412  3.1600869E-03
         413 -2.2753999E-03
         414 -6.9303549E-04
         415  7.8044389E-04
         416  1.3158971E-02
         417 -3.0281809E-03
         418  1.8958251E-03
         419  1.3456693E-03
         420 -6.8066898E-04
         421 -1.1966865E-03
         422  1.2834477E-03
         423 -4.6099789E-04
         424 -1.5967831E-04
         425  8.9021385E-05
         426  1.0252380E-02
         427 -3.6939845E-04
         428 -8.3642529E-04
         429 -8.7772199E-04
         430  4.5994966E-04
         431  1.8548215E-02
         432 -2.4214678E-03
         433 -7.4586589E-03
         434 -9.1086153E-04
         435  5.5076298E-04
         436  3.7414356E-04
         437  4.4176125E-04
         438  1.9399895E-04
         439 -4.2407071E-05
         440  5.1245873E-04
         441 -6.6565372E-05
         442  2.3389728E-04
         443  9.5240017E-03
         444 -1.7017424E-02
         445  9.9492855E-03
         446 -8.9746271E-04
         447  1.9731502E-04
         448  1.7865988E-03
         449 -2.9925914E-03
         450  1.6006359E-03
         451  2.6223986E-04
         452  3.9104818E-04
         453 -8.9435512E-03
         454  1.6064914E-02
         455 -8.7533984E-03
         456  1.3601524E-02
         457  7.4410290E-03
         458  1.7648529E-02
         459  1.3733371E-02
         460 -7.9661710E-03
         461 -2.2213172E-02
         462  2.8483146E-03
         463 -1.7011598E-03
         464 -1.1796085E-03
         465  6.5143674E-04
         466 -1.7192372E-04
         467 -4.2501000E-05
         468  1.6239767E-03
         469 -3.0482667E-03
         470  1.9956150E-03
         471  2.1553796E-02
         472 -2.8280390E-03
         473  2.1596649E-03
         474  3.5293118E-04
         475 -2.5434635E-04
         476 -1.2949748E-02
         477 -7.4716681E-03
         478 -2.3876134E-02
         479 -3.0322918E-03
         480  2.1144976E-03
         481  4.8641305E-05
         482  3.3542432E-04
         483 -8.7368535E-03
         484  1.5981089E-02
         485 -8.9270193E-03
         486 -1.0487003E-03
         487  2.3730198E-04
         488  1.8005053E-03
         489 -2.9340924E-03
         490  1.6523883E-03
         491 -2.7359807E-04
         492  2.5054830E-04
         493  9.4900802E-03
         494 -1.7384291E-02
         495  9.0877041E-03
         496  1.0185600E-04
         497  5.3895282E-04
         498  1.8501129E-04
         499 -4.3060226E-04
         500 -2.1142559E-04
         501  1.0912593E-03
         502 -5.5031292E-04
         503  1.3327886E-03
         504 -7.7151140E-04
         505  6.7915121E-04
         506 -5.4109353E-04
         507 -3.0723406E-04
         508  4.5745273E-05
         509 -1.8745520E-04
         510  4.8104928E-05
 Sym= Particle
 Ene=  -1.014362    
 Spin= Alpha
 Occup= 2
           1 -2.8537146E-05
           2 -1.7442695E-03
           3 -7.7864900E-04
           4  1.3419667E-03
           5  2.2376968E-04
           6  5.0752045E-04
           7  2.6414299E-04
           8 -4.0719626E-04
           9 -1.3500857E-04
          10  1.1439708E-03
          11  3.1405175E-04
          12 -1.3455263E-03
          13  3.4609059E-04
          14 -5.8079103E-04
          15  1.5147901E-04
          16  6.9347088E-04
          17  5.7470560E-04
          18 -7.4315845E-04
          19  1.5386517E-04
          20 -6.9136766E-04
          21 -2.8164938E-04
          22  3.6840321E-04
          23  2.3119946E-04
          24  8.8352367E-04
          25 -7.0028484E-04
          26 -3.1342045E-03
          27 -2.1143281E-03
          28  2.7936264E-03
          29  6.5696280E-04
          30  1.6160377E-03
          31  9.5095253E-04
          32 -1.0852996E-03
          33 -1.2018679E-04
          34  1.2236072E-03
          35  8.9924398E-04
          36 -7.5078732E-03
          37 -2.3272353E-04
          38 -3.0399198E-04
          39 -1.7836181E-03
          40  1.8788518E-03
          41  3.1414061E-04
          42  3.7981197E-03
          43 -6.1674835E-03
          44  9.0083210E-03
          45 -8.8777300E-04
          46 -9.7468455E-04
          47  2.5330153E-03
          48 -3.8304934E-03
          49  2.6532481E-04
          50 -5.3893598E-03
          51  7.5729634E-03
          52 -1.3256709E-02
          53 -6.1452121E-04
          54  2.5476986E-03
          55 -2.0309878E-03
          56  3.9146408E-03
          57 -1.4091689E-04
          58  2.7203595E-03
          59 -3.7108739E-03
          60  5.9503363E-03
          61 -1.9826622E-04
          62 -5.8241817E-04
          63  9.5937657E-04
          64 -1.7699191E-03
          65 -3.5043046E-05
          66  3.2842809E-03
          67 -4.6381741E-03
          68  7.1014338E-03
          69 -2.7393847E-04
          70 -8.2562910E-04
          71  1.3340764E-03
          72 -2.0944031E-03
          73  1.2401667E-04
          74 -6.1789392E-03
          75  8.8844383E-03
          76 -1.4065941E-02
          77 -4.5377400E-04
          78  1.7882601E-03
          79 -2.6041716E-03
          80  4.3557575E-03
          81 -4.9253710E-04
          82  3.6621043E-03
          83 -4.4056321E-03
          84  6.5638279E-03
          85  3.2282518E-05
          86 -1.1396139E-03
          87  1.1296343E-03
          88 -1.5086444E-03
          89  4.5064947E-04
          90  8.0351840E-04
          91 -4.0293217E-04
          92 -2.6765771E-04
          93 -5.0820102E-04
          94 -3.7756993E-04
          95  1.8791661E-04
          96 -6.9086516E-04
          97  5.2901811E-04
          98  2.6254350E-04
          99  3.9671203E-03
         100  6.9618649E-03
         101 -5.7475257E-04
         102 -2.7608595E-04
         103 -2.3241637E-03
         104 -4.6004942E-03
         105  1.3411055E-05
         106 -3.0387053E-04
         107 -5.7656276E-03
         108 -8.6119147E-03
         109 -3.8698615E-04
         110  6.9377042E-04
         111  7.1426015E-03
         112  1.1428173E-02
         113  1.8109725E-03
         114 -3.3067018E-03
         115 -1.0605902E-02
         116 -2.1008123E-02
         117 -1.4699561E-03
         118  1.9828887E-03
         119  1.4651801E-02
         120  2.6007149E-02
         121 -2.6315847E-05
         122  1.9630378E-04
         123 -7.1739778E-03
         124 -1.5446806E-02
         125  2.5697306E-04
         126 -1.2412043E-04
         127  2.9306808E-03
         128  6.4525618E-03
         129 -1.7623327E-04
         130 -3.6930409E-04
         131  3.4420481E-03
         132  4.5394232E-03
         133  4.5254349E-04
         134  1.3210528E-04
         135 -2.5268693E-03
         136 -4.3744040E-03
         137 -1.2374589E-05
         138 -1.0159498E-03
         139  1.7654454E-02
         140  3.0435890E-02
         141 -9.4784818E-06
         142  3.5984805E-04
         143 -6.3607027E-03
         144 -1.1515229E-02
         145 -1.8506983E-04
         146  1.5024064E-04
         147  6.6570272E-03
         148  1.1447384E-02
         149 -1.0810439E-04
         150 -2.5444533E-04
         151  1.2670239E-03
         152  1.4968329E-03
         153 -1.7664938E-04
         154 -1.8449043E-04
         155 -1.7458661E-02
         156 -3.0879032E-02
         157  1.7878538E-04
         158 -1.7535270E-04
         159  4.5354590E-03
         160  7.6636644E-03
         161 -2.3668203E-04
         162  3.0881958E-04
         163  3.5509006E-03
         164  6.1443546E-03
         165  1.8533622E-04
         166 -6.3347297E-06
         167  1.2071539E-03
         168  1.7523253E-03
         169 -6.6997418E-05
         170  1.1478285E-03
         171  1.9278076E-02
         172  3.4923684E-02
         173  3.0950806E-04
         174 -9.7614009E-04
         175 -1.0245600E-02
         176 -1.8054171E-02
         177 -1.9395298E-03
         178  1.1425578E-03
         179 -8.3512375E-03
         180 -2.2073660E-02
         181  1.4740784E-03
         182 -1.5321748E-03
         183 -1.0007420E-02
         184 -1.4943431E-02
         185  2.3857140E-04
         186 -9.6225477E-04
         187 -1.1309166E-03
         188 -4.1855704E-03
         189 -2.4879133E-04
         190 -2.2860823E-04
         191  6.8256463E-04
         192 -1.0240573E-03
         193 -6.5816902E-03
         194 -0.1040008    
         195  0.1703307    
         196 -0.1088032    
         197  5.3028781E-03
         198  3.8887423E-02
         199 -6.0738783E-02
         200  3.8531125E-02
         201 -2.2802627E-04
         202 -7.7814430E-02
         203  0.1351696    
         204 -7.6170035E-02
         205  1.0584393E-03
         206  2.4268335E-02
         207 -3.9669555E-02
         208  2.1891726E-02
         209 -2.7583074E-04
         210  0.1569177    
         211 -0.2832227    
         212  0.1631576    
         213  6.5519603E-04
         214 -4.0245570E-02
         215  7.3433228E-02
         216 -4.2592909E-02
         217 -2.2283135E-04
         218 -6.2343583E-02
         219  0.1114433    
         220 -6.3439526E-02
         221  8.1165979E-04
         222  1.6792607E-02
         223 -2.9123956E-02
         224  1.6773110E-02
         225 -2.0381061E-03
         226 -0.1066601    
         227  0.1896070    
         228 -0.1113112    
         229  1.5570902E-03
         230  3.5389848E-02
         231 -6.3319124E-02
         232  3.6619339E-02
         233  3.0740653E-03
         234  0.1920751    
         235 -0.3401876    
         236  0.1976256    
         237 -2.2693942E-03
         238 -7.5741269E-02
         239  0.1327221    
         240 -7.8417726E-02
         241  2.4664887E-06
         242 -4.7446185E-04
         243 -4.3695405E-04
         244 -2.2506362E-03
         245  5.3681888E-05
         246  2.1139295E-04
         247  8.7383430E-04
         248  1.8180129E-03
         249 -1.9860572E-04
         250 -1.5463930E-04
         251  1.9286866E-03
         252  3.7972424E-03
         253  4.5354551E-04
         254  2.1316577E-04
         255 -1.3070765E-03
         256 -1.7625786E-03
         257 -2.1664171E-05
         258 -1.7197087E-04
         259 -2.9132327E-03
         260 -5.4144775E-03
         261  4.0430209E-04
         262  3.6943637E-04
         263  9.5275359E-04
         264  1.7580668E-03
         265 -1.1846148E-05
         266 -9.6922056E-05
         267 -1.8842448E-03
         268 -3.3504267E-03
         269  1.6906025E-04
         270  6.9185793E-05
         271 -3.7109738E-04
         272 -8.2024437E-04
         273 -6.4803840E-05
         274  1.3372363E-04
         275  1.6909910E-03
         276  3.2557161E-03
         277  1.5557600E-04
         278 -1.4983286E-04
         279 -1.4195636E-04
         280 -8.1322092E-04
         281  5.0035702E-05
         282  4.0776824E-05
         283  1.3629528E-04
         284  2.7105919E-04
         285 -1.0357186E-04
         286 -7.4728690E-05
         287  1.0526136E-03
         288  1.9191501E-03
         289 -8.1098970E-06
         290  2.2880558E-05
         291  1.3581249E-03
         292  2.5236222E-03
         293 -2.2544307E-04
         294 -2.5672533E-04
         295 -5.6693202E-04
         296 -1.1243141E-03
         297 -2.7355733E-03
         298 -0.1916485    
         299  0.3472379    
         300 -0.1813658    
         301  2.2350734E-03
         302  7.4927680E-02
         303 -0.1356427    
         304  6.9635265E-02
         305  1.7085812E-03
         306  0.1165205    
         307 -0.2118781    
         308  0.1099952    
         309 -1.1176190E-03
         310 -3.8323168E-02
         311  6.9789626E-02
         312 -3.6820468E-02
         313  4.1877658E-05
         314  5.3394590E-02
         315 -9.6262917E-02
         316  5.1385328E-02
         317 -4.8489901E-04
         318 -1.4045666E-02
         319  2.4830373E-02
         320 -1.2987318E-02
         321  2.5207072E-04
         322 -0.1579629    
         323  0.2891503    
         324 -0.1532357    
         325 -5.2792864E-04
         326  4.0822726E-02
         327 -7.5347371E-02
         328  3.9822139E-02
         329  1.1488284E-04
         330  8.7406121E-02
         331 -0.1542889    
         332  8.3016068E-02
         333 -9.8798797E-04
         334 -2.6904702E-02
         335  4.4950292E-02
         336 -2.4469951E-02
         337  6.2718038E-03
         338  9.4196402E-02
         339 -0.1651849    
         340  7.6855883E-02
         341 -5.1395074E-03
         342 -3.5748411E-02
         343  5.9545789E-02
         344 -2.7638724E-02
         345  2.7362723E-05
         346 -9.1168587E-04
         347 -2.1855003E-04
         348 -5.0845207E-04
         349 -1.3391412E-04
         350 -5.5123790E-04
         351  3.4301615E-04
         352  2.5291811E-04
         353  2.0948370E-04
         354  1.3926798E-03
         355  7.9636986E-04
         356 -1.6116779E-03
         357 -2.1433864E-04
         358 -3.1086922E-04
         359 -2.7228834E-04
         360  5.3942949E-04
         361  1.8332183E-05
         362  4.3180856E-04
         363 -1.1472154E-03
         364 -4.9197773E-04
         365  7.1370171E-04
         366  3.3889126E-04
         367  7.7687655E-05
         368  3.0690635E-04
         369  1.6857407E-04
         370 -5.6562031E-04
         371 -2.1240888E-04
         372  3.8432248E-04
         373 -5.8122867E-05
         374  5.8566319E-04
         375 -8.4072410E-04
         376 -2.4421766E-04
         377 -9.8498387E-04
         378 -2.6939312E-04
         379  3.1853924E-03
         380 -3.6575971E-03
         381  1.2041522E-04
         382 -5.7725172E-04
         383  6.7917409E-04
         384 -8.7286939E-04
         385  1.4539540E-03
         386 -7.3204633E-06
         387 -4.5801629E-04
         388  1.2658255E-03
         389 -1.4070047E-03
         390  2.2895350E-03
         391 -2.6920150E-04
         392 -5.0026015E-04
         393 -1.7288392E-03
         394  2.3468721E-03
         395 -3.3815475E-03
         396  3.6635032E-05
         397 -3.9129946E-04
         398  8.9661177E-04
         399 -1.0266155E-03
         400  1.5274291E-03
         401 -8.6951989E-04
         402 -4.2507763E-05
         403  1.1588403E-04
         404 -3.8954325E-04
         405 -6.6875562E-04
         406 -8.6040789E-04
         407 -9.8339784E-05
         408  9.8036381E-04
         409  4.4371579E-03
         410  8.5335867E-03
         411 -9.2301500E-04
         412  6.7947648E-04
         413 -2.2179080E-04
         414  1.6872191E-03
         415  2.8014348E-03
         416  5.6537415E-04
         417 -1.8283058E-04
         418 -1.4688747E-04
         419  2.3052776E-03
         420  3.8458467E-03
         421  2.2052055E-04
         422  2.2834144E-04
         423 -2.9657994E-04
         424 -3.7866340E-03
         425 -6.7920294E-03
         426  5.9918402E-04
         427 -5.3931548E-05
         428  2.7159791E-04
         429  1.4384725E-03
         430  2.3844764E-03
         431  1.1062359E-03
         432 -1.5254690E-04
         433 -3.0650100E-04
         434  3.9434177E-05
         435  1.8375411E-03
         436  2.7454689E-03
         437 -8.6131273E-04
         438 -1.1696376E-02
         439  2.3393521E-02
         440 -1.2523060E-02
         441  1.2640189E-03
         442  5.2381001E-05
         443  3.6811866E-02
         444 -6.5510504E-02
         445  3.7900638E-02
         446  1.0868331E-04
         447  3.8555553E-04
         448 -1.3633982E-02
         449  2.4982056E-02
         450 -1.4000479E-02
         451  1.6072507E-03
         452  1.5481369E-04
         453 -2.5903545E-02
         454  4.5064658E-02
         455 -2.6305247E-02
         456 -2.6254311E-05
         457  3.6042416E-04
         458  2.9154719E-04
         459 -1.7217445E-03
         460 -3.5782543E-03
         461  4.9601913E-05
         462  2.5545554E-05
         463  1.7277533E-04
         464 -1.0426703E-03
         465 -1.8066473E-03
         466  5.8525122E-05
         467  1.3960182E-05
         468 -6.2141422E-05
         469  7.1653019E-04
         470  1.0342520E-03
         471  3.0012521E-05
         472 -1.5554386E-04
         473  9.7336313E-05
         474  3.8514411E-04
         475  1.4869068E-03
         476  2.2182723E-04
         477 -4.4661091E-04
         478  4.0883230E-04
         479  1.7185829E-03
         480  2.8630351E-03
         481 -1.3854753E-03
         482 -1.9662391E-05
         483  2.7613079E-02
         484 -4.9717411E-02
         485  2.5944833E-02
         486  2.0598951E-04
         487 -4.2725177E-04
         488  1.1334529E-02
         489 -2.0905552E-02
         490  1.1804109E-02
         491 -1.0110094E-03
         492 -1.0572992E-04
         493 -3.6944322E-02
         494  6.7224696E-02
         495 -3.5052195E-02
         496 -2.3868533E-03
         497  6.4863748E-04
         498  1.4331212E-02
         499 -2.7163504E-02
         500  1.5314628E-02
         501  1.7304093E-04
         502  6.3578074E-04
         503 -6.7564752E-04
         504  9.6035108E-04
         505 -3.7779749E-04
         506 -2.6177950E-04
         507  4.7713297E-04
         508  1.0191035E-03
         509  4.2033684E-04
         510 -4.7877227E-04
