 [Molden Format]
 [Atoms] Angs
C       1      6     -4.34845357      3.29818255      3.76033530
C       2      6     -4.16348346      3.72924493      2.31052416
C       3      6     -3.71238600      2.56743702      1.42977898
C       4      6     -3.56962153      2.98642292     -0.03878183
N       5      7     -3.06813345      1.91457668     -0.87113373
C       6      6     -4.05443595      1.08041135     -1.52322766
C       7      6     -4.22408516      1.39438958     -3.01778578
C       8      6     -4.78774216      2.78608249     -3.30630339
C       9      6     -6.25526576      2.93622897     -2.92107970
C      10      6     -1.73415381      1.64319950     -0.95487839
C      11      6     -1.24850980      0.57915418     -1.74831896
C      12      6      0.09062826      0.31917236     -1.83719760
C      13      6      1.04492986      1.08762299     -1.15679957
C      14      6      2.41527525      0.69911949     -1.16501273
N      15      7      3.33544449      1.33006427     -0.52434241
C      16      6      4.56430336      0.77462255     -0.25975788
C      17      6      5.73244727      1.46888297     -0.53656397
C      18      6      6.97485702      0.92920498     -0.21770029
C      19      6      8.14990023      1.65200517     -0.51541655
N      20      7      9.09209042      2.25572887     -0.76616361
C      21      6      7.05152637     -0.33620413      0.39187992
C      22      6      8.30482226     -0.90343940      0.70712578
N      23      7      9.31268382     -1.38207292      0.97204637
C      24      6      5.88370181     -1.03004967      0.69362296
C      25      6      4.64088457     -0.48965426      0.39955595
N      26      7      3.48669518     -1.19364305      0.64249658
C      27      6      2.48567204     -0.67826520      1.26554329
C      28      6      1.16499614     -1.20633352      1.20272822
C      29      6      0.11485192     -0.55170222      1.86108472
C      30      6     -1.19002612     -0.91859539      1.68664369
C      31      6     -1.53752101     -1.97775449      0.81803265
N      32      7     -2.83864380     -2.32300905      0.60925285
C      33      6     -3.20452262     -3.49307606     -0.15775440
C      34      6     -3.30942533     -3.19136760     -1.65841661
C      35      6     -3.66677531     -4.42394785     -2.48854522
C      36      6     -2.53926812     -5.44774531     -2.55535783
C      37      6     -3.93005076     -1.54784287      1.15349256
C      38      6     -4.29894927     -1.97633306      2.58171686
C      39      6     -5.19575432     -0.96221828      3.28996553
C      40      6     -6.54537318     -0.77342557      2.60667049
C      41      6     -0.49079676     -2.65046516      0.17522995
C      42      6      0.83220967     -2.28987235      0.35746989
O      43      8      1.77558423     -2.96989961     -0.31126310
C      44      6      0.57252411      2.15478165     -0.35935018
O      45      8      1.41425283      2.93104722      0.33941003
C      46      6     -0.78460550      2.40664575     -0.26339072
H      47      1     -3.41915238      2.89943123      4.16125779
H      48      1     -5.11464383      2.52925725      3.83702496
H      49      1     -4.65079288      4.14304728      4.37380807
H      50      1     -5.10533112      4.12969908      1.92789884
H      51      1     -3.42047305      4.52793358      2.26186806
H      52      1     -4.44414665      1.75822751      1.49875542
H      53      1     -2.75397235      2.18572567      1.78747903
H      54      1     -2.91066436      3.85406358     -0.11666585
H      55      1     -4.54666090      3.29108995     -0.41865268
H      56      1     -5.00807296      1.22051190     -1.01129291
H      57      1     -3.77827337      0.02799273     -1.40828493
H      58      1     -4.88526017      0.64136273     -3.45280096
H      59      1     -3.25131050      1.31007893     -3.50383903
H      60      1     -4.69121983      2.97650916     -4.37730323
H      61      1     -4.18528865      3.53441294     -2.78871527
H      62      1     -6.40687895      2.80830523     -1.85168126
H      63      1     -6.61586689      3.92497658     -3.19412148
H      64      1     -6.86111566      2.19684533     -3.44061438
H      65      1     -1.92559010     -0.05324013     -2.29551439
H      66      1      0.43206257     -0.50970679     -2.44047869
H      67      1      2.64674209     -0.21052808     -1.73016729
H      68      1      5.67132116      2.43236513     -1.02028030
H      69      1      5.93873674     -1.99404542      1.17701720
H      70      1      2.60087471      0.24324227      1.84699629
H      71      1      0.35286418      0.27442558      2.51570800
H      72      1     -1.94800467     -0.38309663      2.23143602
H      73      1     -2.47548503     -4.28416386      0.02137963
H      74      1     -4.17116654     -3.85132792      0.20666119
H      75      1     -2.36131555     -2.77792211     -2.00675501
H      76      1     -4.07839005     -2.42804470     -1.80650429
H      77      1     -4.56204048     -4.89294647     -2.07350754
H      78      1     -3.90570978     -4.09910358     -3.50364963
H      79      1     -1.62656522     -4.98560855     -2.92484191
H      80      1     -2.80809376     -6.25738813     -3.22942186
H      81      1     -2.33714722     -5.87910433     -1.57840966
H      82      1     -4.79251977     -1.67761095      0.49562280
H      83      1     -3.66296498     -0.48881406      1.14172691
H      84      1     -3.37817728     -2.09783532      3.15543360
H      85      1     -4.79739606     -2.94741850      2.55184860
H      86      1     -4.67767881     -0.00188322      3.34529219
H      87      1     -5.36220473     -1.30322801      4.31383057
H      88      1     -7.05649286     -1.72785336      2.50264606
H      89      1     -6.42850520     -0.33608605      1.61793079
H      90      1     -7.17665281     -0.11245744      3.19604496
H      91      1     -0.66955222     -3.46343584     -0.50684609
H      92      1      2.64603652     -2.55555509     -0.10368183
H      93      1      2.32894428      2.59936789      0.17910499
H      94      1     -1.06480154      3.22105707      0.38181156
 [GTO]
           1   0
s              4   1.000000
     36.83757897     -0.01198412
      6.34373592     -0.05472053
      0.50974625      0.58055871
      0.19427691      0.47700800
p              4   1.000000
      5.93733822      0.05713170
      1.53946314      0.28574555
      0.54270840      0.55178731
      0.21606156      0.26323149
s              7   1.000000
      0.38350848     -0.19456880
      0.04707223      0.94008496
      0.02222627      0.24688059
     36.83757897      0.00524266
      6.34373592      0.02393843
      0.50974625     -0.25397530
      0.19427691     -0.20867527
p              7   1.000000
      1.83062075     -0.01151916
      0.10124670      0.56606891
      0.03901771      0.59117491
      5.93733822     -0.02401033
      1.53946314     -0.12008825
      0.54270840     -0.23189572
      0.21606156     -0.11062642
 
           2   0
s              4   1.000000
     36.85953722     -0.01198412
      6.34751731     -0.05472052
      0.51005010      0.58055871
      0.19439272      0.47700800
p              4   1.000000
      5.94087737      0.05713170
      1.54038079      0.28574555
      0.54303190      0.55178731
      0.21619036      0.26323149
s              7   1.000000
      0.38350848     -0.19455095
      0.04707223      0.93999868
      0.02222627      0.24685792
     36.85953722      0.00523966
      6.34751731      0.02392475
      0.51005010     -0.25383015
      0.19439272     -0.20855602
p              7   1.000000
      1.83062075     -0.01151816
      0.10124670      0.56602015
      0.03901771      0.59112398
      5.94087737     -0.02399655
      1.54038079     -0.12001930
      0.54303190     -0.23176258
      0.21619036     -0.11056291
 
           3   0
s              4   1.000000
     36.93679391     -0.01198412
      6.36082155     -0.05472052
      0.51111915      0.58055871
      0.19480016      0.47700799
p              4   1.000000
      5.95332930      0.05713170
      1.54360939      0.28574555
      0.54417008      0.55178731
      0.21664348      0.26323149
s              7   1.000000
      0.38350848     -0.19448834
      0.04707223      0.93969619
      0.02222627      0.24677848
     36.93679391      0.00522914
      6.36082155      0.02387673
      0.51111915     -0.25332075
      0.19480016     -0.20813747
p              7   1.000000
      1.83062075     -0.01151468
      0.10124670      0.56584917
      0.03901771      0.59094541
      5.95332930     -0.02394817
      1.54360939     -0.11977733
      0.54417008     -0.23129533
      0.21664348     -0.11034000
 
           4   0
s              4   1.000000
     37.08156571     -0.01198412
      6.38575245     -0.05472053
      0.51312246      0.58055871
      0.19556367      0.47700799
p              4   1.000000
      5.97666306      0.05713170
      1.54965948      0.28574555
      0.54630292      0.55178731
      0.21749261      0.26323149
s              7   1.000000
      0.38350848     -0.19437196
      0.04707223      0.93913388
      0.02222627      0.24663082
     37.08156571      0.00520955
      6.38575245      0.02378726
      0.51312246     -0.25237150
      0.19556367     -0.20735753
p              7   1.000000
      1.83062075     -0.01150822
      0.10124670      0.56553132
      0.03901771      0.59061347
      5.97666306     -0.02385801
      1.54965948     -0.11932642
      0.54630292     -0.23042460
      0.21749261     -0.10992462
 
           5   0
s              4   1.000000
     60.84931512     -0.01198412
     10.47875557     -0.05472052
      0.84201272      0.58055871
      0.32091189      0.47700799
p              4   1.000000
      7.17242901      0.05713170
      1.85970374      0.28574555
      0.65560312      0.55178731
      0.26100690      0.26323149
s              7   1.000000
      0.47894987     -0.18788975
      0.05878681      0.90781426
      0.02775758      0.23840581
     60.84931512      0.00399248
     10.47875557      0.01823002
      0.84201272     -0.19341182
      0.32091189     -0.15891414
p              7   1.000000
      2.28619608     -0.01157613
      0.12644335      0.56886891
      0.04872781      0.59409908
      7.17242901     -0.02479080
      1.85970374     -0.12399174
      0.65560312     -0.23943355
      0.26100690     -0.11422236
 
           6   0
s              4   1.000000
     37.07129583     -0.01198412
      6.38398389     -0.05472052
      0.51298035      0.58055871
      0.19550951      0.47700799
p              4   1.000000
      5.97500780      0.05713170
      1.54923030      0.28574555
      0.54615162      0.55178731
      0.21743237      0.26323149
s              7   1.000000
      0.38350848     -0.19438018
      0.04707223      0.93917359
      0.02222627      0.24664125
     37.07129583      0.00521094
      6.38398389      0.02379359
      0.51298035     -0.25243861
      0.19550951     -0.20741267
p              7   1.000000
      1.83062075     -0.01150867
      0.10124670      0.56555377
      0.03901771      0.59063689
      5.97500780     -0.02386439
      1.54923030     -0.11935830
      0.54615162     -0.23048616
      0.21743237     -0.10995399
 
           7   0
s              4   1.000000
     36.91783970     -0.01198412
      6.35755748     -0.05472052
      0.51085687      0.58055871
      0.19470020      0.47700799
p              4   1.000000
      5.95027433      0.05713170
      1.54281728      0.28574555
      0.54389083      0.55178731
      0.21653231      0.26323149
s              7   1.000000
      0.38350848     -0.19450367
      0.04707223      0.93977025
      0.02222627      0.24679793
     36.91783970      0.00523172
      6.35755748      0.02388849
      0.51085687     -0.25344554
      0.19470020     -0.20824000
p              7   1.000000
      1.83062075     -0.01151553
      0.10124670      0.56589102
      0.03901771      0.59098910
      5.95027433     -0.02396002
      1.54281728     -0.11983661
      0.54389083     -0.23140979
      0.21653231     -0.11039461
 
           8   0
s              4   1.000000
     36.85326409     -0.01198412
      6.34643702     -0.05472052
      0.50996329      0.58055871
      0.19435963      0.47700799
p              4   1.000000
      5.93986629      0.05713170
      1.54011863      0.28574555
      0.54293948      0.55178731
      0.21615356      0.26323149
s              7   1.000000
      0.38350848     -0.19455605
      0.04707223      0.94002331
      0.02222627      0.24686440
     36.85326409      0.00524052
      6.34643702      0.02392865
      0.50996329     -0.25387160
      0.19435963     -0.20859007
p              7   1.000000
      1.83062075     -0.01151845
      0.10124670      0.56603408
      0.03901771      0.59113850
      5.93986629     -0.02400048
      1.54011863     -0.12003899
      0.54293948     -0.23180060
      0.21615356     -0.11058105
 
           9   0
s              4   1.000000
     36.83327538     -0.01198412
      6.34299480     -0.05472052
      0.50968670      0.58055871
      0.19425422      0.47700800
p              4   1.000000
      5.93664458      0.05713170
      1.53928329      0.28574555
      0.54264499      0.55178731
      0.21603632      0.26323149
s              7   1.000000
      0.38350848     -0.19457231
      0.04707223      0.94010189
      0.02222627      0.24688502
     36.83327538      0.00524324
      6.34299480      0.02394111
      0.50968670     -0.25400377
      0.19425422     -0.20869867
p              7   1.000000
      1.83062075     -0.01151935
      0.10124670      0.56607848
      0.03901771      0.59118491
      5.93664458     -0.02401304
      1.53928329     -0.12010177
      0.54264499     -0.23192183
      0.21603632     -0.11063888
 
          10   0
s              4   1.000000
     35.11581799     -0.01198412
      6.04723443     -0.05472052
      0.48592109      0.58055871
      0.18519656      0.47700799
p              4   1.000000
      5.65983146      0.05713170
      1.46750978      0.28574555
      0.51734261      0.55178731
      0.20596301      0.26323149
s              7   1.000000
      0.38350848     -0.19606286
      0.04707223      0.94730368
      0.02222627      0.24877633
     35.11581799      0.00548847
      6.04723443      0.02506083
      0.48592109     -0.26588343
      0.18519656     -0.21845942
p              7   1.000000
      1.83062075     -0.01160220
      0.10124670      0.57014977
      0.03901771      0.59543675
      5.65983146     -0.02514099
      1.46750978     -0.12574324
      0.51734261     -0.24281576
      0.20596301     -0.11583585
 
          11   0
s              4   1.000000
     35.01969679     -0.01198412
      6.03068156     -0.05472052
      0.48459100      0.58055871
      0.18468962      0.47700799
p              4   1.000000
      5.64433901      0.05713170
      1.46349282      0.28574555
      0.51592651      0.55178730
      0.20539923      0.26323149
s              7   1.000000
      0.38350848     -0.19615207
      0.04707223      0.94773472
      0.02222627      0.24888953
     35.01969679      0.00550286
      6.03068156      0.02512653
      0.48459100     -0.26658047
      0.18468962     -0.21903214
p              7   1.000000
      1.83062075     -0.01160716
      0.10124670      0.57039347
      0.03901771      0.59569126
      5.64433901     -0.02520715
      1.46349282     -0.12607417
      0.51592651     -0.24345480
      0.20539923     -0.11614071
 
          12   0
s              4   1.000000
     35.02025563     -0.01198412
      6.03077780     -0.05472052
      0.48459873      0.58055871
      0.18469257      0.47700799
p              4   1.000000
      5.64442909      0.05713170
      1.46351618      0.28574555
      0.51593474      0.55178731
      0.20540251      0.26323149
s              7   1.000000
      0.38350848     -0.19615155
      0.04707223      0.94773221
      0.02222627      0.24888887
     35.02025563      0.00550277
      6.03077780      0.02512614
      0.48459873     -0.26657640
      0.18469257     -0.21902880
p              7   1.000000
      1.83062075     -0.01160713
      0.10124670      0.57039205
      0.03901771      0.59568976
      5.64442909     -0.02520677
      1.46351618     -0.12607224
      0.51593474     -0.24345108
      0.20540251     -0.11613893
 
          13   0
s              4   1.000000
     35.06502653     -0.01198412
      6.03848772     -0.05472052
      0.48521825      0.58055871
      0.18492869      0.47700799
p              4   1.000000
      5.65164509      0.05713170
      1.46538718      0.28574555
      0.51659433      0.55178731
      0.20566510      0.26323149
s              7   1.000000
      0.38350848     -0.19610992
      0.04707223      0.94753106
      0.02222627      0.24883605
     35.06502653      0.00549606
      6.03848772      0.02509550
      0.48521825     -0.26625131
      0.18492869     -0.21876168
p              7   1.000000
      1.83062075     -0.01160481
      0.10124670      0.57027832
      0.03901771      0.59557098
      5.65164509     -0.02517591
      1.46538718     -0.12591789
      0.51659433     -0.24315303
      0.20566510     -0.11599675
 
          14   0
s              4   1.000000
     35.06469019     -0.01198412
      6.03842980     -0.05472052
      0.48521360      0.58055871
      0.18492691      0.47700799
p              4   1.000000
      5.65159088      0.05713170
      1.46537312      0.28574555
      0.51658937      0.55178731
      0.20566313      0.26323149
s              7   1.000000
      0.38350848     -0.19611023
      0.04707223      0.94753257
      0.02222627      0.24883644
     35.06469019      0.00549611
      6.03842980      0.02509573
      0.48521360     -0.26625375
      0.18492691     -0.21876369
p              7   1.000000
      1.83062075     -0.01160483
      0.10124670      0.57027917
      0.03901771      0.59557187
      5.65159088     -0.02517614
      1.46537312     -0.12591905
      0.51658937     -0.24315527
      0.20566313     -0.11599782
 
          15   0
s              4   1.000000
     57.26190146     -0.01198412
      9.86097325     -0.05472053
      0.79237128      0.58055871
      0.30199231      0.47700799
p              4   1.000000
      6.74957348      0.05713170
      1.75006361      0.28574555
      0.61695158      0.55178731
      0.24561906      0.26323149
s              7   1.000000
      0.47894987     -0.18908209
      0.05878681      0.91357519
      0.02775758      0.23991872
     57.26190146      0.00423927
      9.86097325      0.01935689
      0.79237128     -0.20536739
      0.30199231     -0.16873726
p              7   1.000000
      2.28619608     -0.01168878
      0.12644335      0.57440464
      0.04872781      0.59988032
      6.74957348     -0.02627617
      1.75006361     -0.13142090
      0.61695158     -0.25377957
      0.24561906     -0.12106617
 
          16   0
s              4   1.000000
     35.19503658     -0.01198412
      6.06087653     -0.05472053
      0.48701729      0.58055871
      0.18561434      0.47700800
p              4   1.000000
      5.67259960      0.05713170
      1.47082037      0.28574555
      0.51850969      0.55178731
      0.20642764      0.26323149
s              7   1.000000
      0.38350848     -0.19598982
      0.04707223      0.94695079
      0.02222627      0.24868366
     35.19503658      0.00547667
      6.06087653      0.02500693
      0.48701729     -0.26531164
      0.18561434     -0.21798962
p              7   1.000000
      1.83062075     -0.01159814
      0.10124670      0.56995026
      0.03901771      0.59522840
      5.67259960     -0.02508671
      1.47082037     -0.12547177
      0.51850969     -0.24229154
      0.20642764     -0.11558577
 
          17   0
s              4   1.000000
     35.09401494     -0.01198412
      6.04347976     -0.05472052
      0.48561939      0.58055871
      0.18508157      0.47700799
p              4   1.000000
      5.65631733      0.05713170
      1.46659862      0.28574555
      0.51702140      0.55178731
      0.20583513      0.26323149
s              7   1.000000
      0.38350848     -0.19608304
      0.04707223      0.94740117
      0.02222627      0.24880193
     35.09401494      0.00549173
      6.04347976      0.02507570
      0.48561939     -0.26604122
      0.18508157     -0.21858907
p              7   1.000000
      1.83062075     -0.01160332
      0.10124670      0.57020489
      0.03901771      0.59549432
      5.65631733     -0.02515597
      1.46659862     -0.12581815
      0.51702140     -0.24296043
      0.20583513     -0.11590487
 
          18   0
s              4   1.000000
     35.05022538     -0.01198412
      6.03593884     -0.05472052
      0.48501344      0.58055871
      0.18485063      0.47700799
p              4   1.000000
      5.64925949      0.05713170
      1.46476863      0.28574555
      0.51637627      0.55178731
      0.20557829      0.26323149
s              7   1.000000
      0.38350848     -0.19612367
      0.04707223      0.94759748
      0.02222627      0.24885348
     35.05022538      0.00549828
      6.03593884      0.02510562
      0.48501344     -0.26635870
      0.18485063     -0.21884992
p              7   1.000000
      1.83062075     -0.01160558
      0.10124670      0.57031588
      0.03901771      0.59561022
      5.64925949     -0.02518610
      1.46476863     -0.12596888
      0.51637627     -0.24325148
      0.20557829     -0.11604372
 
          19   0
s              4   1.000000
     32.73846641     -0.01198412
      5.63783482     -0.05472053
      0.45302408      0.58055871
      0.17265869      0.47700800
p              4   1.000000
      5.27665914      0.05713170
      1.36815892      0.28574555
      0.48231836      0.55178731
      0.19201925      0.26323149
s              7   1.000000
      0.38350848     -0.19847690
      0.04707223      0.95896741
      0.02222627      0.25183941
     32.73846641      0.00586754
      5.63783482      0.02679171
      0.45302408     -0.28424728
      0.17265869     -0.23354783
p              7   1.000000
      1.83062075     -0.01173640
      0.10124670      0.57674478
      0.03901771      0.60232426
      5.27665914     -0.02688353
      1.36815892     -0.13445859
      0.48231836     -0.25964549
      0.19201925     -0.12386452
 
          20   0
s              4   1.000000
     53.06388565     -0.01198412
      9.13804020     -0.05472052
      0.73428052      0.58055871
      0.27985248      0.47700800
p              4   1.000000
      6.25474506      0.05713170
      1.62176199      0.28574555
      0.57172129      0.55178731
      0.22761210      0.26323149
s              7   1.000000
      0.47894987     -0.19076401
      0.05878681      0.92170158
      0.02775758      0.24205283
     53.06388565      0.00456716
      9.13804020      0.02085406
      0.73428052     -0.22125165
      0.27985248     -0.18178834
p              7   1.000000
      2.28619608     -0.01184692
      0.12644335      0.58217588
      0.04872781      0.60799622
      6.25474506     -0.02825177
      1.62176199     -0.14130191
      0.57172129     -0.27286025
      0.22761210     -0.13016865
 
          21   0
s              4   1.000000
     35.05033028     -0.01198412
      6.03595690     -0.05472052
      0.48501489      0.58055871
      0.18485118      0.47700799
p              4   1.000000
      5.64927640      0.05713170
      1.46477301      0.28574555
      0.51637782      0.55178730
      0.20557891      0.26323149
s              7   1.000000
      0.38350848     -0.19612357
      0.04707223      0.94759701
      0.02222627      0.24885336
     35.05033028      0.00549826
      6.03595690      0.02510555
      0.48501489     -0.26635793
      0.18485118     -0.21884929
p              7   1.000000
      1.83062075     -0.01160557
      0.10124670      0.57031561
      0.03901771      0.59560994
      5.64927640     -0.02518603
      1.46477301     -0.12596852
      0.51637782     -0.24325079
      0.20557891     -0.11604338
 
          22   0
s              4   1.000000
     32.73845187     -0.01198412
      5.63783231     -0.05472052
      0.45302388      0.58055871
      0.17265861      0.47700799
p              4   1.000000
      5.27665680      0.05713170
      1.36815831      0.28574555
      0.48231814      0.55178731
      0.19201916      0.26323149
s              7   1.000000
      0.38350848     -0.19847691
      0.04707223      0.95896749
      0.02222627      0.25183943
     32.73845187      0.00586754
      5.63783231      0.02679172
      0.45302388     -0.28424740
      0.17265861     -0.23354792
p              7   1.000000
      1.83062075     -0.01173640
      0.10124670      0.57674481
      0.03901771      0.60232430
      5.27665680     -0.02688354
      1.36815831     -0.13445865
      0.48231814     -0.25964560
      0.19201916     -0.12386457
 
          23   0
s              4   1.000000
     53.06387531     -0.01198412
      9.13803841     -0.05472052
      0.73428038      0.58055871
      0.27985243      0.47700799
p              4   1.000000
      6.25474384      0.05713170
      1.62176168      0.28574555
      0.57172118      0.55178731
      0.22761205      0.26323149
s              7   1.000000
      0.47894987     -0.19076401
      0.05878681      0.92170160
      0.02775758      0.24205283
     53.06387531      0.00456716
      9.13803841      0.02085406
      0.73428038     -0.22125169
      0.27985243     -0.18178837
p              7   1.000000
      2.28619608     -0.01184692
      0.12644335      0.58217590
      0.04872781      0.60799625
      6.25474384     -0.02825178
      1.62176168     -0.14130194
      0.57172118     -0.27286030
      0.22761205     -0.13016868
 
          24   0
s              4   1.000000
     35.09262482     -0.01198412
      6.04324037     -0.05472052
      0.48560015      0.58055871
      0.18507424      0.47700799
p              4   1.000000
      5.65609327      0.05713170
      1.46654053      0.28574555
      0.51700092      0.55178731
      0.20582697      0.26323149
s              7   1.000000
      0.38350848     -0.19608433
      0.04707223      0.94740739
      0.02222627      0.24880356
     35.09262482      0.00549193
      6.04324037      0.02507665
      0.48560015     -0.26605129
      0.18507424     -0.21859734
p              7   1.000000
      1.83062075     -0.01160339
      0.10124670      0.57020840
      0.03901771      0.59549800
      5.65609327     -0.02515692
      1.46654053     -0.12582293
      0.51700092     -0.24296966
      0.20582697     -0.11590927
 
          25   0
s              4   1.000000
     35.19645549     -0.01198412
      6.06112087     -0.05472053
      0.48703692      0.58055871
      0.18562183      0.47700799
p              4   1.000000
      5.67282830      0.05713170
      1.47087967      0.28574555
      0.51853060      0.55178731
      0.20643597      0.26323149
s              7   1.000000
      0.38350848     -0.19598852
      0.04707223      0.94694448
      0.02222627      0.24868200
     35.19645549      0.00547645
      6.06112087      0.02500597
      0.48703692     -0.26530142
      0.18562183     -0.21798122
p              7   1.000000
      1.83062075     -0.01159807
      0.10124670      0.56994670
      0.03901771      0.59522468
      5.67282830     -0.02508574
      1.47087967     -0.12546691
      0.51853060     -0.24228217
      0.20643597     -0.11558130
 
          26   0
s              4   1.000000
     57.26308348     -0.01198412
      9.86117681     -0.05472052
      0.79238763      0.58055871
      0.30199854      0.47700799
p              4   1.000000
      6.74971280      0.05713170
      1.75009974      0.28574555
      0.61696432      0.55178731
      0.24562412      0.26323149
s              7   1.000000
      0.47894987     -0.18908166
      0.05878681      0.91357312
      0.02775758      0.23991818
     57.26308348      0.00423919
      9.86117681      0.01935650
      0.79238763     -0.20536322
      0.30199854     -0.16873383
p              7   1.000000
      2.28619608     -0.01168874
      0.12644335      0.57440266
      0.04872781      0.59987826
      6.74971280     -0.02627566
      1.75009974     -0.13141831
      0.61696432     -0.25377457
      0.24562412     -0.12106378
 
          27   0
s              4   1.000000
     35.06944195     -0.01198412
      6.03924809     -0.05472053
      0.48527935      0.58055871
      0.18495197      0.47700799
p              4   1.000000
      5.65235675      0.05713170
      1.46557170      0.28574555
      0.51665938      0.55178731
      0.20569100      0.26323149
s              7   1.000000
      0.38350848     -0.19610582
      0.04707223      0.94751126
      0.02222627      0.24883083
     35.06944195      0.00549540
      6.03924809      0.02509248
      0.48527935     -0.26621929
      0.18495197     -0.21873537
p              7   1.000000
      1.83062075     -0.01160459
      0.10124670      0.57026712
      0.03901771      0.59555929
      5.65235675     -0.02517287
      1.46557170     -0.12590269
      0.51665938     -0.24312367
      0.20569100     -0.11598274
 
          28   0
s              4   1.000000
     35.06653121     -0.01198412
      6.03874684     -0.05472052
      0.48523908      0.58055871
      0.18493662      0.47700799
p              4   1.000000
      5.65188760      0.05713170
      1.46545006      0.28574555
      0.51661649      0.55178731
      0.20567393      0.26323149
s              7   1.000000
      0.38350848     -0.19610852
      0.04707223      0.94752431
      0.02222627      0.24883427
     35.06653121      0.00549584
      6.03874684      0.02509447
      0.48523908     -0.26624039
      0.18493662     -0.21875272
p              7   1.000000
      1.83062075     -0.01160474
      0.10124670      0.57027450
      0.03901771      0.59556702
      5.65188760     -0.02517487
      1.46545006     -0.12591271
      0.51661649     -0.24314302
      0.20567393     -0.11599198
 
          29   0
s              4   1.000000
     35.01951642     -0.01198412
      6.03065050     -0.05472052
      0.48458850      0.58055871
      0.18468867      0.47700799
p              4   1.000000
      5.64430994      0.05713170
      1.46348528      0.28574555
      0.51592385      0.55178731
      0.20539817      0.26323149
s              7   1.000000
      0.38350848     -0.19615224
      0.04707223      0.94773554
      0.02222627      0.24888975
     35.01951642      0.00550288
      6.03065050      0.02512665
      0.48458850     -0.26658178
      0.18468867     -0.21903321
p              7   1.000000
      1.83062075     -0.01160717
      0.10124670      0.57039393
      0.03901771      0.59569174
      5.64430994     -0.02520728
      1.46348528     -0.12607479
      0.51592385     -0.24345600
      0.20539817     -0.11614129
 
          30   0
s              4   1.000000
     35.01835804     -0.01198412
      6.03045102     -0.05472052
      0.48457247      0.58055871
      0.18468256      0.47700799
p              4   1.000000
      5.64412324      0.05713170
      1.46343688      0.28574555
      0.51590678      0.55178730
      0.20539138      0.26323149
s              7   1.000000
      0.38350848     -0.19615332
      0.04707223      0.94774075
      0.02222627      0.24889111
     35.01835804      0.00550306
      6.03045102      0.02512744
      0.48457247     -0.26659020
      0.18468256     -0.21904013
p              7   1.000000
      1.83062075     -0.01160723
      0.10124670      0.57039688
      0.03901771      0.59569482
      5.64412324     -0.02520808
      1.46343688     -0.12607879
      0.51590678     -0.24346372
      0.20539138     -0.11614497
 
          31   0
s              4   1.000000
     35.11686152     -0.01198412
      6.04741413     -0.05472053
      0.48593553      0.58055871
      0.18520206      0.47700799
p              4   1.000000
      5.65999965      0.05713170
      1.46755339      0.28574555
      0.51735798      0.55178731
      0.20596913      0.26323149
s              7   1.000000
      0.38350848     -0.19606190
      0.04707223      0.94729901
      0.02222627      0.24877511
     35.11686152      0.00548831
      6.04741413      0.02506011
      0.48593553     -0.26587588
      0.18520206     -0.21845322
p              7   1.000000
      1.83062075     -0.01160214
      0.10124670      0.57014713
      0.03901771      0.59543400
      5.65999965     -0.02514027
      1.46755339     -0.12573965
      0.51735798     -0.24280884
      0.20596913     -0.11583255
 
          32   0
s              4   1.000000
     60.85875781     -0.01198412
     10.48038168     -0.05472053
      0.84214339      0.58055871
      0.32096169      0.47700799
p              4   1.000000
      7.17354204      0.05713170
      1.85999233      0.28574555
      0.65570485      0.55178731
      0.26104740      0.26323149
s              7   1.000000
      0.47894987     -0.18788687
      0.05878681      0.90780031
      0.02775758      0.23840214
     60.85875781      0.00399187
     10.48038168      0.01822722
      0.84214339     -0.19338208
      0.32096169     -0.15888970
p              7   1.000000
      2.28619608     -0.01157586
      0.12644335      0.56885548
      0.04872781      0.59408504
      7.17354204     -0.02478710
      1.85999233     -0.12397327
      0.65570485     -0.23939787
      0.26104740     -0.11420534
 
          33   0
s              4   1.000000
     37.08056609     -0.01198412
      6.38558031     -0.05472052
      0.51310862      0.58055871
      0.19555840      0.47700799
p              4   1.000000
      5.97650194      0.05713170
      1.54961771      0.28574555
      0.54628820      0.55178731
      0.21748674      0.26323149
s              7   1.000000
      0.38350848     -0.19437276
      0.04707223      0.93913776
      0.02222627      0.24663184
     37.08056609      0.00520968
      6.38558031      0.02378788
      0.51310862     -0.25237803
      0.19555840     -0.20736290
p              7   1.000000
      1.83062075     -0.01150826
      0.10124670      0.56553351
      0.03901771      0.59061573
      5.97650194     -0.02385864
      1.54961771     -0.11932952
      0.54628820     -0.23043059
      0.21748674     -0.10992748
 
          34   0
s              4   1.000000
     36.92665434     -0.01198412
      6.35907543     -0.05472052
      0.51097884      0.58055871
      0.19474669      0.47700799
p              4   1.000000
      5.95169504      0.05713170
      1.54318565      0.28574555
      0.54402070      0.55178731
      0.21658401      0.26323149
s              7   1.000000
      0.38350848     -0.19449654
      0.04707223      0.93973580
      0.02222627      0.24678889
     36.92665434      0.00523052
      6.35907543      0.02388302
      0.51097884     -0.25338749
      0.19474669     -0.20819231
p              7   1.000000
      1.83062075     -0.01151514
      0.10124670      0.56587155
      0.03901771      0.59096879
      5.95169504     -0.02395451
      1.54318565     -0.11980903
      0.54402070     -0.23135655
      0.21658401     -0.11036921
 
          35   0
s              4   1.000000
     36.85190241     -0.01198412
      6.34620253     -0.05472052
      0.50994445      0.58055871
      0.19435245      0.47700800
p              4   1.000000
      5.93964681      0.05713170
      1.54006173      0.28574555
      0.54291941      0.55178731
      0.21614558      0.26323149
s              7   1.000000
      0.38350848     -0.19455715
      0.04707223      0.94002867
      0.02222627      0.24686579
     36.85190241      0.00524070
      6.34620253      0.02392950
      0.50994445     -0.25388060
      0.19435245     -0.20859747
p              7   1.000000
      1.83062075     -0.01151851
      0.10124670      0.56603710
      0.03901771      0.59114166
      5.93964681     -0.02400134
      1.54006173     -0.12004326
      0.54291941     -0.23180886
      0.21614558     -0.11058499
 
          36   0
s              4   1.000000
     36.83477362     -0.01198412
      6.34325281     -0.05472053
      0.50970743      0.58055871
      0.19426212      0.47700799
p              4   1.000000
      5.93688606      0.05713170
      1.53934590      0.28574555
      0.54266707      0.55178731
      0.21604511      0.26323149
s              7   1.000000
      0.38350848     -0.19457109
      0.04707223      0.94009599
      0.02222627      0.24688349
     36.83477362      0.00524304
      6.34325281      0.02394017
      0.50970743     -0.25399386
      0.19426212     -0.20869052
p              7   1.000000
      1.83062075     -0.01151928
      0.10124670      0.56607515
      0.03901771      0.59118143
      5.93688606     -0.02401210
      1.53934590     -0.12009706
      0.54266707     -0.23191274
      0.21604511     -0.11063454
 
          37   0
s              4   1.000000
     37.08634549     -0.01198412
      6.38657557     -0.05472052
      0.51318860      0.58055871
      0.19558888      0.47700799
p              4   1.000000
      5.97743344      0.05713170
      1.54985923      0.28574555
      0.54637334      0.55178731
      0.21752064      0.26323149
s              7   1.000000
      0.38350848     -0.19436814
      0.04707223      0.93911543
      0.02222627      0.24662597
     37.08634549      0.00520891
      6.38657557      0.02378432
      0.51318860     -0.25234028
      0.19558888     -0.20733188
p              7   1.000000
      1.83062075     -0.01150800
      0.10124670      0.56552088
      0.03901771      0.59060254
      5.97743344     -0.02385505
      1.54985923     -0.11931159
      0.54637334     -0.23039596
      0.21752064     -0.10991096
 
          38   0
s              4   1.000000
     36.92370126     -0.01198412
      6.35856689     -0.05472052
      0.51093798      0.58055871
      0.19473111      0.47700799
p              4   1.000000
      5.95121908      0.05713170
      1.54306224      0.28574555
      0.54397719      0.55178731
      0.21656669      0.26323149
s              7   1.000000
      0.38350848     -0.19449893
      0.04707223      0.93974734
      0.02222627      0.24679191
     36.92370126      0.00523092
      6.35856689      0.02388485
      0.51093798     -0.25340694
      0.19473111     -0.20820828
p              7   1.000000
      1.83062075     -0.01151527
      0.10124670      0.56587807
      0.03901771      0.59097559
      5.95121908     -0.02395635
      1.54306224     -0.11981827
      0.54397719     -0.23137438
      0.21656669     -0.11037772
 
          39   0
s              4   1.000000
     36.85425429     -0.01198412
      6.34660755     -0.05472052
      0.50997700      0.58055871
      0.19436486      0.47700800
p              4   1.000000
      5.94002588      0.05713170
      1.54016001      0.28574555
      0.54295406      0.55178730
      0.21615937      0.26323149
s              7   1.000000
      0.38350848     -0.19455524
      0.04707223      0.94001942
      0.02222627      0.24686338
     36.85425429      0.00524038
      6.34660755      0.02392804
      0.50997700     -0.25386506
      0.19436486     -0.20858470
p              7   1.000000
      1.83062075     -0.01151840
      0.10124670      0.56603188
      0.03901771      0.59113620
      5.94002588     -0.02399986
      1.54016001     -0.12003588
      0.54295406     -0.23179460
      0.21615937     -0.11057818
 
          40   0
s              4   1.000000
     36.83633419     -0.01198412
      6.34352156     -0.05472053
      0.50972902      0.58055871
      0.19427035      0.47700799
p              4   1.000000
      5.93713759      0.05713170
      1.53941112      0.28574555
      0.54269006      0.55178731
      0.21605426      0.26323149
s              7   1.000000
      0.38350848     -0.19456982
      0.04707223      0.94008986
      0.02222627      0.24688188
     36.83633419      0.00524283
      6.34352156      0.02393920
      0.50972902     -0.25398353
      0.19427035     -0.20868204
p              7   1.000000
      1.83062075     -0.01151921
      0.10124670      0.56607169
      0.03901771      0.59117779
      5.93713759     -0.02401112
      1.53941112     -0.12009216
      0.54269006     -0.23190327
      0.21605426     -0.11063003
 
          41   0
s              4   1.000000
     35.07696440     -0.01198412
      6.04054352     -0.05472053
      0.48538345      0.58055871
      0.18499165      0.47700800
p              4   1.000000
      5.65356919      0.05713170
      1.46588607      0.28574555
      0.51677020      0.55178731
      0.20573512      0.26323149
s              7   1.000000
      0.38350848     -0.19609884
      0.04707223      0.94747753
      0.02222627      0.24882199
     35.07696440      0.00549428
      6.04054352      0.02508734
      0.48538345     -0.26616475
      0.18499165     -0.21869057
p              7   1.000000
      1.83062075     -0.01160420
      0.10124670      0.57024806
      0.03901771      0.59553939
      5.65356919     -0.02516769
      1.46588607     -0.12587680
      0.51677020     -0.24307368
      0.20573512     -0.11595889
 
          42   0
s              4   1.000000
     35.04564224     -0.01198412
      6.03514958     -0.05472052
      0.48495002      0.58055871
      0.18482646      0.47700800
p              4   1.000000
      5.64852080      0.05713170
      1.46457710      0.28574555
      0.51630875      0.55178731
      0.20555141      0.26323149
s              7   1.000000
      0.38350848     -0.19612793
      0.04707223      0.94761807
      0.02222627      0.24885889
     35.04564224      0.00549897
      6.03514958      0.02510876
      0.48495002     -0.26639197
      0.18482646     -0.21887726
p              7   1.000000
      1.83062075     -0.01160581
      0.10124670      0.57032751
      0.03901771      0.59562236
      5.64852080     -0.02518926
      1.46457710     -0.12598468
      0.51630875     -0.24328199
      0.20555141     -0.11605827
 
          43   0
s              4   1.000000
     77.85605666     -0.01198412
     13.40745719     -0.05472052
      1.07734639      0.58055871
      0.41060338      0.47700799
p              4   1.000000
      8.02873293      0.05713170
      2.08173056      0.28574555
      0.73387444      0.55178731
      0.29216806      0.26323149
s              7   1.000000
      0.57971233     -0.18690558
      0.07115450      0.90305906
      0.03359728      0.23715702
     77.85605666      0.00377793
     13.40745719      0.01725034
      1.07734639     -0.18301790
      0.41060338     -0.15037412
p              7   1.000000
      2.76717072     -0.01172316
      0.15304476      0.57609428
      0.05897927      0.60164490
      8.02873293     -0.02671584
      2.08173056     -0.13361989
      0.73387444     -0.25802592
      0.29216806     -0.12309190
 
          44   0
s              4   1.000000
     35.04474378     -0.01198412
      6.03499486     -0.05472052
      0.48493759      0.58055871
      0.18482172      0.47700799
p              4   1.000000
      5.64837599      0.05713170
      1.46453955      0.28574555
      0.51629551      0.55178731
      0.20554614      0.26323149
s              7   1.000000
      0.38350848     -0.19612876
      0.04707223      0.94762210
      0.02222627      0.24885994
     35.04474378      0.00549910
      6.03499486      0.02510937
      0.48493759     -0.26639849
      0.18482172     -0.21888261
p              7   1.000000
      1.83062075     -0.01160586
      0.10124670      0.57032979
      0.03901771      0.59562475
      5.64837599     -0.02518988
      1.46453955     -0.12598777
      0.51629551     -0.24328797
      0.20554614     -0.11606112
 
          45   0
s              4   1.000000
     77.85618539     -0.01198412
     13.40747936     -0.05472052
      1.07734817      0.58055871
      0.41060406      0.47700799
p              4   1.000000
      8.02874620      0.05713170
      2.08173400      0.28574555
      0.73387565      0.55178731
      0.29216854      0.26323149
s              7   1.000000
      0.57971233     -0.18690555
      0.07115450      0.90305892
      0.03359728      0.23715698
     77.85618539      0.00377792
     13.40747936      0.01725031
      1.07734817     -0.18301760
      0.41060406     -0.15037387
p              7   1.000000
      2.76717072     -0.01172316
      0.15304476      0.57609411
      0.05897927      0.60164473
      8.02874620     -0.02671580
      2.08173400     -0.13361968
      0.73387565     -0.25802551
      0.29216854     -0.12309170
 
          46   0
s              4   1.000000
     35.07712229     -0.01198412
      6.04057071     -0.05472052
      0.48538563      0.58055871
      0.18499248      0.47700800
p              4   1.000000
      5.65359463      0.05713170
      1.46589267      0.28574555
      0.51677253      0.55178731
      0.20573605      0.26323149
s              7   1.000000
      0.38350848     -0.19609870
      0.04707223      0.94747683
      0.02222627      0.24882179
     35.07712229      0.00549425
      6.04057071      0.02508723
      0.48538563     -0.26616361
      0.18499248     -0.21868962
p              7   1.000000
      1.83062075     -0.01160419
      0.10124670      0.57024766
      0.03901771      0.59553898
      5.65359463     -0.02516758
      1.46589267     -0.12587626
      0.51677253     -0.24307263
      0.20573605     -0.11595839
 
          47   0
s              4   1.000000
      8.30588231      0.05675242
      1.51987413      0.26014135
      0.42223768      0.53284611
      0.14013689      0.29162544
s              7   1.000000
      0.92936822     -0.06733237
      0.05643440      0.66949462
      0.02166600      0.51464478
      8.30588231     -0.02903091
      1.51987413     -0.13307171
      0.42223768     -0.27257005
      0.14013689     -0.14917695
p              4   1.000000
      0.64737396      0.05713170
      0.16785440      0.28574555
      0.05917387      0.55178731
      0.02355814      0.26323150
 
          48   0
s              4   1.000000
      8.30587505      0.05675242
      1.51987280      0.26014135
      0.42223731      0.53284611
      0.14013677      0.29162544
s              7   1.000000
      0.92936822     -0.06733238
      0.05643440      0.66949472
      0.02166600      0.51464486
      8.30587505     -0.02903093
      1.51987280     -0.13307180
      0.42223731     -0.27257023
      0.14013677     -0.14917706
p              4   1.000000
      0.64737396      0.05713170
      0.16785440      0.28574555
      0.05917387      0.55178731
      0.02355814      0.26323150
 
          49   0
s              4   1.000000
      8.30569888      0.05675242
      1.51984056      0.26014135
      0.42222835      0.53284611
      0.14013379      0.29162544
s              7   1.000000
      0.92936822     -0.06733261
      0.05643440      0.66949697
      0.02166600      0.51464660
      8.30569888     -0.02903141
      1.51984056     -0.13307396
      0.42222835     -0.27257466
      0.14013379     -0.14917948
p              4   1.000000
      0.64737396      0.05713170
      0.16785440      0.28574555
      0.05917387      0.55178731
      0.02355814      0.26323150
 
          50   0
s              4   1.000000
      8.30804434      0.05675242
      1.52026975      0.26014135
      0.42234759      0.53284611
      0.14017337      0.29162544
s              7   1.000000
      0.92936822     -0.06732959
      0.05643440      0.66946694
      0.02166600      0.51462351
      8.30804434     -0.02902513
      1.52026975     -0.13304518
      0.42234759     -0.27251572
      0.14017337     -0.14914722
p              4   1.000000
      0.64737396      0.05713170
      0.16785440      0.28574555
      0.05917387      0.55178731
      0.02355814      0.26323150
 
          51   0
s              4   1.000000
      8.30811705      0.05675242
      1.52028306      0.26014135
      0.42235128      0.53284611
      0.14017459      0.29162544
s              7   1.000000
      0.92936822     -0.06732949
      0.05643440      0.66946602
      0.02166600      0.51462279
      8.30811705     -0.02902493
      1.52028306     -0.13304429
      0.42235128     -0.27251389
      0.14017459     -0.14914622
p              4   1.000000
      0.64737396      0.05713170
      0.16785440      0.28574555
      0.05917387      0.55178731
      0.02355814      0.26323150
 
          52   0
s              4   1.000000
      8.30854843      0.05675242
      1.52036200      0.26014135
      0.42237321      0.53284611
      0.14018187      0.29162544
s              7   1.000000
      0.92936822     -0.06732894
      0.05643440      0.66946050
      0.02166600      0.51461857
      8.30854843     -0.02902378
      1.52036200     -0.13303900
      0.42237321     -0.27250306
      0.14018187     -0.14914029
p              4   1.000000
      0.64737396      0.05713170
      0.16785440      0.28574555
      0.05917387      0.55178731
      0.02355814      0.26323150
 
          53   0
s              4   1.000000
      8.30872138      0.05675242
      1.52039364      0.26014135
      0.42238200      0.53284611
      0.14018479      0.29162544
s              7   1.000000
      0.92936822     -0.06732872
      0.05643440      0.66945829
      0.02166600      0.51461686
      8.30872138     -0.02902332
      1.52039364     -0.13303688
      0.42238200     -0.27249871
      0.14018479     -0.14913791
p              4   1.000000
      0.64737396      0.05713170
      0.16785440      0.28574555
      0.05917387      0.55178731
      0.02355814      0.26323150
 
          54   0
s              4   1.000000
      8.30866838      0.05675242
      1.52038395      0.26014135
      0.42237931      0.53284611
      0.14018390      0.29162544
s              7   1.000000
      0.92936822     -0.06732878
      0.05643440      0.66945897
      0.02166600      0.51461738
      8.30866838     -0.02902346
      1.52038395     -0.13303753
      0.42237931     -0.27250004
      0.14018390     -0.14913864
p              4   1.000000
      0.64737396      0.05713170
      0.16785440      0.28574555
      0.05917387      0.55178731
      0.02355814      0.26323150
 
          55   0
s              4   1.000000
      8.30904621      0.05675242
      1.52045309      0.26014135
      0.42239852      0.53284611
      0.14019027      0.29162544
s              7   1.000000
      0.92936822     -0.06732830
      0.05643440      0.66945413
      0.02166600      0.51461368
      8.30904621     -0.02902245
      1.52045309     -0.13303290
      0.42239852     -0.27249055
      0.14019027     -0.14913345
p              4   1.000000
      0.64737396      0.05713170
      0.16785440      0.28574555
      0.05917387      0.55178731
      0.02355814      0.26323150
 
          56   0
s              4   1.000000
      8.30916195      0.05675242
      1.52047427      0.26014135
      0.42240440      0.53284611
      0.14019222      0.29162544
s              7   1.000000
      0.92936822     -0.06732815
      0.05643440      0.66945266
      0.02166600      0.51461253
      8.30916195     -0.02902214
      1.52047427     -0.13303148
      0.42240440     -0.27248764
      0.14019222     -0.14913185
p              4   1.000000
      0.64737396      0.05713170
      0.16785440      0.28574555
      0.05917387      0.55178731
      0.02355814      0.26323150
 
          57   0
s              4   1.000000
      8.30870632      0.05675242
      1.52039089      0.26014135
      0.42238124      0.53284611
      0.14018454      0.29162544
s              7   1.000000
      0.92936822     -0.06732873
      0.05643440      0.66945849
      0.02166600      0.51461701
      8.30870632     -0.02902336
      1.52039089     -0.13303706
      0.42238124     -0.27249909
      0.14018454     -0.14913812
p              4   1.000000
      0.64737396      0.05713170
      0.16785440      0.28574555
      0.05917387      0.55178731
      0.02355814      0.26323150
 
          58   0
s              4   1.000000
      8.30819062      0.05675242
      1.52029652      0.26014135
      0.42235502      0.53284611
      0.14017583      0.29162543
s              7   1.000000
      0.92936822     -0.06732940
      0.05643440      0.66946508
      0.02166600      0.51462207
      8.30819062     -0.02902474
      1.52029652     -0.13304339
      0.42235502     -0.27251204
      0.14017583     -0.14914521
p              4   1.000000
      0.64737396      0.05713170
      0.16785440      0.28574555
      0.05917387      0.55178731
      0.02355814      0.26323150
 
          59   0
s              4   1.000000
      8.30877595      0.05675242
      1.52040363      0.26014135
      0.42238478      0.53284611
      0.14018571      0.29162544
s              7   1.000000
      0.92936822     -0.06732865
      0.05643440      0.66945759
      0.02166600      0.51461633
      8.30877595     -0.02902317
      1.52040363     -0.13303621
      0.42238478     -0.27249734
      0.14018571     -0.14913716
p              4   1.000000
      0.64737396      0.05713170
      0.16785440      0.28574555
      0.05917387      0.55178731
      0.02355814      0.26323150
 
          60   0
s              4   1.000000
      8.30820420      0.05675242
      1.52029901      0.26014135
      0.42235571      0.53284611
      0.14017606      0.29162544
s              7   1.000000
      0.92936822     -0.06732938
      0.05643440      0.66946491
      0.02166600      0.51462195
      8.30820420     -0.02902470
      1.52029901     -0.13304322
      0.42235571     -0.27251170
      0.14017606     -0.14914502
p              4   1.000000
      0.64737396      0.05713170
      0.16785440      0.28574555
      0.05917387      0.55178731
      0.02355814      0.26323150
 
          61   0
s              4   1.000000
      8.30841819      0.05675242
      1.52033817      0.26014135
      0.42236659      0.53284611
      0.14017967      0.29162544
s              7   1.000000
      0.92936822     -0.06732911
      0.05643440      0.66946217
      0.02166600      0.51461984
      8.30841819     -0.02902413
      1.52033817     -0.13304060
      0.42236659     -0.27250633
      0.14017967     -0.14914208
p              4   1.000000
      0.64737396      0.05713170
      0.16785440      0.28574555
      0.05917387      0.55178731
      0.02355814      0.26323150
 
          62   0
s              4   1.000000
      8.30589761      0.05675242
      1.51987693      0.26014135
      0.42223845      0.53284611
      0.14013715      0.29162544
s              7   1.000000
      0.92936822     -0.06733235
      0.05643440      0.66949443
      0.02166600      0.51464463
      8.30589761     -0.02903087
      1.51987693     -0.13307152
      0.42223845     -0.27256966
      0.14013715     -0.14917675
p              4   1.000000
      0.64737396      0.05713170
      0.16785440      0.28574555
      0.05917387      0.55178731
      0.02355814      0.26323150
 
          63   0
s              4   1.000000
      8.30573222      0.05675242
      1.51984666      0.26014135
      0.42223005      0.53284611
      0.14013436      0.29162544
s              7   1.000000
      0.92936822     -0.06733256
      0.05643440      0.66949655
      0.02166600      0.51464627
      8.30573222     -0.02903132
      1.51984666     -0.13307355
      0.42223005     -0.27257382
      0.14013436     -0.14917902
p              4   1.000000
      0.64737396      0.05713170
      0.16785440      0.28574555
      0.05917387      0.55178731
      0.02355814      0.26323150
 
          64   0
s              4   1.000000
      8.30585663      0.05675242
      1.51986943      0.26014135
      0.42223637      0.53284611
      0.14013646      0.29162544
s              7   1.000000
      0.92936822     -0.06733240
      0.05643440      0.66949495
      0.02166600      0.51464506
      8.30585663     -0.02903098
      1.51986943     -0.13307202
      0.42223637     -0.27257069
      0.14013646     -0.14917730
p              4   1.000000
      0.64737396      0.05713170
      0.16785440      0.28574555
      0.05917387      0.55178731
      0.02355814      0.26323150
 
          65   0
s              4   1.000000
      8.31056743      0.05675242
      1.52073145      0.26014135
      0.42247585      0.53284611
      0.14021594      0.29162544
s              7   1.000000
      0.92936822     -0.06732634
      0.05643440      0.66943467
      0.02166600      0.51459872
      8.31056743     -0.02901838
      1.52073145     -0.13301424
      0.42247585     -0.27245235
      0.14021594     -0.14911254
p              4   1.000000
      0.64737396      0.05713170
      0.16785440      0.28574555
      0.05917387      0.55178731
      0.02355814      0.26323150
 
          66   0
s              4   1.000000
      8.30975727      0.05675242
      1.52058320      0.26014135
      0.42243466      0.53284611
      0.14020227      0.29162544
s              7   1.000000
      0.92936822     -0.06732738
      0.05643440      0.66944503
      0.02166600      0.51460667
      8.30975727     -0.02902055
      1.52058320     -0.13302418
      0.42243466     -0.27247269
      0.14020227     -0.14912368
p              4   1.000000
      0.64737396      0.05713170
      0.16785440      0.28574555
      0.05917387      0.55178731
      0.02355814      0.26323150
 
          67   0
s              4   1.000000
      8.30895863      0.05675242
      1.52043706      0.26014135
      0.42239406      0.53284611
      0.14018879      0.29162544
s              7   1.000000
      0.92936822     -0.06732841
      0.05643440      0.66945525
      0.02166600      0.51461452
      8.30895863     -0.02902268
      1.52043706     -0.13303397
      0.42239406     -0.27249275
      0.14018879     -0.14913465
p              4   1.000000
      0.64737396      0.05713170
      0.16785440      0.28574555
      0.05917387      0.55178731
      0.02355814      0.26323150
 
          68   0
s              4   1.000000
      8.30953600      0.05675242
      1.52054271      0.26014135
      0.42242342      0.53284611
      0.14019853      0.29162544
s              7   1.000000
      0.92936822     -0.06732767
      0.05643440      0.66944787
      0.02166600      0.51460886
      8.30953600     -0.02902114
      1.52054271     -0.13302689
      0.42242342     -0.27247825
      0.14019853     -0.14912671
p              4   1.000000
      0.64737396      0.05713170
      0.16785440      0.28574555
      0.05917387      0.55178731
      0.02355814      0.26323150
 
          69   0
s              4   1.000000
      8.30953045      0.05675242
      1.52054169      0.26014135
      0.42242313      0.53284611
      0.14019844      0.29162544
s              7   1.000000
      0.92936822     -0.06732767
      0.05643440      0.66944794
      0.02166600      0.51460891
      8.30953045     -0.02902115
      1.52054169     -0.13302696
      0.42242313     -0.27247839
      0.14019844     -0.14912679
p              4   1.000000
      0.64737396      0.05713170
      0.16785440      0.28574555
      0.05917387      0.55178731
      0.02355814      0.26323150
 
          70   0
s              4   1.000000
      8.30894382      0.05675242
      1.52043435      0.26014135
      0.42239331      0.53284611
      0.14018854      0.29162544
s              7   1.000000
      0.92936822     -0.06732843
      0.05643440      0.66945544
      0.02166600      0.51461467
      8.30894382     -0.02902272
      1.52043435     -0.13303415
      0.42239331     -0.27249313
      0.14018854     -0.14913485
p              4   1.000000
      0.64737396      0.05713170
      0.16785440      0.28574555
      0.05917387      0.55178731
      0.02355814      0.26323150
 
          71   0
s              4   1.000000
      8.30970788      0.05675242
      1.52057416      0.26014135
      0.42243215      0.53284611
      0.14020143      0.29162544
s              7   1.000000
      0.92936822     -0.06732745
      0.05643440      0.66944566
      0.02166600      0.51460717
      8.30970788     -0.02902068
      1.52057416     -0.13302478
      0.42243215     -0.27247393
      0.14020143     -0.14912435
p              4   1.000000
      0.64737396      0.05713170
      0.16785440      0.28574555
      0.05917387      0.55178731
      0.02355814      0.26323150
 
          72   0
s              4   1.000000
      8.31051595      0.05675242
      1.52072203      0.26014135
      0.42247323      0.53284611
      0.14021507      0.29162544
s              7   1.000000
      0.92936822     -0.06732641
      0.05643440      0.66943533
      0.02166600      0.51459922
      8.31051595     -0.02901852
      1.52072203     -0.13301488
      0.42247323     -0.27245364
      0.14021507     -0.14911324
p              4   1.000000
      0.64737396      0.05713170
      0.16785440      0.28574555
      0.05917387      0.55178731
      0.02355814      0.26323150
 
          73   0
s              4   1.000000
      8.30899681      0.05675242
      1.52044405      0.26014135
      0.42239601      0.53284611
      0.14018944      0.29162544
s              7   1.000000
      0.92936822     -0.06732836
      0.05643440      0.66945476
      0.02166600      0.51461415
      8.30899681     -0.02902258
      1.52044405     -0.13303350
      0.42239601     -0.27249179
      0.14018944     -0.14913413
p              4   1.000000
      0.64737396      0.05713170
      0.16785440      0.28574555
      0.05917387      0.55178731
      0.02355814      0.26323150
 
          74   0
s              4   1.000000
      8.30871466      0.05675242
      1.52039242      0.26014135
      0.42238166      0.53284611
      0.14018468      0.29162544
s              7   1.000000
      0.92936822     -0.06732872
      0.05643440      0.66945838
      0.02166600      0.51461693
      8.30871466     -0.02902333
      1.52039242     -0.13303696
      0.42238166     -0.27249888
      0.14018468     -0.14913800
p              4   1.000000
      0.64737396      0.05713170
      0.16785440      0.28574555
      0.05917387      0.55178731
      0.02355814      0.26323150
 
          75   0
s              4   1.000000
      8.30869668      0.05675242
      1.52038913      0.26014135
      0.42238075      0.53284611
      0.14018437      0.29162544
s              7   1.000000
      0.92936822     -0.06732875
      0.05643440      0.66945861
      0.02166600      0.51461710
      8.30869668     -0.02902338
      1.52038913     -0.13303718
      0.42238075     -0.27249933
      0.14018437     -0.14913825
p              4   1.000000
      0.64737396      0.05713170
      0.16785440      0.28574555
      0.05917387      0.55178731
      0.02355814      0.26323150
 
          76   0
s              4   1.000000
      8.30826116      0.05675242
      1.52030943      0.26014135
      0.42235861      0.53284611
      0.14017703      0.29162544
s              7   1.000000
      0.92936822     -0.06732931
      0.05643440      0.66946418
      0.02166600      0.51462138
      8.30826116     -0.02902455
      1.52030943     -0.13304252
      0.42235861     -0.27251027
      0.14017703     -0.14914424
p              4   1.000000
      0.64737396      0.05713170
      0.16785440      0.28574555
      0.05917387      0.55178731
      0.02355814      0.26323150
 
          77   0
s              4   1.000000
      8.30799079      0.05675242
      1.52025996      0.26014135
      0.42234486      0.53284611
      0.14017246      0.29162544
s              7   1.000000
      0.92936822     -0.06732966
      0.05643440      0.66946763
      0.02166600      0.51462404
      8.30799079     -0.02902527
      1.52025996     -0.13304584
      0.42234486     -0.27251706
      0.14017246     -0.14914796
p              4   1.000000
      0.64737396      0.05713170
      0.16785440      0.28574555
      0.05917387      0.55178731
      0.02355814      0.26323150
 
          78   0
s              4   1.000000
      8.30808065      0.05675242
      1.52027640      0.26014135
      0.42234943      0.53284611
      0.14017398      0.29162544
s              7   1.000000
      0.92936822     -0.06732954
      0.05643440      0.66946648
      0.02166600      0.51462317
      8.30808065     -0.02902503
      1.52027640     -0.13304474
      0.42234943     -0.27251481
      0.14017398     -0.14914672
p              4   1.000000
      0.64737396      0.05713170
      0.16785440      0.28574555
      0.05917387      0.55178731
      0.02355814      0.26323150
 
          79   0
s              4   1.000000
      8.30591765      0.05675242
      1.51988060      0.26014135
      0.42223947      0.53284611
      0.14013749      0.29162544
s              7   1.000000
      0.92936822     -0.06733233
      0.05643440      0.66949417
      0.02166600      0.51464444
      8.30591765     -0.02903082
      1.51988060     -0.13307127
      0.42223947     -0.27256916
      0.14013749     -0.14917647
p              4   1.000000
      0.64737396      0.05713170
      0.16785440      0.28574555
      0.05917387      0.55178731
      0.02355814      0.26323150
 
          80   0
s              4   1.000000
      8.30573190      0.05675242
      1.51984661      0.26014135
      0.42223003      0.53284611
      0.14013435      0.29162544
s              7   1.000000
      0.92936822     -0.06733256
      0.05643440      0.66949655
      0.02166600      0.51464627
      8.30573190     -0.02903132
      1.51984661     -0.13307355
      0.42223003     -0.27257383
      0.14013435     -0.14917902
p              4   1.000000
      0.64737396      0.05713170
      0.16785440      0.28574555
      0.05917387      0.55178731
      0.02355814      0.26323150
 
          81   0
s              4   1.000000
      8.30593027      0.05675242
      1.51988291      0.26014135
      0.42224011      0.53284611
      0.14013770      0.29162544
s              7   1.000000
      0.92936822     -0.06733231
      0.05643440      0.66949402
      0.02166600      0.51464431
      8.30593027     -0.02903079
      1.51988291     -0.13307112
      0.42224011     -0.27256884
      0.14013770     -0.14917629
p              4   1.000000
      0.64737396      0.05713170
      0.16785440      0.28574555
      0.05917387      0.55178731
      0.02355814      0.26323150
 
          82   0
s              4   1.000000
      8.30899341      0.05675242
      1.52044343      0.26014135
      0.42239583      0.53284611
      0.14018938      0.29162544
s              7   1.000000
      0.92936822     -0.06732837
      0.05643440      0.66945480
      0.02166600      0.51461420
      8.30899341     -0.02902259
      1.52044343     -0.13303354
      0.42239583     -0.27249188
      0.14018938     -0.14913417
p              4   1.000000
      0.64737396      0.05713170
      0.16785440      0.28574555
      0.05917387      0.55178731
      0.02355814      0.26323150
 
          83   0
s              4   1.000000
      8.30929422      0.05675242
      1.52049847      0.26014135
      0.42241112      0.53284611
      0.14019445      0.29162544
s              7   1.000000
      0.92936822     -0.06732798
      0.05643440      0.66945096
      0.02166600      0.51461124
      8.30929422     -0.02902178
      1.52049847     -0.13302985
      0.42241112     -0.27248432
      0.14019445     -0.14913004
p              4   1.000000
      0.64737396      0.05713170
      0.16785440      0.28574555
      0.05917387      0.55178731
      0.02355814      0.26323150
 
          84   0
s              4   1.000000
      8.30862018      0.05675242
      1.52037513      0.26014135
      0.42237686      0.53284611
      0.14018308      0.29162544
s              7   1.000000
      0.92936822     -0.06732885
      0.05643440      0.66945958
      0.02166600      0.51461785
      8.30862018     -0.02902359
      1.52037513     -0.13303812
      0.42237686     -0.27250125
      0.14018308     -0.14913931
p              4   1.000000
      0.64737396      0.05713170
      0.16785440      0.28574555
      0.05917387      0.55178731
      0.02355814      0.26323150
 
          85   0
s              4   1.000000
      8.30814632      0.05675242
      1.52028842      0.26014135
      0.42235277      0.53284611
      0.14017509      0.29162544
s              7   1.000000
      0.92936822     -0.06732946
      0.05643440      0.66946565
      0.02166600      0.51462252
      8.30814632     -0.02902486
      1.52028842     -0.13304393
      0.42235277     -0.27251316
      0.14017509     -0.14914582
p              4   1.000000
      0.64737396      0.05713170
      0.16785440      0.28574555
      0.05917387      0.55178731
      0.02355814      0.26323150
 
          86   0
s              4   1.000000
      8.30821438      0.05675242
      1.52030087      0.26014135
      0.42235623      0.53284611
      0.14017624      0.29162544
s              7   1.000000
      0.92936822     -0.06732937
      0.05643440      0.66946477
      0.02166600      0.51462185
      8.30821438     -0.02902467
      1.52030087     -0.13304310
      0.42235623     -0.27251145
      0.14017624     -0.14914488
p              4   1.000000
      0.64737396      0.05713170
      0.16785440      0.28574555
      0.05917387      0.55178731
      0.02355814      0.26323150
 
          87   0
s              4   1.000000
      8.30808905      0.05675242
      1.52027794      0.26014135
      0.42234986      0.53284611
      0.14017412      0.29162544
s              7   1.000000
      0.92936822     -0.06732953
      0.05643440      0.66946637
      0.02166600      0.51462309
      8.30808905     -0.02902501
      1.52027794     -0.13304463
      0.42234986     -0.27251460
      0.14017412     -0.14914660
p              4   1.000000
      0.64737396      0.05713170
      0.16785440      0.28574555
      0.05917387      0.55178731
      0.02355814      0.26323150
 
          88   0
s              4   1.000000
      8.30590180      0.05675242
      1.51987770      0.26014135
      0.42223867      0.53284611
      0.14013722      0.29162544
s              7   1.000000
      0.92936822     -0.06733234
      0.05643440      0.66949438
      0.02166600      0.51464461
      8.30590180     -0.02903086
      1.51987770     -0.13307147
      0.42223867     -0.27256956
      0.14013722     -0.14917668
p              4   1.000000
      0.64737396      0.05713170
      0.16785440      0.28574555
      0.05917387      0.55178731
      0.02355814      0.26323150
 
          89   0
s              4   1.000000
      8.30601978      0.05675242
      1.51989929      0.26014135
      0.42224467      0.53284611
      0.14013921      0.29162544
s              7   1.000000
      0.92936822     -0.06733219
      0.05643440      0.66949286
      0.02166600      0.51464344
      8.30601978     -0.02903055
      1.51989929     -0.13307002
      0.42224467     -0.27256659
      0.14013921     -0.14917506
p              4   1.000000
      0.64737396      0.05713170
      0.16785440      0.28574555
      0.05917387      0.55178731
      0.02355814      0.26323150
 
          90   0
s              4   1.000000
      8.30572784      0.05675242
      1.51984586      0.26014135
      0.42222982      0.53284611
      0.14013428      0.29162544
s              7   1.000000
      0.92936822     -0.06733257
      0.05643440      0.66949660
      0.02166600      0.51464632
      8.30572784     -0.02903133
      1.51984586     -0.13307360
      0.42222982     -0.27257393
      0.14013428     -0.14917908
p              4   1.000000
      0.64737396      0.05713170
      0.16785440      0.28574555
      0.05917387      0.55178731
      0.02355814      0.26323150
 
          91   0
s              4   1.000000
      8.31068557      0.05675242
      1.52075307      0.26014135
      0.42248186      0.53284611
      0.14021793      0.29162544
s              7   1.000000
      0.92936822     -0.06732619
      0.05643440      0.66943316
      0.02166600      0.51459755
      8.31068557     -0.02901806
      1.52075307     -0.13301280
      0.42248186     -0.27244938
      0.14021793     -0.14911091
p              4   1.000000
      0.64737396      0.05713170
      0.16785440      0.28574555
      0.05917387      0.55178731
      0.02355814      0.26323150
 
          92   0
s              4   1.000000
      8.32929080      0.05675242
      1.52415759      0.26014135
      0.42342767      0.53284611
      0.14053184      0.29162544
s              7   1.000000
      0.92936822     -0.06730233
      0.05643440      0.66919589
      0.02166600      0.51441516
      8.32929080     -0.02896840
      1.52415759     -0.13278516
      0.42342767     -0.27198312
      0.14053184     -0.14885573
p              4   1.000000
      0.64737396      0.05713170
      0.16785440      0.28574555
      0.05917387      0.55178731
      0.02355814      0.26323150
 
          93   0
s              4   1.000000
      8.32928317      0.05675242
      1.52415620      0.26014135
      0.42342728      0.53284611
      0.14053171      0.29162544
s              7   1.000000
      0.92936822     -0.06730234
      0.05643440      0.66919598
      0.02166600      0.51441523
      8.32928317     -0.02896842
      1.52415620     -0.13278525
      0.42342728     -0.27198331
      0.14053171     -0.14885584
p              4   1.000000
      0.64737396      0.05713170
      0.16785440      0.28574555
      0.05917387      0.55178731
      0.02355814      0.26323150
 
          94   0
s              4   1.000000
      8.31067647      0.05675242
      1.52075140      0.26014135
      0.42248139      0.53284611
      0.14021778      0.29162544
s              7   1.000000
      0.92936822     -0.06732620
      0.05643440      0.66943328
      0.02166600      0.51459765
      8.31067647     -0.02901809
      1.52075140     -0.13301291
      0.42248139     -0.27244961
      0.14021778     -0.14911104
p              4   1.000000
      0.64737396      0.05713170
      0.16785440      0.28574555
      0.05917387      0.55178731
      0.02355814      0.26323150
 
 [MO]
 Sym= Hole
 Ene= -0.6625028    
 Spin= Alpha
 Occup= 0
           1 -1.0401423E-04
           2 -1.3388613E-04
           3  3.8847538E-05
           4  2.0783662E-04
           5 -1.9369763E-04
           6 -1.7358230E-04
           7 -1.7934597E-04
           8  1.5201668E-05
           9  1.5821586E-04
          10 -3.5487406E-04
          11  9.2246846E-05
          12 -3.7138653E-04
          13  1.4523464E-05
          14 -4.4940159E-04
          15 -7.4835628E-04
          16 -2.6539093E-04
          17  4.4837486E-04
          18 -7.4467034E-04
          19 -3.5774024E-04
          20  5.1716965E-04
          21 -1.5623033E-03
          22 -3.0311663E-04
          23 -1.0531108E-04
          24  1.9050087E-03
          25 -8.5994002E-04
          26 -5.1844429E-04
          27  6.6320947E-04
          28 -3.1266259E-03
          29  5.0574867E-04
          30 -1.3123867E-04
          31  6.3748294E-06
          32 -8.0689095E-04
          33 -3.8153208E-03
          34 -4.3904823E-03
          35  2.7405226E-03
          36 -2.1599031E-03
          37  1.2300500E-03
          38  9.0114940E-05
          39 -4.5672706E-03
          40  5.3825420E-03
          41  1.7073783E-04
          42  1.3101944E-03
          43  4.9072672E-03
          44 -2.5313676E-03
          45  3.0000380E-04
          46  5.0848344E-04
          47 -3.2778669E-05
          48 -4.4634100E-04
          49 -8.7846107E-05
          50  1.2790686E-03
          51 -4.7598217E-04
          52  2.9557766E-04
          53  9.4459171E-04
          54 -3.3506996E-05
          55  5.6882791E-04
          56  1.7959495E-03
          57 -7.9326006E-04
          58 -5.0872494E-04
          59  8.4642723E-04
          60 -1.1591801E-03
          61  7.0963486E-04
          62  7.2616531E-04
          63  2.7707836E-04
          64  7.0154836E-04
          65  7.4931857E-05
          66  5.1558953E-05
          67  3.6265547E-04
          68 -3.0492368E-04
          69  6.8050518E-05
          70 -1.4931631E-04
          71  5.5869215E-05
          72  3.3374516E-05
          73  4.8838919E-03
          74  1.1622105E-03
          75 -2.2664469E-02
          76  3.3636011E-02
          77 -7.7902968E-04
          78 -6.1144400E-04
          79  4.6409755E-03
          80 -4.8373723E-03
          81 -1.2117798E-03
          82 -6.2294882E-03
          83 -1.4511965E-02
          84  2.4724739E-02
          85  4.7164067E-04
          86 -1.1106619E-03
          87  2.1666170E-03
          88 -6.5805963E-03
          89 -8.5427435E-03
          90 -2.9885152E-04
          91  2.8661966E-02
          92 -4.2079080E-02
          93  7.2840331E-03
          94 -3.1709231E-03
          95 -5.0128731E-03
          96  6.2971754E-05
          97 -1.9072240E-02
          98 -5.2113131E-02
          99  6.1977215E-02
         100 -2.0745719E-02
         101  2.4705613E-02
         102  1.0951581E-02
         103 -1.0032807E-02
         104  1.6166186E-02
         105 -4.2304005E-02
         106 -5.6507148E-02
         107 -0.1705967    
         108  6.8629883E-02
         109  2.9279808E-02
         110  1.1088004E-02
         111  1.9708192E-02
         112  1.0985762E-02
         113  0.1598315    
         114 -0.1198964    
         115  0.2283473    
         116  0.2644445    
         117 -6.4992592E-02
         118  1.4031880E-02
         119 -1.9365376E-02
         120 -3.8700886E-03
         121 -3.0335477E-02
         122  7.8292243E-02
         123 -0.1635714    
         124 -0.2752303    
         125  1.6607022E-02
         126 -2.0799525E-02
         127  2.3182387E-02
         128  8.1970757E-03
         129  8.0911042E-03
         130 -1.2420187E-02
         131 -8.9331448E-02
         132 -0.1609107    
         133  8.3999746E-03
         134 -8.6045647E-03
         135 -4.9402462E-03
         136  8.4745409E-03
         137 -6.2371437E-03
         138  4.1573010E-03
         139  9.7968221E-02
         140  0.2196402    
         141  2.6325830E-03
         142  4.7903135E-03
         143 -7.1066548E-03
         144 -1.1007103E-02
         145  5.6419354E-03
         146 -5.2917185E-03
         147  7.1117585E-03
         148  2.5222043E-02
         149 -1.9335357E-03
         150  3.3799186E-03
         151  1.7943059E-03
         152 -2.1872139E-03
         153  5.4473345E-05
         154  3.4079219E-03
         155 -4.3938607E-02
         156 -0.1066343    
         157  7.7954470E-04
         158 -1.3389736E-03
         159  8.0605841E-04
         160  1.8701112E-03
         161  6.7317165E-03
         162 -2.0029329E-02
         163  9.5356770E-02
         164  0.2158047    
         165 -2.7847139E-03
         166 -3.5279489E-03
         167 -7.6537007E-03
         168 -1.0742759E-02
         169 -6.1648120E-03
         170  4.4651101E-03
         171  7.0566433E-03
         172  2.4878962E-02
         173  2.0589137E-03
         174 -3.4577707E-03
         175  1.4601925E-03
         176 -2.2972878E-03
         177 -1.9339997E-04
         178  3.3613543E-03
         179 -4.2908255E-02
         180 -0.1053083    
         181 -7.4510125E-04
         182  1.1756475E-03
         183  9.1498188E-04
         184  1.8845096E-03
         185 -1.1158075E-02
         186  3.0505633E-02
         187 -9.0410352E-02
         188 -0.1626546    
         189 -6.5884870E-03
         190  7.9648299E-03
         191 -3.6183512E-03
         192  8.8684075E-03
         193  3.2324225E-02
         194 -5.3865232E-02
         195 -0.1635157    
         196 -0.2763468    
         197 -1.7044917E-02
         198  1.7396083E-02
         199  2.4415726E-02
         200  8.8714864E-03
         201 -0.1567137    
         202  9.3294792E-02
         203  0.2273201    
         204  0.2814585    
         205  6.3776486E-02
         206 -1.2029125E-02
         207 -2.0058332E-02
         208 -5.5278223E-03
         209  4.2094942E-02
         210  7.1907967E-02
         211 -0.1622532    
         212  6.9203913E-02
         213 -2.8428704E-02
         214 -1.2748254E-02
         215  1.7697927E-02
         216  1.0702559E-02
         217  1.8116236E-02
         218  4.2571638E-02
         219  7.8810230E-02
         220 -3.3647142E-02
         221 -2.4065522E-02
         222 -9.9694207E-03
         223 -1.2133083E-02
         224  1.6107971E-02
         225  8.3715850E-03
         226 -3.7203263E-04
         227  3.2964732E-02
         228 -4.4018541E-02
         229 -7.6660309E-03
         230  3.4968853E-03
         231 -4.9121287E-03
         232  5.1373069E-04
         233  1.3364101E-03
         234  6.9721444E-03
         235 -2.6076879E-02
         236  3.6023337E-02
         237 -9.0665434E-04
         238  8.5050950E-04
         239  3.1707031E-03
         240 -6.7581208E-03
         241 -5.0083268E-03
         242 -1.6980687E-03
         243 -3.0316010E-02
         244  4.0199205E-02
         245  7.8053342E-04
         246  5.2580464E-04
         247  5.0753667E-03
         248 -5.5589615E-03
         249  4.4231247E-03
         250  3.9142310E-03
         251  1.5952406E-02
         252 -2.1848997E-02
         253 -1.7406015E-03
         254 -2.9626919E-04
         255 -5.1992470E-03
         256  7.6792431E-03
         257 -1.8253106E-04
         258  8.3127918E-05
         259 -1.3182898E-03
         260 -2.0424514E-03
         261  3.0546100E-04
         262  4.3306226E-04
         263  1.0194213E-03
         264 -1.3094953E-03
         265 -2.6478416E-03
         266  6.6747621E-04
         267  1.0250771E-03
         268 -4.8332200E-03
         269  2.9574127E-03
         270  5.8945030E-04
         271  5.6857523E-04
         272  2.7354737E-03
         273  2.5298490E-04
         274  5.2362756E-04
         275  9.6719677E-04
         276  3.7833990E-04
         277 -1.0406580E-04
         278  2.5637101E-04
         279 -1.0082208E-03
         280 -6.8968406E-04
         281  2.5109757E-05
         282  5.6246350E-05
         283  3.6473677E-04
         284 -2.1392123E-04
         285  3.3680757E-05
         286  9.6532190E-04
         287 -2.1329381E-05
         288  1.5754909E-05
         289  2.3192688E-04
         290 -9.3314453E-04
         291  4.0301890E-03
         292 -4.5526118E-04
         293 -5.0461554E-04
         294 -4.9543346E-04
         295  4.1368016E-04
         296 -1.4323854E-03
         297  2.5212921E-03
         298  6.4347382E-04
         299  1.1158052E-03
         300 -5.2264356E-03
         301 -2.5081951E-03
         302 -1.3163164E-03
         303  5.0005876E-04
         304  2.6136974E-03
         305 -6.5183104E-04
         306 -9.2059380E-04
         307  1.9300185E-03
         308  8.1911444E-04
         309  3.7108746E-04
         310  4.4646778E-04
         311 -4.6635160E-04
         312 -7.4361108E-04
         313 -7.0348840E-05
         314 -2.7215699E-04
         315  1.5893213E-04
         316 -2.1519275E-04
         317  1.9964538E-05
         318  2.9014898E-04
         319 -1.7810282E-05
         320 -8.6942891E-05
         321  1.9378569E-02
         322  3.1517260E-02
         323  1.7877819E-02
         324 -7.6486990E-03
         325 -1.0505035E-02
         326 -4.1715787E-03
         327  7.6289731E-03
         328  1.5591832E-03
         329 -1.1741544E-02
         330 -2.7324788E-02
         331  3.3466805E-02
         332 -7.8178093E-02
         333 -1.0612288E-02
         334 -8.6135594E-03
         335  1.2924435E-03
         336  1.4107745E-02
         337  9.6750138E-03
         338  8.6000867E-02
         339  2.8333046E-02
         340  8.4587872E-02
         341 -1.4283762E-02
         342 -1.5029082E-02
         343 -6.9861459E-03
         344 -1.0158301E-02
         345  1.2586594E-02
         346  2.8903080E-02
         347  3.0222327E-02
         348 -7.5412288E-02
         349  1.0508399E-02
         350  7.7873315E-03
         351  2.9216872E-03
         352  1.4638742E-02
         353 -9.1348216E-03
         354 -9.2796244E-02
         355  2.3418747E-02
         356  7.8999482E-02
         357  1.3864398E-02
         358  1.5711706E-02
         359 -5.5477680E-03
         360 -8.9182258E-03
         361 -2.0592146E-02
         362 -3.1342611E-02
         363  2.5760835E-02
         364 -2.2493701E-02
         365  1.1055751E-02
         366  2.9802446E-03
         367  7.2263880E-03
         368  2.2525329E-03
         369 -9.6703705E-05
         370 -5.3401724E-05
         371  1.9459637E-04
         372 -1.5064346E-04
         373  1.9472683E-04
         374 -2.3640896E-05
         375 -9.7297470E-06
         376  4.9067687E-05
         377  1.2071082E-05
         378  4.6557983E-05
         379 -8.9515648E-05
         380 -2.3796247E-05
         381  1.0672757E-04
         382  1.7016348E-04
         383 -3.5677720E-05
         384  7.1359871E-05
         385  2.2048477E-04
         386  2.4762022E-04
         387 -2.0202569E-05
         388 -1.4398797E-04
         389 -2.0291550E-04
         390 -5.6294026E-05
         391 -4.5641814E-04
         392 -2.4562684E-04
         393 -7.0169539E-05
         394  5.7544833E-04
         395 -7.0458319E-04
         396 -1.7963645E-04
         397  1.1959557E-03
         398  5.5747124E-04
         399  1.5707733E-04
         400 -4.0003620E-04
         401  4.4954545E-04
         402  1.0451612E-03
         403 -7.3123665E-04
         404 -1.6267362E-05
         405  1.2603683E-03
         406  5.1401753E-04
         407 -1.2888375E-03
         408 -1.5968323E-04
         409  6.1817764E-04
         410  9.0550527E-04
         411  8.9827547E-04
         412 -1.6430159E-04
         413 -8.7116862E-04
         414 -1.4422244E-03
         415 -7.0535095E-04
         416 -7.8251417E-04
         417  6.1391637E-04
         418 -9.0339204E-04
         419 -5.9801232E-06
         420 -2.7759097E-04
         421  1.7077258E-03
         422 -2.0904734E-03
         423  1.0216070E-04
         424  2.2237471E-04
         425 -2.9548869E-04
         426 -4.2800821E-04
         427 -2.1651345E-04
         428 -8.3524646E-04
         429 -2.8744587E-04
         430  8.9984256E-05
         431 -8.7529485E-04
         432  7.9288823E-04
         433 -5.1042531E-04
         434  8.1756467E-04
         435  3.4409581E-04
         436 -1.7035858E-05
         437 -1.8998951E-04
         438 -1.2570400E-04
         439  1.2835303E-04
         440  4.8098699E-04
         441  1.1302653E-03
         442 -5.0912565E-04
         443  1.3066735E-03
         444 -7.5208491E-06
         445 -1.5901791E-05
         446  1.1081486E-04
         447 -2.0467045E-04
         448  1.3583270E-04
         449  2.7503565E-04
         450  1.1800143E-04
         451 -8.0488331E-05
         452  1.0995821E-05
         453 -1.2427507E-04
         454 -1.1424949E-04
         455  1.8148046E-05
         456  6.5886445E-05
         457 -8.8734691E-05
         458 -1.1496752E-04
         459  1.8243684E-03
         460  8.4920856E-04
         461  1.3940135E-03
         462 -2.2341297E-03
         463  4.6351398E-03
         464  1.4197416E-02
         465 -9.6229214E-04
         466  5.3382167E-03
         467 -2.0654229E-03
         468 -3.6509468E-03
         469  0.1621624    
         470 -1.1886735E-02
         471 -2.7354329E-04
         472 -1.0907822E-02
         473 -1.3953105E-02
         474  4.4522197E-03
         475 -1.5907511E-03
         476  6.9843349E-04
         477 -5.8711660E-03
         478 -2.1146270E-03
         479 -1.6905138E-03
         480  1.7230799E-03
         481 -1.0405828E-03
         482 -6.1598900E-03
         483 -2.3319321E-03
         484 -0.1612785    
         485  1.2032545E-02
         486  1.5548408E-03
         487 -1.1991256E-02
         488 -1.3862377E-02
         489 -1.3273358E-02
         490  3.6034056E-05
         491 -4.7092191E-03
         492 -2.5383900E-03
         493 -3.1950430E-03
         494 -1.5995804E-03
         495 -8.8218524E-04
         496 -1.4085742E-03
         497 -3.0656378E-03
         498  5.0937640E-03
         499  3.4979640E-03
         500 -1.8087889E-03
         501  3.4348341E-05
         502 -2.3977277E-03
         503 -5.1824591E-04
         504  2.8575705E-03
         505 -1.7254355E-03
         506 -1.8355814E-03
         507 -1.4553763E-03
         508 -1.1371106E-03
         509  7.7146344E-04
         510  5.4504466E-04
         511 -2.5928440E-04
         512  1.2663300E-03
         513 -5.5090128E-04
         514  1.1941239E-04
         515  1.0916388E-03
         516  1.8668722E-04
         517  1.5792564E-03
         518  7.2385720E-04
         519  7.0796697E-04
         520 -4.1514248E-04
         521 -3.2939410E-04
         522 -3.8134420E-04
         523 -7.0852235E-05
         524 -7.2453188E-04
         525  1.0729252E-04
         526 -6.5596229E-05
         527 -2.2010487E-05
         528 -4.4529170E-06
         529 -6.9964648E-05
         530 -8.3119236E-04
         531 -8.7801245E-04
         532 -1.9882292E-04
         533 -4.9509696E-04
         534  1.8327226E-04
         535  1.0446999E-04
         536  1.4040322E-04
         537  1.8933471E-04
         538  7.2717194E-05
         539 -7.7661200E-05
         540  1.3400959E-04
         541  7.3708667E-05
         542  1.1568844E-05
         543  2.1731641E-04
         544 -2.1923226E-03
         545  1.5451987E-03
         546  1.8895650E-03
         547 -4.9562677E-05
         548 -6.2566728E-04
         549 -3.3068240E-03
         550  1.2118368E-03
         551 -8.1061717E-04
         552 -2.4065627E-03
         553 -9.0598466E-04
         554  7.9699304E-05
         555 -5.2147073E-04
         556 -1.2534190E-05
         557  1.2557476E-03
         558  7.0327602E-04
         559  5.3363509E-04
         560 -9.7937731E-04
         561 -1.0663540E-03
         562  5.0799490E-04
         563  3.8216112E-04
         564  4.7468915E-05
         565  3.1019872E-04
         566  1.5865773E-04
         567 -1.4091823E-04
         568 -1.0534636E-04
         569  1.0047000E-03
         570 -2.2448877E-04
         571 -1.8998751E-04
         572  1.4079066E-05
         573  9.1139991E-05
         574  1.8819747E-04
         575 -6.0769539E-06
         576  3.1072545E-05
         577 -7.5502328E-05
         578 -2.0170191E-04
         579  2.4531217E-05
         580 -2.4722115E-04
         581 -3.5562756E-04
         582  5.8144036E-05
         583  1.2657592E-04
         584 -2.6457894E-04
         585  1.6022685E-04
         586 -1.3664892E-04
         587  5.4974127E-05
         588 -1.1077749E-04
         589 -1.1970226E-02
         590 -4.4884635E-03
         591 -1.3381053E-02
         592  8.7369682E-04
         593  6.0576024E-03
         594 -1.9861270E-02
         595 -3.0261911E-02
         596 -3.6763601E-02
         597 -5.6584626E-02
         598 -1.2186388E-02
         599  1.8926257E-02
         600  3.0986903E-02
         601  4.2873457E-02
         602 -5.2287366E-02
         603 -1.1201504E-02
         604  1.2198773E-02
         605  4.4499827E-03
         606  1.3077076E-02
         607  2.4605088E-03
         608  6.5974938E-03
 Sym= Particle
 Ene= -0.6625028    
 Spin= Alpha
 Occup= 2
           1  2.1529505E-03
           2  4.5035261E-04
           3  7.5495231E-04
           4 -2.9582810E-03
           5 -1.3636876E-03
           6 -2.8158227E-04
           7 -5.1377079E-04
           8 -1.6993152E-04
           9 -2.2338009E-03
          10 -2.0334690E-03
          11  6.4967321E-03
          12  3.2613073E-03
          13  2.3797399E-04
          14  4.2923589E-04
          15 -2.2932827E-03
          16 -1.7043516E-03
          17  1.2361323E-02
          18  5.4377597E-04
          19  4.1295961E-03
          20 -2.1513633E-02
          21 -1.0387266E-02
          22 -1.0953414E-03
          23  2.4079154E-03
          24  8.7457970E-03
          25 -3.1349310E-04
          26  1.1742503E-03
          27  3.4616382E-03
          28  1.2791028E-03
          29 -4.7470944E-04
          30 -1.0058458E-04
          31  1.1130441E-03
          32 -4.3827090E-03
          33  3.7545983E-03
          34  4.7594830E-03
          35  6.4659610E-02
          36 -8.4727392E-02
          37 -2.4165343E-03
          38 -2.1085574E-03
          39 -1.5899872E-02
          40  2.5855664E-02
          41 -2.8857731E-03
          42 -4.1961493E-03
          43  3.5065589E-03
          44 -1.6710068E-03
          45  2.4789243E-03
          46  2.0503574E-03
          47  2.0900371E-03
          48 -1.6785635E-03
          49 -1.0442140E-02
          50  2.6364070E-05
          51  3.9385203E-03
          52 -2.1130625E-02
          53  8.5238228E-03
          54  6.7974214E-04
          55  3.0743317E-03
          56  8.8112736E-03
          57 -1.3424410E-03
          58 -1.5952351E-03
          59 -3.3436557E-03
          60 -8.3636149E-04
          61  2.4415357E-03
          62  2.5194681E-03
          63  1.6606415E-03
          64  2.7173315E-03
          65  5.9077295E-04
          66  2.1475016E-03
          67  1.6483702E-04
          68 -5.5752811E-04
          69 -4.5299507E-04
          70 -9.5202954E-04
          71  9.8995573E-04
          72 -9.4120609E-05
          73  6.5043056E-04
          74 -8.5332422E-03
          75 -8.3223782E-02
          76  0.1052660    
          77  1.0233370E-03
          78  4.0847603E-03
          79  2.0085506E-02
          80 -2.3833821E-02
          81  3.5108329E-04
          82  6.5615529E-04
          83 -3.5590436E-02
          84  4.5649402E-02
          85  2.5399234E-03
          86  5.6849457E-03
          87  1.2441616E-02
          88 -1.5283837E-02
          89 -2.1082258E-03
          90  7.1186181E-03
          91  9.1419816E-02
          92 -0.1274514    
          93  1.8202169E-03
          94  6.6190452E-04
          95 -1.8674195E-02
          96  2.6749168E-02
          97  1.1137777E-02
          98  1.6451158E-02
          99 -9.3331505E-03
         100  7.8415424E-03
         101 -6.2154443E-03
         102 -1.1577941E-02
         103 -3.1530084E-03
         104  4.4851638E-03
         105 -1.9500829E-02
         106 -8.4445141E-02
         107 -0.2120696    
         108  0.2928769    
         109  1.3707667E-02
         110  4.0723611E-02
         111  5.8114424E-02
         112 -9.0080068E-02
         113  3.9556701E-02
         114  6.8926871E-02
         115  0.1371460    
         116 -0.1802626    
         117 -2.0100595E-02
         118 -2.0156184E-02
         119 -4.9112171E-02
         120  4.3774687E-02
         121 -3.5592720E-02
         122  2.7248656E-02
         123 -4.9760852E-02
         124 -0.1559915    
         125  3.1863835E-02
         126 -1.4882663E-02
         127  2.3140891E-02
         128  3.6474373E-02
         129 -1.2212867E-02
         130 -1.0081037E-03
         131  0.1688687    
         132  0.3393805    
         133  2.0807911E-02
         134 -1.4827158E-02
         135 -3.9565049E-02
         136 -9.7606547E-02
         137  4.8423694E-03
         138 -1.0928747E-03
         139 -6.5490969E-02
         140 -0.1506388    
         141 -1.4317646E-03
         142  3.8745105E-03
         143  1.8445970E-02
         144  4.0396996E-02
         145 -1.6907429E-03
         146  2.5960517E-03
         147 -2.3722187E-02
         148 -5.6648217E-02
         149  8.0964225E-04
         150  5.7816162E-04
         151  5.6920801E-03
         152  8.0764340E-03
         153  4.1939577E-04
         154 -2.8058246E-03
         155  3.7776478E-02
         156  8.8705316E-02
         157  1.2681631E-03
         158 -1.1804070E-03
         159 -8.0080992E-03
         160 -1.7228803E-02
         161 -4.4179698E-03
         162  1.1725655E-02
         163 -7.4509598E-02
         164 -0.1710157    
         165  1.1821483E-03
         166 -6.5376866E-03
         167  2.0370565E-02
         168  4.5995712E-02
         169  1.6069630E-03
         170  1.5645961E-03
         171 -2.7180480E-02
         172 -6.3252062E-02
         173 -6.6330092E-04
         174 -1.1387561E-03
         175  6.3407165E-03
         176  9.9050505E-03
         177 -5.8807497E-04
         178 -3.8043621E-03
         179  4.3726355E-02
         180  0.1003337    
         181 -8.9984847E-04
         182  2.5808681E-03
         183 -8.4481174E-03
         184 -1.8202871E-02
         185  1.0511867E-02
         186 -2.3334084E-02
         187  0.1676010    
         188  0.3415854    
         189 -1.9589134E-02
         190  2.0243920E-02
         191 -3.7732709E-02
         192 -9.8136924E-02
         193  3.7011784E-02
         194 -1.9643670E-02
         195 -4.1697364E-02
         196 -0.1375907    
         197 -3.3148807E-02
         198  1.3037641E-02
         199  2.1081047E-02
         200  3.1766705E-02
         201 -3.7582856E-02
         202 -7.8489348E-02
         203  0.1207667    
         204 -0.1753164    
         205  1.8615991E-02
         206  2.4917662E-02
         207 -4.4290312E-02
         208  4.3512966E-02
         209  1.8170465E-02
         210  9.3084216E-02
         211 -0.1969824    
         212  0.2811005    
         213 -1.1995940E-02
         214 -4.3024294E-02
         215  5.1694371E-02
         216 -8.8162005E-02
         217 -1.2468881E-02
         218 -1.8013192E-02
         219 -9.6278973E-03
         220  3.6005464E-03
         221  7.4556591E-03
         222  1.3110573E-02
         223 -1.9028169E-03
         224  4.8235478E-03
         225  2.0307566E-03
         226 -7.6082731E-03
         227  8.7502390E-02
         228 -0.1149645    
         229 -2.2638822E-03
         230 -3.7845070E-04
         231 -1.7414911E-02
         232  2.4547733E-02
         233  2.9652895E-04
         234  3.3121885E-04
         235 -3.6818475E-02
         236  3.9112531E-02
         237 -2.8321724E-03
         238 -6.3875555E-03
         239  1.2385842E-02
         240 -1.3456001E-02
         241 -1.5156842E-03
         242  6.2302104E-03
         243 -7.8626730E-02
         244  9.3709916E-02
         245 -5.2309015E-06
         246 -4.3632365E-03
         247  1.8195862E-02
         248 -2.0923745E-02
         249  1.0716423E-03
         250 -9.6001604E-04
         251  5.5047084E-02
         252 -8.2186297E-02
         253 -1.1673318E-04
         254  1.0844256E-03
         255 -1.2949966E-02
         256  2.4502890E-02
         257 -2.4059988E-03
         258 -2.8744391E-03
         259 -9.3333988E-04
         260 -2.0656059E-03
         261  3.0236912E-03
         262  1.1385581E-03
         263  2.3270806E-03
         264 -2.9159959E-03
         265 -1.1363036E-02
         266  1.2659741E-05
         267  1.8810063E-03
         268 -1.9299202E-02
         269  9.8808268E-03
         270  8.8721549E-04
         271  2.8435569E-03
         272  7.4122404E-03
         273  1.9792204E-03
         274  1.8102665E-03
         275  5.0542257E-03
         276  3.3165740E-03
         277 -5.7287625E-04
         278 -3.6691854E-04
         279 -2.3676595E-03
         280 -2.1095648E-03
         281 -4.7875106E-04
         282 -1.0810909E-03
         283  7.9663942E-04
         284 -8.2796259E-04
         285  8.1450897E-05
         286  7.0894911E-04
         287 -5.2574405E-04
         288 -1.1937652E-03
         289  2.0826173E-03
         290  3.2448317E-03
         291  3.6731216E-03
         292  2.4677205E-04
         293 -8.0745568E-04
         294 -1.3235105E-03
         295  1.2416268E-03
         296 -2.9975665E-03
         297  9.9070519E-03
         298  3.7637064E-03
         299  5.2711163E-03
         300 -1.9419206E-02
         301 -7.3374035E-03
         302 -3.0090865E-03
         303  1.2509841E-03
         304  8.1216050E-03
         305 -1.8196970E-03
         306 -2.4598509E-03
         307  4.8611145E-03
         308  3.0695179E-03
         309  7.2503631E-04
         310  9.8615908E-04
         311 -1.3299538E-03
         312 -2.2312533E-03
         313  1.9829199E-04
         314 -1.0679624E-03
         315  3.7010558E-04
         316 -1.5883617E-03
         317 -1.0062135E-04
         318  1.0396721E-03
         319  2.2352152E-04
         320 -2.8599848E-04
         321 -2.7415988E-03
         322  2.1322476E-04
         323 -2.4971804E-03
         324  2.7293982E-03
         325 -1.3950961E-03
         326 -4.1387496E-03
         327  1.6062150E-03
         328 -3.3196574E-03
         329  1.7671473E-03
         330 -1.3784897E-02
         331  9.9956103E-02
         332 -0.1080372    
         333 -3.2669299E-03
         334  6.7890189E-03
         335 -2.7605023E-02
         336  2.9417068E-02
         337  1.8654155E-03
         338  9.7936215E-03
         339 -4.7343958E-02
         340  6.4779364E-02
         341 -3.2750368E-03
         342 -1.9001317E-03
         343  1.3714071E-02
         344 -2.1130390E-02
         345 -6.5007404E-04
         346  1.1530383E-02
         347  0.1019682    
         348 -0.1162193    
         349  2.9164883E-03
         350 -4.8267916E-03
         351 -2.8249422E-02
         352  3.2374337E-02
         353 -2.4228233E-03
         354 -1.0208899E-02
         355 -4.8057064E-02
         356  6.9220066E-02
         357  3.9193952E-03
         358  2.0389520E-03
         359  1.3312822E-02
         360 -2.2568043E-02
         361  1.2492988E-03
         362  9.7853749E-04
         363  7.5736427E-04
         364  1.0359478E-03
         365  2.2990471E-03
         366  3.4332871E-03
         367  1.2879949E-03
         368 -2.7703426E-03
         369  2.9841182E-04
         370 -4.1736348E-04
         371 -6.0506212E-04
         372 -1.9343133E-05
         373  1.1763666E-05
         374  3.9710087E-04
         375 -4.6471029E-04
         376  2.4962411E-04
         377 -2.0619924E-04
         378 -2.2144048E-04
         379 -2.9582423E-03
         380  7.4192765E-04
         381  2.0828280E-04
         382  3.1528951E-04
         383 -4.1989546E-04
         384 -1.8468909E-03
         385  1.1581887E-03
         386  6.3477340E-04
         387 -4.4714604E-04
         388  2.5859263E-04
         389 -9.3421183E-04
         390  1.0602280E-03
         391 -2.5825112E-04
         392 -1.0838025E-04
         393  5.1881427E-05
         394 -4.3888605E-04
         395 -4.4514942E-03
         396 -1.9771184E-03
         397  5.5396608E-03
         398  3.3198365E-03
         399 -1.4980127E-03
         400 -1.8362908E-03
         401  8.9191925E-04
         402  3.4840936E-03
         403  2.6360305E-04
         404 -1.5314656E-02
         405  5.2566375E-03
         406 -2.6174907E-03
         407 -6.1070006E-03
         408 -2.7316487E-03
         409 -1.1748797E-02
         410  5.0462694E-03
         411  4.6028947E-03
         412 -3.3369786E-03
         413 -4.2344942E-03
         414  1.0059403E-02
         415 -4.0778457E-03
         416 -4.1019982E-03
         417  2.1263871E-04
         418 -3.2126044E-03
         419  1.9734040E-02
         420 -5.9868302E-03
         421  2.2036564E-03
         422 -1.0244245E-02
         423 -1.0176658E-03
         424  5.1270300E-03
         425 -3.3241799E-04
         426 -2.0452538E-03
         427 -2.4673659E-03
         428 -3.6467940E-03
         429  2.1260995E-03
         430 -6.3425861E-05
         431 -1.9682848E-03
         432  1.6380949E-03
         433 -1.4590420E-03
         434 -2.6853511E-03
         435  6.6580239E-04
         436 -7.2074076E-04
         437  3.1327585E-05
         438 -1.4516261E-03
         439  1.7313241E-03
         440  6.5317855E-04
         441  3.6435667E-03
         442 -3.0668990E-03
         443  5.6483992E-03
         444 -4.7077166E-04
         445 -1.9865552E-06
         446 -2.0413392E-04
         447 -6.7266880E-04
         448  1.1347100E-04
         449  4.3677137E-04
         450 -9.2023943E-04
         451 -2.9839558E-04
         452  2.8946629E-04
         453 -8.0956094E-04
         454 -1.1521187E-03
         455 -2.6145377E-04
         456 -2.7691081E-04
         457  3.6732460E-04
         458 -7.2560937E-04
         459 -3.8708453E-03
         460  2.6905993E-03
         461  6.9885296E-05
         462 -5.4655029E-03
         463  6.5016304E-03
         464 -2.6178961E-03
         465  3.3276179E-04
         466 -1.1034271E-03
         467  1.5252557E-02
         468 -1.3444484E-02
         469  1.0984469E-03
         470  6.4031864E-03
         471  9.5651755E-03
         472 -4.2115867E-02
         473  6.3992575E-02
         474 -4.2821136E-03
         475  1.2818970E-02
         476 -2.5351796E-02
         477  3.9753456E-02
         478  6.4368807E-02
         479  4.9386416E-03
         480 -1.2724367E-02
         481  1.8548468E-02
         482  4.2015281E-02
         483  6.4651310E-02
         484  1.0140867E-03
         485 -7.6363953E-03
         486 -7.3383669E-03
         487 -4.3505654E-02
         488  6.2749214E-02
         489  3.6190816E-03
         490 -1.5549414E-03
         491  9.6221181E-04
         492  1.5027034E-02
         493 -1.1239515E-02
         494  3.4877921E-03
         495 -2.6691866E-03
         496 -4.5408614E-04
         497 -5.1173726E-03
         498  5.4613990E-03
         499  1.3478135E-02
         500 -4.0346831E-03
         501  3.7367407E-03
         502 -5.3065228E-03
         503 -1.4732744E-03
         504  1.3178822E-02
         505 -4.9426737E-03
         506 -5.2620764E-03
         507 -4.8612021E-03
         508 -3.1900506E-03
         509  1.8669214E-03
         510  1.1463886E-03
         511 -9.1146049E-04
         512  3.3441614E-03
         513 -5.3671403E-05
         514  6.3202082E-04
         515  4.3200306E-03
         516  1.6538366E-03
         517  6.0460512E-03
         518  2.7117524E-03
         519  1.8012637E-03
         520 -1.0918276E-03
         521 -6.0933694E-04
         522 -8.5638155E-04
         523  5.7184696E-04
         524 -3.3893562E-03
         525  7.7392557E-05
         526  5.8299709E-05
         527  2.5141466E-04
         528  2.6786409E-04
         529 -2.4006671E-04
         530 -9.6337742E-04
         531 -4.0783768E-04
         532  1.8088984E-04
         533 -9.1376790E-04
         534  1.5179021E-03
         535 -9.0189232E-04
         536 -1.5327414E-04
         537  1.5859185E-04
         538 -2.9724879E-05
         539 -1.0288503E-03
         540  8.5515104E-04
         541 -5.4121023E-04
         542  7.1926799E-04
         543  8.7306474E-04
         544 -1.2755625E-02
         545  5.5600847E-03
         546  5.4238578E-03
         547  3.7684562E-04
         548 -2.7286622E-03
         549 -1.5179058E-02
         550  4.7982172E-03
         551 -6.5437704E-04
         552 -8.7256134E-03
         553 -1.7096074E-03
         554 -1.4100582E-03
         555 -3.2621107E-04
         556  1.5682108E-03
         557  2.9589275E-03
         558  1.6788817E-03
         559 -2.3657219E-04
         560 -2.3290706E-03
         561 -2.8477556E-03
         562  1.6309472E-03
         563  1.2012621E-03
         564 -1.2624684E-03
         565  8.4025844E-04
         566  1.3293576E-05
         567 -1.0262348E-03
         568 -1.0718099E-04
         569  3.6880684E-03
         570 -4.2954364E-04
         571 -2.3285270E-04
         572  2.2165946E-04
         573 -4.0911936E-04
         574  4.4601204E-04
         575  3.4932824E-04
         576  4.4603428E-04
         577 -9.4032439E-06
         578 -3.1761467E-04
         579  8.9476036E-04
         580 -6.6814496E-04
         581 -6.5368559E-04
         582  4.8676619E-04
         583  2.8975928E-04
         584 -1.0521997E-03
         585  4.7671431E-04
         586 -1.0276201E-04
         587 -1.1685542E-04
         588 -4.9399020E-04
         589  3.2357692E-03
         590 -2.8828164E-03
         591 -3.8297724E-03
         592 -7.1456172E-03
         593  5.5716871E-03
         594 -8.3719408E-03
         595 -8.9381746E-04
         596 -1.8496627E-02
         597  5.7111238E-03
         598 -6.2334053E-03
         599  8.4978770E-03
         600  1.5885165E-03
         601  1.7451262E-02
         602  5.9365174E-03
         603 -6.3613765E-03
         604 -2.9543191E-03
         605  2.4433697E-03
         606  4.2030877E-03
         607 -6.1144806E-03
         608  5.8381720E-03
 Sym= Hole
 Ene= -0.3091011    
 Spin= Alpha
 Occup= 0
           1 -8.3118407E-03
           2 -2.3881700E-03
           3 -2.9968203E-03
           4  1.4897343E-02
           5  3.6359518E-03
           6 -7.5811142E-05
           7 -1.2245744E-04
           8  3.8829309E-04
           9  7.3928279E-03
          10  6.4891316E-03
          11 -1.6634844E-02
          12 -1.4950651E-02
          13 -1.2048188E-03
          14 -1.0380330E-03
          15  1.7133836E-03
          16  3.9740764E-03
          17 -3.4425177E-02
          18 -5.2452218E-03
          19 -2.3818573E-02
          20  8.4234081E-02
          21  1.9646984E-02
          22  4.4102026E-03
          23 -6.1935377E-03
          24 -1.5982442E-02
          25 -1.1547783E-03
          26 -7.6564080E-05
          27  1.0352409E-02
          28 -3.0647624E-02
          29 -1.1441578E-03
          30 -2.2315073E-03
          31 -6.7577930E-03
          32  1.3516804E-02
          33 -1.3905601E-02
          34 -2.2553014E-02
          35 -0.2204717    
          36  0.2881554    
          37  4.7338712E-03
          38 -8.9819037E-04
          39  1.5829856E-02
          40 -3.1974051E-02
          41  5.9865350E-03
          42  8.0521386E-03
          43  1.9927748E-02
          44 -2.1026701E-02
          45 -8.2955342E-03
          46 -3.9862958E-03
          47 -9.9268043E-03
          48  9.6362168E-03
          49  3.4816336E-02
          50  4.7380035E-03
          51 -1.2796735E-02
          52  8.1690840E-02
          53 -2.4212990E-02
          54 -9.2743551E-03
          55 -5.2500679E-03
          56 -1.6456433E-02
          57 -2.7790645E-04
          58  2.9436778E-03
          59  1.3437795E-02
          60 -1.7037601E-03
          61 -3.6828751E-03
          62 -3.6744606E-03
          63 -2.7540473E-03
          64 -4.0606880E-03
          65 -1.9769215E-03
          66 -6.2985211E-03
          67 -7.5602141E-04
          68  1.7323714E-03
          69  2.3784884E-03
          70  3.6836113E-03
          71 -3.2150913E-03
          72  9.9495519E-04
          73  4.3457928E-03
          74  7.4495762E-03
          75  8.7464899E-02
          76 -0.1121750    
          77 -5.2737230E-03
          78 -1.1869617E-03
          79 -6.2851440E-03
          80  8.7698987E-03
          81  1.4899574E-03
          82  6.4697023E-03
          83  0.1529584    
          84 -0.1917056    
          85 -4.7647576E-03
          86 -5.4982733E-03
          87 -8.4412396E-03
          88  8.9587728E-03
          89 -3.7823839E-03
          90 -6.3816138E-04
          91 -3.3692911E-02
          92  3.7532050E-02
          93 -1.4973402E-03
          94 -7.5494805E-03
          95 -6.5263608E-05
          96 -1.8358923E-03
          97 -1.6937502E-02
          98 -6.4196818E-02
          99 -0.1670667    
         100  0.2541128    
         101  1.1679305E-02
         102 -2.4215784E-03
         103  1.2444126E-02
         104 -6.6292300E-03
         105 -1.4437421E-02
         106 -1.2334106E-02
         107 -5.7710644E-02
         108 -7.3036965E-04
         109  1.6991569E-02
         110  8.7814033E-03
         111  9.9616665E-03
         112  2.3759734E-03
         113  7.6759771E-02
         114  2.9602066E-02
         115  0.2140162    
         116 -0.1022330    
         117 -3.2058522E-02
         118 -3.1745424E-03
         119 -3.0791371E-03
         120  9.2091020E-03
         121  1.1827893E-02
         122  2.1330494E-02
         123 -9.7213358E-02
         124  2.5465399E-02
         125  5.7863789E-03
         126 -7.9739951E-03
         127  1.2907952E-02
         128 -2.7972539E-03
         129 -3.3947177E-02
         130  4.5404196E-02
         131  1.8992903E-02
         132 -3.4377377E-02
         133  2.1728596E-02
         134 -1.1575555E-02
         135 -2.4603796E-03
         136 -3.4711435E-03
         137  2.5283531E-03
         138  9.5545274E-04
         139 -1.5182652E-02
         140 -7.1179047E-03
         141 -1.9980175E-03
         142  5.1297643E-03
         143  1.2401327E-03
         144 -2.9278055E-03
         145 -5.9170374E-03
         146  4.8129642E-03
         147  5.0472585E-03
         148  1.0565083E-03
         149 -1.8068812E-04
         150  2.3015472E-03
         151  5.2447325E-05
         152  6.2177156E-04
         153 -1.7335290E-03
         154 -4.2094574E-03
         155 -1.5845014E-04
         156  6.9550667E-03
         157 -1.0107023E-03
         158  2.5027600E-04
         159  1.4237080E-03
         160  2.8879356E-04
         161  1.7740185E-03
         162  6.7904626E-04
         163  9.7226314E-03
         164 -6.1941934E-03
         165 -1.6830640E-03
         166  5.2549755E-03
         167 -1.7289621E-04
         168  3.9553917E-03
         169 -5.3150966E-03
         170  4.9742237E-03
         171 -4.8855045E-03
         172 -2.9681665E-03
         173 -3.2634052E-04
         174  2.4658614E-03
         175  7.5032556E-05
         176 -5.0598988E-04
         177 -1.7279407E-03
         178 -4.3176301E-03
         179  1.9355643E-03
         180 -4.5596896E-04
         181 -9.8451262E-04
         182  4.0432002E-04
         183 -1.4276400E-03
         184 -4.7359403E-04
         185 -3.2610204E-02
         186  4.3948449E-02
         187 -6.3804388E-03
         188  4.7183216E-02
         189  2.1662092E-02
         190 -1.1993892E-02
         191  1.1536937E-03
         192  2.7044539E-03
         193  1.1054162E-02
         194  1.2590978E-02
         195  0.1108299    
         196 -7.6974384E-03
         197  6.2689856E-03
         198 -7.3587955E-03
         199 -1.5591114E-02
         200  1.6800117E-03
         201  8.5371427E-02
         202  4.4386871E-02
         203 -0.2183509    
         204  7.8660890E-02
         205 -3.5940822E-02
         206 -2.0295293E-03
         207  3.6579759E-03
         208 -8.5894270E-03
         209 -1.7087677E-02
         210 -2.2635292E-02
         211  6.6670328E-02
         212 -3.2402789E-03
         213  1.8908160E-02
         214  1.1123371E-02
         215 -9.7742248E-03
         216 -2.8263323E-03
         217 -1.9235173E-02
         218 -7.1831092E-02
         219  0.1563627    
         220 -0.2461658    
         221  1.3431742E-02
         222 -1.1551175E-03
         223 -1.1586638E-02
         224  5.4813400E-03
         225 -4.7327266E-03
         226  4.2072855E-04
         227  3.2619182E-02
         228 -2.9818140E-02
         229 -5.9145968E-04
         230 -7.8338748E-03
         231  2.6058775E-04
         232  1.7556539E-03
         233  3.3238875E-03
         234  7.3380014E-03
         235 -0.1648815    
         236  0.1741232    
         237 -5.3404425E-03
         238 -4.5694243E-03
         239  8.3465734E-03
         240 -7.9174796E-03
         241  2.3988117E-03
         242  7.2682379E-03
         243 -8.1718430E-02
         244  0.1065200    
         245 -2.9457053E-03
         246 -2.2201212E-03
         247  5.0365478E-03
         248 -9.4294017E-03
         249  1.2911083E-04
         250 -9.0783685E-03
         251  0.2013513    
         252 -0.2995270    
         253 -1.5952899E-03
         254 -3.4784419E-03
         255 -1.1491136E-02
         256  3.3094496E-02
         257 -4.6174997E-03
         258 -5.0673136E-03
         259 -1.5687298E-02
         260  2.5426760E-02
         261  1.8857952E-03
         262 -1.2776963E-03
         263  8.3083985E-03
         264 -1.1655421E-02
         265 -3.4469001E-02
         266 -5.0301994E-03
         267  1.7177880E-02
         268 -8.2847908E-02
         269  1.9590866E-02
         270  2.8819221E-03
         271  7.5381286E-03
         272  1.5089026E-02
         273  7.6809404E-03
         274  6.9245915E-03
         275  1.4748933E-02
         276  1.4579487E-02
         277 -2.8509581E-03
         278 -1.7654498E-03
         279 -2.1693553E-03
         280 -4.8751221E-03
         281 -7.0911314E-04
         282 -3.2484105E-03
         283  2.0391913E-03
         284 -3.9003689E-03
         285 -3.3068095E-04
         286  2.5593696E-04
         287 -1.5021043E-03
         288 -2.9406855E-03
         289  4.3683373E-03
         290  2.8104046E-03
         291 -1.5207755E-02
         292  2.5140913E-02
         293 -5.6907530E-03
         294 -8.8626158E-04
         295  8.0485046E-03
         296 -1.2335015E-02
         297  3.6272530E-02
         298  2.0637523E-02
         299  2.1517510E-02
         300 -7.7033967E-02
         301 -2.3538519E-02
         302 -1.1152439E-02
         303 -1.9279718E-05
         304  1.3194515E-02
         305 -8.0725709E-03
         306 -1.1257104E-02
         307  1.2634521E-02
         308  1.4243243E-02
         309  2.3535658E-03
         310  2.9318919E-03
         311 -3.5584164E-03
         312 -4.5153019E-03
         313  4.1218980E-05
         314 -2.6775994E-03
         315  7.2576653E-04
         316 -5.0873714E-03
         317  1.6621720E-04
         318  2.6911474E-03
         319 -1.3679462E-03
         320 -6.9539197E-04
         321 -1.7677614E-02
         322  9.2556606E-05
         323 -0.1535394    
         324  0.1628762    
         325  7.4045109E-03
         326 -3.6213326E-03
         327  4.5157666E-03
         328 -9.5777726E-03
         329  1.0439311E-02
         330  1.1094871E-02
         331  4.2650335E-02
         332 -1.4402375E-02
         333  2.9917494E-03
         334  2.6116411E-03
         335 -5.8942512E-03
         336 -2.9389558E-03
         337  7.7778014E-04
         338 -3.1719249E-02
         339 -4.4697683E-02
         340  4.4243850E-05
         341 -3.7026260E-04
         342 -1.5589108E-03
         343  1.9274649E-03
         344 -2.9892027E-03
         345  8.7566823E-03
         346  1.1077611E-02
         347 -4.4205721E-02
         348  2.3233943E-02
         349  2.3090432E-03
         350  8.7428652E-04
         351  6.2404550E-03
         352  1.7214461E-03
         353  2.2018682E-03
         354 -3.1069534E-02
         355  4.2173453E-02
         356 -7.3306388E-03
         357 -1.4280836E-03
         358 -2.8732643E-03
         359 -2.0445525E-03
         360  3.9064134E-03
         361 -1.2794542E-02
         362 -3.2952845E-03
         363  0.1461373    
         364 -0.1735266    
         365  3.4934285E-03
         366 -2.1701315E-03
         367 -3.9737555E-03
         368  9.5890192E-03
         369 -1.5860026E-04
         370  7.4794301E-04
         371  8.6460647E-04
         372  4.4544556E-04
         373  5.8684003E-04
         374 -2.1446979E-04
         375  7.5151311E-04
         376 -1.3276672E-03
         377 -4.2880481E-04
         378  4.8458480E-04
         379  1.0329105E-02
         380 -1.1363730E-03
         381 -1.0620536E-04
         382  1.6135216E-04
         383  5.0057919E-04
         384  5.8410927E-03
         385 -2.6870547E-03
         386 -5.4809009E-04
         387  1.9248808E-03
         388  4.3540748E-04
         389  3.7542093E-03
         390 -2.3328501E-03
         391 -8.3258410E-04
         392  1.2031285E-03
         393  5.5366510E-04
         394  7.9068644E-03
         395  5.1556351E-03
         396  1.7649875E-03
         397 -4.2469716E-03
         398 -5.0262632E-03
         399  9.4781648E-03
         400  3.3180094E-03
         401  1.2293436E-03
         402 -4.0017976E-03
         403 -5.8281785E-03
         404  5.8702577E-02
         405 -1.2353076E-02
         406  3.1097382E-04
         407  1.6311519E-02
         408  6.9408491E-03
         409  4.3407939E-02
         410 -1.0863041E-02
         411 -8.2558859E-03
         412  1.0257179E-02
         413  5.3499010E-03
         414 -3.6213774E-02
         415  6.2993146E-03
         416  8.2217408E-03
         417  6.9473712E-03
         418  1.3343528E-05
         419 -6.7092858E-02
         420  1.5217048E-02
         421  7.9003982E-03
         422  1.0626363E-02
         423  8.4134191E-03
         424 -1.9141186E-02
         425 -1.1743312E-03
         426  4.6837493E-03
         427  7.4975621E-03
         428  6.6935075E-03
         429 -1.0228116E-02
         430 -3.7321565E-03
         431 -5.3233579E-03
         432 -1.8567950E-03
         433 -5.5245617E-03
         434  1.5063369E-02
         435 -1.7801769E-03
         436  3.4538603E-03
         437 -7.9606101E-04
         438  3.2677900E-03
         439 -4.8892274E-03
         440 -1.2052677E-03
         441 -6.9959583E-03
         442  7.7875424E-03
         443 -1.0585988E-02
         444  2.2951786E-03
         445  1.1052482E-03
         446  1.6417224E-03
         447  5.1233103E-04
         448 -8.8623365E-06
         449 -1.8477821E-03
         450  2.4075641E-03
         451  1.3798516E-04
         452 -1.1799030E-03
         453  9.9039450E-04
         454  2.8829381E-03
         455  1.6056559E-03
         456  6.1680662E-04
         457 -7.9908076E-04
         458  1.6319618E-03
         459  2.2564481E-03
         460 -2.5809486E-04
         461  5.3811161E-04
         462  9.1371378E-03
         463 -1.1428435E-02
         464  1.1910020E-02
         465 -6.0476079E-03
         466 -5.8671514E-05
         467 -2.7016152E-03
         468 -4.0229238E-03
         469  5.8538638E-02
         470  7.2264243E-05
         471 -8.5801270E-04
         472  5.5806451E-03
         473 -3.7960225E-04
         474  3.6751688E-02
         475 -3.5074542E-03
         476 -1.1025445E-02
         477  7.0609566E-04
         478  8.2571973E-04
         479  3.7169177E-02
         480 -3.7858514E-03
         481 -1.0492949E-02
         482 -1.6396135E-03
         483 -7.3205761E-04
         484  6.8246827E-02
         485 -3.0848480E-04
         486 -3.1707934E-04
         487 -4.7996435E-03
         488  1.6066337E-03
         489  1.8527189E-02
         490 -6.5174457E-03
         491 -1.0496494E-03
         492  3.5056379E-03
         493  4.1187718E-03
         494  2.2630722E-04
         495 -1.3715897E-03
         496  1.6224727E-03
         497 -9.0470882E-03
         498  1.2172339E-02
         499  5.5271599E-02
         500 -1.0312880E-02
         501  2.4198296E-03
         502 -1.5383961E-02
         503 -4.8458725E-03
         504  4.9137004E-02
         505 -1.0011018E-02
         506 -8.8506276E-03
         507 -1.2234041E-02
         508 -2.4569917E-03
         509  9.5066363E-03
         510  3.2808916E-03
         511  1.4745420E-03
         512  5.1798052E-03
         513  5.3835260E-03
         514  8.1966538E-03
         515  4.6768445E-03
         516  1.7588708E-03
         517  4.4747461E-03
         518  3.9719371E-03
         519  7.3856479E-03
         520 -3.4006617E-03
         521 -8.5950072E-04
         522 -2.4449104E-03
         523  5.5163953E-04
         524 -1.9073749E-02
         525  2.3216072E-03
         526 -4.0839141E-04
         527  5.1281426E-05
         528 -6.5102235E-05
         529 -1.1361724E-03
         530 -6.7998114E-04
         531 -6.5438106E-04
         532 -1.1857138E-04
         533 -1.9041436E-03
         534  5.2107335E-03
         535 -1.6139991E-03
         536  6.1496045E-05
         537  1.0581489E-03
         538  4.8136959E-04
         539 -4.3289443E-03
         540  1.5815971E-03
         541 -1.8932857E-03
         542  1.1612293E-03
         543  1.6327135E-03
         544 -4.7998264E-02
         545  9.9545661E-03
         546  1.2886133E-02
         547 -7.9012876E-03
         548  2.8138449E-03
         549 -5.3719249E-02
         550  1.3415422E-02
         551  6.5686367E-03
         552 -6.3897772E-03
         553 -9.8854573E-03
         554 -6.9434950E-03
         555 -4.7983229E-03
         556 -8.3680330E-03
         557  2.6060904E-03
         558  8.7838070E-03
         559 -1.0068550E-02
         560 -4.3367427E-03
         561 -2.2729672E-03
         562  3.2597582E-03
         563  1.9322773E-03
         564 -4.8030009E-03
         565  2.5106603E-03
         566  2.5312003E-04
         567 -2.0144177E-03
         568  1.1318087E-03
         569  1.8903600E-02
         570 -1.7691874E-03
         571  3.9615095E-04
         572 -2.9207970E-04
         573 -9.0170023E-04
         574  1.3703620E-03
         575  4.9025955E-04
         576  8.5570570E-04
         577 -8.9461874E-04
         578 -1.4628092E-03
         579  3.9606267E-03
         580 -2.8762005E-03
         581 -3.9691026E-03
         582 -1.1681219E-03
         583  3.0515168E-03
         584 -4.4060615E-03
         585  1.5235612E-03
         586 -8.7188173E-04
         587  1.0765938E-03
         588  5.2482117E-04
         589  1.2505471E-02
         590  2.0580606E-03
         591  2.5422145E-03
         592 -8.3133643E-03
         593  5.6580016E-03
         594 -2.2980305E-03
         595  1.4625711E-02
         596  1.5216320E-02
         597  1.0887776E-02
         598  1.9351609E-02
         599 -4.0888046E-03
         600  1.2835830E-02
         601  1.4398179E-02
         602 -5.7778442E-03
         603 -1.9082936E-02
         604  8.5598882E-03
         605  1.3589663E-03
         606  1.4877906E-03
         607  8.4629543E-03
         608 -6.7049880E-03
 Sym= Particle
 Ene= -0.3091011    
 Spin= Alpha
 Occup= 2
           1  3.6968724E-03
           2  1.0848719E-03
           3  1.0849780E-03
           4 -4.0437733E-03
           5 -2.9952712E-03
           6  3.2181200E-04
           7  1.0327703E-03
           8 -5.7571527E-04
           9 -2.6526770E-03
          10 -2.6429833E-03
          11  9.7610941E-03
          12  4.5646932E-03
          13 -1.4891344E-03
          14  1.1859753E-03
          15 -1.7303142E-03
          16 -2.3340958E-03
          17  2.0049730E-02
          18  5.5732480E-03
          19  9.8785497E-03
          20 -3.4776177E-02
          21 -1.7032491E-02
          22 -3.1254503E-03
          23  3.2723153E-03
          24  1.6523160E-02
          25 -1.5526160E-03
          26 -1.3084873E-04
          27  5.6984471E-03
          28  5.6204211E-04
          29  7.6055439E-04
          30  5.0643383E-04
          31  2.3052553E-03
          32 -7.6477486E-03
          33  5.8804709E-03
          34  7.1950369E-03
          35  0.1052398    
          36 -0.1366220    
          37 -2.7393706E-03
          38 -1.0825800E-03
          39 -3.4605969E-02
          40  5.0277900E-02
          41 -3.8668902E-03
          42 -5.4858597E-03
          43  1.0288707E-03
          44 -6.1827232E-03
          45  6.6564027E-03
          46  3.3916505E-03
          47  2.3797366E-03
          48 -1.4136950E-03
          49 -1.7911954E-02
          50 -1.9222848E-03
          51  6.6517922E-03
          52 -3.3273552E-02
          53  1.5896345E-02
          54  1.7281267E-03
          55  2.5392536E-03
          56  1.3953250E-02
          57 -2.1438119E-03
          58 -2.3066518E-03
          59 -6.9113742E-03
          60 -2.1952975E-03
          61  4.2573437E-03
          62  3.4257697E-03
          63  3.3664077E-03
          64  4.7317841E-03
          65  6.8763609E-04
          66  3.6986126E-03
          67  5.6259340E-04
          68 -1.4326875E-03
          69 -4.0501214E-04
          70 -1.6808568E-03
          71  1.3491320E-03
          72 -1.4593678E-04
          73  2.5954968E-04
          74 -1.5946575E-02
          75 -0.1580262    
          76  0.1998792    
          77  1.6521803E-03
          78  1.9029423E-03
          79  4.6358969E-02
          80 -6.4021163E-02
          81  5.7232910E-04
          82 -1.5926971E-03
          83 -4.2241275E-02
          84  5.4320656E-02
          85  1.3013793E-03
          86 -2.4050281E-03
          87  6.4409501E-03
          88 -1.1413764E-02
          89 -2.2040624E-03
          90  1.3253625E-02
          91  0.1509169    
          92 -0.2038659    
          93 -5.9435493E-04
          94 -1.2690183E-02
          95 -4.1830122E-02
          96  5.0613917E-02
          97  8.3897531E-04
          98 -9.1511635E-03
          99 -7.1378790E-02
         100  9.5924139E-02
         101  2.5855519E-03
         102 -3.8388330E-03
         103  2.0428183E-02
         104 -2.4149338E-02
         105 -1.9610979E-02
         106 -8.4499769E-02
         107 -0.1969131    
         108  0.2403142    
         109  2.3285154E-02
         110  2.4658557E-02
         111  6.4807214E-02
         112 -5.1172607E-02
         113  4.2843696E-02
         114  8.0514684E-02
         115  0.1708056    
         116 -0.2015945    
         117 -2.4330683E-02
         118 -2.4634004E-02
         119 -3.8658362E-02
         120  5.1364388E-02
         121  1.2960896E-02
         122  3.3050623E-02
         123 -0.1343410    
         124 -0.1369865    
         125  5.7763821E-03
         126 -5.6822211E-03
         127  6.2156342E-02
         128  1.6626297E-02
         129 -4.0365018E-02
         130  4.2769976E-02
         131  2.6707003E-02
         132  1.9408129E-02
         133  3.9020900E-02
         134 -2.2608398E-02
         135 -1.2183189E-03
         136 -1.3996532E-02
         137  4.5292284E-03
         138 -1.0988003E-02
         139  6.2733412E-02
         140  0.1385113    
         141  1.3801240E-03
         142  8.6629419E-03
         143 -1.1216584E-02
         144 -2.7734019E-02
         145 -2.5549841E-03
         146 -1.2337565E-03
         147  1.9438969E-02
         148  3.2440878E-02
         149  3.9562820E-03
         150  9.1222243E-04
         151 -4.5736562E-03
         152 -1.8354583E-03
         153 -1.8110524E-03
         154  3.0779929E-03
         155 -3.9028551E-02
         156 -7.1538083E-02
         157  1.0636743E-03
         158 -9.4482163E-04
         159  4.1184663E-03
         160  6.8682712E-03
         161  4.4733142E-03
         162 -9.7152975E-04
         163 -5.8472224E-02
         164 -0.1279854    
         165  1.4472345E-03
         166  6.8812277E-03
         167  1.1072144E-02
         168  2.4823658E-02
         169 -2.5263517E-03
         170  1.5398540E-03
         171 -1.7419467E-02
         172 -2.8463399E-02
         173  3.9867661E-03
         174  2.8262768E-04
         175  4.0919310E-03
         176  1.1712502E-03
         177 -1.7398910E-03
         178 -2.8166515E-03
         179  3.6031686E-02
         180  6.5400533E-02
         181  9.5596298E-04
         182 -4.6788497E-04
         183 -3.8183485E-03
         184 -5.6063011E-03
         185 -4.0347964E-02
         186  4.6693906E-02
         187 -3.2367639E-02
         188 -4.2497095E-02
         189  3.9970376E-02
         190 -2.3729859E-02
         191  1.5746548E-03
         192  2.0725083E-02
         193  1.0619505E-02
         194  1.6021814E-02
         195  0.1436175    
         196  0.1494341    
         197  7.9978323E-03
         198  7.3702319E-04
         199 -6.5071315E-02
         200 -1.9729840E-02
         201  4.6802286E-02
         202  9.8466024E-02
         203 -0.1675261    
         204  0.2067832    
         205 -2.6409470E-02
         206 -2.8455779E-02
         207  3.8187813E-02
         208 -5.1796544E-02
         209 -2.1126408E-02
         210 -0.1049381    
         211  0.2014041    
         212 -0.2536894    
         213  2.3955155E-02
         214  3.3461086E-02
         215 -6.6357873E-02
         216  5.5540305E-02
         217  2.4306036E-03
         218 -9.9628661E-03
         219  7.0036404E-02
         220 -8.8629328E-02
         221  1.6580871E-03
         222 -5.3253295E-03
         223 -2.0809615E-02
         224  1.9765733E-02
         225 -2.9609406E-03
         226  1.5230226E-02
         227 -0.1599202    
         228  0.2009072    
         229 -1.9954746E-04
         230 -1.2834574E-02
         231  4.1329969E-02
         232 -4.9543638E-02
         233 -1.5560883E-03
         234 -1.6351913E-03
         235  4.8806690E-02
         236 -5.2008919E-02
         237  2.4028679E-03
         238 -2.4556469E-03
         239 -9.6269185E-03
         240  1.1411120E-02
         241  1.6802392E-03
         242 -1.2476874E-02
         243  0.1656536    
         244 -0.1963210    
         245 -6.7911251E-04
         246  1.1535544E-03
         247 -4.8726790E-02
         248  6.3206993E-02
         249 -2.4120440E-03
         250  2.2191964E-03
         251 -9.8574318E-02
         252  0.1477951    
         253  2.0023366E-03
         254  7.1564195E-04
         255  3.1942576E-02
         256 -5.2722380E-02
         257  3.8595139E-03
         258  3.2365385E-03
         259  3.5536245E-03
         260  5.4412447E-03
         261 -4.1534998E-03
         262 -1.6864806E-03
         263 -6.4156977E-03
         264  5.3006150E-03
         265  1.9957824E-02
         266  5.8375578E-03
         267 -6.9281319E-03
         268  3.4361169E-02
         269 -1.7155517E-02
         270 -2.7228438E-03
         271 -5.4884423E-03
         272 -1.4875383E-02
         273 -3.4738020E-03
         274 -3.8303558E-03
         275 -7.8956159E-03
         276 -4.3443027E-03
         277  5.6371139E-04
         278  2.1014430E-03
         279  1.9294979E-03
         280  2.9739239E-03
         281  1.0444925E-03
         282  2.5510299E-03
         283 -1.4096821E-03
         284  1.5180010E-03
         285 -1.3386256E-03
         286 -2.1805140E-04
         287  1.3608878E-03
         288  6.9215556E-04
         289 -3.7405163E-03
         290 -4.4389297E-03
         291 -1.4484945E-03
         292  4.5721764E-03
         293  6.0100434E-03
         294  2.7715992E-03
         295 -1.9404334E-03
         296  3.0003344E-03
         297 -1.9354036E-02
         298 -7.6795211E-03
         299 -8.7601710E-03
         300  3.2670844E-02
         301  1.6286287E-02
         302  4.7581051E-03
         303 -8.5307274E-04
         304 -1.3744649E-02
         305  4.1276040E-03
         306  5.0347229E-03
         307 -6.6525177E-03
         308 -5.0017424E-03
         309 -1.8118917E-03
         310 -2.6241383E-03
         311  3.3665148E-03
         312  2.9726462E-03
         313 -2.8977188E-04
         314  1.3811531E-03
         315  3.5719055E-05
         316  2.2240723E-03
         317  6.9549645E-04
         318 -9.3007943E-04
         319  8.7324198E-04
         320 -1.0149332E-04
         321  2.6693752E-03
         322 -1.2304886E-03
         323 -5.1769089E-02
         324  5.9047993E-02
         325 -4.9298382E-03
         326 -3.8735510E-04
         327  1.1585208E-02
         328 -1.6528301E-02
         329  6.3728186E-04
         330  1.5933989E-02
         331 -0.1072346    
         332  0.1273101    
         333  2.4406066E-04
         334 -7.5135292E-03
         335  2.9241554E-02
         336 -3.8296796E-02
         337 -2.7055407E-03
         338 -1.9467754E-02
         339  4.8009411E-02
         340 -7.4214764E-02
         341  1.3379437E-03
         342 -5.2724779E-03
         343 -1.7803762E-02
         344  1.9174706E-02
         345  2.3904904E-03
         346  1.2792716E-02
         347  9.9288411E-02
         348 -0.1238059    
         349 -1.0786840E-03
         350 -5.4687602E-03
         351 -2.6499521E-02
         352  3.7558474E-02
         353 -2.9058063E-03
         354 -1.7180113E-02
         355 -4.5508809E-02
         356  7.2036222E-02
         357  1.3378533E-03
         358 -5.5050538E-03
         359  1.6152319E-02
         360 -1.8635485E-02
         361 -1.7455941E-05
         362  1.4426513E-03
         363  5.6159534E-02
         364 -6.3883953E-02
         365 -2.2854726E-03
         366 -3.5696418E-03
         367 -1.4529507E-02
         368  1.8629856E-02
         369 -1.4047846E-04
         370 -7.3215575E-04
         371 -1.2183643E-04
         372  5.5223861E-04
         373  2.3939135E-04
         374  3.4495355E-05
         375 -7.9315546E-04
         376  1.7416191E-04
         377  2.9259041E-04
         378  3.6716915E-04
         379 -4.6043750E-03
         380  7.5110915E-04
         381  1.7047820E-04
         382  2.9655332E-05
         383 -8.6375821E-04
         384 -2.1417527E-03
         385  3.5482700E-04
         386  6.1380409E-04
         387 -4.3904246E-04
         388  3.2289900E-04
         389 -2.5254283E-03
         390  2.8886079E-04
         391 -9.3631365E-04
         392 -1.1456385E-03
         393  1.0227665E-03
         394 -3.0715619E-03
         395 -3.0742025E-03
         396 -1.1911781E-03
         397  3.4510966E-03
         398  4.3862611E-03
         399 -3.5349517E-03
         400 -5.4531558E-03
         401 -6.9687013E-03
         402  3.3739489E-03
         403  1.2951074E-03
         404 -2.5343964E-02
         405  1.0520503E-02
         406 -1.7671005E-03
         407 -9.0960395E-03
         408 -7.3189544E-03
         409 -1.7435558E-02
         410  7.7101337E-03
         411  6.4097745E-03
         412 -4.5971647E-03
         413 -8.2092443E-03
         414  1.4904506E-02
         415 -4.8649088E-03
         416 -8.4537193E-03
         417 -3.4662776E-03
         418 -4.5196968E-03
         419  3.0303074E-02
         420 -1.1850244E-02
         421  1.3540242E-03
         422 -8.2365470E-03
         423 -2.7241376E-03
         424  8.1065027E-03
         425 -5.7965977E-04
         426 -3.8591048E-03
         427 -5.2473457E-03
         428 -4.9335323E-03
         429  3.8520421E-03
         430  4.9298652E-04
         431 -8.8099664E-04
         432  8.5891580E-04
         433 -4.1272026E-03
         434 -4.4715777E-03
         435  8.6485135E-04
         436 -1.0119961E-03
         437 -1.8644368E-04
         438 -1.2387139E-03
         439  3.2904318E-03
         440  6.9973740E-04
         441  5.9693963E-03
         442 -4.7851154E-03
         443  9.3837641E-03
         444 -6.0056738E-04
         445 -6.6041372E-05
         446  2.0842138E-04
         447 -6.9237378E-04
         448  4.8150690E-04
         449  7.0563843E-04
         450 -1.4323045E-03
         451  6.0722209E-06
         452  3.1234924E-04
         453 -1.0670685E-03
         454 -1.7819527E-03
         455 -7.1901188E-04
         456  6.4601743E-05
         457  5.0621439E-04
         458 -1.3742099E-03
         459 -3.2017452E-03
         460  1.5970165E-03
         461 -9.6138759E-04
         462 -3.8008485E-03
         463  8.7461174E-03
         464  1.2632408E-03
         465 -3.4742963E-03
         466 -1.4909563E-03
         467  2.2151202E-02
         468 -3.7814688E-02
         469  2.4229013E-03
         470 -2.8204301E-03
         471 -1.4666755E-02
         472 -1.7661227E-02
         473  2.1861065E-02
         474  2.5430037E-02
         475  3.8347759E-03
         476 -2.3505449E-02
         477  1.0125275E-02
         478 -3.1771832E-03
         479  2.5292652E-02
         480  4.5266990E-03
         481 -2.2623982E-02
         482 -1.6197767E-02
         483 -2.3916909E-03
         484  2.2868509E-03
         485 -2.6261220E-03
         486 -1.3947031E-02
         487  1.7904066E-02
         488 -2.4935348E-02
         489  1.3453286E-03
         490 -3.7967998E-03
         491 -2.0558115E-03
         492 -2.3437027E-02
         493  3.6909401E-02
         494 -1.7706997E-03
         495  2.1490294E-03
         496 -2.0289971E-03
         497  5.1982184E-03
         498 -8.7106833E-03
         499 -2.5008041E-02
         500  9.1726808E-03
         501 -3.3192174E-03
         502  9.2851678E-03
         503  4.6080188E-03
         504 -2.1510165E-02
         505  7.9727480E-03
         506  7.7880914E-03
         507  8.4075248E-03
         508  7.3013669E-03
         509 -3.9007489E-03
         510 -6.2504015E-03
         511 -6.0267486E-03
         512 -7.4962382E-03
         513 -2.0142440E-03
         514 -3.1702085E-03
         515 -3.3908915E-03
         516 -2.6148928E-03
         517 -4.1273814E-03
         518 -3.1171585E-03
         519 -2.4217686E-03
         520  6.2188029E-04
         521  5.8768521E-04
         522  8.5989101E-04
         523 -6.9972221E-04
         524  6.4896750E-03
         525 -1.8432763E-03
         526 -7.7185134E-05
         527 -1.3940898E-03
         528 -4.4516497E-04
         529  6.5813330E-04
         530 -2.6491290E-04
         531  7.3988840E-04
         532 -3.9052477E-04
         533  4.7650828E-04
         534 -2.4059876E-03
         535  9.0737117E-04
         536  3.8827921E-04
         537 -2.6980156E-04
         538  2.9106962E-04
         539  9.2943443E-04
         540 -1.8226585E-03
         541  8.5687242E-04
         542 -7.2540843E-04
         543 -3.0783843E-03
         544  2.2579638E-02
         545 -8.1511671E-03
         546 -1.2032982E-02
         547  3.5713899E-03
         548  2.2772341E-03
         549  2.5279026E-02
         550 -8.8665299E-03
         551  4.6050386E-03
         552  6.3452832E-03
         553  3.0470511E-03
         554  2.7312455E-03
         555  1.1183507E-03
         556 -1.7005785E-03
         557 -3.8865197E-03
         558 -4.4360384E-04
         559  3.0183701E-03
         560  3.0630366E-03
         561  3.1957056E-03
         562 -4.6178307E-03
         563 -2.3230563E-03
         564  2.2053283E-03
         565 -2.0604893E-03
         566 -5.9463427E-04
         567  6.9573958E-05
         568 -6.0984603E-04
         569 -6.6099893E-03
         570  8.0291578E-04
         571  3.5761346E-04
         572  7.0710455E-05
         573 -9.5741247E-04
         574 -6.0779060E-04
         575 -1.4771047E-04
         576  1.5913836E-04
         577  7.5905269E-04
         578  9.5229706E-04
         579 -1.0494663E-03
         580  2.1085765E-03
         581  2.4534618E-03
         582  5.9202994E-04
         583 -2.2439384E-03
         584  1.8449450E-03
         585 -4.8312126E-04
         586  4.9182400E-04
         587 -2.9506488E-04
         588 -6.2642636E-04
         589  1.2473547E-04
         590 -3.1724477E-03
         591  3.3200872E-03
         592 -1.1120693E-02
         593  1.0459629E-02
         594  6.5640197E-03
         595  6.9650416E-03
         596  1.6274011E-02
         597  1.5256272E-02
         598  4.1305628E-03
         599  5.4313308E-03
         600  7.1439827E-03
         601  1.5824273E-02
         602 -1.2793340E-02
         603 -3.3006968E-03
         604 -1.7108597E-04
         605 -2.8739655E-03
         606  2.9692408E-03
         607  1.1466753E-02
         608 -1.1407830E-02
