 [Molden Format]
 [Atoms] Angs
C       1      6      7.53958478      3.01032383      2.16356432
C       2      6      6.16120238      3.07189255      2.20027512
C       3      6      5.39966319      2.19784555      1.43999817
C       4      6      6.00555690      1.25268575      0.62185847
C       5      6      7.40473112      1.17439357      0.61987769
C       6      6      8.15958017      2.05162906      1.37668820
O       7      8      8.09053518      0.22876035     -0.10040227
C       8      6      7.35666826     -0.62354213     -0.88595396
C       9      6      8.06018913     -1.53519490     -1.65170986
C      10      6      7.38788366     -2.40795409     -2.49387606
C      11      6      6.01162600     -2.34516159     -2.58152417
C      12      6      5.30157220     -1.43282139     -1.81678962
C      13      6      5.95768238     -0.57944621     -0.93827306
N      14      7      5.26946031      0.34654224     -0.14810326
C      15      6      3.86358781      0.38686619     -0.16698738
C      16      6      3.20828907      1.50683856     -0.64940366
C      17      6      1.81186553      1.61594981     -0.69775394
C      18      6      1.05886821      0.56038703     -0.24294808
C      19      6      1.72418516     -0.58325712      0.25904169
C      20      6      0.82093162     -1.57656531      0.70615317
C      21      6      1.31932685     -2.73767853      1.24129681
C      22      6      2.71523970     -2.88372101      1.32796122
C      23      6      3.59412407     -1.92221198      0.88815023
C      24      6      3.11280415     -0.72102478      0.32132361
C      25      6     -0.50912919     -1.03938235      0.46461343
N      26      7     -1.67003351     -1.57610415      0.70617501
C      27      6     -2.74365462     -0.81670698      0.36855417
C      28      6     -4.03324320     -1.31824895      0.60082053
C      29      6     -5.15121565     -0.58477060      0.27781915
C      30      6     -6.48229884     -1.12507302      0.59997505
C      31      6     -6.83233053     -2.42529338      0.24174733
C      32      6     -8.09284748     -2.89096889      0.57580056
N      33      7     -8.98838079     -2.17031868      1.22864326
C      34      6     -8.65260074     -0.94178326      1.58341800
C      35      6     -7.42391442     -0.37114795      1.29812959
C      36      6     -5.00667290      0.69522058     -0.31909933
C      37      6     -6.18412466      1.46891472     -0.74654917
C      38      6     -7.18686230      0.89565971     -1.52650225
C      39      6     -8.26190451      1.68012604     -1.90807483
N      40      7     -8.39465394      2.95197169     -1.57239542
C      41      6     -7.43931857      3.50067773     -0.84180890
C      42      6     -6.31785331      2.81389292     -0.40817333
C      43      6     -3.74989353      1.20743028     -0.54271256
C      44      6     -2.59821681      0.47845778     -0.20828098
N      45      7     -1.37923498      1.02387535     -0.44955234
C      46      6     -0.36056748      0.28103036     -0.12073818
H      47      1      8.13656727      3.69137460      2.74901971
H      48      1      5.66315408      3.79805710      2.82393391
H      49      1      4.32335731      2.24562163      1.49265629
H      50      1      9.23344345      1.96172832      1.34090410
H      51      1      9.13573644     -1.54233268     -1.57639487
H      52      1      7.94446463     -3.11908485     -3.08339434
H      53      1      5.47602115     -3.00189211     -3.24939251
H      54      1      4.22777346     -1.38371929     -1.90633584
H      55      1      3.80736819      2.32899157     -1.01492464
H      56      1      1.34991634      2.50626756     -1.09447177
H      57      1      0.66400634     -3.51894906      1.59334161
H      58      1      3.10984083     -3.79166585      1.76036876
H      59      1      4.65800249     -2.08445141      0.97820629
H      60      1     -4.12281057     -2.28864170      1.06544555
H      61      1     -6.13855647     -3.04811608     -0.30259298
H      62      1     -8.40520817     -3.89189046      0.30724742
H      63      1     -9.40957958     -0.38762658      2.12273605
H      64      1     -7.19621383      0.63315417      1.62134891
H      65      1     -7.12141920     -0.13572782     -1.83778465
H      66      1     -9.06038354      1.27046380     -2.51270459
H      67      1     -7.58377870      4.54388809     -0.59205952
H      68      1     -5.56908134      3.30264137      0.19680014
H      69      1     -3.62025601      2.17390273     -1.00606031
 [GTO]
           1   0
s              4   1.000000
     34.91580216     -0.01198412
      6.01279005     -0.05472052
      0.48315334      0.58055871
      0.18414169      0.47700799
p              4   1.000000
      5.62759368      0.05713170
      1.45915101      0.28574555
      0.51439588      0.55178731
      0.20478986      0.26323149
s              7   1.000000
      0.38350848     -0.19624924
      0.04707223      0.94820418
      0.02222627      0.24901282
     34.91580216      0.00551849
      6.01279005      0.02519792
      0.48315334     -0.26733792
      0.18414169     -0.21965448
p              7   1.000000
      1.83062075     -0.01161256
      0.10124670      0.57065889
      0.03901771      0.59596846
      5.62759368     -0.02527905
      1.45915101     -0.12643377
      0.51439588     -0.24414921
      0.20478986     -0.11647198
 
           2   0
s              4   1.000000
     34.92077566     -0.01198412
      6.01364653     -0.05472052
      0.48322216      0.58055871
      0.18416793      0.47700799
p              4   1.000000
      5.62839529      0.05713170
      1.45935885      0.28574555
      0.51446916      0.55178731
      0.20481904      0.26323149
s              7   1.000000
      0.38350848     -0.19624457
      0.04707223      0.94818162
      0.02222627      0.24900689
     34.92077566      0.00551774
      6.01364653      0.02519449
      0.48322216     -0.26730157
      0.18416793     -0.21962461
p              7   1.000000
      1.83062075     -0.01161230
      0.10124670      0.57064614
      0.03901771      0.59595511
      5.62839529     -0.02527560
      1.45935885     -0.12641651
      0.51446916     -0.24411588
      0.20481904     -0.11645608
 
           3   0
s              4   1.000000
     35.02323170     -0.01198412
      6.03129030     -0.05472052
      0.48463991      0.58055871
      0.18470827      0.47700799
p              4   1.000000
      5.64490876      0.05713170
      1.46364055      0.28574555
      0.51597859      0.55178731
      0.20541997      0.26323149
s              7   1.000000
      0.38350848     -0.19614878
      0.04707223      0.94771881
      0.02222627      0.24888536
     35.02323170      0.00550233
      6.03129030      0.02512410
      0.48463991     -0.26655477
      0.18470827     -0.21901102
p              7   1.000000
      1.83062075     -0.01160697
      0.10124670      0.57038448
      0.03901771      0.59568187
      5.64490876     -0.02520471
      1.46364055     -0.12606197
      0.51597859     -0.24343124
      0.20541997     -0.11612947
 
           4   0
s              4   1.000000
     35.22554306     -0.01198412
      6.06612999     -0.05472052
      0.48743943      0.58055871
      0.18577523      0.47700799
p              4   1.000000
      5.67751652      0.05713170
      1.47209525      0.28574555
      0.51895913      0.55178731
      0.20660657      0.26323149
s              7   1.000000
      0.38350848     -0.19596181
      0.04707223      0.94681545
      0.02222627      0.24864812
     35.22554306      0.00547213
      6.06612999      0.02498624
      0.48743943     -0.26509209
      0.18577523     -0.21780923
p              7   1.000000
      1.83062075     -0.01159658
      0.10124670      0.56987374
      0.03901771      0.59514846
      5.67751652     -0.02506587
      1.47209525     -0.12536753
      0.51895913     -0.24209025
      0.20660657     -0.11548975
 
           5   0
s              4   1.000000
     35.22653848     -0.01198412
      6.06630141     -0.05472052
      0.48745320      0.58055871
      0.18578048      0.47700800
p              4   1.000000
      5.67767696      0.05713170
      1.47213685      0.28574555
      0.51897380      0.55178731
      0.20661241      0.26323149
s              7   1.000000
      0.38350848     -0.19596090
      0.04707223      0.94681104
      0.02222627      0.24864695
     35.22653848      0.00547199
      6.06630141      0.02498556
      0.48745320     -0.26508493
      0.18578048     -0.21780335
p              7   1.000000
      1.83062075     -0.01159653
      0.10124670      0.56987125
      0.03901771      0.59514587
      5.67767696     -0.02506519
      1.47213685     -0.12536413
      0.51897380     -0.24208368
      0.20661241     -0.11548662
 
           6   0
s              4   1.000000
     34.97474126     -0.01198412
      6.02293985     -0.05472052
      0.48396892      0.58055871
      0.18445253      0.47700799
p              4   1.000000
      5.63709326      0.05713170
      1.46161411      0.28574555
      0.51526420      0.55178731
      0.20513556      0.26323149
s              7   1.000000
      0.38350848     -0.19619402
      0.04707223      0.94793740
      0.02222627      0.24894276
     34.97474126      0.00550961
      6.02293985      0.02515737
      0.48396892     -0.26690770
      0.18445253     -0.21930100
p              7   1.000000
      1.83062075     -0.01160949
      0.10124670      0.57050806
      0.03901771      0.59581093
      5.63709326     -0.02523822
      1.46161411     -0.12622953
      0.51526420     -0.24375480
      0.20513556     -0.11628383
 
           7   0
s              4   1.000000
     78.07892060     -0.01198412
     13.44583620     -0.05472052
      1.08043031      0.58055871
      0.41177873      0.47700799
p              4   1.000000
      8.05171528      0.05713170
      2.08768954      0.28574555
      0.73597517      0.55178731
      0.29300440      0.26323149
s              7   1.000000
      0.57971233     -0.18685747
      0.07115450      0.90282662
      0.03359728      0.23709597
     78.07892060      0.00376716
     13.44583620      0.01720116
      1.08043031     -0.18249611
      0.41177873     -0.14994539
p              7   1.000000
      2.76717072     -0.01171744
      0.15304476      0.57581318
      0.05897927      0.60135132
      8.05171528     -0.02664311
      2.08768954     -0.13325612
      0.73597517     -0.25732346
      0.29300440     -0.12275679
 
           8   0
s              4   1.000000
     35.22522153     -0.01198412
      6.06607462     -0.05472052
      0.48743498      0.58055871
      0.18577353      0.47700799
p              4   1.000000
      5.67746470      0.05713170
      1.47208182      0.28574555
      0.51895439      0.55178731
      0.20660469      0.26323149
s              7   1.000000
      0.38350848     -0.19596211
      0.04707223      0.94681688
      0.02222627      0.24864849
     35.22522153      0.00547218
      6.06607462      0.02498646
      0.48743498     -0.26509440
      0.18577353     -0.21781113
p              7   1.000000
      1.83062075     -0.01159660
      0.10124670      0.56987455
      0.03901771      0.59514931
      5.67746470     -0.02506609
      1.47208182     -0.12536863
      0.51895439     -0.24209237
      0.20660469     -0.11549076
 
           9   0
s              4   1.000000
     34.97402575     -0.01198412
      6.02281663     -0.05472053
      0.48395901      0.58055871
      0.18444876      0.47700799
p              4   1.000000
      5.63697793      0.05713170
      1.46158420      0.28574555
      0.51525366      0.55178731
      0.20513136      0.26323149
s              7   1.000000
      0.38350848     -0.19619469
      0.04707223      0.94794064
      0.02222627      0.24894359
     34.97402575      0.00550972
      6.02281663      0.02515786
      0.48395901     -0.26691292
      0.18444876     -0.21930529
p              7   1.000000
      1.83062075     -0.01160953
      0.10124670      0.57050989
      0.03901771      0.59581283
      5.63697793     -0.02523871
      1.46158420     -0.12623200
      0.51525366     -0.24375958
      0.20513136     -0.11628611
 
          10   0
s              4   1.000000
     34.91644415     -0.01198412
      6.01290060     -0.05472053
      0.48316222      0.58055871
      0.18414508      0.47700799
p              4   1.000000
      5.62769715      0.05713170
      1.45917784      0.28574555
      0.51440534      0.55178730
      0.20479363      0.26323149
s              7   1.000000
      0.38350848     -0.19624863
      0.04707223      0.94820127
      0.02222627      0.24901206
     34.91644415      0.00551840
      6.01290060      0.02519748
      0.48316222     -0.26733323
      0.18414508     -0.21965063
p              7   1.000000
      1.83062075     -0.01161252
      0.10124670      0.57065724
      0.03901771      0.59596672
      5.62769715     -0.02527861
      1.45917784     -0.12643154
      0.51440534     -0.24414491
      0.20479363     -0.11646993
 
          11   0
s              4   1.000000
     34.92119474     -0.01198412
      6.01371869     -0.05472052
      0.48322796      0.58055871
      0.18417014      0.47700800
p              4   1.000000
      5.62846284      0.05713170
      1.45937637      0.28574555
      0.51447533      0.55178731
      0.20482149      0.26323149
s              7   1.000000
      0.38350848     -0.19624417
      0.04707223      0.94817972
      0.02222627      0.24900638
     34.92119474      0.00551768
      6.01371869      0.02519420
      0.48322796     -0.26729850
      0.18417014     -0.21962210
p              7   1.000000
      1.83062075     -0.01161228
      0.10124670      0.57064506
      0.03901771      0.59595402
      5.62846284     -0.02527531
      1.45937637     -0.12641506
      0.51447533     -0.24411307
      0.20482149     -0.11645474
 
          12   0
s              4   1.000000
     35.02968741     -0.01198412
      6.03240203     -0.05472053
      0.48472924      0.58055871
      0.18474231      0.47700800
p              4   1.000000
      5.64594926      0.05713170
      1.46391034      0.28574555
      0.51607369      0.55178731
      0.20545783      0.26323149
s              7   1.000000
      0.38350848     -0.19614277
      0.04707223      0.94768978
      0.02222627      0.24887773
     35.02968741      0.00550136
      6.03240203      0.02511968
      0.48472924     -0.26650785
      0.18474231     -0.21897247
p              7   1.000000
      1.83062075     -0.01160664
      0.10124670      0.57036806
      0.03901771      0.59566472
      5.64594926     -0.02520026
      1.46391034     -0.12603969
      0.51607369     -0.24338823
      0.20545783     -0.11610895
 
          13   0
s              4   1.000000
     35.23730203     -0.01198412
      6.06815499     -0.05472052
      0.48760214      0.58055871
      0.18583725      0.47700799
p              4   1.000000
      5.67941178      0.05713170
      1.47258667      0.28574555
      0.51913237      0.55178731
      0.20667554      0.26323149
s              7   1.000000
      0.38350848     -0.19595103
      0.04707223      0.94676337
      0.02222627      0.24863442
     35.23730203      0.00547039
      6.06815499      0.02497827
      0.48760214     -0.26500756
      0.18583725     -0.21773977
p              7   1.000000
      1.83062075     -0.01159598
      0.10124670      0.56984430
      0.03901771      0.59511771
      5.67941178     -0.02505784
      1.47258667     -0.12532739
      0.51913237     -0.24201274
      0.20667554     -0.11545277
 
          14   0
s              4   1.000000
     61.16021694     -0.01198412
     10.53229544     -0.05472053
      0.84631488      0.58055871
      0.32255155      0.47700799
p              4   1.000000
      7.20907562      0.05713170
      1.86920566      0.28574555
      0.65895284      0.55178731
      0.26234048      0.26323149
s              7   1.000000
      0.47894987     -0.18779537
      0.05878681      0.90735824
      0.02775758      0.23828604
     61.16021694      0.00397236
     10.53229544      0.01813814
      0.84631488     -0.19243708
      0.32255155     -0.15811325
p              7   1.000000
      2.28619608     -0.01156719
      0.12644335      0.56842959
      0.04872781      0.59364025
      7.20907562     -0.02466972
      1.86920566     -0.12338619
      0.65895284     -0.23826420
      0.26234048     -0.11366452
 
          15   0
s              4   1.000000
     35.23761579     -0.01198412
      6.06820902     -0.05472052
      0.48760649      0.58055871
      0.18583890      0.47700800
p              4   1.000000
      5.67946236      0.05713170
      1.47259978      0.28574555
      0.51913699      0.55178731
      0.20667738      0.26323149
s              7   1.000000
      0.38350848     -0.19595074
      0.04707223      0.94676198
      0.02222627      0.24863408
     35.23761579      0.00547034
      6.06820902      0.02497806
      0.48760649     -0.26500530
      0.18583890     -0.21773792
p              7   1.000000
      1.83062075     -0.01159597
      0.10124670      0.56984351
      0.03901771      0.59511690
      5.67946236     -0.02505763
      1.47259978     -0.12532632
      0.51913699     -0.24201068
      0.20667738     -0.11545179
 
          16   0
s              4   1.000000
     35.02159603     -0.01198412
      6.03100863     -0.05472053
      0.48461728      0.58055871
      0.18469964      0.47700799
p              4   1.000000
      5.64464513      0.05713170
      1.46357219      0.28574555
      0.51595449      0.55178731
      0.20541037      0.26323149
s              7   1.000000
      0.38350848     -0.19615030
      0.04707223      0.94772617
      0.02222627      0.24888729
     35.02159603      0.00550257
      6.03100863      0.02512522
      0.48461728     -0.26656666
      0.18469964     -0.21902079
p              7   1.000000
      1.83062075     -0.01160706
      0.10124670      0.57038863
      0.03901771      0.59568620
      5.64464513     -0.02520584
      1.46357219     -0.12606761
      0.51595449     -0.24344214
      0.20541037     -0.11613468
 
          17   0
s              4   1.000000
     34.92880152     -0.01198412
      6.01502865     -0.05472052
      0.48333322      0.58055871
      0.18421025      0.47700800
p              4   1.000000
      5.62968887      0.05713170
      1.45969426      0.28574555
      0.51458740      0.55178731
      0.20486611      0.26323149
s              7   1.000000
      0.38350848     -0.19623704
      0.04707223      0.94814525
      0.02222627      0.24899734
     34.92880152      0.00551653
      6.01502865      0.02518896
      0.48333322     -0.26724292
      0.18421025     -0.21957643
p              7   1.000000
      1.83062075     -0.01161188
      0.10124670      0.57062556
      0.03901771      0.59593363
      5.62968887     -0.02527003
      1.45969426     -0.12638867
      0.51458740     -0.24406211
      0.20486611     -0.11643043
 
          18   0
s              4   1.000000
     35.31367451     -0.01198412
      6.08130696     -0.05472052
      0.48865896      0.58055871
      0.18624003      0.47700799
p              4   1.000000
      5.69172120      0.05713170
      1.47577832      0.28574555
      0.52025752      0.55178731
      0.20712348      0.26323149
s              7   1.000000
      0.38350848     -0.19588125
      0.04707223      0.94642623
      0.02222627      0.24854589
     35.31367451      0.00545908
      6.08130696      0.02492664
      0.48865896     -0.26445982
      0.18624003     -0.21728973
p              7   1.000000
      1.83062075     -0.01159210
      0.10124670      0.56965369
      0.03901771      0.59491867
      5.69172120     -0.02500585
      1.47577832     -0.12506733
      0.52025752     -0.24151055
      0.20712348     -0.11521320
 
          19   0
s              4   1.000000
     35.76342481     -0.01198412
      6.15875768     -0.05472052
      0.49488246      0.58055871
      0.18861195      0.47700799
p              4   1.000000
      5.76421021      0.05713170
      1.49457364      0.28574555
      0.52688346      0.55178731
      0.20976138      0.26323149
s              7   1.000000
      0.38350848     -0.19547837
      0.04707223      0.94447963
      0.02222627      0.24803468
     35.76342481      0.00539342
      6.15875768      0.02462681
      0.49488246     -0.26127868
      0.18861195     -0.21467599
p              7   1.000000
      1.83062075     -0.01156971
      0.10124670      0.56855321
      0.03901771      0.59376936
      5.76421021     -0.02470384
      1.49457364     -0.12355683
      0.52688346     -0.23859371
      0.20976138     -0.11382172
 
          20   0
s              4   1.000000
     35.31517904     -0.01198412
      6.08156605     -0.05472052
      0.48867978      0.58055871
      0.18624796      0.47700799
p              4   1.000000
      5.69196370      0.05713170
      1.47584119      0.28574555
      0.52027969      0.55178731
      0.20713231      0.26323149
s              7   1.000000
      0.38350848     -0.19587988
      0.04707223      0.94641961
      0.02222627      0.24854416
     35.31517904      0.00545886
      6.08156605      0.02492563
      0.48867978     -0.26444905
      0.18624796     -0.21728089
p              7   1.000000
      1.83062075     -0.01159203
      0.10124670      0.56964996
      0.03901771      0.59491475
      5.69196370     -0.02500482
      1.47584119     -0.12506222
      0.52027969     -0.24150068
      0.20713231     -0.11520849
 
          21   0
s              4   1.000000
     34.93017192     -0.01198412
      6.01526464     -0.05472052
      0.48335218      0.58055871
      0.18421748      0.47700799
p              4   1.000000
      5.62990974      0.05713170
      1.45975153      0.28574555
      0.51460759      0.55178731
      0.20487415      0.26323149
s              7   1.000000
      0.38350848     -0.19623575
      0.04707223      0.94813903
      0.02222627      0.24899571
     34.93017192      0.00551632
      6.01526464      0.02518802
      0.48335218     -0.26723291
      0.18421748     -0.21956820
p              7   1.000000
      1.83062075     -0.01161181
      0.10124670      0.57062205
      0.03901771      0.59592999
      5.62990974     -0.02526908
      1.45975153     -0.12638391
      0.51460759     -0.24405293
      0.20487415     -0.11642605
 
          22   0
s              4   1.000000
     34.92759544     -0.01198412
      6.01482095     -0.05472052
      0.48331653      0.58055871
      0.18420389      0.47700799
p              4   1.000000
      5.62949448      0.05713170
      1.45964385      0.28574555
      0.51456963      0.55178731
      0.20485904      0.26323149
s              7   1.000000
      0.38350848     -0.19623817
      0.04707223      0.94815070
      0.02222627      0.24899878
     34.92759544      0.00551671
      6.01482095      0.02518979
      0.48331653     -0.26725173
      0.18420389     -0.21958367
p              7   1.000000
      1.83062075     -0.01161194
      0.10124670      0.57062866
      0.03901771      0.59593687
      5.62949448     -0.02527087
      1.45964385     -0.12639285
      0.51456963     -0.24407019
      0.20485904     -0.11643428
 
          23   0
s              4   1.000000
     34.97967189     -0.01198412
      6.02378894     -0.05472052
      0.48403714      0.58055871
      0.18447854      0.47700799
p              4   1.000000
      5.63788796      0.05713170
      1.46182016      0.28574555
      0.51533684      0.55178731
      0.20516448      0.26323149
s              7   1.000000
      0.38350848     -0.19618941
      0.04707223      0.94791515
      0.02222627      0.24893691
     34.97967189      0.00550887
      6.02378894      0.02515398
      0.48403714     -0.26687177
      0.18447854     -0.21927148
p              7   1.000000
      1.83062075     -0.01160923
      0.10124670      0.57049548
      0.03901771      0.59579778
      5.63788796     -0.02523480
      1.46182016     -0.12621247
      0.51533684     -0.24372186
      0.20516448     -0.11626811
 
          24   0
s              4   1.000000
     35.17890416     -0.01198412
      6.05809839     -0.05472052
      0.48679406      0.58055871
      0.18552926      0.47700799
p              4   1.000000
      5.66999944      0.05713170
      1.47014619      0.28574555
      0.51827203      0.55178731
      0.20633302      0.26323149
s              7   1.000000
      0.38350848     -0.19600466
      0.04707223      0.94702248
      0.02222627      0.24870248
     35.17890416      0.00547907
      6.05809839      0.02501789
      0.48679406     -0.26542788
      0.18552926     -0.21808513
p              7   1.000000
      1.83062075     -0.01159896
      0.10124670      0.56999078
      0.03901771      0.59527072
      5.66999944     -0.02509774
      1.47014619     -0.12552696
      0.51827203     -0.24239811
      0.20633302     -0.11563661
 
          25   0
s              4   1.000000
     35.54170476     -0.01198412
      6.12057565     -0.05472052
      0.49181437      0.58055871
      0.18744263      0.47700799
p              4   1.000000
      5.72847424      0.05713170
      1.48530783      0.28574555
      0.52361697      0.55178731
      0.20846094      0.26323149
s              7   1.000000
      0.38350848     -0.19567529
      0.04707223      0.94543108
      0.02222627      0.24828455
     35.54170476      0.00542559
      6.12057565      0.02477373
      0.49181437     -0.26283752
      0.18744263     -0.21595679
p              7   1.000000
      1.83062075     -0.01158065
      0.10124670      0.56909109
      0.03901771      0.59433109
      5.72847424     -0.02485184
      1.48530783     -0.12429704
      0.52361697     -0.24002308
      0.20846094     -0.11450360
 
          26   0
s              4   1.000000
     57.17396208     -0.01198412
      9.84582937     -0.05472053
      0.79115440      0.58055871
      0.30152852      0.47700799
p              4   1.000000
      6.73920789      0.05713170
      1.74737597      0.28574555
      0.61600410      0.55178731
      0.24524185      0.26323149
s              7   1.000000
      0.47894987     -0.18911391
      0.05878681      0.91372891
      0.02775758      0.23995910
     57.17396208      0.00424568
      9.84582937      0.01938616
      0.79115440     -0.20567790
      0.30152852     -0.16899239
p              7   1.000000
      2.28619608     -0.01169178
      0.12644335      0.57455203
      0.04872781      0.60003424
      6.73920789     -0.02631477
      1.74737597     -0.13161392
      0.61600410     -0.25415231
      0.24524185     -0.12124398
 
          27   0
s              4   1.000000
     35.32191333     -0.01198412
      6.08272575     -0.05472052
      0.48877297      0.58055871
      0.18628348      0.47700800
p              4   1.000000
      5.69304911      0.05713170
      1.47612262      0.28574555
      0.52037890      0.55178731
      0.20717181      0.26323149
s              7   1.000000
      0.38350848     -0.19587375
      0.04707223      0.94638998
      0.02222627      0.24853639
     35.32191333      0.00545786
      6.08272575      0.02492109
      0.48877297     -0.26440086
      0.18628348     -0.21724129
p              7   1.000000
      1.83062075     -0.01159169
      0.10124670      0.56963320
      0.03901771      0.59489727
      5.69304911     -0.02500025
      1.47612262     -0.12503934
      0.52037890     -0.24145650
      0.20717181     -0.11518742
 
          28   0
s              4   1.000000
     35.09430891     -0.01198412
      6.04353039     -0.05472053
      0.48562345      0.58055871
      0.18508312      0.47700799
p              4   1.000000
      5.65636471      0.05713170
      1.46661091      0.28574555
      0.51702573      0.55178731
      0.20583685      0.26323149
s              7   1.000000
      0.38350848     -0.19608277
      0.04707223      0.94739987
      0.02222627      0.24880159
     35.09430891      0.00549168
      6.04353039      0.02507550
      0.48562345     -0.26603909
      0.18508312     -0.21858732
p              7   1.000000
      1.83062075     -0.01160330
      0.10124670      0.57020414
      0.03901771      0.59549355
      5.65636471     -0.02515576
      1.46661091     -0.12581714
      0.51702573     -0.24295847
      0.20583685     -0.11590394
 
          29   0
s              4   1.000000
     35.15061515     -0.01198412
      6.05322679     -0.05472052
      0.48640260      0.58055871
      0.18538007      0.47700799
p              4   1.000000
      5.66543993      0.05713170
      1.46896398      0.28574555
      0.51785526      0.55178731
      0.20616710      0.26323149
s              7   1.000000
      0.38350848     -0.19603072
      0.04707223      0.94714841
      0.02222627      0.24873555
     35.15061515      0.00548328
      6.05322679      0.02503712
      0.48640260     -0.26563197
      0.18538007     -0.21825281
p              7   1.000000
      1.83062075     -0.01160041
      0.10124670      0.57006198
      0.03901771      0.59534508
      5.66543993     -0.02511712
      1.46896398     -0.12562385
      0.51785526     -0.24258522
      0.20616710     -0.11572587
 
          30   0
s              4   1.000000
     35.14321333     -0.01198412
      6.05195213     -0.05472052
      0.48630018      0.58055871
      0.18534103      0.47700800
p              4   1.000000
      5.66424693      0.05713170
      1.46865465      0.28574555
      0.51774621      0.55178731
      0.20612369      0.26323149
s              7   1.000000
      0.38350848     -0.19603755
      0.04707223      0.94718140
      0.02222627      0.24874421
     35.14321333      0.00548438
      6.05195213      0.02504216
      0.48630018     -0.26568542
      0.18534103     -0.21829673
p              7   1.000000
      1.83062075     -0.01160079
      0.10124670      0.57008064
      0.03901771      0.59536454
      5.66424693     -0.02512219
      1.46865465     -0.12564923
      0.51774621     -0.24263422
      0.20612369     -0.11574925
 
          31   0
s              4   1.000000
     34.99837587     -0.01198412
      6.02700992     -0.05472052
      0.48429596      0.58055871
      0.18457718      0.47700800
p              4   1.000000
      5.64090259      0.05713170
      1.46260181      0.28574555
      0.51561240      0.55178731
      0.20527418      0.26323149
s              7   1.000000
      0.38350848     -0.19617195
      0.04707223      0.94783076
      0.02222627      0.24891476
     34.99837587      0.00550606
      6.02700992      0.02514114
      0.48429596     -0.26673557
      0.18457718     -0.21915957
p              7   1.000000
      1.83062075     -0.01160826
      0.10124670      0.57044777
      0.03901771      0.59574798
      5.64090259     -0.02522188
      1.46260181     -0.12614780
      0.51561240     -0.24359699
      0.20527418     -0.11620854
 
          32   0
s              4   1.000000
     35.07499993     -0.01198412
      6.04020522     -0.05472052
      0.48535626      0.58055871
      0.18498128      0.47700799
p              4   1.000000
      5.65325256      0.05713170
      1.46580397      0.28574555
      0.51674126      0.55178731
      0.20572360      0.26323149
s              7   1.000000
      0.38350848     -0.19610067
      0.04707223      0.94748634
      0.02222627      0.24882430
     35.07499993      0.00549457
      6.04020522      0.02508868
      0.48535626     -0.26617899
      0.18498128     -0.21870227
p              7   1.000000
      1.83062075     -0.01160430
      0.10124670      0.57025304
      0.03901771      0.59554460
      5.65325256     -0.02516904
      1.46580397     -0.12588356
      0.51674126     -0.24308673
      0.20572360     -0.11596512
 
          33   0
s              4   1.000000
     56.98254610     -0.01198412
      9.81286595     -0.05472052
      0.78850565      0.58055871
      0.30051902      0.47700799
p              4   1.000000
      6.71664531      0.05713170
      1.74152583      0.28574555
      0.61394175      0.55178731
      0.24442079      0.26323149
s              7   1.000000
      0.47894987     -0.18918363
      0.05878681      0.91406577
      0.02775758      0.24004755
     56.98254610      0.00425970
      9.81286595      0.01945015
      0.78850565     -0.20635687
      0.30051902     -0.16955026
p              7   1.000000
      2.28619608     -0.01169835
      0.12644335      0.57487494
      0.04872781      0.60037147
      6.71664531     -0.02639916
      1.74152583     -0.13203600
      0.61394175     -0.25496735
      0.24442079     -0.12163280
 
          34   0
s              4   1.000000
     35.07704501     -0.01198412
      6.04055740     -0.05472053
      0.48538456      0.58055871
      0.18499207      0.47700799
p              4   1.000000
      5.65358218      0.05713170
      1.46588944      0.28574555
      0.51677139      0.55178731
      0.20573559      0.26323149
s              7   1.000000
      0.38350848     -0.19609877
      0.04707223      0.94747717
      0.02222627      0.24882189
     35.07704501      0.00549426
      6.04055740      0.02508729
      0.48538456     -0.26616417
      0.18499207     -0.21869009
p              7   1.000000
      1.83062075     -0.01160419
      0.10124670      0.57024786
      0.03901771      0.59553918
      5.65358218     -0.02516764
      1.46588944     -0.12587652
      0.51677139     -0.24307314
      0.20573559     -0.11595864
 
          35   0
s              4   1.000000
     35.01026936     -0.01198412
      6.02905808     -0.05472053
      0.48446054      0.58055871
      0.18463990      0.47700800
p              4   1.000000
      5.64281954      0.05713170
      1.46309884      0.28574555
      0.51578762      0.55178731
      0.20534394      0.26323149
s              7   1.000000
      0.38350848     -0.19616086
      0.04707223      0.94777717
      0.02222627      0.24890067
     35.01026936      0.00550427
      6.02905808      0.02513299
      0.48446054     -0.26664903
      0.18463990     -0.21908846
p              7   1.000000
      1.83062075     -0.01160765
      0.10124670      0.57041746
      0.03901771      0.59571630
      5.64281954     -0.02521366
      1.46309884     -0.12610672
      0.51578762     -0.24351765
      0.20534394     -0.11617069
 
          36   0
s              4   1.000000
     35.15044223     -0.01198412
      6.05319701     -0.05472052
      0.48640021      0.58055871
      0.18537916      0.47700799
p              4   1.000000
      5.66541206      0.05713170
      1.46895675      0.28574555
      0.51785271      0.55178731
      0.20616609      0.26323149
s              7   1.000000
      0.38350848     -0.19603088
      0.04707223      0.94714918
      0.02222627      0.24873575
     35.15044223      0.00548330
      6.05319701      0.02503724
      0.48640021     -0.26563322
      0.18537916     -0.21825384
p              7   1.000000
      1.83062075     -0.01160042
      0.10124670      0.57006242
      0.03901771      0.59534552
      5.66541206     -0.02511724
      1.46895675     -0.12562445
      0.51785271     -0.24258636
      0.20616609     -0.11572642
 
          37   0
s              4   1.000000
     35.14335322     -0.01198412
      6.05197622     -0.05472053
      0.48630211      0.58055871
      0.18534177      0.47700799
p              4   1.000000
      5.66426948      0.05713170
      1.46866049      0.28574555
      0.51774827      0.55178731
      0.20612451      0.26323149
s              7   1.000000
      0.38350848     -0.19603742
      0.04707223      0.94718078
      0.02222627      0.24874406
     35.14335322      0.00548436
      6.05197622      0.02504207
      0.48630211     -0.26568441
      0.18534177     -0.21829590
p              7   1.000000
      1.83062075     -0.01160078
      0.10124670      0.57008028
      0.03901771      0.59536417
      5.66426948     -0.02512210
      1.46866049     -0.12564875
      0.51774827     -0.24263330
      0.20612451     -0.11574881
 
          38   0
s              4   1.000000
     35.01036016     -0.01198412
      6.02907372     -0.05472053
      0.48446180      0.58055871
      0.18464038      0.47700799
p              4   1.000000
      5.64283417      0.05713170
      1.46310264      0.28574555
      0.51578896      0.55178731
      0.20534447      0.26323149
s              7   1.000000
      0.38350848     -0.19616077
      0.04707223      0.94777676
      0.02222627      0.24890057
     35.01036016      0.00550426
      6.02907372      0.02513293
      0.48446180     -0.26664837
      0.18464038     -0.21908792
p              7   1.000000
      1.83062075     -0.01160764
      0.10124670      0.57041723
      0.03901771      0.59571606
      5.64283417     -0.02521360
      1.46310264     -0.12610640
      0.51578896     -0.24351705
      0.20534447     -0.11617040
 
          39   0
s              4   1.000000
     35.07703829     -0.01198412
      6.04055624     -0.05472052
      0.48538447      0.58055871
      0.18499203      0.47700799
p              4   1.000000
      5.65358110      0.05713170
      1.46588916      0.28574555
      0.51677129      0.55178731
      0.20573555      0.26323149
s              7   1.000000
      0.38350848     -0.19609877
      0.04707223      0.94747720
      0.02222627      0.24882189
     35.07703829      0.00549426
      6.04055624      0.02508729
      0.48538447     -0.26616422
      0.18499203     -0.21869013
p              7   1.000000
      1.83062075     -0.01160419
      0.10124670      0.57024787
      0.03901771      0.59553918
      5.65358110     -0.02516764
      1.46588916     -0.12587655
      0.51677129     -0.24307319
      0.20573555     -0.11595866
 
          40   0
s              4   1.000000
     56.98257095     -0.01198412
      9.81287023     -0.05472052
      0.78850599      0.58055871
      0.30051915      0.47700800
p              4   1.000000
      6.71664824      0.05713170
      1.74152659      0.28574555
      0.61394202      0.55178731
      0.24442089      0.26323149
s              7   1.000000
      0.47894987     -0.18918362
      0.05878681      0.91406572
      0.02775758      0.24004755
     56.98257095      0.00425970
      9.81287023      0.01945015
      0.78850599     -0.20635679
      0.30051915     -0.16955018
p              7   1.000000
      2.28619608     -0.01169835
      0.12644335      0.57487489
      0.04872781      0.60037144
      6.71664824     -0.02639914
      1.74152659     -0.13203594
      0.61394202     -0.25496725
      0.24442089     -0.12163275
 
          41   0
s              4   1.000000
     35.07502086     -0.01198412
      6.04020883     -0.05472052
      0.48535655      0.58055871
      0.18498139      0.47700800
p              4   1.000000
      5.65325593      0.05713170
      1.46580485      0.28574555
      0.51674157      0.55178731
      0.20572372      0.26323149
s              7   1.000000
      0.38350848     -0.19610065
      0.04707223      0.94748624
      0.02222627      0.24882428
     35.07502086      0.00549457
      6.04020883      0.02508867
      0.48535655     -0.26617884
      0.18498139     -0.21870214
p              7   1.000000
      1.83062075     -0.01160430
      0.10124670      0.57025298
      0.03901771      0.59554452
      5.65325593     -0.02516903
      1.46580485     -0.12588349
      0.51674157     -0.24308659
      0.20572372     -0.11596506
 
          42   0
s              4   1.000000
     34.99826286     -0.01198412
      6.02699046     -0.05472052
      0.48429440      0.58055871
      0.18457658      0.47700800
p              4   1.000000
      5.64088438      0.05713170
      1.46259709      0.28574555
      0.51561073      0.55178731
      0.20527352      0.26323149
s              7   1.000000
      0.38350848     -0.19617206
      0.04707223      0.94783127
      0.02222627      0.24891488
     34.99826286      0.00550608
      6.02699046      0.02514122
      0.48429440     -0.26673639
      0.18457658     -0.21916025
p              7   1.000000
      1.83062075     -0.01160827
      0.10124670      0.57044805
      0.03901771      0.59574826
      5.64088438     -0.02522195
      1.46259709     -0.12614819
      0.51561073     -0.24359775
      0.20527352     -0.11620890
 
          43   0
s              4   1.000000
     35.09434732     -0.01198412
      6.04353700     -0.05472052
      0.48562398      0.58055871
      0.18508332      0.47700800
p              4   1.000000
      5.65637090      0.05713170
      1.46661251      0.28574555
      0.51702629      0.55178731
      0.20583708      0.26323149
s              7   1.000000
      0.38350848     -0.19608273
      0.04707223      0.94739969
      0.02222627      0.24880154
     35.09434732      0.00549168
      6.04353700      0.02507547
      0.48562398     -0.26603882
      0.18508332     -0.21858709
p              7   1.000000
      1.83062075     -0.01160330
      0.10124670      0.57020406
      0.03901771      0.59549343
      5.65637090     -0.02515574
      1.46661251     -0.12581701
      0.51702629     -0.24295822
      0.20583708     -0.11590382
 
          44   0
s              4   1.000000
     35.32075636     -0.01198412
      6.08252651     -0.05472052
      0.48875696      0.58055871
      0.18627737      0.47700799
p              4   1.000000
      5.69286263      0.05713170
      1.47607427      0.28574555
      0.52036186      0.55178731
      0.20716502      0.26323149
s              7   1.000000
      0.38350848     -0.19587480
      0.04707223      0.94639506
      0.02222627      0.24853770
     35.32075636      0.00545804
      6.08252651      0.02492187
      0.48875696     -0.26440914
      0.18627737     -0.21724810
p              7   1.000000
      1.83062075     -0.01159174
      0.10124670      0.56963608
      0.03901771      0.59490026
      5.69286263     -0.02500104
      1.47607427     -0.12504327
      0.52036186     -0.24146409
      0.20716502     -0.11519104
 
          45   0
s              4   1.000000
     57.17389361     -0.01198412
      9.84581757     -0.05472052
      0.79115345      0.58055871
      0.30152816      0.47700799
p              4   1.000000
      6.73919982      0.05713170
      1.74737388      0.28574555
      0.61600336      0.55178731
      0.24524155      0.26323149
s              7   1.000000
      0.47894987     -0.18911393
      0.05878681      0.91372903
      0.02775758      0.23995912
     57.17389361      0.00424569
      9.84581757      0.01938618
      0.79115345     -0.20567815
      0.30152816     -0.16899259
p              7   1.000000
      2.28619608     -0.01169178
      0.12644335      0.57455214
      0.04872781      0.60003436
      6.73919982     -0.02631480
      1.74737388     -0.13161407
      0.61600336     -0.25415260
      0.24524155     -0.12124412
 
          46   0
s              4   1.000000
     35.53896732     -0.01198412
      6.12010425     -0.05472053
      0.49177649      0.58055871
      0.18742819      0.47700800
p              4   1.000000
      5.72803303      0.05713170
      1.48519343      0.28574555
      0.52357664      0.55178731
      0.20844488      0.26323149
s              7   1.000000
      0.38350848     -0.19567774
      0.04707223      0.94544292
      0.02222627      0.24828767
     35.53896732      0.00542599
      6.12010425      0.02477556
      0.49177649     -0.26285688
      0.18742819     -0.21597270
p              7   1.000000
      1.83062075     -0.01158079
      0.10124670      0.56909779
      0.03901771      0.59433809
      5.72803303     -0.02485367
      1.48519343     -0.12430623
      0.52357664     -0.24004083
      0.20844488     -0.11451207
 
          47   0
s              4   1.000000
      8.30892543      0.05675242
      1.52043098      0.26014135
      0.42239238      0.53284611
      0.14018823      0.29162544
s              7   1.000000
      0.92936822     -0.06732845
      0.05643440      0.66945567
      0.02166600      0.51461484
      8.30892543     -0.02902277
      1.52043098     -0.13303438
      0.42239238     -0.27249359
      0.14018823     -0.14913511
p              4   1.000000
      0.64737396      0.05713170
      0.16785440      0.28574555
      0.05917387      0.55178731
      0.02355814      0.26323150
 
          48   0
s              4   1.000000
      8.30902754      0.05675242
      1.52044967      0.26014135
      0.42239757      0.53284611
      0.14018996      0.29162544
s              7   1.000000
      0.92936822     -0.06732832
      0.05643440      0.66945436
      0.02166600      0.51461385
      8.30902754     -0.02902250
      1.52044967     -0.13303312
      0.42239757     -0.27249102
      0.14018996     -0.14913371
p              4   1.000000
      0.64737396      0.05713170
      0.16785440      0.28574555
      0.05917387      0.55178731
      0.02355814      0.26323150
 
          49   0
s              4   1.000000
      8.31042753      0.05675242
      1.52070585      0.26014135
      0.42246874      0.53284611
      0.14021358      0.29162544
s              7   1.000000
      0.92936822     -0.06732652
      0.05643440      0.66943647
      0.02166600      0.51460009
      8.31042753     -0.02901875
      1.52070585     -0.13301596
      0.42246874     -0.27245586
      0.14021358     -0.14911446
p              4   1.000000
      0.64737396      0.05713170
      0.16785440      0.28574555
      0.05917387      0.55178731
      0.02355814      0.26323150
 
          50   0
s              4   1.000000
      8.30926979      0.05675242
      1.52049400      0.26014135
      0.42240988      0.53284611
      0.14019404      0.29162544
s              7   1.000000
      0.92936822     -0.06732801
      0.05643440      0.66945127
      0.02166600      0.51461146
      8.30926979     -0.02902185
      1.52049400     -0.13303015
      0.42240988     -0.27248494
      0.14019404     -0.14913037
p              4   1.000000
      0.64737396      0.05713170
      0.16785440      0.28574555
      0.05917387      0.55178731
      0.02355814      0.26323150
 
          51   0
s              4   1.000000
      8.30926101      0.05675242
      1.52049239      0.26014135
      0.42240944      0.53284611
      0.14019389      0.29162544
s              7   1.000000
      0.92936822     -0.06732802
      0.05643440      0.66945138
      0.02166600      0.51461156
      8.30926101     -0.02902187
      1.52049239     -0.13303026
      0.42240944     -0.27248516
      0.14019389     -0.14913050
p              4   1.000000
      0.64737396      0.05713170
      0.16785440      0.28574555
      0.05917387      0.55178731
      0.02355814      0.26323150
 
          52   0
s              4   1.000000
      8.30893115      0.05675242
      1.52043203      0.26014135
      0.42239267      0.53284611
      0.14018833      0.29162544
s              7   1.000000
      0.92936822     -0.06732845
      0.05643440      0.66945560
      0.02166600      0.51461479
      8.30893115     -0.02902276
      1.52043203     -0.13303431
      0.42239267     -0.27249344
      0.14018833     -0.14913503
p              4   1.000000
      0.64737396      0.05713170
      0.16785440      0.28574555
      0.05917387      0.55178731
      0.02355814      0.26323150
 
          53   0
s              4   1.000000
      8.30904210      0.05675242
      1.52045233      0.26014135
      0.42239831      0.53284611
      0.14019020      0.29162544
s              7   1.000000
      0.92936822     -0.06732830
      0.05643440      0.66945418
      0.02166600      0.51461370
      8.30904210     -0.02902246
      1.52045233     -0.13303295
      0.42239831     -0.27249066
      0.14019020     -0.14913350
p              4   1.000000
      0.64737396      0.05713170
      0.16785440      0.28574555
      0.05917387      0.55178731
      0.02355814      0.26323150
 
          54   0
s              4   1.000000
      8.31056177      0.05675242
      1.52073042      0.26014135
      0.42247556      0.53284611
      0.14021584      0.29162544
s              7   1.000000
      0.92936822     -0.06732635
      0.05643440      0.66943475
      0.02166600      0.51459877
      8.31056177     -0.02901839
      1.52073042     -0.13301431
      0.42247556     -0.27245249
      0.14021584     -0.14911262
p              4   1.000000
      0.64737396      0.05713170
      0.16785440      0.28574555
      0.05917387      0.55178731
      0.02355814      0.26323150
 
          55   0
s              4   1.000000
      8.30971689      0.05675242
      1.52057581      0.26014135
      0.42243261      0.53284611
      0.14020159      0.29162544
s              7   1.000000
      0.92936822     -0.06732743
      0.05643440      0.66944556
      0.02166600      0.51460707
      8.30971689     -0.02902065
      1.52057581     -0.13302467
      0.42243261     -0.27247371
      0.14020159     -0.14912422
p              4   1.000000
      0.64737396      0.05713170
      0.16785440      0.28574555
      0.05917387      0.55178731
      0.02355814      0.26323150
 
          56   0
s              4   1.000000
      8.30890565      0.05675242
      1.52042736      0.26014135
      0.42239137      0.53284611
      0.14018790      0.29162544
s              7   1.000000
      0.92936822     -0.06732848
      0.05643440      0.66945593
      0.02166600      0.51461504
      8.30890565     -0.02902282
      1.52042736     -0.13303462
      0.42239137     -0.27249408
      0.14018790     -0.14913538
p              4   1.000000
      0.64737396      0.05713170
      0.16785440      0.28574555
      0.05917387      0.55178731
      0.02355814      0.26323150
 
          57   0
s              4   1.000000
      8.30882620      0.05675242
      1.52041283      0.26014135
      0.42238733      0.53284611
      0.14018656      0.29162544
s              7   1.000000
      0.92936822     -0.06732858
      0.05643440      0.66945695
      0.02166600      0.51461584
      8.30882620     -0.02902304
      1.52041283     -0.13303559
      0.42238733     -0.27249608
      0.14018656     -0.14913647
p              4   1.000000
      0.64737396      0.05713170
      0.16785440      0.28574555
      0.05917387      0.55178731
      0.02355814      0.26323150
 
          58   0
s              4   1.000000
      8.30913693      0.05675242
      1.52046969      0.26014135
      0.42240313      0.53284611
      0.14019180      0.29162544
s              7   1.000000
      0.92936822     -0.06732818
      0.05643440      0.66945297
      0.02166600      0.51461278
      8.30913693     -0.02902221
      1.52046969     -0.13303178
      0.42240313     -0.27248827
      0.14019180     -0.14913220
p              4   1.000000
      0.64737396      0.05713170
      0.16785440      0.28574555
      0.05917387      0.55178731
      0.02355814      0.26323150
 
          59   0
s              4   1.000000
      8.30961693      0.05675242
      1.52055752      0.26014135
      0.42242753      0.53284611
      0.14019990      0.29162544
s              7   1.000000
      0.92936822     -0.06732756
      0.05643440      0.66944683
      0.02166600      0.51460806
      8.30961693     -0.02902092
      1.52055752     -0.13302590
      0.42242753     -0.27247622
      0.14019990     -0.14912560
p              4   1.000000
      0.64737396      0.05713170
      0.16785440      0.28574555
      0.05917387      0.55178731
      0.02355814      0.26323150
 
          60   0
s              4   1.000000
      8.30983459      0.05675242
      1.52059735      0.26014135
      0.42243859      0.53284611
      0.14020357      0.29162544
s              7   1.000000
      0.92936822     -0.06732728
      0.05643440      0.66944405
      0.02166600      0.51460592
      8.30983459     -0.02902034
      1.52059735     -0.13302323
      0.42243859     -0.27247075
      0.14020357     -0.14912261
p              4   1.000000
      0.64737396      0.05713170
      0.16785440      0.28574555
      0.05917387      0.55178731
      0.02355814      0.26323150
 
          61   0
s              4   1.000000
      8.30911067      0.05675242
      1.52046488      0.26014135
      0.42240179      0.53284611
      0.14019136      0.29162544
s              7   1.000000
      0.92936822     -0.06732821
      0.05643440      0.66945331
      0.02166600      0.51461303
      8.30911067     -0.02902228
      1.52046488     -0.13303211
      0.42240179     -0.27248893
      0.14019136     -0.14913256
p              4   1.000000
      0.64737396      0.05713170
      0.16785440      0.28574555
      0.05917387      0.55178731
      0.02355814      0.26323150
 
          62   0
s              4   1.000000
      8.30887179      0.05675242
      1.52042117      0.26014135
      0.42238965      0.53284611
      0.14018733      0.29162544
s              7   1.000000
      0.92936822     -0.06732852
      0.05643440      0.66945636
      0.02166600      0.51461539
      8.30887179     -0.02902291
      1.52042117     -0.13303504
      0.42238965     -0.27249493
      0.14018733     -0.14913585
p              4   1.000000
      0.64737396      0.05713170
      0.16785440      0.28574555
      0.05917387      0.55178731
      0.02355814      0.26323150
 
          63   0
s              4   1.000000
      8.30892443      0.05675242
      1.52043080      0.26014135
      0.42239233      0.53284611
      0.14018822      0.29162544
s              7   1.000000
      0.92936822     -0.06732845
      0.05643440      0.66945569
      0.02166600      0.51461487
      8.30892443     -0.02902277
      1.52043080     -0.13303439
      0.42239233     -0.27249361
      0.14018822     -0.14913512
p              4   1.000000
      0.64737396      0.05713170
      0.16785440      0.28574555
      0.05917387      0.55178731
      0.02355814      0.26323150
 
          64   0
s              4   1.000000
      8.30957159      0.05675242
      1.52054922      0.26014135
      0.42242522      0.53284611
      0.14019913      0.29162544
s              7   1.000000
      0.92936822     -0.06732762
      0.05643440      0.66944741
      0.02166600      0.51460851
      8.30957159     -0.02902104
      1.52054922     -0.13302645
      0.42242522     -0.27247736
      0.14019913     -0.14912622
p              4   1.000000
      0.64737396      0.05713170
      0.16785440      0.28574555
      0.05917387      0.55178731
      0.02355814      0.26323150
 
          65   0
s              4   1.000000
      8.30957183      0.05675242
      1.52054927      0.26014135
      0.42242524      0.53284611
      0.14019914      0.29162544
s              7   1.000000
      0.92936822     -0.06732762
      0.05643440      0.66944741
      0.02166600      0.51460851
      8.30957183     -0.02902104
      1.52054927     -0.13302645
      0.42242524     -0.27247735
      0.14019914     -0.14912622
p              4   1.000000
      0.64737396      0.05713170
      0.16785440      0.28574555
      0.05917387      0.55178731
      0.02355814      0.26323150
 
          66   0
s              4   1.000000
      8.30892433      0.05675242
      1.52043078      0.26014135
      0.42239232      0.53284611
      0.14018821      0.29162544
s              7   1.000000
      0.92936822     -0.06732845
      0.05643440      0.66945569
      0.02166600      0.51461487
      8.30892433     -0.02902277
      1.52043078     -0.13303439
      0.42239232     -0.27249361
      0.14018821     -0.14913512
p              4   1.000000
      0.64737396      0.05713170
      0.16785440      0.28574555
      0.05917387      0.55178731
      0.02355814      0.26323150
 
          67   0
s              4   1.000000
      8.30887221      0.05675242
      1.52042125      0.26014135
      0.42238967      0.53284611
      0.14018733      0.29162544
s              7   1.000000
      0.92936822     -0.06732852
      0.05643440      0.66945635
      0.02166600      0.51461539
      8.30887221     -0.02902291
      1.52042125     -0.13303503
      0.42238967     -0.27249492
      0.14018733     -0.14913584
p              4   1.000000
      0.64737396      0.05713170
      0.16785440      0.28574555
      0.05917387      0.55178731
      0.02355814      0.26323150
 
          68   0
s              4   1.000000
      8.30911053      0.05675242
      1.52046485      0.26014135
      0.42240179      0.53284611
      0.14019135      0.29162544
s              7   1.000000
      0.92936822     -0.06732821
      0.05643440      0.66945331
      0.02166600      0.51461303
      8.30911053     -0.02902228
      1.52046485     -0.13303211
      0.42240179     -0.27248894
      0.14019135     -0.14913256
p              4   1.000000
      0.64737396      0.05713170
      0.16785440      0.28574555
      0.05917387      0.55178731
      0.02355814      0.26323150
 
          69   0
s              4   1.000000
      8.30983231      0.05675242
      1.52059693      0.26014135
      0.42243848      0.53284611
      0.14020353      0.29162544
s              7   1.000000
      0.92936822     -0.06732729
      0.05643440      0.66944408
      0.02166600      0.51460595
      8.30983231     -0.02902034
      1.52059693     -0.13302326
      0.42243848     -0.27247081
      0.14020353     -0.14912264
p              4   1.000000
      0.64737396      0.05713170
      0.16785440      0.28574555
      0.05917387      0.55178731
      0.02355814      0.26323150
 
 [MO]
 Sym= Hole
 Ene=  -1.050133    
 Spin= Alpha
 Occup= 0
           1 -2.9342025E-04
           2 -4.0792278E-03
           3 -0.1623145    
           4  0.1933211    
           5  1.5290998E-04
           6  3.9016680E-04
           7  1.8110206E-02
           8 -2.1580935E-02
           9 -9.7627798E-04
          10  9.4287953E-04
          11 -0.1165993    
          12  0.1377177    
          13  2.2340613E-05
          14 -8.0117153E-04
          15  1.4756790E-02
          16 -1.6764479E-02
          17  3.1346607E-03
          18 -2.2698569E-03
          19  0.1449478    
          20 -0.1695862    
          21 -1.6701731E-03
          22  4.8412688E-04
          23 -8.3900504E-03
          24  9.2183733E-03
          25 -5.7542808E-03
          26  9.6313925E-03
          27  0.1464829    
          28 -0.1536927    
          29  4.6860203E-03
          30 -1.1784959E-03
          31 -2.4702596E-02
          32  2.5773615E-02
          33  1.0299765E-03
          34  8.9281024E-03
          35  0.1775591    
          36 -0.2173865    
          37  9.0031751E-04
          38 -3.3388161E-03
          39 -3.2762326E-02
          40  3.9384328E-02
          41 -3.2451493E-04
          42  4.6668686E-03
          43  9.4591618E-02
          44 -0.1113057    
          45  2.2914344E-04
          46 -6.5926986E-04
          47 -7.5715813E-03
          48  9.4646774E-03
          49  2.4561095E-03
          50 -2.3174487E-02
          51 -0.2142407    
          52  0.2610629    
          53 -1.9570352E-03
          54  5.0015757E-03
          55  3.5171915E-02
          56 -4.1681170E-02
          57 -6.2126820E-03
          58  1.7933942E-02
          59  0.1791056    
          60 -0.2110173    
          61  4.9099610E-03
          62 -3.4438251E-03
          63 -3.1858977E-02
          64  4.1134175E-02
          65  3.6807710E-03
          66  5.1346463E-03
          67  0.1023150    
          68 -0.1053207    
          69 -1.7835385E-03
          70 -1.7486395E-04
          71 -9.3960688E-03
          72  8.2816808E-03
          73 -8.2403695E-04
          74 -1.7642261E-02
          75 -0.1670380    
          76  0.1837644    
          77  6.1386534E-05
          78  1.9907525E-03
          79  1.8243404E-02
          80 -2.1144506E-02
          81 -1.2659699E-03
          82 -1.5382653E-02
          83 -0.1207894    
          84  0.1288777    
          85  1.0689740E-03
          86  1.9255928E-03
          87  1.4142940E-02
          88 -1.5347261E-02
          89  2.0069715E-03
          90  2.1444170E-02
          91  0.1533330    
          92 -0.1586080    
          93 -2.5431326E-04
          94 -1.9104758E-03
          95 -1.1664448E-02
          96  8.7595684E-03
          97 -4.1920226E-04
          98  7.3139030E-03
          99  0.1445963    
         100 -0.1489924    
         101  1.9328659E-03
         102 -1.9702705E-04
         103 -2.3846565E-02
         104  2.8540505E-02
         105  8.2111899E-03
         106 -8.9369733E-03
         107 -0.3224664    
         108  0.3672290    
         109 -3.9624935E-03
         110  1.7868839E-03
         111  4.6751305E-02
         112 -4.9651075E-02
         113 -1.4009628E-03
         114 -3.8006236E-03
         115  3.8788348E-02
         116  3.8055427E-02
         117  9.3033159E-04
         118  1.2381304E-03
         119 -1.7307673E-02
         120  9.7545572E-03
         121  4.0537659E-02
         122  3.4914002E-02
         123 -9.5531672E-02
         124 -8.1370592E-02
         125 -2.6036831E-02
         126 -1.8410416E-02
         127  1.8554563E-02
         128  9.8798191E-03
         129 -1.3538746E-02
         130 -1.7741403E-02
         131 -1.3818267E-02
         132 -3.9304975E-02
         133  5.9024538E-03
         134  4.1515431E-03
         135 -2.3593672E-03
         136  2.5420238E-03
         137 -3.2927058E-04
         138  1.3597573E-03
         139  3.0934250E-02
         140  9.4894342E-02
         141  4.5567300E-04
         142 -8.7888946E-04
         143 -2.2152206E-03
         144 -1.4179151E-02
         145  1.1082609E-02
         146  1.6159402E-02
         147 -1.5394547E-03
         148 -9.2565678E-03
         149 -4.8371302E-03
         150 -6.3911080E-03
         151 -2.2746923E-03
         152 -3.9591893E-04
         153 -5.9399493E-03
         154 -9.0813991E-03
         155 -2.4100259E-02
         156 -2.7821526E-02
         157  9.3859166E-04
         158 -1.2299467E-03
         159  1.9248448E-03
         160  3.4942315E-03
         161 -5.1845709E-04
         162 -1.4268892E-03
         163  1.4068232E-02
         164  2.8388957E-02
         165 -2.0531433E-04
         166 -3.8755563E-04
         167 -3.3585005E-03
         168 -3.1147609E-03
         169 -4.5107366E-03
         170 -6.4313156E-03
         171  1.0735862E-02
         172  3.8556248E-02
         173  3.0851673E-04
         174 -5.6732394E-04
         175 -8.0246767E-03
         176 -4.4056997E-03
         177  3.5873521E-03
         178 -5.6741307E-03
         179 -6.1198929E-03
         180 -3.8154010E-02
         181  2.9677879E-03
         182  7.4654892E-03
         183  4.7289385E-03
         184  5.8090425E-04
         185 -4.2009715E-02
         186 -4.4623915E-02
         187 -7.6316603E-02
         188 -3.8126104E-02
         189  2.8087841E-02
         190  2.2347851E-02
         191  1.6249321E-02
         192  5.1100296E-03
         193  2.2398764E-03
         194  3.6602677E-03
         195 -1.4480420E-02
         196 -2.4800062E-02
         197 -6.2745466E-04
         198  1.1767164E-03
         199  2.3086446E-03
         200  4.0430506E-03
         201 -2.0477381E-03
         202 -2.1787554E-03
         203 -1.6457343E-04
         204 -4.6957872E-04
         205  1.3303974E-03
         206  1.3125878E-03
         207 -1.5716329E-04
         208 -8.5737300E-04
         209  1.0061951E-03
         210  9.7860850E-04
         211  1.1419384E-02
         212  2.8411947E-02
         213 -5.2817579E-04
         214 -5.0610944E-04
         215 -1.6890921E-03
         216 -4.7464119E-03
         217 -5.6714629E-04
         218 -4.1101949E-04
         219  1.5561529E-03
         220  1.7449795E-03
         221 -1.8303205E-04
         222 -4.5469078E-05
         223  5.7172292E-04
         224  1.2179406E-03
         225  8.1410923E-04
         226 -1.1545056E-03
         227 -1.2017422E-02
         228 -2.3317905E-02
         229 -1.8297734E-04
         230 -2.8917578E-04
         231  1.8660425E-03
         232  3.8615710E-03
         233 -2.2621951E-05
         234 -7.2669738E-04
         235  2.1073245E-03
         236 -2.4597440E-03
         237  8.8787179E-05
         238  5.8587611E-04
         239 -6.0497050E-04
         240 -7.9729961E-04
         241 -1.7622678E-03
         242  1.3847481E-03
         243 -5.0902050E-03
         244  5.1272460E-03
         245  1.2451148E-03
         246  2.1348613E-04
         247  8.5481425E-04
         248 -9.1743789E-04
         249  7.7143410E-04
         250  1.3114810E-03
         251 -2.4294162E-04
         252  1.4592790E-03
         253 -2.9080422E-04
         254 -2.1535275E-04
         255 -2.0185567E-05
         256 -2.0294302E-04
         257 -2.0642194E-04
         258 -1.6045503E-03
         259  1.7410349E-03
         260 -5.1572113E-03
         261  2.8946966E-05
         262  2.8572747E-04
         263 -2.1013255E-04
         264  4.6375321E-04
         265 -3.8415927E-04
         266 -4.1545802E-05
         267 -7.5158570E-04
         268  1.9067088E-03
         269  2.3861835E-04
         270  1.0864019E-04
         271  9.7674474E-06
         272 -3.4471837E-04
         273  1.6459071E-03
         274  4.3436545E-03
         275 -3.2611026E-03
         276  4.5742998E-03
         277 -1.2839964E-03
         278 -1.2471186E-03
         279  4.5947128E-04
         280 -5.2287680E-04
         281 -5.9830357E-04
         282  6.1957398E-04
         283  2.5139374E-03
         284  3.4874717E-03
         285  8.0867649E-06
         286  5.7268240E-05
         287 -9.1025351E-05
         288  2.2222851E-04
         289 -9.6095115E-05
         290 -6.3873315E-04
         291  5.2270334E-04
         292 -1.3439174E-04
         293  1.5085660E-05
         294 -3.3592430E-04
         295  4.1759218E-04
         296  2.1673084E-04
         297  3.2014743E-04
         298  9.5810310E-04
         299  7.3771976E-04
         300 -5.9205305E-04
         301 -1.8769465E-04
         302 -2.1253293E-04
         303 -2.6289059E-04
         304 -1.5778951E-05
         305 -1.8357881E-04
         306  2.4637557E-04
         307  1.6939238E-04
         308 -1.2134362E-04
         309 -8.7626149E-06
         310 -8.2739243E-05
         311  9.4823277E-05
         312 -9.3657683E-05
         313  2.3749913E-04
         314 -8.8240963E-04
         315 -5.6690325E-05
         316  6.4525427E-04
         317  8.3555358E-05
         318  9.4536837E-05
         319 -4.7822177E-05
         320 -6.3456057E-05
         321  5.2829519E-06
         322  1.7270497E-04
         323  4.5211465E-05
         324  1.8138680E-05
         325 -4.8094789E-05
         326 -1.4119314E-04
         327  1.8732784E-04
         328 -6.9900498E-06
         329 -3.2247996E-04
         330  2.2372905E-04
         331  2.4663408E-05
         332 -1.1915327E-03
         333  3.1835237E-04
         334  2.5405549E-04
         335 -6.7666449E-05
         336  3.1175916E-04
         337  7.1262906E-04
         338 -6.4686470E-04
         339  9.5631965E-03
         340  2.1520000E-02
         341 -1.5216775E-04
         342 -1.7072097E-04
         343 -1.7452632E-03
         344 -3.8114404E-03
         345 -2.4218294E-04
         346  3.3029239E-06
         347 -3.5086747E-03
         348 -8.0356970E-03
         349  1.0182850E-04
         350  5.9226964E-05
         351 -4.4306036E-04
         352 -1.3810790E-03
         353  3.6287075E-04
         354  4.6888477E-04
         355 -1.9443339E-02
         356 -4.3546300E-02
         357 -3.9046453E-04
         358 -1.4022214E-03
         359  2.1475849E-03
         360  6.6580982E-03
         361  4.9482862E-04
         362  4.7379646E-05
         363  1.5287261E-02
         364  3.6984481E-02
         365 -3.1571696E-04
         366  7.8973681E-05
         367 -3.1068102E-03
         368 -1.8527764E-03
         369 -5.7007442E-04
         370 -1.1810278E-04
         371 -8.9852714E-05
         372 -1.2710435E-02
         373  1.5344994E-02
         374 -1.1571534E-03
         375  1.1022887E-04
         376 -5.5556576E-04
         377 -9.4627198E-03
         378  1.1229731E-02
         379  2.2879730E-04
         380 -2.6666184E-03
         381  3.3662079E-03
         382  1.1986316E-02
         383 -1.3751438E-02
         384 -7.7278598E-04
         385 -4.3386726E-06
         386 -7.3639232E-05
         387  3.5846687E-03
         388 -2.4697196E-03
         389 -4.6545768E-04
         390 -1.1790891E-03
         391  7.0553774E-04
         392  1.9491275E-03
         393 -4.1027451E-03
         394  1.2378054E-03
         395 -2.7479694E-04
         396 -1.3044933E-03
         397 -1.3196284E-02
         398  1.4969257E-02
         399  2.7471620E-03
         400  1.1781068E-04
         401 -1.2993549E-03
         402 -9.9637536E-03
         403  1.1465366E-02
         404 -1.1986295E-03
         405  1.0197591E-03
         406 -3.7671725E-04
         407  1.0597419E-02
         408 -1.5808174E-02
         409 -9.4483150E-03
         410 -3.6473561E-03
         411 -1.2381316E-02
         412  5.2180151E-03
         413 -1.0775301E-02
         414  1.7792605E-02
         415 -2.9866800E-03
         416  9.4878941E-04
         417 -1.4868809E-03
         418 -3.1011433E-03
         419 -2.4040900E-03
         420  2.2482472E-03
         421  2.5294675E-03
         422  2.4562294E-03
         423  1.8360933E-03
         424  8.6190421E-03
         425 -2.0646460E-03
         426 -6.4148981E-04
         427 -9.5699565E-04
         428  5.2295639E-03
         429  7.5725927E-03
         430 -1.6372692E-03
         431 -9.1438275E-04
         432  1.9758895E-02
         433 -3.7096299E-03
         434 -1.3548251E-03
         435 -1.9047533E-04
         436  1.3412016E-05
         437  1.1887493E-04
         438  5.3635758E-04
         439  7.4644777E-04
         440  3.6603404E-04
         441  9.8320609E-04
         442 -9.7833508E-05
         443  3.5851935E-04
         444 -7.0216187E-04
         445  1.6087045E-04
         446 -3.1184885E-05
         447  6.2895648E-05
         448  2.9661031E-05
         449  1.0348558E-03
         450 -7.6917793E-05
         451 -8.2439430E-05
         452 -3.6725264E-06
         453  5.4697390E-05
         454 -3.7092954E-04
         455 -2.0365535E-04
         456 -2.8158110E-04
         457 -5.9640408E-04
         458  5.4541626E-04
         459 -5.0965416E-05
         460  3.2491062E-05
         461  3.7993860E-04
         462  4.3586024E-05
         463  1.6122471E-04
         464 -1.5615397E-04
         465  1.1213400E-05
         466  8.3830586E-05
         467  3.4124459E-05
         468 -1.5000297E-05
         469  3.7028294E-05
         470  1.5499872E-04
         471  7.3294948E-05
         472 -1.8894408E-04
         473 -1.1244756E-05
         474 -2.0385791E-04
         475  2.4033370E-04
         476  5.7863886E-04
         477 -2.3987013E-04
         478  2.1842723E-04
         479 -7.6188915E-04
         480 -6.0752104E-06
         481  2.5439376E-04
         482  5.2631175E-04
         483  1.0717975E-03
 Sym= Particle
 Ene=  -1.050133    
 Spin= Alpha
 Occup= 2
           1  8.3982688E-04
           2  3.9841873E-03
           3  9.6922077E-02
           4 -0.1195681    
           5  4.4711391E-04
           6 -1.9934394E-03
           7 -2.3888994E-02
           8  3.1790540E-02
           9 -8.7304361E-04
          10  4.9100030E-04
          11  0.1607293    
          12 -0.1889102    
          13  2.7268031E-03
          14 -1.0554431E-03
          15 -4.3795574E-02
          16  5.1655918E-02
          17 -3.0253197E-03
          18  3.2349811E-03
          19 -0.2592584    
          20  0.2972551    
          21  5.2341018E-03
          22 -3.7244246E-03
          23  8.2409456E-02
          24 -9.3475424E-02
          25  2.6546235E-03
          26  2.7394134E-03
          27  0.1050388    
          28 -0.1219670    
          29  3.3780579E-03
          30 -3.2223284E-03
          31 -4.5159552E-02
          32  5.3905129E-02
          33  5.0951820E-04
          34  1.5480862E-02
          35  0.1561542    
          36 -0.1970613    
          37  2.9204458E-03
          38 -7.8733172E-03
          39 -6.5069713E-02
          40  8.4728517E-02
          41 -2.3319463E-03
          42 -9.6777258E-03
          43 -0.2523129    
          44  0.3037679    
          45  2.4232587E-03
          46  2.6427619E-03
          47  7.7582769E-02
          48 -9.1766402E-02
          49 -3.2663841E-03
          50 -9.6903747E-04
          51  4.3443078E-04
          52 -7.6198898E-04
          53  3.5211106E-03
          54  2.6455931E-03
          55 -1.6297433E-04
          56 -8.5702341E-05
          57 -2.9627918E-03
          58 -5.8494238E-03
          59 -0.1669783    
          60  0.1899298    
          61  6.8267970E-03
          62  7.5860087E-05
          63  7.1178757E-02
          64 -8.2329251E-02
          65 -9.1966696E-04
          66  2.1844361E-02
          67  0.2586843    
          68 -0.2873288    
          69  2.4808471E-03
          70 -7.0869424E-03
          71 -7.8915149E-02
          72  8.7152548E-02
          73 -7.3741663E-05
          74 -9.1142710E-03
          75 -9.6464463E-02
          76  0.1104751    
          77  1.9645921E-03
          78  1.5972385E-03
          79  2.4615975E-02
          80 -2.9578280E-02
          81 -1.9323501E-03
          82 -2.0378016E-02
          83 -0.1653705    
          84  0.1805912    
          85  4.9392041E-03
          86  4.6745688E-03
          87  4.5949247E-02
          88 -4.8519075E-02
          89 -1.8271954E-03
          90  3.6983803E-02
          91  0.2627949    
          92 -0.2797693    
          93  6.3402331E-03
          94 -1.4083389E-02
          95 -8.3824433E-02
          96  8.9399658E-02
          97  3.6546791E-03
          98 -1.0634944E-02
          99 -0.1014674    
         100  0.1119353    
         101  4.0298025E-03
         102  3.7099083E-03
         103  4.4039804E-02
         104 -4.9676664E-02
         105 -6.1806655E-03
         106  3.1153645E-04
         107  3.1267013E-04
         108 -1.0734469E-03
         109  7.2831674E-03
         110  2.1454011E-04
         111  6.2530790E-04
         112 -3.6977150E-04
         113  4.5292728E-04
         114 -9.6849230E-04
         115  6.9860015E-03
         116  1.8239101E-02
         117  7.2877444E-03
         118  1.8684559E-03
         119 -3.4949579E-03
         120 -5.1122038E-03
         121  2.0212228E-03
         122  3.0501604E-03
         123  7.6725436E-03
         124 -8.2554552E-04
         125 -1.2897514E-03
         126 -4.9615283E-03
         127 -1.0019555E-02
         128 -5.6707105E-03
         129 -1.1052225E-03
         130 -1.3116376E-03
         131 -2.2423158E-04
         132 -2.7549700E-03
         133  1.1326249E-03
         134 -4.6304878E-04
         135  2.3940401E-03
         136  3.1476007E-03
         137  6.5646064E-04
         138  9.5443327E-05
         139  3.9020826E-03
         140  7.2999932E-03
         141  1.1890437E-03
         142 -7.6709309E-04
         143 -1.5838740E-03
         144 -1.0710264E-03
         145 -4.7935704E-05
         146  2.3361579E-04
         147 -2.9279354E-03
         148 -5.7071159E-03
         149  1.4372219E-03
         150 -1.3311094E-04
         151 -2.5179368E-03
         152 -7.3400943E-04
         153 -2.1650569E-04
         154 -3.2317563E-04
         155  3.0376650E-03
         156  7.1403557E-03
         157  2.8499594E-04
         158  4.3359012E-04
         159 -3.4428614E-03
         160 -3.9017738E-03
         161  4.2471848E-04
         162  5.4982112E-04
         163 -2.4289291E-03
         164 -5.1567033E-03
         165 -5.5535807E-04
         166  6.3119998E-04
         167 -7.9932227E-04
         168 -4.6144440E-04
         169  4.5311826E-04
         170  6.6323928E-04
         171 -3.6793388E-04
         172 -1.5037543E-03
         173 -2.6141978E-03
         174 -5.7253847E-04
         175 -3.1109171E-03
         176 -2.3322077E-03
         177  1.7018151E-03
         178  2.1596779E-03
         179 -6.5202388E-04
         180 -2.1459558E-03
         181 -5.8322651E-03
         182 -4.4820877E-03
         183 -7.5910380E-04
         184  1.1096334E-02
         185  7.3116808E-04
         186  8.9762424E-04
         187 -1.1979624E-02
         188 -1.9414574E-02
         189  5.4985512E-04
         190 -3.3654098E-03
         191  9.4227726E-03
         192  1.4282073E-02
         193  1.4390847E-04
         194  1.2313007E-04
         195  2.0203749E-03
         196  3.9459420E-03
         197 -2.4993165E-05
         198 -7.2142942E-04
         199 -1.1377585E-03
         200 -4.9489574E-04
         201  4.3990440E-05
         202 -1.6464139E-04
         203 -3.2126731E-03
         204 -7.0191920E-03
         205 -3.5227643E-04
         206 -3.0446475E-04
         207  5.2485528E-04
         208  2.0139236E-03
         209 -1.3638509E-04
         210 -1.7773367E-05
         211  9.2274876E-04
         212  1.9175675E-03
         213 -1.0412599E-04
         214 -3.2097692E-04
         215 -1.8956578E-04
         216 -2.2090964E-04
         217  1.3338156E-04
         218 -1.3567606E-04
         219  2.3038492E-03
         220  4.6550059E-03
         221 -3.7189104E-04
         222 -1.4259934E-04
         223 -3.6444693E-04
         224 -7.4285764E-04
         225  1.8214944E-04
         226  2.7007482E-05
         227 -1.0669202E-03
         228 -3.1062418E-03
         229 -3.1158503E-04
         230 -2.4427238E-04
         231  1.1967395E-04
         232  3.2788512E-04
         233  8.6740853E-05
         234 -1.0329101E-03
         235  1.2407620E-03
         236 -2.3630264E-03
         237 -2.5292131E-04
         238  2.1664375E-04
         239 -6.3859462E-04
         240  4.3650140E-04
         241 -4.2324718E-05
         242  8.1707264E-04
         243 -1.2072012E-03
         244  2.1857603E-03
         245 -1.2661479E-04
         246 -7.1658578E-05
         247  3.5421670E-04
         248 -6.4815173E-04
         249 -8.7211782E-05
         250  3.2637158E-04
         251 -1.9391808E-04
         252  7.9643587E-04
         253  5.5491779E-07
         254 -6.3530817E-05
         255  6.7566813E-05
         256 -3.2940294E-04
         257  9.4851703E-06
         258 -8.6532504E-04
         259  8.6020050E-04
         260 -2.4578320E-03
         261 -4.0949260E-05
         262  6.8385511E-05
         263  6.2824780E-05
         264  4.4314942E-04
         265  6.7919435E-05
         266  5.5786921E-04
         267 -6.1216188E-04
         268  1.7569672E-03
         269 -1.2371365E-04
         270 -2.9248220E-04
         271  1.7270287E-04
         272 -7.1306486E-04
         273  2.1521280E-04
         274  9.4500324E-04
         275 -4.0358127E-04
         276  1.1697079E-03
         277 -2.1943091E-04
         278 -4.7732922E-04
         279 -1.6258581E-04
         280 -2.1105522E-04
         281 -2.6049971E-04
         282  9.5372430E-05
         283 -1.4793737E-03
         284 -3.4681531E-03
         285  7.3874820E-05
         286 -2.6368900E-04
         287  4.2033248E-04
         288  5.3749519E-04
         289  7.0696216E-05
         290  1.6187500E-03
         291  7.3677680E-04
         292 -2.2531967E-03
         293 -1.6680783E-04
         294 -6.1755843E-04
         295 -2.0741156E-04
         296  5.5120408E-04
         297 -2.0288532E-04
         298 -1.0352065E-03
         299 -4.7497085E-04
         300  1.0355226E-03
         301  3.2136719E-05
         302  2.5144144E-04
         303 -3.1760519E-05
         304 -2.1320357E-04
         305  1.0501991E-04
         306 -8.0813939E-04
         307 -6.2650384E-04
         308  1.8151336E-03
         309 -1.4586234E-04
         310  2.7237521E-04
         311  1.6241320E-04
         312 -7.5968815E-04
         313  7.7484379E-05
         314  1.2773349E-03
         315  7.3929020E-04
         316 -2.3986222E-03
         317 -4.5449498E-05
         318 -6.3840016E-05
         319 -3.5701280E-05
         320  3.3478675E-04
         321  6.4107803E-06
         322 -4.0292143E-04
         323 -1.1366445E-04
         324  6.9770636E-04
         325 -4.9348400E-05
         326  1.5236546E-04
         327  1.1013504E-04
         328 -4.1022597E-04
         329  2.9589178E-04
         330 -1.2497704E-03
         331 -1.1172260E-03
         332  2.2831790E-03
         333 -2.8227342E-04
         334  2.0305079E-04
         335  3.1535354E-04
         336 -4.7040536E-04
         337 -3.1475913E-05
         338  1.4532698E-04
         339  2.1546991E-03
         340  4.6637957E-03
         341 -4.8779853E-05
         342 -4.1180255E-04
         343 -1.8393187E-04
         344 -7.9441088E-04
         345 -6.7483474E-05
         346 -2.4343639E-04
         347  1.1292431E-03
         348  2.7583085E-03
         349 -8.6443943E-05
         350 -3.4555263E-04
         351 -2.9165027E-04
         352 -1.0264710E-03
         353  1.4119920E-04
         354  1.4589884E-04
         355 -3.1679487E-03
         356 -7.1022627E-03
         357 -6.0477661E-04
         358 -1.2072002E-03
         359  6.3081185E-04
         360  1.0188634E-03
         361 -5.7300815E-04
         362 -8.0117933E-04
         363  8.4044499E-04
         364  2.8658346E-03
         365  2.8633446E-04
         366 -1.3605078E-03
         367 -2.4156769E-04
         368  3.6351095E-05
         369 -6.9626607E-04
         370 -3.0727597E-04
         371  3.0589782E-04
         372  2.4732525E-02
         373 -2.8045923E-02
         374  2.5812373E-03
         375 -6.3829817E-04
         376 -1.5339266E-03
         377  4.0170055E-02
         378 -4.5082312E-02
         379  2.6021188E-03
         380  8.0360891E-04
         381 -3.9804853E-03
         382 -6.0023189E-02
         383  6.6434249E-02
         384 -1.5051630E-03
         385  7.6766883E-05
         386 -1.1026218E-03
         387 -6.0439680E-02
         388  7.2424389E-02
         389 -1.8009451E-03
         390  4.1508643E-05
         391  6.6776900E-03
         392  6.1637092E-02
         393 -6.8590611E-02
         394 -1.9287116E-05
         395 -5.5033888E-04
         396 -2.2846204E-03
         397 -2.4814796E-02
         398  2.5265757E-02
         399  2.5308591E-03
         400 -2.2337434E-04
         401 -7.0877620E-03
         402 -4.1213207E-02
         403  4.3152373E-02
         404  1.3198809E-03
         405  2.5722291E-03
         406  3.5763911E-03
         407  5.7300616E-02
         408 -5.9828080E-02
         409 -5.9477793E-04
         410 -7.8083379E-03
         411 -7.1055479E-03
         412 -9.8993415E-03
         413 -1.7251050E-02
         414 -1.5320079E-03
         415 -5.7262916E-04
         416 -3.0156889E-04
         417  2.7018453E-03
         418  1.1659182E-03
         419 -1.1356606E-04
         420 -2.2156237E-04
         421  4.4498735E-04
         422 -4.8060418E-04
         423 -1.3135144E-03
         424  2.6434034E-04
         425 -1.5505339E-04
         426  1.0608212E-03
         427 -1.7741730E-04
         428 -1.8894637E-03
         429  3.5677738E-03
         430 -4.9814726E-03
         431  6.9879037E-03
         432  3.8118390E-03
         433  1.4692779E-02
         434  4.6341476E-05
         435 -1.7053174E-04
         436 -2.1014868E-04
         437  7.9230093E-05
         438  3.8822330E-04
         439  2.6363588E-05
         440 -6.9750211E-05
         441  2.0926815E-04
         442 -1.4614750E-04
         443  5.7769270E-04
         444  1.4701115E-04
         445 -3.2287577E-04
         446  5.0979681E-05
         447 -3.1827844E-04
         448  6.9851521E-05
         449 -1.4738679E-04
         450  2.9240505E-04
         451  2.0190275E-04
         452 -2.2275634E-04
         453  1.5928701E-04
         454 -4.6395344E-05
         455  2.7862186E-05
         456 -1.1855458E-04
         457 -1.2929217E-05
         458  6.6287839E-04
         459  1.8832761E-05
         460  9.1055426E-06
         461 -1.2187522E-05
         462 -2.8723309E-05
         463  5.0014548E-04
         464  3.3413157E-06
         465 -9.4518575E-05
         466 -1.9423464E-04
         467 -2.3671455E-04
         468  3.0060651E-04
         469  4.7890630E-05
         470  1.8052163E-04
         471 -7.0241069E-05
         472 -3.7553385E-05
         473 -1.4402269E-04
         474 -1.8311181E-04
         475  1.9953925E-04
         476 -4.6414084E-04
         477 -3.5891120E-04
         478  8.2468201E-04
         479  2.5490248E-05
         480 -3.2923947E-04
         481 -2.7642224E-04
         482  1.9576550E-04
         483  3.5289917E-04
