 [Molden Format]
 [Atoms] Angs
C       1      6      7.53958478      3.01032383      2.16356432
C       2      6      6.16120238      3.07189255      2.20027512
C       3      6      5.39966319      2.19784555      1.43999817
C       4      6      6.00555690      1.25268575      0.62185847
C       5      6      7.40473112      1.17439357      0.61987769
C       6      6      8.15958017      2.05162906      1.37668820
O       7      8      8.09053518      0.22876035     -0.10040227
C       8      6      7.35666826     -0.62354213     -0.88595396
C       9      6      8.06018913     -1.53519490     -1.65170986
C      10      6      7.38788366     -2.40795409     -2.49387606
C      11      6      6.01162600     -2.34516159     -2.58152417
C      12      6      5.30157220     -1.43282139     -1.81678962
C      13      6      5.95768238     -0.57944621     -0.93827306
N      14      7      5.26946031      0.34654224     -0.14810326
C      15      6      3.86358781      0.38686619     -0.16698738
C      16      6      3.20828907      1.50683856     -0.64940366
C      17      6      1.81186553      1.61594981     -0.69775394
C      18      6      1.05886821      0.56038703     -0.24294808
C      19      6      1.72418516     -0.58325712      0.25904169
C      20      6      0.82093162     -1.57656531      0.70615317
C      21      6      1.31932685     -2.73767853      1.24129681
C      22      6      2.71523970     -2.88372101      1.32796122
C      23      6      3.59412407     -1.92221198      0.88815023
C      24      6      3.11280415     -0.72102478      0.32132361
C      25      6     -0.50912919     -1.03938235      0.46461343
N      26      7     -1.67003351     -1.57610415      0.70617501
C      27      6     -2.74365462     -0.81670698      0.36855417
C      28      6     -4.03324320     -1.31824895      0.60082053
C      29      6     -5.15121565     -0.58477060      0.27781915
C      30      6     -6.48229884     -1.12507302      0.59997505
C      31      6     -6.83233053     -2.42529338      0.24174733
C      32      6     -8.09284748     -2.89096889      0.57580056
N      33      7     -8.98838079     -2.17031868      1.22864326
C      34      6     -8.65260074     -0.94178326      1.58341800
C      35      6     -7.42391442     -0.37114795      1.29812959
C      36      6     -5.00667290      0.69522058     -0.31909933
C      37      6     -6.18412466      1.46891472     -0.74654917
C      38      6     -7.18686230      0.89565971     -1.52650225
C      39      6     -8.26190451      1.68012604     -1.90807483
N      40      7     -8.39465394      2.95197169     -1.57239542
C      41      6     -7.43931857      3.50067773     -0.84180890
C      42      6     -6.31785331      2.81389292     -0.40817333
C      43      6     -3.74989353      1.20743028     -0.54271256
C      44      6     -2.59821681      0.47845778     -0.20828098
N      45      7     -1.37923498      1.02387535     -0.44955234
C      46      6     -0.36056748      0.28103036     -0.12073818
H      47      1      8.13656727      3.69137460      2.74901971
H      48      1      5.66315408      3.79805710      2.82393391
H      49      1      4.32335731      2.24562163      1.49265629
H      50      1      9.23344345      1.96172832      1.34090410
H      51      1      9.13573644     -1.54233268     -1.57639487
H      52      1      7.94446463     -3.11908485     -3.08339434
H      53      1      5.47602115     -3.00189211     -3.24939251
H      54      1      4.22777346     -1.38371929     -1.90633584
H      55      1      3.80736819      2.32899157     -1.01492464
H      56      1      1.34991634      2.50626756     -1.09447177
H      57      1      0.66400634     -3.51894906      1.59334161
H      58      1      3.10984083     -3.79166585      1.76036876
H      59      1      4.65800249     -2.08445141      0.97820629
H      60      1     -4.12281057     -2.28864170      1.06544555
H      61      1     -6.13855647     -3.04811608     -0.30259298
H      62      1     -8.40520817     -3.89189046      0.30724742
H      63      1     -9.40957958     -0.38762658      2.12273605
H      64      1     -7.19621383      0.63315417      1.62134891
H      65      1     -7.12141920     -0.13572782     -1.83778465
H      66      1     -9.06038354      1.27046380     -2.51270459
H      67      1     -7.58377870      4.54388809     -0.59205952
H      68      1     -5.56908134      3.30264137      0.19680014
H      69      1     -3.62025601      2.17390273     -1.00606031
 [GTO]
           1   0
s              4   1.000000
     34.91580216     -0.01198412
      6.01279005     -0.05472052
      0.48315334      0.58055871
      0.18414169      0.47700799
p              4   1.000000
      5.62759368      0.05713170
      1.45915101      0.28574555
      0.51439588      0.55178731
      0.20478986      0.26323149
s              7   1.000000
      0.38350848     -0.19624924
      0.04707223      0.94820418
      0.02222627      0.24901282
     34.91580216      0.00551849
      6.01279005      0.02519792
      0.48315334     -0.26733792
      0.18414169     -0.21965448
p              7   1.000000
      1.83062075     -0.01161256
      0.10124670      0.57065889
      0.03901771      0.59596846
      5.62759368     -0.02527905
      1.45915101     -0.12643377
      0.51439588     -0.24414921
      0.20478986     -0.11647198
 
           2   0
s              4   1.000000
     34.92077566     -0.01198412
      6.01364653     -0.05472052
      0.48322216      0.58055871
      0.18416793      0.47700799
p              4   1.000000
      5.62839529      0.05713170
      1.45935885      0.28574555
      0.51446916      0.55178731
      0.20481904      0.26323149
s              7   1.000000
      0.38350848     -0.19624457
      0.04707223      0.94818162
      0.02222627      0.24900689
     34.92077566      0.00551774
      6.01364653      0.02519449
      0.48322216     -0.26730157
      0.18416793     -0.21962461
p              7   1.000000
      1.83062075     -0.01161230
      0.10124670      0.57064614
      0.03901771      0.59595511
      5.62839529     -0.02527560
      1.45935885     -0.12641651
      0.51446916     -0.24411588
      0.20481904     -0.11645608
 
           3   0
s              4   1.000000
     35.02323170     -0.01198412
      6.03129030     -0.05472052
      0.48463991      0.58055871
      0.18470827      0.47700799
p              4   1.000000
      5.64490876      0.05713170
      1.46364055      0.28574555
      0.51597859      0.55178731
      0.20541997      0.26323149
s              7   1.000000
      0.38350848     -0.19614878
      0.04707223      0.94771881
      0.02222627      0.24888536
     35.02323170      0.00550233
      6.03129030      0.02512410
      0.48463991     -0.26655477
      0.18470827     -0.21901102
p              7   1.000000
      1.83062075     -0.01160697
      0.10124670      0.57038448
      0.03901771      0.59568187
      5.64490876     -0.02520471
      1.46364055     -0.12606197
      0.51597859     -0.24343124
      0.20541997     -0.11612947
 
           4   0
s              4   1.000000
     35.22554306     -0.01198412
      6.06612999     -0.05472052
      0.48743943      0.58055871
      0.18577523      0.47700799
p              4   1.000000
      5.67751652      0.05713170
      1.47209525      0.28574555
      0.51895913      0.55178731
      0.20660657      0.26323149
s              7   1.000000
      0.38350848     -0.19596181
      0.04707223      0.94681545
      0.02222627      0.24864812
     35.22554306      0.00547213
      6.06612999      0.02498624
      0.48743943     -0.26509209
      0.18577523     -0.21780923
p              7   1.000000
      1.83062075     -0.01159658
      0.10124670      0.56987374
      0.03901771      0.59514846
      5.67751652     -0.02506587
      1.47209525     -0.12536753
      0.51895913     -0.24209025
      0.20660657     -0.11548975
 
           5   0
s              4   1.000000
     35.22653848     -0.01198412
      6.06630141     -0.05472052
      0.48745320      0.58055871
      0.18578048      0.47700800
p              4   1.000000
      5.67767696      0.05713170
      1.47213685      0.28574555
      0.51897380      0.55178731
      0.20661241      0.26323149
s              7   1.000000
      0.38350848     -0.19596090
      0.04707223      0.94681104
      0.02222627      0.24864695
     35.22653848      0.00547199
      6.06630141      0.02498556
      0.48745320     -0.26508493
      0.18578048     -0.21780335
p              7   1.000000
      1.83062075     -0.01159653
      0.10124670      0.56987125
      0.03901771      0.59514587
      5.67767696     -0.02506519
      1.47213685     -0.12536413
      0.51897380     -0.24208368
      0.20661241     -0.11548662
 
           6   0
s              4   1.000000
     34.97474126     -0.01198412
      6.02293985     -0.05472052
      0.48396892      0.58055871
      0.18445253      0.47700799
p              4   1.000000
      5.63709326      0.05713170
      1.46161411      0.28574555
      0.51526420      0.55178731
      0.20513556      0.26323149
s              7   1.000000
      0.38350848     -0.19619402
      0.04707223      0.94793740
      0.02222627      0.24894276
     34.97474126      0.00550961
      6.02293985      0.02515737
      0.48396892     -0.26690770
      0.18445253     -0.21930100
p              7   1.000000
      1.83062075     -0.01160949
      0.10124670      0.57050806
      0.03901771      0.59581093
      5.63709326     -0.02523822
      1.46161411     -0.12622953
      0.51526420     -0.24375480
      0.20513556     -0.11628383
 
           7   0
s              4   1.000000
     78.07892060     -0.01198412
     13.44583620     -0.05472052
      1.08043031      0.58055871
      0.41177873      0.47700799
p              4   1.000000
      8.05171528      0.05713170
      2.08768954      0.28574555
      0.73597517      0.55178731
      0.29300440      0.26323149
s              7   1.000000
      0.57971233     -0.18685747
      0.07115450      0.90282662
      0.03359728      0.23709597
     78.07892060      0.00376716
     13.44583620      0.01720116
      1.08043031     -0.18249611
      0.41177873     -0.14994539
p              7   1.000000
      2.76717072     -0.01171744
      0.15304476      0.57581318
      0.05897927      0.60135132
      8.05171528     -0.02664311
      2.08768954     -0.13325612
      0.73597517     -0.25732346
      0.29300440     -0.12275679
 
           8   0
s              4   1.000000
     35.22522153     -0.01198412
      6.06607462     -0.05472052
      0.48743498      0.58055871
      0.18577353      0.47700799
p              4   1.000000
      5.67746470      0.05713170
      1.47208182      0.28574555
      0.51895439      0.55178731
      0.20660469      0.26323149
s              7   1.000000
      0.38350848     -0.19596211
      0.04707223      0.94681688
      0.02222627      0.24864849
     35.22522153      0.00547218
      6.06607462      0.02498646
      0.48743498     -0.26509440
      0.18577353     -0.21781113
p              7   1.000000
      1.83062075     -0.01159660
      0.10124670      0.56987455
      0.03901771      0.59514931
      5.67746470     -0.02506609
      1.47208182     -0.12536863
      0.51895439     -0.24209237
      0.20660469     -0.11549076
 
           9   0
s              4   1.000000
     34.97402575     -0.01198412
      6.02281663     -0.05472053
      0.48395901      0.58055871
      0.18444876      0.47700799
p              4   1.000000
      5.63697793      0.05713170
      1.46158420      0.28574555
      0.51525366      0.55178731
      0.20513136      0.26323149
s              7   1.000000
      0.38350848     -0.19619469
      0.04707223      0.94794064
      0.02222627      0.24894359
     34.97402575      0.00550972
      6.02281663      0.02515786
      0.48395901     -0.26691292
      0.18444876     -0.21930529
p              7   1.000000
      1.83062075     -0.01160953
      0.10124670      0.57050989
      0.03901771      0.59581283
      5.63697793     -0.02523871
      1.46158420     -0.12623200
      0.51525366     -0.24375958
      0.20513136     -0.11628611
 
          10   0
s              4   1.000000
     34.91644415     -0.01198412
      6.01290060     -0.05472053
      0.48316222      0.58055871
      0.18414508      0.47700799
p              4   1.000000
      5.62769715      0.05713170
      1.45917784      0.28574555
      0.51440534      0.55178730
      0.20479363      0.26323149
s              7   1.000000
      0.38350848     -0.19624863
      0.04707223      0.94820127
      0.02222627      0.24901206
     34.91644415      0.00551840
      6.01290060      0.02519748
      0.48316222     -0.26733323
      0.18414508     -0.21965063
p              7   1.000000
      1.83062075     -0.01161252
      0.10124670      0.57065724
      0.03901771      0.59596672
      5.62769715     -0.02527861
      1.45917784     -0.12643154
      0.51440534     -0.24414491
      0.20479363     -0.11646993
 
          11   0
s              4   1.000000
     34.92119474     -0.01198412
      6.01371869     -0.05472052
      0.48322796      0.58055871
      0.18417014      0.47700800
p              4   1.000000
      5.62846284      0.05713170
      1.45937637      0.28574555
      0.51447533      0.55178731
      0.20482149      0.26323149
s              7   1.000000
      0.38350848     -0.19624417
      0.04707223      0.94817972
      0.02222627      0.24900638
     34.92119474      0.00551768
      6.01371869      0.02519420
      0.48322796     -0.26729850
      0.18417014     -0.21962210
p              7   1.000000
      1.83062075     -0.01161228
      0.10124670      0.57064506
      0.03901771      0.59595402
      5.62846284     -0.02527531
      1.45937637     -0.12641506
      0.51447533     -0.24411307
      0.20482149     -0.11645474
 
          12   0
s              4   1.000000
     35.02968741     -0.01198412
      6.03240203     -0.05472053
      0.48472924      0.58055871
      0.18474231      0.47700800
p              4   1.000000
      5.64594926      0.05713170
      1.46391034      0.28574555
      0.51607369      0.55178731
      0.20545783      0.26323149
s              7   1.000000
      0.38350848     -0.19614277
      0.04707223      0.94768978
      0.02222627      0.24887773
     35.02968741      0.00550136
      6.03240203      0.02511968
      0.48472924     -0.26650785
      0.18474231     -0.21897247
p              7   1.000000
      1.83062075     -0.01160664
      0.10124670      0.57036806
      0.03901771      0.59566472
      5.64594926     -0.02520026
      1.46391034     -0.12603969
      0.51607369     -0.24338823
      0.20545783     -0.11610895
 
          13   0
s              4   1.000000
     35.23730203     -0.01198412
      6.06815499     -0.05472052
      0.48760214      0.58055871
      0.18583725      0.47700799
p              4   1.000000
      5.67941178      0.05713170
      1.47258667      0.28574555
      0.51913237      0.55178731
      0.20667554      0.26323149
s              7   1.000000
      0.38350848     -0.19595103
      0.04707223      0.94676337
      0.02222627      0.24863442
     35.23730203      0.00547039
      6.06815499      0.02497827
      0.48760214     -0.26500756
      0.18583725     -0.21773977
p              7   1.000000
      1.83062075     -0.01159598
      0.10124670      0.56984430
      0.03901771      0.59511771
      5.67941178     -0.02505784
      1.47258667     -0.12532739
      0.51913237     -0.24201274
      0.20667554     -0.11545277
 
          14   0
s              4   1.000000
     61.16021694     -0.01198412
     10.53229544     -0.05472053
      0.84631488      0.58055871
      0.32255155      0.47700799
p              4   1.000000
      7.20907562      0.05713170
      1.86920566      0.28574555
      0.65895284      0.55178731
      0.26234048      0.26323149
s              7   1.000000
      0.47894987     -0.18779537
      0.05878681      0.90735824
      0.02775758      0.23828604
     61.16021694      0.00397236
     10.53229544      0.01813814
      0.84631488     -0.19243708
      0.32255155     -0.15811325
p              7   1.000000
      2.28619608     -0.01156719
      0.12644335      0.56842959
      0.04872781      0.59364025
      7.20907562     -0.02466972
      1.86920566     -0.12338619
      0.65895284     -0.23826420
      0.26234048     -0.11366452
 
          15   0
s              4   1.000000
     35.23761579     -0.01198412
      6.06820902     -0.05472052
      0.48760649      0.58055871
      0.18583890      0.47700800
p              4   1.000000
      5.67946236      0.05713170
      1.47259978      0.28574555
      0.51913699      0.55178731
      0.20667738      0.26323149
s              7   1.000000
      0.38350848     -0.19595074
      0.04707223      0.94676198
      0.02222627      0.24863408
     35.23761579      0.00547034
      6.06820902      0.02497806
      0.48760649     -0.26500530
      0.18583890     -0.21773792
p              7   1.000000
      1.83062075     -0.01159597
      0.10124670      0.56984351
      0.03901771      0.59511690
      5.67946236     -0.02505763
      1.47259978     -0.12532632
      0.51913699     -0.24201068
      0.20667738     -0.11545179
 
          16   0
s              4   1.000000
     35.02159603     -0.01198412
      6.03100863     -0.05472053
      0.48461728      0.58055871
      0.18469964      0.47700799
p              4   1.000000
      5.64464513      0.05713170
      1.46357219      0.28574555
      0.51595449      0.55178731
      0.20541037      0.26323149
s              7   1.000000
      0.38350848     -0.19615030
      0.04707223      0.94772617
      0.02222627      0.24888729
     35.02159603      0.00550257
      6.03100863      0.02512522
      0.48461728     -0.26656666
      0.18469964     -0.21902079
p              7   1.000000
      1.83062075     -0.01160706
      0.10124670      0.57038863
      0.03901771      0.59568620
      5.64464513     -0.02520584
      1.46357219     -0.12606761
      0.51595449     -0.24344214
      0.20541037     -0.11613468
 
          17   0
s              4   1.000000
     34.92880152     -0.01198412
      6.01502865     -0.05472052
      0.48333322      0.58055871
      0.18421025      0.47700800
p              4   1.000000
      5.62968887      0.05713170
      1.45969426      0.28574555
      0.51458740      0.55178731
      0.20486611      0.26323149
s              7   1.000000
      0.38350848     -0.19623704
      0.04707223      0.94814525
      0.02222627      0.24899734
     34.92880152      0.00551653
      6.01502865      0.02518896
      0.48333322     -0.26724292
      0.18421025     -0.21957643
p              7   1.000000
      1.83062075     -0.01161188
      0.10124670      0.57062556
      0.03901771      0.59593363
      5.62968887     -0.02527003
      1.45969426     -0.12638867
      0.51458740     -0.24406211
      0.20486611     -0.11643043
 
          18   0
s              4   1.000000
     35.31367451     -0.01198412
      6.08130696     -0.05472052
      0.48865896      0.58055871
      0.18624003      0.47700799
p              4   1.000000
      5.69172120      0.05713170
      1.47577832      0.28574555
      0.52025752      0.55178731
      0.20712348      0.26323149
s              7   1.000000
      0.38350848     -0.19588125
      0.04707223      0.94642623
      0.02222627      0.24854589
     35.31367451      0.00545908
      6.08130696      0.02492664
      0.48865896     -0.26445982
      0.18624003     -0.21728973
p              7   1.000000
      1.83062075     -0.01159210
      0.10124670      0.56965369
      0.03901771      0.59491867
      5.69172120     -0.02500585
      1.47577832     -0.12506733
      0.52025752     -0.24151055
      0.20712348     -0.11521320
 
          19   0
s              4   1.000000
     35.76342481     -0.01198412
      6.15875768     -0.05472052
      0.49488246      0.58055871
      0.18861195      0.47700799
p              4   1.000000
      5.76421021      0.05713170
      1.49457364      0.28574555
      0.52688346      0.55178731
      0.20976138      0.26323149
s              7   1.000000
      0.38350848     -0.19547837
      0.04707223      0.94447963
      0.02222627      0.24803468
     35.76342481      0.00539342
      6.15875768      0.02462681
      0.49488246     -0.26127868
      0.18861195     -0.21467599
p              7   1.000000
      1.83062075     -0.01156971
      0.10124670      0.56855321
      0.03901771      0.59376936
      5.76421021     -0.02470384
      1.49457364     -0.12355683
      0.52688346     -0.23859371
      0.20976138     -0.11382172
 
          20   0
s              4   1.000000
     35.31517904     -0.01198412
      6.08156605     -0.05472052
      0.48867978      0.58055871
      0.18624796      0.47700799
p              4   1.000000
      5.69196370      0.05713170
      1.47584119      0.28574555
      0.52027969      0.55178731
      0.20713231      0.26323149
s              7   1.000000
      0.38350848     -0.19587988
      0.04707223      0.94641961
      0.02222627      0.24854416
     35.31517904      0.00545886
      6.08156605      0.02492563
      0.48867978     -0.26444905
      0.18624796     -0.21728089
p              7   1.000000
      1.83062075     -0.01159203
      0.10124670      0.56964996
      0.03901771      0.59491475
      5.69196370     -0.02500482
      1.47584119     -0.12506222
      0.52027969     -0.24150068
      0.20713231     -0.11520849
 
          21   0
s              4   1.000000
     34.93017192     -0.01198412
      6.01526464     -0.05472052
      0.48335218      0.58055871
      0.18421748      0.47700799
p              4   1.000000
      5.62990974      0.05713170
      1.45975153      0.28574555
      0.51460759      0.55178731
      0.20487415      0.26323149
s              7   1.000000
      0.38350848     -0.19623575
      0.04707223      0.94813903
      0.02222627      0.24899571
     34.93017192      0.00551632
      6.01526464      0.02518802
      0.48335218     -0.26723291
      0.18421748     -0.21956820
p              7   1.000000
      1.83062075     -0.01161181
      0.10124670      0.57062205
      0.03901771      0.59592999
      5.62990974     -0.02526908
      1.45975153     -0.12638391
      0.51460759     -0.24405293
      0.20487415     -0.11642605
 
          22   0
s              4   1.000000
     34.92759544     -0.01198412
      6.01482095     -0.05472052
      0.48331653      0.58055871
      0.18420389      0.47700799
p              4   1.000000
      5.62949448      0.05713170
      1.45964385      0.28574555
      0.51456963      0.55178731
      0.20485904      0.26323149
s              7   1.000000
      0.38350848     -0.19623817
      0.04707223      0.94815070
      0.02222627      0.24899878
     34.92759544      0.00551671
      6.01482095      0.02518979
      0.48331653     -0.26725173
      0.18420389     -0.21958367
p              7   1.000000
      1.83062075     -0.01161194
      0.10124670      0.57062866
      0.03901771      0.59593687
      5.62949448     -0.02527087
      1.45964385     -0.12639285
      0.51456963     -0.24407019
      0.20485904     -0.11643428
 
          23   0
s              4   1.000000
     34.97967189     -0.01198412
      6.02378894     -0.05472052
      0.48403714      0.58055871
      0.18447854      0.47700799
p              4   1.000000
      5.63788796      0.05713170
      1.46182016      0.28574555
      0.51533684      0.55178731
      0.20516448      0.26323149
s              7   1.000000
      0.38350848     -0.19618941
      0.04707223      0.94791515
      0.02222627      0.24893691
     34.97967189      0.00550887
      6.02378894      0.02515398
      0.48403714     -0.26687177
      0.18447854     -0.21927148
p              7   1.000000
      1.83062075     -0.01160923
      0.10124670      0.57049548
      0.03901771      0.59579778
      5.63788796     -0.02523480
      1.46182016     -0.12621247
      0.51533684     -0.24372186
      0.20516448     -0.11626811
 
          24   0
s              4   1.000000
     35.17890416     -0.01198412
      6.05809839     -0.05472052
      0.48679406      0.58055871
      0.18552926      0.47700799
p              4   1.000000
      5.66999944      0.05713170
      1.47014619      0.28574555
      0.51827203      0.55178731
      0.20633302      0.26323149
s              7   1.000000
      0.38350848     -0.19600466
      0.04707223      0.94702248
      0.02222627      0.24870248
     35.17890416      0.00547907
      6.05809839      0.02501789
      0.48679406     -0.26542788
      0.18552926     -0.21808513
p              7   1.000000
      1.83062075     -0.01159896
      0.10124670      0.56999078
      0.03901771      0.59527072
      5.66999944     -0.02509774
      1.47014619     -0.12552696
      0.51827203     -0.24239811
      0.20633302     -0.11563661
 
          25   0
s              4   1.000000
     35.54170476     -0.01198412
      6.12057565     -0.05472052
      0.49181437      0.58055871
      0.18744263      0.47700799
p              4   1.000000
      5.72847424      0.05713170
      1.48530783      0.28574555
      0.52361697      0.55178731
      0.20846094      0.26323149
s              7   1.000000
      0.38350848     -0.19567529
      0.04707223      0.94543108
      0.02222627      0.24828455
     35.54170476      0.00542559
      6.12057565      0.02477373
      0.49181437     -0.26283752
      0.18744263     -0.21595679
p              7   1.000000
      1.83062075     -0.01158065
      0.10124670      0.56909109
      0.03901771      0.59433109
      5.72847424     -0.02485184
      1.48530783     -0.12429704
      0.52361697     -0.24002308
      0.20846094     -0.11450360
 
          26   0
s              4   1.000000
     57.17396208     -0.01198412
      9.84582937     -0.05472053
      0.79115440      0.58055871
      0.30152852      0.47700799
p              4   1.000000
      6.73920789      0.05713170
      1.74737597      0.28574555
      0.61600410      0.55178731
      0.24524185      0.26323149
s              7   1.000000
      0.47894987     -0.18911391
      0.05878681      0.91372891
      0.02775758      0.23995910
     57.17396208      0.00424568
      9.84582937      0.01938616
      0.79115440     -0.20567790
      0.30152852     -0.16899239
p              7   1.000000
      2.28619608     -0.01169178
      0.12644335      0.57455203
      0.04872781      0.60003424
      6.73920789     -0.02631477
      1.74737597     -0.13161392
      0.61600410     -0.25415231
      0.24524185     -0.12124398
 
          27   0
s              4   1.000000
     35.32191333     -0.01198412
      6.08272575     -0.05472052
      0.48877297      0.58055871
      0.18628348      0.47700800
p              4   1.000000
      5.69304911      0.05713170
      1.47612262      0.28574555
      0.52037890      0.55178731
      0.20717181      0.26323149
s              7   1.000000
      0.38350848     -0.19587375
      0.04707223      0.94638998
      0.02222627      0.24853639
     35.32191333      0.00545786
      6.08272575      0.02492109
      0.48877297     -0.26440086
      0.18628348     -0.21724129
p              7   1.000000
      1.83062075     -0.01159169
      0.10124670      0.56963320
      0.03901771      0.59489727
      5.69304911     -0.02500025
      1.47612262     -0.12503934
      0.52037890     -0.24145650
      0.20717181     -0.11518742
 
          28   0
s              4   1.000000
     35.09430891     -0.01198412
      6.04353039     -0.05472053
      0.48562345      0.58055871
      0.18508312      0.47700799
p              4   1.000000
      5.65636471      0.05713170
      1.46661091      0.28574555
      0.51702573      0.55178731
      0.20583685      0.26323149
s              7   1.000000
      0.38350848     -0.19608277
      0.04707223      0.94739987
      0.02222627      0.24880159
     35.09430891      0.00549168
      6.04353039      0.02507550
      0.48562345     -0.26603909
      0.18508312     -0.21858732
p              7   1.000000
      1.83062075     -0.01160330
      0.10124670      0.57020414
      0.03901771      0.59549355
      5.65636471     -0.02515576
      1.46661091     -0.12581714
      0.51702573     -0.24295847
      0.20583685     -0.11590394
 
          29   0
s              4   1.000000
     35.15061515     -0.01198412
      6.05322679     -0.05472052
      0.48640260      0.58055871
      0.18538007      0.47700799
p              4   1.000000
      5.66543993      0.05713170
      1.46896398      0.28574555
      0.51785526      0.55178731
      0.20616710      0.26323149
s              7   1.000000
      0.38350848     -0.19603072
      0.04707223      0.94714841
      0.02222627      0.24873555
     35.15061515      0.00548328
      6.05322679      0.02503712
      0.48640260     -0.26563197
      0.18538007     -0.21825281
p              7   1.000000
      1.83062075     -0.01160041
      0.10124670      0.57006198
      0.03901771      0.59534508
      5.66543993     -0.02511712
      1.46896398     -0.12562385
      0.51785526     -0.24258522
      0.20616710     -0.11572587
 
          30   0
s              4   1.000000
     35.14321333     -0.01198412
      6.05195213     -0.05472052
      0.48630018      0.58055871
      0.18534103      0.47700800
p              4   1.000000
      5.66424693      0.05713170
      1.46865465      0.28574555
      0.51774621      0.55178731
      0.20612369      0.26323149
s              7   1.000000
      0.38350848     -0.19603755
      0.04707223      0.94718140
      0.02222627      0.24874421
     35.14321333      0.00548438
      6.05195213      0.02504216
      0.48630018     -0.26568542
      0.18534103     -0.21829673
p              7   1.000000
      1.83062075     -0.01160079
      0.10124670      0.57008064
      0.03901771      0.59536454
      5.66424693     -0.02512219
      1.46865465     -0.12564923
      0.51774621     -0.24263422
      0.20612369     -0.11574925
 
          31   0
s              4   1.000000
     34.99837587     -0.01198412
      6.02700992     -0.05472052
      0.48429596      0.58055871
      0.18457718      0.47700800
p              4   1.000000
      5.64090259      0.05713170
      1.46260181      0.28574555
      0.51561240      0.55178731
      0.20527418      0.26323149
s              7   1.000000
      0.38350848     -0.19617195
      0.04707223      0.94783076
      0.02222627      0.24891476
     34.99837587      0.00550606
      6.02700992      0.02514114
      0.48429596     -0.26673557
      0.18457718     -0.21915957
p              7   1.000000
      1.83062075     -0.01160826
      0.10124670      0.57044777
      0.03901771      0.59574798
      5.64090259     -0.02522188
      1.46260181     -0.12614780
      0.51561240     -0.24359699
      0.20527418     -0.11620854
 
          32   0
s              4   1.000000
     35.07499993     -0.01198412
      6.04020522     -0.05472052
      0.48535626      0.58055871
      0.18498128      0.47700799
p              4   1.000000
      5.65325256      0.05713170
      1.46580397      0.28574555
      0.51674126      0.55178731
      0.20572360      0.26323149
s              7   1.000000
      0.38350848     -0.19610067
      0.04707223      0.94748634
      0.02222627      0.24882430
     35.07499993      0.00549457
      6.04020522      0.02508868
      0.48535626     -0.26617899
      0.18498128     -0.21870227
p              7   1.000000
      1.83062075     -0.01160430
      0.10124670      0.57025304
      0.03901771      0.59554460
      5.65325256     -0.02516904
      1.46580397     -0.12588356
      0.51674126     -0.24308673
      0.20572360     -0.11596512
 
          33   0
s              4   1.000000
     56.98254610     -0.01198412
      9.81286595     -0.05472052
      0.78850565      0.58055871
      0.30051902      0.47700799
p              4   1.000000
      6.71664531      0.05713170
      1.74152583      0.28574555
      0.61394175      0.55178731
      0.24442079      0.26323149
s              7   1.000000
      0.47894987     -0.18918363
      0.05878681      0.91406577
      0.02775758      0.24004755
     56.98254610      0.00425970
      9.81286595      0.01945015
      0.78850565     -0.20635687
      0.30051902     -0.16955026
p              7   1.000000
      2.28619608     -0.01169835
      0.12644335      0.57487494
      0.04872781      0.60037147
      6.71664531     -0.02639916
      1.74152583     -0.13203600
      0.61394175     -0.25496735
      0.24442079     -0.12163280
 
          34   0
s              4   1.000000
     35.07704501     -0.01198412
      6.04055740     -0.05472053
      0.48538456      0.58055871
      0.18499207      0.47700799
p              4   1.000000
      5.65358218      0.05713170
      1.46588944      0.28574555
      0.51677139      0.55178731
      0.20573559      0.26323149
s              7   1.000000
      0.38350848     -0.19609877
      0.04707223      0.94747717
      0.02222627      0.24882189
     35.07704501      0.00549426
      6.04055740      0.02508729
      0.48538456     -0.26616417
      0.18499207     -0.21869009
p              7   1.000000
      1.83062075     -0.01160419
      0.10124670      0.57024786
      0.03901771      0.59553918
      5.65358218     -0.02516764
      1.46588944     -0.12587652
      0.51677139     -0.24307314
      0.20573559     -0.11595864
 
          35   0
s              4   1.000000
     35.01026936     -0.01198412
      6.02905808     -0.05472053
      0.48446054      0.58055871
      0.18463990      0.47700800
p              4   1.000000
      5.64281954      0.05713170
      1.46309884      0.28574555
      0.51578762      0.55178731
      0.20534394      0.26323149
s              7   1.000000
      0.38350848     -0.19616086
      0.04707223      0.94777717
      0.02222627      0.24890067
     35.01026936      0.00550427
      6.02905808      0.02513299
      0.48446054     -0.26664903
      0.18463990     -0.21908846
p              7   1.000000
      1.83062075     -0.01160765
      0.10124670      0.57041746
      0.03901771      0.59571630
      5.64281954     -0.02521366
      1.46309884     -0.12610672
      0.51578762     -0.24351765
      0.20534394     -0.11617069
 
          36   0
s              4   1.000000
     35.15044223     -0.01198412
      6.05319701     -0.05472052
      0.48640021      0.58055871
      0.18537916      0.47700799
p              4   1.000000
      5.66541206      0.05713170
      1.46895675      0.28574555
      0.51785271      0.55178731
      0.20616609      0.26323149
s              7   1.000000
      0.38350848     -0.19603088
      0.04707223      0.94714918
      0.02222627      0.24873575
     35.15044223      0.00548330
      6.05319701      0.02503724
      0.48640021     -0.26563322
      0.18537916     -0.21825384
p              7   1.000000
      1.83062075     -0.01160042
      0.10124670      0.57006242
      0.03901771      0.59534552
      5.66541206     -0.02511724
      1.46895675     -0.12562445
      0.51785271     -0.24258636
      0.20616609     -0.11572642
 
          37   0
s              4   1.000000
     35.14335322     -0.01198412
      6.05197622     -0.05472053
      0.48630211      0.58055871
      0.18534177      0.47700799
p              4   1.000000
      5.66426948      0.05713170
      1.46866049      0.28574555
      0.51774827      0.55178731
      0.20612451      0.26323149
s              7   1.000000
      0.38350848     -0.19603742
      0.04707223      0.94718078
      0.02222627      0.24874406
     35.14335322      0.00548436
      6.05197622      0.02504207
      0.48630211     -0.26568441
      0.18534177     -0.21829590
p              7   1.000000
      1.83062075     -0.01160078
      0.10124670      0.57008028
      0.03901771      0.59536417
      5.66426948     -0.02512210
      1.46866049     -0.12564875
      0.51774827     -0.24263330
      0.20612451     -0.11574881
 
          38   0
s              4   1.000000
     35.01036016     -0.01198412
      6.02907372     -0.05472053
      0.48446180      0.58055871
      0.18464038      0.47700799
p              4   1.000000
      5.64283417      0.05713170
      1.46310264      0.28574555
      0.51578896      0.55178731
      0.20534447      0.26323149
s              7   1.000000
      0.38350848     -0.19616077
      0.04707223      0.94777676
      0.02222627      0.24890057
     35.01036016      0.00550426
      6.02907372      0.02513293
      0.48446180     -0.26664837
      0.18464038     -0.21908792
p              7   1.000000
      1.83062075     -0.01160764
      0.10124670      0.57041723
      0.03901771      0.59571606
      5.64283417     -0.02521360
      1.46310264     -0.12610640
      0.51578896     -0.24351705
      0.20534447     -0.11617040
 
          39   0
s              4   1.000000
     35.07703829     -0.01198412
      6.04055624     -0.05472052
      0.48538447      0.58055871
      0.18499203      0.47700799
p              4   1.000000
      5.65358110      0.05713170
      1.46588916      0.28574555
      0.51677129      0.55178731
      0.20573555      0.26323149
s              7   1.000000
      0.38350848     -0.19609877
      0.04707223      0.94747720
      0.02222627      0.24882189
     35.07703829      0.00549426
      6.04055624      0.02508729
      0.48538447     -0.26616422
      0.18499203     -0.21869013
p              7   1.000000
      1.83062075     -0.01160419
      0.10124670      0.57024787
      0.03901771      0.59553918
      5.65358110     -0.02516764
      1.46588916     -0.12587655
      0.51677129     -0.24307319
      0.20573555     -0.11595866
 
          40   0
s              4   1.000000
     56.98257095     -0.01198412
      9.81287023     -0.05472052
      0.78850599      0.58055871
      0.30051915      0.47700800
p              4   1.000000
      6.71664824      0.05713170
      1.74152659      0.28574555
      0.61394202      0.55178731
      0.24442089      0.26323149
s              7   1.000000
      0.47894987     -0.18918362
      0.05878681      0.91406572
      0.02775758      0.24004755
     56.98257095      0.00425970
      9.81287023      0.01945015
      0.78850599     -0.20635679
      0.30051915     -0.16955018
p              7   1.000000
      2.28619608     -0.01169835
      0.12644335      0.57487489
      0.04872781      0.60037144
      6.71664824     -0.02639914
      1.74152659     -0.13203594
      0.61394202     -0.25496725
      0.24442089     -0.12163275
 
          41   0
s              4   1.000000
     35.07502086     -0.01198412
      6.04020883     -0.05472052
      0.48535655      0.58055871
      0.18498139      0.47700800
p              4   1.000000
      5.65325593      0.05713170
      1.46580485      0.28574555
      0.51674157      0.55178731
      0.20572372      0.26323149
s              7   1.000000
      0.38350848     -0.19610065
      0.04707223      0.94748624
      0.02222627      0.24882428
     35.07502086      0.00549457
      6.04020883      0.02508867
      0.48535655     -0.26617884
      0.18498139     -0.21870214
p              7   1.000000
      1.83062075     -0.01160430
      0.10124670      0.57025298
      0.03901771      0.59554452
      5.65325593     -0.02516903
      1.46580485     -0.12588349
      0.51674157     -0.24308659
      0.20572372     -0.11596506
 
          42   0
s              4   1.000000
     34.99826286     -0.01198412
      6.02699046     -0.05472052
      0.48429440      0.58055871
      0.18457658      0.47700800
p              4   1.000000
      5.64088438      0.05713170
      1.46259709      0.28574555
      0.51561073      0.55178731
      0.20527352      0.26323149
s              7   1.000000
      0.38350848     -0.19617206
      0.04707223      0.94783127
      0.02222627      0.24891488
     34.99826286      0.00550608
      6.02699046      0.02514122
      0.48429440     -0.26673639
      0.18457658     -0.21916025
p              7   1.000000
      1.83062075     -0.01160827
      0.10124670      0.57044805
      0.03901771      0.59574826
      5.64088438     -0.02522195
      1.46259709     -0.12614819
      0.51561073     -0.24359775
      0.20527352     -0.11620890
 
          43   0
s              4   1.000000
     35.09434732     -0.01198412
      6.04353700     -0.05472052
      0.48562398      0.58055871
      0.18508332      0.47700800
p              4   1.000000
      5.65637090      0.05713170
      1.46661251      0.28574555
      0.51702629      0.55178731
      0.20583708      0.26323149
s              7   1.000000
      0.38350848     -0.19608273
      0.04707223      0.94739969
      0.02222627      0.24880154
     35.09434732      0.00549168
      6.04353700      0.02507547
      0.48562398     -0.26603882
      0.18508332     -0.21858709
p              7   1.000000
      1.83062075     -0.01160330
      0.10124670      0.57020406
      0.03901771      0.59549343
      5.65637090     -0.02515574
      1.46661251     -0.12581701
      0.51702629     -0.24295822
      0.20583708     -0.11590382
 
          44   0
s              4   1.000000
     35.32075636     -0.01198412
      6.08252651     -0.05472052
      0.48875696      0.58055871
      0.18627737      0.47700799
p              4   1.000000
      5.69286263      0.05713170
      1.47607427      0.28574555
      0.52036186      0.55178731
      0.20716502      0.26323149
s              7   1.000000
      0.38350848     -0.19587480
      0.04707223      0.94639506
      0.02222627      0.24853770
     35.32075636      0.00545804
      6.08252651      0.02492187
      0.48875696     -0.26440914
      0.18627737     -0.21724810
p              7   1.000000
      1.83062075     -0.01159174
      0.10124670      0.56963608
      0.03901771      0.59490026
      5.69286263     -0.02500104
      1.47607427     -0.12504327
      0.52036186     -0.24146409
      0.20716502     -0.11519104
 
          45   0
s              4   1.000000
     57.17389361     -0.01198412
      9.84581757     -0.05472052
      0.79115345      0.58055871
      0.30152816      0.47700799
p              4   1.000000
      6.73919982      0.05713170
      1.74737388      0.28574555
      0.61600336      0.55178731
      0.24524155      0.26323149
s              7   1.000000
      0.47894987     -0.18911393
      0.05878681      0.91372903
      0.02775758      0.23995912
     57.17389361      0.00424569
      9.84581757      0.01938618
      0.79115345     -0.20567815
      0.30152816     -0.16899259
p              7   1.000000
      2.28619608     -0.01169178
      0.12644335      0.57455214
      0.04872781      0.60003436
      6.73919982     -0.02631480
      1.74737388     -0.13161407
      0.61600336     -0.25415260
      0.24524155     -0.12124412
 
          46   0
s              4   1.000000
     35.53896732     -0.01198412
      6.12010425     -0.05472053
      0.49177649      0.58055871
      0.18742819      0.47700800
p              4   1.000000
      5.72803303      0.05713170
      1.48519343      0.28574555
      0.52357664      0.55178731
      0.20844488      0.26323149
s              7   1.000000
      0.38350848     -0.19567774
      0.04707223      0.94544292
      0.02222627      0.24828767
     35.53896732      0.00542599
      6.12010425      0.02477556
      0.49177649     -0.26285688
      0.18742819     -0.21597270
p              7   1.000000
      1.83062075     -0.01158079
      0.10124670      0.56909779
      0.03901771      0.59433809
      5.72803303     -0.02485367
      1.48519343     -0.12430623
      0.52357664     -0.24004083
      0.20844488     -0.11451207
 
          47   0
s              4   1.000000
      8.30892543      0.05675242
      1.52043098      0.26014135
      0.42239238      0.53284611
      0.14018823      0.29162544
s              7   1.000000
      0.92936822     -0.06732845
      0.05643440      0.66945567
      0.02166600      0.51461484
      8.30892543     -0.02902277
      1.52043098     -0.13303438
      0.42239238     -0.27249359
      0.14018823     -0.14913511
p              4   1.000000
      0.64737396      0.05713170
      0.16785440      0.28574555
      0.05917387      0.55178731
      0.02355814      0.26323150
 
          48   0
s              4   1.000000
      8.30902754      0.05675242
      1.52044967      0.26014135
      0.42239757      0.53284611
      0.14018996      0.29162544
s              7   1.000000
      0.92936822     -0.06732832
      0.05643440      0.66945436
      0.02166600      0.51461385
      8.30902754     -0.02902250
      1.52044967     -0.13303312
      0.42239757     -0.27249102
      0.14018996     -0.14913371
p              4   1.000000
      0.64737396      0.05713170
      0.16785440      0.28574555
      0.05917387      0.55178731
      0.02355814      0.26323150
 
          49   0
s              4   1.000000
      8.31042753      0.05675242
      1.52070585      0.26014135
      0.42246874      0.53284611
      0.14021358      0.29162544
s              7   1.000000
      0.92936822     -0.06732652
      0.05643440      0.66943647
      0.02166600      0.51460009
      8.31042753     -0.02901875
      1.52070585     -0.13301596
      0.42246874     -0.27245586
      0.14021358     -0.14911446
p              4   1.000000
      0.64737396      0.05713170
      0.16785440      0.28574555
      0.05917387      0.55178731
      0.02355814      0.26323150
 
          50   0
s              4   1.000000
      8.30926979      0.05675242
      1.52049400      0.26014135
      0.42240988      0.53284611
      0.14019404      0.29162544
s              7   1.000000
      0.92936822     -0.06732801
      0.05643440      0.66945127
      0.02166600      0.51461146
      8.30926979     -0.02902185
      1.52049400     -0.13303015
      0.42240988     -0.27248494
      0.14019404     -0.14913037
p              4   1.000000
      0.64737396      0.05713170
      0.16785440      0.28574555
      0.05917387      0.55178731
      0.02355814      0.26323150
 
          51   0
s              4   1.000000
      8.30926101      0.05675242
      1.52049239      0.26014135
      0.42240944      0.53284611
      0.14019389      0.29162544
s              7   1.000000
      0.92936822     -0.06732802
      0.05643440      0.66945138
      0.02166600      0.51461156
      8.30926101     -0.02902187
      1.52049239     -0.13303026
      0.42240944     -0.27248516
      0.14019389     -0.14913050
p              4   1.000000
      0.64737396      0.05713170
      0.16785440      0.28574555
      0.05917387      0.55178731
      0.02355814      0.26323150
 
          52   0
s              4   1.000000
      8.30893115      0.05675242
      1.52043203      0.26014135
      0.42239267      0.53284611
      0.14018833      0.29162544
s              7   1.000000
      0.92936822     -0.06732845
      0.05643440      0.66945560
      0.02166600      0.51461479
      8.30893115     -0.02902276
      1.52043203     -0.13303431
      0.42239267     -0.27249344
      0.14018833     -0.14913503
p              4   1.000000
      0.64737396      0.05713170
      0.16785440      0.28574555
      0.05917387      0.55178731
      0.02355814      0.26323150
 
          53   0
s              4   1.000000
      8.30904210      0.05675242
      1.52045233      0.26014135
      0.42239831      0.53284611
      0.14019020      0.29162544
s              7   1.000000
      0.92936822     -0.06732830
      0.05643440      0.66945418
      0.02166600      0.51461370
      8.30904210     -0.02902246
      1.52045233     -0.13303295
      0.42239831     -0.27249066
      0.14019020     -0.14913350
p              4   1.000000
      0.64737396      0.05713170
      0.16785440      0.28574555
      0.05917387      0.55178731
      0.02355814      0.26323150
 
          54   0
s              4   1.000000
      8.31056177      0.05675242
      1.52073042      0.26014135
      0.42247556      0.53284611
      0.14021584      0.29162544
s              7   1.000000
      0.92936822     -0.06732635
      0.05643440      0.66943475
      0.02166600      0.51459877
      8.31056177     -0.02901839
      1.52073042     -0.13301431
      0.42247556     -0.27245249
      0.14021584     -0.14911262
p              4   1.000000
      0.64737396      0.05713170
      0.16785440      0.28574555
      0.05917387      0.55178731
      0.02355814      0.26323150
 
          55   0
s              4   1.000000
      8.30971689      0.05675242
      1.52057581      0.26014135
      0.42243261      0.53284611
      0.14020159      0.29162544
s              7   1.000000
      0.92936822     -0.06732743
      0.05643440      0.66944556
      0.02166600      0.51460707
      8.30971689     -0.02902065
      1.52057581     -0.13302467
      0.42243261     -0.27247371
      0.14020159     -0.14912422
p              4   1.000000
      0.64737396      0.05713170
      0.16785440      0.28574555
      0.05917387      0.55178731
      0.02355814      0.26323150
 
          56   0
s              4   1.000000
      8.30890565      0.05675242
      1.52042736      0.26014135
      0.42239137      0.53284611
      0.14018790      0.29162544
s              7   1.000000
      0.92936822     -0.06732848
      0.05643440      0.66945593
      0.02166600      0.51461504
      8.30890565     -0.02902282
      1.52042736     -0.13303462
      0.42239137     -0.27249408
      0.14018790     -0.14913538
p              4   1.000000
      0.64737396      0.05713170
      0.16785440      0.28574555
      0.05917387      0.55178731
      0.02355814      0.26323150
 
          57   0
s              4   1.000000
      8.30882620      0.05675242
      1.52041283      0.26014135
      0.42238733      0.53284611
      0.14018656      0.29162544
s              7   1.000000
      0.92936822     -0.06732858
      0.05643440      0.66945695
      0.02166600      0.51461584
      8.30882620     -0.02902304
      1.52041283     -0.13303559
      0.42238733     -0.27249608
      0.14018656     -0.14913647
p              4   1.000000
      0.64737396      0.05713170
      0.16785440      0.28574555
      0.05917387      0.55178731
      0.02355814      0.26323150
 
          58   0
s              4   1.000000
      8.30913693      0.05675242
      1.52046969      0.26014135
      0.42240313      0.53284611
      0.14019180      0.29162544
s              7   1.000000
      0.92936822     -0.06732818
      0.05643440      0.66945297
      0.02166600      0.51461278
      8.30913693     -0.02902221
      1.52046969     -0.13303178
      0.42240313     -0.27248827
      0.14019180     -0.14913220
p              4   1.000000
      0.64737396      0.05713170
      0.16785440      0.28574555
      0.05917387      0.55178731
      0.02355814      0.26323150
 
          59   0
s              4   1.000000
      8.30961693      0.05675242
      1.52055752      0.26014135
      0.42242753      0.53284611
      0.14019990      0.29162544
s              7   1.000000
      0.92936822     -0.06732756
      0.05643440      0.66944683
      0.02166600      0.51460806
      8.30961693     -0.02902092
      1.52055752     -0.13302590
      0.42242753     -0.27247622
      0.14019990     -0.14912560
p              4   1.000000
      0.64737396      0.05713170
      0.16785440      0.28574555
      0.05917387      0.55178731
      0.02355814      0.26323150
 
          60   0
s              4   1.000000
      8.30983459      0.05675242
      1.52059735      0.26014135
      0.42243859      0.53284611
      0.14020357      0.29162544
s              7   1.000000
      0.92936822     -0.06732728
      0.05643440      0.66944405
      0.02166600      0.51460592
      8.30983459     -0.02902034
      1.52059735     -0.13302323
      0.42243859     -0.27247075
      0.14020357     -0.14912261
p              4   1.000000
      0.64737396      0.05713170
      0.16785440      0.28574555
      0.05917387      0.55178731
      0.02355814      0.26323150
 
          61   0
s              4   1.000000
      8.30911067      0.05675242
      1.52046488      0.26014135
      0.42240179      0.53284611
      0.14019136      0.29162544
s              7   1.000000
      0.92936822     -0.06732821
      0.05643440      0.66945331
      0.02166600      0.51461303
      8.30911067     -0.02902228
      1.52046488     -0.13303211
      0.42240179     -0.27248893
      0.14019136     -0.14913256
p              4   1.000000
      0.64737396      0.05713170
      0.16785440      0.28574555
      0.05917387      0.55178731
      0.02355814      0.26323150
 
          62   0
s              4   1.000000
      8.30887179      0.05675242
      1.52042117      0.26014135
      0.42238965      0.53284611
      0.14018733      0.29162544
s              7   1.000000
      0.92936822     -0.06732852
      0.05643440      0.66945636
      0.02166600      0.51461539
      8.30887179     -0.02902291
      1.52042117     -0.13303504
      0.42238965     -0.27249493
      0.14018733     -0.14913585
p              4   1.000000
      0.64737396      0.05713170
      0.16785440      0.28574555
      0.05917387      0.55178731
      0.02355814      0.26323150
 
          63   0
s              4   1.000000
      8.30892443      0.05675242
      1.52043080      0.26014135
      0.42239233      0.53284611
      0.14018822      0.29162544
s              7   1.000000
      0.92936822     -0.06732845
      0.05643440      0.66945569
      0.02166600      0.51461487
      8.30892443     -0.02902277
      1.52043080     -0.13303439
      0.42239233     -0.27249361
      0.14018822     -0.14913512
p              4   1.000000
      0.64737396      0.05713170
      0.16785440      0.28574555
      0.05917387      0.55178731
      0.02355814      0.26323150
 
          64   0
s              4   1.000000
      8.30957159      0.05675242
      1.52054922      0.26014135
      0.42242522      0.53284611
      0.14019913      0.29162544
s              7   1.000000
      0.92936822     -0.06732762
      0.05643440      0.66944741
      0.02166600      0.51460851
      8.30957159     -0.02902104
      1.52054922     -0.13302645
      0.42242522     -0.27247736
      0.14019913     -0.14912622
p              4   1.000000
      0.64737396      0.05713170
      0.16785440      0.28574555
      0.05917387      0.55178731
      0.02355814      0.26323150
 
          65   0
s              4   1.000000
      8.30957183      0.05675242
      1.52054927      0.26014135
      0.42242524      0.53284611
      0.14019914      0.29162544
s              7   1.000000
      0.92936822     -0.06732762
      0.05643440      0.66944741
      0.02166600      0.51460851
      8.30957183     -0.02902104
      1.52054927     -0.13302645
      0.42242524     -0.27247735
      0.14019914     -0.14912622
p              4   1.000000
      0.64737396      0.05713170
      0.16785440      0.28574555
      0.05917387      0.55178731
      0.02355814      0.26323150
 
          66   0
s              4   1.000000
      8.30892433      0.05675242
      1.52043078      0.26014135
      0.42239232      0.53284611
      0.14018821      0.29162544
s              7   1.000000
      0.92936822     -0.06732845
      0.05643440      0.66945569
      0.02166600      0.51461487
      8.30892433     -0.02902277
      1.52043078     -0.13303439
      0.42239232     -0.27249361
      0.14018821     -0.14913512
p              4   1.000000
      0.64737396      0.05713170
      0.16785440      0.28574555
      0.05917387      0.55178731
      0.02355814      0.26323150
 
          67   0
s              4   1.000000
      8.30887221      0.05675242
      1.52042125      0.26014135
      0.42238967      0.53284611
      0.14018733      0.29162544
s              7   1.000000
      0.92936822     -0.06732852
      0.05643440      0.66945635
      0.02166600      0.51461539
      8.30887221     -0.02902291
      1.52042125     -0.13303503
      0.42238967     -0.27249492
      0.14018733     -0.14913584
p              4   1.000000
      0.64737396      0.05713170
      0.16785440      0.28574555
      0.05917387      0.55178731
      0.02355814      0.26323150
 
          68   0
s              4   1.000000
      8.30911053      0.05675242
      1.52046485      0.26014135
      0.42240179      0.53284611
      0.14019135      0.29162544
s              7   1.000000
      0.92936822     -0.06732821
      0.05643440      0.66945331
      0.02166600      0.51461303
      8.30911053     -0.02902228
      1.52046485     -0.13303211
      0.42240179     -0.27248894
      0.14019135     -0.14913256
p              4   1.000000
      0.64737396      0.05713170
      0.16785440      0.28574555
      0.05917387      0.55178731
      0.02355814      0.26323150
 
          69   0
s              4   1.000000
      8.30983231      0.05675242
      1.52059693      0.26014135
      0.42243848      0.53284611
      0.14020353      0.29162544
s              7   1.000000
      0.92936822     -0.06732729
      0.05643440      0.66944408
      0.02166600      0.51460595
      8.30983231     -0.02902034
      1.52059693     -0.13302326
      0.42243848     -0.27247081
      0.14020353     -0.14912264
p              4   1.000000
      0.64737396      0.05713170
      0.16785440      0.28574555
      0.05917387      0.55178731
      0.02355814      0.26323150
 
 [MO]
 Sym= Hole
 Ene=  -1.048742    
 Spin= Alpha
 Occup= 0
           1 -1.6026602E-04
           2 -3.8390267E-03
           3 -0.1606494    
           4  0.1915305    
           5  1.5395768E-04
           6  3.7729141E-04
           7  1.8220888E-02
           8 -2.1654170E-02
           9 -1.1176941E-03
          10  1.0235267E-03
          11 -0.1122125    
          12  0.1324608    
          13 -2.2571396E-05
          14 -9.0581068E-04
          15  1.4853701E-02
          16 -1.6911516E-02
          17  3.2538734E-03
          18 -1.8777404E-03
          19  0.1474840    
          20 -0.1729085    
          21 -1.6394388E-03
          22  6.4931851E-04
          23 -8.4709721E-03
          24  9.2737405E-03
          25 -5.8394447E-03
          26  9.9178096E-03
          27  0.1435595    
          28 -0.1492943    
          29  4.7402880E-03
          30 -1.0658469E-03
          31 -2.4865082E-02
          32  2.6248248E-02
          33  9.7464171E-04
          34  8.5205585E-03
          35  0.1750476    
          36 -0.2150420    
          37  8.5912721E-04
          38 -3.4417005E-03
          39 -3.2748960E-02
          40  3.9058711E-02
          41 -4.8926007E-04
          42  5.0420654E-03
          43  9.3148932E-02
          44 -0.1089949    
          45  1.5655020E-04
          46 -5.2262947E-04
          47 -7.4223708E-03
          48  9.3986010E-03
          49  2.4438910E-03
          50 -2.2890801E-02
          51 -0.2114210    
          52  0.2582136    
          53 -1.9591304E-03
          54  5.0224829E-03
          55  3.5300896E-02
          56 -4.1728362E-02
          57 -6.2334980E-03
          58  1.8276103E-02
          59  0.1785129    
          60 -0.2110447    
          61  4.9679130E-03
          62 -3.3360298E-03
          63 -3.1837534E-02
          64  4.0735971E-02
          65  3.8450807E-03
          66  4.5151734E-03
          67  0.1005633    
          68 -0.1028164    
          69 -1.7112144E-03
          70 -2.9077858E-04
          71 -9.2561981E-03
          72  8.2312254E-03
          73 -9.2862244E-04
          74 -1.7932987E-02
          75 -0.1672628    
          76  0.1842922    
          77  6.0634960E-05
          78  1.9871714E-03
          79  1.8286668E-02
          80 -2.1137491E-02
          81 -1.1649862E-03
          82 -1.4974942E-02
          83 -0.1178524    
          84  0.1254569    
          85  1.1137222E-03
          86  2.0750756E-03
          87  1.4152538E-02
          88 -1.5436308E-02
          89  1.9848389E-03
          90  2.1436002E-02
          91  0.1568161    
          92 -0.1624864    
          93 -3.0016599E-04
          94 -2.0838922E-03
          95 -1.1724288E-02
          96  8.8118799E-03
          97 -3.8795837E-04
          98  6.8363524E-03
          99  0.1441105    
         100 -0.1475389    
         101  1.8981963E-03
         102 -3.6483200E-04
         103 -2.3948504E-02
         104  2.8978258E-02
         105  8.3097303E-03
         106 -8.9758784E-03
         107 -0.3292288    
         108  0.3739164    
         109 -4.0103118E-03
         110  1.8434903E-03
         111  4.6948776E-02
         112 -5.0291765E-02
         113 -1.4640243E-03
         114 -3.8966842E-03
         115  4.0507596E-02
         116  3.8022999E-02
         117  9.6157606E-04
         118  1.2155446E-03
         119 -1.6980290E-02
         120  9.8933764E-03
         121  4.1642033E-02
         122  3.6350712E-02
         123 -9.7039454E-02
         124 -8.1495874E-02
         125 -2.6267234E-02
         126 -1.8147364E-02
         127  1.8531054E-02
         128  1.0017929E-02
         129 -1.3970097E-02
         130 -1.8541498E-02
         131 -1.4241813E-02
         132 -3.9863657E-02
         133  5.9369276E-03
         134  3.9582858E-03
         135 -2.4556865E-03
         136  2.5304686E-03
         137 -3.3566557E-04
         138  1.5277733E-03
         139  3.1037748E-02
         140  9.4615906E-02
         141  4.8447645E-04
         142 -8.2098477E-04
         143 -2.0023938E-03
         144 -1.4336049E-02
         145  1.1442062E-02
         146  1.6744776E-02
         147 -1.7113225E-03
         148 -9.3623511E-03
         149 -4.8714080E-03
         150 -6.3024522E-03
         151 -2.3930026E-03
         152 -3.4751208E-04
         153 -5.9477161E-03
         154 -9.4834985E-03
         155 -2.4016766E-02
         156 -2.7509267E-02
         157  9.2944939E-04
         158 -1.3290127E-03
         159  2.0619906E-03
         160  3.4547648E-03
         161 -6.2284892E-04
         162 -1.7783593E-03
         163  1.3988922E-02
         164  2.8797872E-02
         165 -2.7812290E-04
         166 -5.6091405E-04
         167 -3.4037689E-03
         168 -3.0942678E-03
         169 -4.5833224E-03
         170 -6.2365355E-03
         171  1.0388281E-02
         172  3.8433291E-02
         173  3.0074533E-04
         174 -3.7371178E-04
         175 -8.0261864E-03
         176 -4.4328454E-03
         177  3.6952768E-03
         178 -5.8490178E-03
         179 -6.3098771E-03
         180 -3.8886473E-02
         181  2.9459910E-03
         182  7.4798474E-03
         183  4.6737916E-03
         184  5.8531825E-04
         185 -4.3003377E-02
         186 -4.6050999E-02
         187 -7.7830642E-02
         188 -3.8188960E-02
         189  2.8333411E-02
         190  2.2158755E-02
         191  1.6237825E-02
         192  5.2310945E-03
         193  2.3028569E-03
         194  3.9325664E-03
         195 -1.4607579E-02
         196 -2.4912395E-02
         197 -6.8759843E-04
         198  1.2508896E-03
         199  2.3293886E-03
         200  4.0652854E-03
         201 -2.1643818E-03
         202 -2.4635601E-03
         203  4.0048009E-05
         204 -6.4942247E-04
         205  1.3767651E-03
         206  1.2151306E-03
         207 -1.2734282E-04
         208 -8.9114503E-04
         209  1.0724071E-03
         210  1.3762895E-03
         211  1.1576053E-02
         212  2.8648768E-02
         213 -5.4930832E-04
         214 -3.8270230E-04
         215 -1.6748790E-03
         216 -4.7828965E-03
         217 -7.0159585E-04
         218 -7.4085529E-04
         219  1.5397141E-03
         220  1.6463600E-03
         221 -2.0972565E-04
         222 -1.7162417E-04
         223  5.5623427E-04
         224  1.2186253E-03
         225  9.5741189E-04
         226 -1.0511166E-03
         227 -1.2291148E-02
         228 -2.3626400E-02
         229 -1.4995883E-04
         230 -2.5824440E-04
         231  1.8329391E-03
         232  3.8695647E-03
         233 -5.8127858E-05
         234 -6.9506321E-04
         235  2.1867442E-03
         236 -2.3290794E-03
         237  8.6746288E-05
         238  5.7904300E-04
         239 -5.4982916E-04
         240 -8.0436573E-04
         241 -1.7881627E-03
         242  1.3839571E-03
         243 -5.2853944E-03
         244  5.2057272E-03
         245  1.2433942E-03
         246  1.7917668E-04
         247  8.4632140E-04
         248 -9.1562950E-04
         249  8.4070425E-04
         250  1.3765752E-03
         251 -3.4511616E-04
         252  1.4647153E-03
         253 -2.9092038E-04
         254 -1.8709256E-04
         255 -9.5726773E-06
         256 -2.0200992E-04
         257 -1.6734250E-04
         258 -1.7110136E-03
         259  1.7136218E-03
         260 -5.0943489E-03
         261 -5.6963740E-06
         262  2.9198721E-04
         263 -1.8318390E-04
         264  4.6096338E-04
         265 -3.7544814E-04
         266 -1.2069951E-04
         267 -7.6482107E-04
         268  2.0552163E-03
         269  2.3914324E-04
         270  9.9621182E-05
         271 -1.7128716E-05
         272 -3.4565091E-04
         273  1.7242677E-03
         274  4.5172381E-03
         275 -3.2689366E-03
         276  4.6893046E-03
         277 -1.3022901E-03
         278 -1.2077086E-03
         279  4.6341500E-04
         280 -5.5766228E-04
         281 -7.4582541E-04
         282  7.7035389E-04
         283  2.3325265E-03
         284  3.2626449E-03
         285 -2.6726402E-05
         286  1.1983789E-04
         287 -8.7404434E-05
         288  2.1722168E-04
         289 -7.7095290E-05
         290 -8.3154667E-04
         291  6.4504199E-04
         292 -1.4864934E-04
         293  2.2328142E-05
         294 -3.9756001E-04
         295  4.6135366E-04
         296  1.8798237E-04
         297  3.2005677E-04
         298  9.6523418E-04
         299  7.6058670E-04
         300 -4.6977421E-04
         301 -1.6405756E-04
         302 -1.8778536E-04
         303 -2.7780191E-04
         304 -3.1678178E-06
         305 -2.5199432E-04
         306  2.7158426E-04
         307  2.1570557E-04
         308 -1.0907800E-04
         309 -1.5183318E-05
         310 -1.0473413E-04
         311  8.5450280E-05
         312 -1.2167452E-04
         313  2.6641757E-04
         314 -8.0561015E-04
         315 -1.6170976E-05
         316  5.4999627E-04
         317  1.0184092E-04
         318  7.6810124E-05
         319 -2.8998706E-05
         320 -6.1304323E-05
         321 -7.8594247E-05
         322  1.3976224E-04
         323  1.4834292E-05
         324 -6.8369984E-05
         325 -5.0477851E-05
         326 -1.5460851E-04
         327  2.2026848E-04
         328 -1.3249465E-05
         329 -2.9397669E-04
         330  2.1133455E-04
         331 -1.4111113E-04
         332 -1.1715345E-03
         333  3.2028087E-04
         334  2.7699579E-04
         335 -8.6321190E-05
         336  3.2071382E-04
         337  8.4401615E-04
         338 -6.2378042E-04
         339  9.6448502E-03
         340  2.1614881E-02
         341 -1.3358171E-04
         342 -1.9509214E-04
         343 -1.7326211E-03
         344 -3.8187313E-03
         345 -2.9048100E-04
         346 -1.4577614E-04
         347 -3.4529956E-03
         348 -7.6316120E-03
         349  1.1357029E-04
         350 -3.8457338E-06
         351 -4.7728396E-04
         352 -1.3766468E-03
         353  4.0970059E-04
         354  7.1783795E-04
         355 -1.9338511E-02
         356 -4.3604217E-02
         357 -4.2103446E-04
         358 -1.3625942E-03
         359  2.1427646E-03
         360  6.6812225E-03
         361  4.0328898E-04
         362 -1.0612349E-04
         363  1.5291380E-02
         364  3.6757465E-02
         365 -3.1537397E-04
         366  3.4636116E-05
         367 -3.0746569E-03
         368 -1.8380642E-03
         369 -3.8976985E-04
         370 -3.1589509E-05
         371 -1.6573853E-04
         372 -1.2912905E-02
         373  1.5651319E-02
         374 -1.2888475E-03
         375  6.6981083E-06
         376 -6.0209690E-04
         377 -9.6188672E-03
         378  1.1401625E-02
         379 -5.8561338E-05
         380 -2.7905167E-03
         381  3.3627346E-03
         382  1.2140994E-02
         383 -1.3772976E-02
         384 -4.5609896E-04
         385  5.9711219E-05
         386 -1.0891391E-04
         387  3.4356057E-03
         388 -2.4540669E-03
         389 -7.9036481E-04
         390 -1.2506742E-03
         391  7.3916797E-04
         392  1.7690505E-03
         393 -4.0679486E-03
         394  9.7482826E-04
         395 -3.7420305E-04
         396 -1.2409521E-03
         397 -1.3336737E-02
         398  1.5182533E-02
         399  2.8927596E-03
         400  2.0141878E-04
         401 -1.2745092E-03
         402 -1.0074901E-02
         403  1.1567812E-02
         404 -8.2725676E-04
         405  1.1725642E-03
         406 -3.3557133E-04
         407  1.0653708E-02
         408 -1.5775474E-02
         409 -9.4309626E-03
         410 -3.5329810E-03
         411 -1.2627725E-02
         412  5.2340603E-03
         413 -1.0759859E-02
         414  1.8030252E-02
         415 -3.0858789E-03
         416  1.1286566E-03
         417 -1.3904111E-03
         418 -3.0986411E-03
         419 -2.1672030E-03
         420  2.3297435E-03
         421  2.5685711E-03
         422  2.4836732E-03
         423  1.8282728E-03
         424  8.9348583E-03
         425 -2.0570836E-03
         426 -6.7004678E-04
         427 -9.7654114E-04
         428  5.2745580E-03
         429  7.7203885E-03
         430 -1.7048663E-03
         431 -8.5289701E-04
         432  1.9935321E-02
         433 -3.6897948E-03
         434 -1.4176127E-03
         435 -2.3358158E-04
         436  8.1263534E-05
         437  1.0416890E-04
         438  5.6559505E-04
         439  8.0155436E-04
         440  3.7860213E-04
         441  1.0102475E-03
         442 -8.8728149E-05
         443  3.5197914E-04
         444 -6.3978753E-04
         445  1.9733112E-04
         446 -5.8685666E-05
         447  7.6426630E-05
         448  3.7037684E-05
         449  1.1385590E-03
         450 -4.4293756E-05
         451 -7.1393391E-05
         452  3.5833591E-06
         453  4.3715365E-05
         454 -3.0353048E-04
         455 -1.6372107E-04
         456 -2.7548234E-04
         457 -5.9564988E-04
         458  5.2672101E-04
         459 -7.8574514E-05
         460  1.3110341E-05
         461  3.6945037E-04
         462  4.4896733E-05
         463  1.6319152E-04
         464 -2.1131482E-04
         465 -1.4906705E-05
         466  9.1496790E-05
         467  2.3917255E-05
         468 -1.7720862E-05
         469 -1.7959916E-05
         470  1.2529957E-04
         471  9.7294629E-05
         472 -1.8867853E-04
         473  3.1358954E-06
         474 -2.3502765E-04
         475  2.2033765E-04
         476  5.5513065E-04
         477 -2.2570728E-04
         478  2.2170381E-04
         479 -6.4764899E-04
         480  3.7009086E-05
         481  2.7378704E-04
         482  5.2238913E-04
         483  1.0776366E-03
 Sym= Particle
 Ene=  -1.048742    
 Spin= Alpha
 Occup= 2
           1 -9.1978538E-05
           2  2.0570583E-03
           3  0.2153285    
           4 -0.2550438    
           5  3.5117066E-04
           6  4.6600003E-04
           7 -5.6084152E-02
           8  6.6997305E-02
           9 -1.0809365E-03
          10 -2.5852779E-03
          11 -0.1778401    
          12  0.2044093    
          13  1.8161542E-03
          14  2.1313759E-03
          15  4.6291444E-02
          16 -5.2787546E-02
          17 -6.9230488E-03
          18 -5.1538268E-04
          19 -6.4307734E-02
          20  8.4820971E-02
          21  6.1412123E-03
          22  2.2128820E-03
          23  2.2549927E-02
          24 -2.9898003E-02
          25  1.1155186E-02
          26  7.5925710E-03
          27  0.2677676    
          28 -0.3183497    
          29 -6.1575570E-03
          30 -2.0061391E-03
          31 -0.1015372    
          32  0.1232094    
          33 -8.3096968E-03
          34 -1.2903698E-02
          35 -0.2191737    
          36  0.2789866    
          37  5.1913941E-03
          38  3.5590304E-03
          39  8.6540245E-02
          40 -0.1058135    
          41 -5.1498406E-05
          42 -1.9456162E-03
          43 -1.0388217E-02
          44  7.0943316E-03
          45  5.7701737E-04
          46 -2.5339235E-04
          47 -2.5970777E-04
          48  3.9439322E-03
          49  4.3673846E-03
          50 -7.9991687E-03
          51 -3.0574290E-04
          52 -9.2794414E-04
          53 -7.1035107E-03
          54  7.7350228E-03
          55  1.2293250E-03
          56  1.4966466E-03
          57 -5.5488604E-03
          58  1.8058121E-02
          59  0.2332595    
          60 -0.2677236    
          61  2.9931536E-03
          62 -8.3399313E-03
          63 -9.2635550E-02
          64  0.1011308    
          65 -1.4440099E-03
          66  2.9551663E-04
          67  8.9229885E-03
          68 -7.8468984E-03
          69  1.2135967E-03
          70  3.2130811E-05
          71  1.1131756E-03
          72 -3.1191811E-03
          73  6.1548408E-04
          74 -2.6067449E-02
          75 -0.2221976    
          76  0.2469257    
          77  2.8347297E-04
          78  8.4196022E-03
          79  5.8149718E-02
          80 -6.4902537E-02
          81 -2.7182393E-03
          82  2.2344423E-02
          83  0.1834746    
          84 -0.1986223    
          85  3.1540354E-03
          86 -3.9481353E-03
          87 -4.7392033E-02
          88  5.0461795E-02
          89 -5.5452492E-03
          90  9.9007338E-03
          91  6.7966774E-02
          92 -8.0407105E-02
          93  5.7583516E-03
          94 -1.0055116E-03
          95 -2.3829615E-02
          96  2.7418425E-02
          97  6.4492673E-03
          98 -2.3363903E-02
          99 -0.2852465    
         100  0.3015943    
         101 -2.2143261E-03
         102  1.0137875E-02
         103  0.1105693    
         104 -0.1165454    
         105 -3.3296272E-03
         106 -1.6522466E-03
         107  8.3916180E-05
         108 -1.5574708E-03
         109  2.2909574E-03
         110  2.1004097E-03
         111  6.9225975E-04
         112 -1.1196173E-04
         113 -3.4650797E-03
         114 -3.9153909E-03
         115  3.5660432E-04
         116  2.2962987E-03
         117  7.4460153E-03
         118 -1.1650067E-03
         119  4.0043544E-04
         120 -1.8189338E-03
         121 -6.8509328E-04
         122 -9.1813348E-04
         123 -2.2356077E-03
         124 -3.5205853E-06
         125  2.8176066E-03
         126  1.6546892E-03
         127  7.5112390E-03
         128  4.8208350E-04
         129  3.4542783E-04
         130  1.3313449E-03
         131 -9.2486010E-07
         132  9.9596556E-04
         133  2.0390481E-03
         134 -6.2360766E-04
         135  2.0446843E-03
         136 -2.2530582E-04
         137 -5.1990012E-04
         138 -9.0600413E-05
         139 -1.6369487E-04
         140  1.0043685E-03
         141  2.8887955E-03
         142  9.1002864E-04
         143  6.6836557E-04
         144 -7.8887104E-05
         145 -2.3658258E-04
         146 -1.5562339E-04
         147 -1.2600656E-03
         148 -2.2966058E-03
         149  2.1643525E-03
         150 -4.1003092E-04
         151 -1.0793620E-03
         152  9.0791297E-04
         153 -4.4792687E-04
         154 -4.6084020E-05
         155  4.4420548E-04
         156  3.6485298E-04
         157  2.6076960E-03
         158  1.9651707E-03
         159 -1.1835815E-03
         160  2.1716749E-05
         161 -1.3054756E-03
         162 -1.0036695E-03
         163  1.1542538E-03
         164  1.1720711E-03
         165  2.8057436E-03
         166  2.8799740E-03
         167 -1.5937361E-03
         168 -6.8679405E-04
         169  2.3458106E-03
         170  2.6805764E-03
         171  1.9379959E-03
         172 -2.5438908E-03
         173 -2.2166281E-04
         174  4.8105558E-04
         175 -1.4169266E-03
         176  1.5010356E-03
         177 -4.7087613E-03
         178 -7.0986929E-03
         179  8.1851962E-04
         180 -1.1566549E-03
         181  4.4413963E-03
         182  8.2330024E-03
         183 -1.6434931E-03
         184 -1.0807860E-03
         185  4.2897134E-04
         186  1.1446871E-03
         187 -1.2951446E-03
         188  3.4715913E-04
         189  2.5293457E-03
         190  3.0818069E-04
         191 -6.8473113E-03
         192 -5.4416718E-04
         193 -3.8873943E-04
         194 -1.2468327E-04
         195 -2.1179623E-04
         196  4.6965026E-04
         197  1.6893104E-03
         198  8.7892747E-04
         199 -1.0204197E-04
         200  2.2269199E-04
         201 -3.3568114E-04
         202  6.6691551E-05
         203  9.4251140E-05
         204 -8.5727731E-04
         205  3.2151185E-04
         206 -2.4880172E-05
         207 -2.1142927E-04
         208  6.0199673E-04
         209 -1.2623174E-05
         210 -9.8012308E-05
         211  6.0224396E-05
         212  3.6464250E-04
         213  2.6787736E-04
         214  1.3378166E-04
         215  1.0071310E-06
         216  8.2797313E-05
         217 -1.6971189E-04
         218 -9.6205231E-06
         219  2.0851799E-04
         220  2.3679878E-04
         221  2.9361717E-04
         222 -1.1584262E-04
         223  1.0569470E-04
         224 -1.3261613E-05
         225  3.9571507E-05
         226 -2.5465006E-05
         227 -2.2532250E-04
         228 -4.1008426E-04
         229 -2.0246413E-05
         230 -1.6287634E-04
         231  5.5544391E-05
         232  9.0557951E-05
         233  1.5590433E-05
         234  5.7891601E-05
         235 -1.3461968E-04
         236  5.7605277E-05
         237 -6.5624088E-05
         238 -8.8273438E-05
         239  9.5801886E-05
         240  5.2891628E-05
         241 -1.9975709E-05
         242  2.8006500E-05
         243 -1.2628501E-04
         244  1.7026553E-04
         245 -4.7636600E-05
         246 -3.8499365E-05
         247 -6.8100278E-05
         248 -1.8015850E-04
         249  5.0917508E-05
         250 -3.0915387E-05
         251 -1.2947537E-05
         252 -1.7360493E-04
         253 -1.2905711E-04
         254  3.2997023E-06
         255 -3.2593649E-05
         256  4.7545847E-05
         257  6.6667162E-05
         258 -1.8897079E-05
         259 -1.2825163E-04
         260  1.2925929E-07
         261 -9.8900324E-05
         262 -2.5576775E-05
         263  7.5516466E-05
         264  2.9861709E-05
         265  4.9749378E-05
         266  1.6392920E-05
         267 -7.6673285E-05
         268  1.3418388E-04
         269 -1.0483950E-04
         270  1.4187795E-05
         271  7.7801589E-05
         272 -1.0525106E-04
         273  1.8611496E-05
         274  4.0370276E-05
         275 -1.8865650E-05
         276 -2.4111605E-04
         277  1.2989100E-05
         278 -7.0966431E-05
         279  5.0973096E-05
         280  3.0805956E-04
         281  4.7909918E-05
         282  1.9271643E-05
         283 -1.0740770E-05
         284 -3.1512376E-04
         285 -3.9484334E-05
         286 -9.1882961E-05
         287 -1.2299113E-04
         288  1.6011605E-04
         289 -1.4331394E-04
         290 -1.0608177E-04
         291 -6.7737856E-05
         292  1.1977454E-04
         293  1.0278562E-04
         294  9.7981438E-06
         295  7.8303085E-05
         296  7.3340059E-05
         297  2.0783829E-05
         298  1.9685924E-04
         299 -4.5097138E-05
         300 -1.0879719E-04
         301 -1.6046710E-04
         302 -1.9592632E-04
         303  9.2218972E-05
         304  5.6199820E-05
         305  4.4920060E-05
         306  8.4229083E-05
         307 -2.0261075E-05
         308  1.9228784E-04
         309 -1.2597385E-04
         310 -1.6621462E-04
         311  2.3905443E-05
         312 -5.5562439E-05
         313 -1.0224667E-04
         314  6.5174740E-05
         315 -3.0681858E-06
         316  5.3852091E-05
         317  1.4547736E-04
         318 -6.8790985E-05
         319 -2.0211562E-06
         320  1.3557170E-04
         321 -3.7060643E-05
         322  9.5020252E-05
         323  7.9875055E-05
         324 -1.5623093E-04
         325  8.0346384E-05
         326 -2.3747109E-04
         327 -3.7938275E-06
         328  9.2200527E-05
         329  1.9200196E-04
         330  3.0072853E-05
         331 -7.5792006E-05
         332  2.0159839E-04
         333 -2.9079034E-04
         334 -6.6831635E-05
         335  2.8652597E-05
         336 -1.3160572E-04
         337 -6.4445805E-05
         338 -6.2476378E-05
         339  2.0792849E-04
         340  3.6114940E-04
         341  1.6532111E-04
         342 -1.9442603E-04
         343 -1.3704192E-04
         344 -1.3073973E-04
         345 -5.8855414E-05
         346 -1.6288595E-05
         347  3.6634857E-04
         348  1.1849181E-04
         349  4.1510267E-04
         350 -8.6275948E-05
         351 -4.7630569E-04
         352 -1.2047922E-04
         353 -6.5440527E-04
         354 -2.6517099E-04
         355 -1.0726898E-03
         356 -7.4402126E-04
         357  5.0091755E-04
         358 -9.1190894E-05
         359  2.3228359E-04
         360  5.3814569E-05
         361  8.2429164E-05
         362  3.3678801E-04
         363  4.8839347E-04
         364  5.2821683E-04
         365  1.5988123E-03
         366  9.7077317E-04
         367 -9.8715107E-05
         368  1.4621775E-04
         369  1.3784434E-03
         370 -1.3184400E-03
         371  1.8746255E-03
         372  5.1399518E-02
         373 -5.8835514E-02
         374  1.1031075E-03
         375 -1.5702293E-03
         376 -1.3718372E-03
         377 -3.8793840E-02
         378  4.9612369E-02
         379  3.1154137E-03
         380 -9.0284960E-04
         381 -4.4775158E-03
         382 -1.6173042E-02
         383  2.1396143E-02
         384  4.1475301E-03
         385 -3.5025573E-03
         386  3.3556635E-03
         387 -2.5367155E-04
         388  2.7581772E-03
         389  4.0769912E-03
         390 -3.3484187E-03
         391  3.0778125E-03
         392 -8.6797278E-05
         393 -1.6371517E-03
         394  3.7969762E-04
         395 -1.1448975E-03
         396 -4.9482277E-03
         397 -5.2957904E-02
         398  5.6841984E-02
         399  2.6814626E-03
         400 -2.0014192E-03
         401  3.7243634E-03
         402  4.0449254E-02
         403 -4.9591258E-02
         404  4.2357943E-03
         405 -1.9944210E-03
         406 -3.1194629E-03
         407  1.6809415E-02
         408 -2.1772547E-02
         409  1.2389988E-03
         410  2.1923443E-04
         411  1.0659576E-02
         412 -1.2282027E-03
         413  2.4217805E-03
         414  1.0696842E-03
         415  7.4324256E-04
         416  1.1016215E-03
         417  1.1633417E-04
         418  4.0627041E-04
         419  1.3222891E-03
         420  1.2801233E-03
         421  1.2581510E-03
         422 -7.1306684E-04
         423 -5.1938300E-04
         424  2.2179065E-03
         425  5.6132663E-04
         426  7.1398751E-04
         427  1.3008176E-03
         428  1.8136050E-04
         429  4.2653270E-03
         430  2.8527400E-04
         431  1.0827904E-02
         432  7.9699466E-03
         433 -1.1177433E-02
         434  4.5652992E-05
         435 -2.5614852E-04
         436 -6.1829312E-05
         437 -1.3721614E-05
         438  6.8969872E-05
         439  6.5464490E-05
         440  5.0654209E-05
         441 -1.2783246E-04
         442 -1.5904823E-04
         443 -3.1309878E-04
         444 -5.0789746E-05
         445  1.2226397E-04
         446  1.0699394E-04
         447 -2.7149106E-05
         448 -1.5186110E-04
         449 -7.0716116E-05
         450  1.5071550E-05
         451  1.4926850E-04
         452  6.9424583E-05
         453 -2.9016621E-04
         454 -1.1735919E-05
         455  9.1616326E-05
         456 -2.1910120E-05
         457  1.5919921E-05
         458  1.1589416E-04
         459  2.4789593E-05
         460 -1.8348932E-04
         461  2.0585785E-04
         462  3.8312133E-05
         463 -8.9322064E-05
         464  7.7442281E-05
         465 -2.5070977E-04
         466  4.7701269E-05
         467  4.7366568E-05
         468 -3.5677349E-05
         469  1.7230233E-05
         470  9.4948715E-05
         471 -3.5764364E-04
         472  1.2562833E-04
         473 -1.5578019E-04
         474 -1.4432460E-04
         475 -4.7042773E-05
         476  6.3022111E-05
         477 -1.7742907E-04
         478 -3.8320175E-04
         479 -8.4717940E-05
         480  9.7349439E-05
         481 -2.4133071E-06
         482  3.4927565E-04
         483 -1.3927366E-04
