 [Molden Format]
 [Atoms] Angs
C       1      6      1.29564447      1.64741374     -2.10197934
C       2      6      0.24464232      0.93178014     -1.56068021
C       3      6      0.48450534     -0.05445905     -0.60294636
C       4      6     -0.64624444     -0.80584939     -0.04859569
C       5      6     -0.52450800     -2.06740078      0.54022524
N       6      7     -1.56148334     -2.67506124      1.09853487
C       7      6     -2.73862157     -2.08556793      1.03608006
C       8      6     -2.90160552     -0.86670348      0.35727051
N       9      7     -4.13100609     -0.25274318      0.22079987
C      10      6     -5.36490074     -0.88127957      0.08740053
C      11      6     -5.66921262     -2.22147709     -0.10031274
C      12      6     -7.00021917     -2.57261668     -0.24418243
C      13      6     -8.01170303     -1.61740878     -0.21802452
C      14      6     -7.71246844     -0.27612628     -0.07686131
C      15      6     -6.38337333      0.09760786      0.06679527
C      16      6     -5.73302986      1.37628780      0.17947391
C      17      6     -6.20758812      2.68056437      0.22446502
C      18      6     -5.29517763      3.71149294      0.33936690
C      19      6     -3.92954636      3.45142394      0.41522428
C      20      6     -3.43568209      2.15972040      0.37287123
C      21      6     -4.34698512      1.12360828      0.24816727
N      22      7     -1.84768515     -0.23531628     -0.14534137
C      23      6      1.79009495     -0.29575633     -0.18525616
C      24      6      2.84595308      0.42112366     -0.73683071
N      25      7      4.15810722      0.16393383     -0.31549659
C      26      6      4.75353231     -1.08082376     -0.24627966
C      27      6      4.25263360     -2.32205746     -0.61309897
C      28      6      5.07784904     -3.42102841     -0.46671144
C      29      6      6.37584848     -3.29541392      0.02457447
C      30      6      6.88852353     -2.05989021      0.36731044
C      31      6      6.07792293     -0.94022025      0.22872788
C      32      6      6.28186395      0.46309569      0.45975404
C      33      6      7.35532451      1.20792633      0.93201066
C      34      6      7.20976292      2.57576660      1.05279638
C      35      6      6.00763125      3.19992722      0.72536622
C      36      6      4.92553525      2.48038013      0.25483290
C      37      6      5.07398728      1.10841606      0.10759360
C      38      6      2.59621473      1.39185384     -1.70431176
H      39      1      1.10337543      2.40373392     -2.84800683
H      40      1     -0.77162895      1.11830990     -1.86987335
H      41      1      0.41044411     -2.60617206      0.58093454
H      42      1     -3.54974495     -2.57158361      1.55772194
H      43      1     -4.90038138     -2.97662977     -0.15703784
H      44      1     -7.25542280     -3.61224301     -0.38656193
H      45      1     -9.03898535     -1.93093891     -0.32807249
H      46      1     -8.49128819      0.47089546     -0.08745808
H      47      1     -7.26728718      2.87894317      0.17273933
H      48      1     -5.64211964      4.73362833      0.37276477
H      49      1     -3.23761893      4.27542795      0.50801762
H      50      1     -2.37717845      1.96353511      0.42685961
H      51      1      1.99487234     -1.01638575      0.59153895
H      52      1      3.25554257     -2.42753366     -1.01408213
H      53      1      4.70929293     -4.39833520     -0.74293940
H      54      1      6.98911291     -4.17868652      0.12711244
H      55      1      7.90001617     -1.96087847      0.73198001
H      56      1      8.28165732      0.72257640      1.20088092
H      57      1      8.03326407      3.17357079      1.41505886
H      58      1      5.91857089      4.26995771      0.84457826
H      59      1      3.99332118      2.97165181      0.02022001
H      60      1      3.42182513      1.93079918     -2.14363401
 [GTO]
           1   0
s              4   1.000000
     34.91498770     -0.01198412
      6.01264979     -0.05472053
      0.48314207      0.58055871
      0.18413740      0.47700799
p              4   1.000000
      5.62746241      0.05713170
      1.45911697      0.28574555
      0.51438388      0.55178731
      0.20478509      0.26323149
s              7   1.000000
      0.38350848     -0.19625000
      0.04707223      0.94820788
      0.02222627      0.24901379
     34.91498770      0.00551862
      6.01264979      0.02519848
      0.48314207     -0.26734388
      0.18413740     -0.21965938
p              7   1.000000
      1.83062075     -0.01161260
      0.10124670      0.57066098
      0.03901771      0.59597061
      5.62746241     -0.02527962
      1.45911697     -0.12643660
      0.51438388     -0.24415467
      0.20478509     -0.11647458
 
           2   0
s              4   1.000000
     35.02443879     -0.01198412
      6.03149817     -0.05472052
      0.48465661      0.58055871
      0.18471463      0.47700799
p              4   1.000000
      5.64510331      0.05713170
      1.46369099      0.28574555
      0.51599637      0.55178731
      0.20542705      0.26323149
s              7   1.000000
      0.38350848     -0.19614766
      0.04707223      0.94771338
      0.02222627      0.24888392
     35.02443879      0.00550215
      6.03149817      0.02512328
      0.48465661     -0.26654600
      0.18471463     -0.21900381
p              7   1.000000
      1.83062075     -0.01160691
      0.10124670      0.57038141
      0.03901771      0.59567864
      5.64510331     -0.02520388
      1.46369099     -0.12605780
      0.51599637     -0.24342320
      0.20542705     -0.11612564
 
           3   0
s              4   1.000000
     35.09957213     -0.01198412
      6.04443676     -0.05472052
      0.48569628      0.58055871
      0.18511088      0.47700799
p              4   1.000000
      5.65721301      0.05713170
      1.46683086      0.28574555
      0.51710327      0.55178731
      0.20586772      0.26323149
s              7   1.000000
      0.38350848     -0.19607789
      0.04707223      0.94737631
      0.02222627      0.24879539
     35.09957213      0.00549090
      6.04443676      0.02507191
      0.48569628     -0.26600099
      0.18511088     -0.21855601
p              7   1.000000
      1.83062075     -0.01160303
      0.10124670      0.57019084
      0.03901771      0.59547963
      5.65721301     -0.02515215
      1.46683086     -0.12579905
      0.51710327     -0.24292354
      0.20586772     -0.11588727
 
           4   0
s              4   1.000000
     35.20137410     -0.01198412
      6.06196790     -0.05472052
      0.48710499      0.58055871
      0.18564777      0.47700799
p              4   1.000000
      5.67362106      0.05713170
      1.47108522      0.28574555
      0.51860306      0.55178731
      0.20646482      0.26323149
s              7   1.000000
      0.38350848     -0.19598400
      0.04707223      0.94692264
      0.02222627      0.24867627
     35.20137410      0.00547572
      6.06196790      0.02500263
      0.48710499     -0.26526600
      0.18564777     -0.21795212
p              7   1.000000
      1.83062075     -0.01159781
      0.10124670      0.56993435
      0.03901771      0.59521177
      5.67362106     -0.02508238
      1.47108522     -0.12545010
      0.51860306     -0.24224969
      0.20646482     -0.11556581
 
           5   0
s              4   1.000000
     35.12570862     -0.01198412
      6.04893768     -0.05472052
      0.48605795      0.58055871
      0.18524872      0.47700800
p              4   1.000000
      5.66142559      0.05713170
      1.46792312      0.28574555
      0.51748832      0.55178731
      0.20602102      0.26323149
s              7   1.000000
      0.38350848     -0.19605372
      0.04707223      0.94725950
      0.02222627      0.24876473
     35.12570862      0.00548699
      6.04893768      0.02505408
      0.48605795     -0.26581191
      0.18524872     -0.21840066
p              7   1.000000
      1.83062075     -0.01160169
      0.10124670      0.57012480
      0.03901771      0.59541065
      5.66142559     -0.02513420
      1.46792312     -0.12570928
      0.51748832     -0.24275019
      0.20602102     -0.11580457
 
           6   0
s              4   1.000000
     57.00511687     -0.01198412
      9.81675282     -0.05472052
      0.78881798      0.58055871
      0.30063806      0.47700799
p              4   1.000000
      6.71930577      0.05713170
      1.74221565      0.28574555
      0.61418493      0.55178731
      0.24451760      0.26323149
s              7   1.000000
      0.47894987     -0.18917537
      0.05878681      0.91402590
      0.02775758      0.24003709
     57.00511687      0.00425804
      9.81675282      0.01944259
      0.78881798     -0.20627659
      0.30063806     -0.16948429
p              7   1.000000
      2.28619608     -0.01169757
      0.12644335      0.57483670
      0.04872781      0.60033154
      6.71930577     -0.02638918
      1.74221565     -0.13198609
      0.61418493     -0.25487098
      0.24451760     -0.12158683
 
           7   0
s              4   1.000000
     35.13087685     -0.01198412
      6.04982769     -0.05472053
      0.48612947      0.58055871
      0.18527597      0.47700799
p              4   1.000000
      5.66225859      0.05713170
      1.46813910      0.28574555
      0.51756446      0.55178731
      0.20605133      0.26323149
s              7   1.000000
      0.38350848     -0.19604894
      0.04707223      0.94723644
      0.02222627      0.24875866
     35.13087685      0.00548622
      6.04982769      0.02505056
      0.48612947     -0.26577455
      0.18527597     -0.21836996
p              7   1.000000
      1.83062075     -0.01160142
      0.10124670      0.57011176
      0.03901771      0.59539702
      5.66225859     -0.02513065
      1.46813910     -0.12569155
      0.51756446     -0.24271594
      0.20605133     -0.11578823
 
           8   0
s              4   1.000000
     35.23541031     -0.01198412
      6.06782922     -0.05472053
      0.48757597      0.58055871
      0.18582727      0.47700800
p              4   1.000000
      5.67910688      0.05713170
      1.47250761      0.28574555
      0.51910450      0.55178731
      0.20666445      0.26323149
s              7   1.000000
      0.38350848     -0.19595277
      0.04707223      0.94677175
      0.02222627      0.24863664
     35.23541031      0.00547067
      6.06782922      0.02497955
      0.48757597     -0.26502115
      0.18582727     -0.21775094
p              7   1.000000
      1.83062075     -0.01159608
      0.10124670      0.56984904
      0.03901771      0.59512269
      5.67910688     -0.02505913
      1.47250761     -0.12533385
      0.51910450     -0.24202521
      0.20666445     -0.11545872
 
           9   0
s              4   1.000000
     61.41817269     -0.01198412
     10.57671755     -0.05472052
      0.84988438      0.58055871
      0.32391198      0.47700799
p              4   1.000000
      7.23948138      0.05713170
      1.87708942      0.28574555
      0.66173211      0.55178731
      0.26344695      0.26323149
s              7   1.000000
      0.47894987     -0.18771806
      0.05878681      0.90698468
      0.02775758      0.23818795
     61.41817269      0.00395581
     10.57671755      0.01806257
      0.84988438     -0.19163528
      0.32391198     -0.15745446
p              7   1.000000
      2.28619608     -0.01155987
      0.12644335      0.56806959
      0.04872781      0.59326429
      7.23948138     -0.02457013
      1.87708942     -0.12288809
      0.66173211     -0.23730235
      0.26344695     -0.11320567
 
          10   0
s              4   1.000000
     35.58679114     -0.01198412
      6.12833990     -0.05472052
      0.49243826      0.58055871
      0.18768041      0.47700799
p              4   1.000000
      5.73574108      0.05713170
      1.48719201      0.28574555
      0.52428121      0.55178731
      0.20872538      0.26323149
s              7   1.000000
      0.38350848     -0.19563498
      0.04707223      0.94523632
      0.02222627      0.24823341
     35.58679114      0.00541902
      6.12833990      0.02474372
      0.49243826     -0.26251906
      0.18768041     -0.21569513
p              7   1.000000
      1.83062075     -0.01157841
      0.10124670      0.56898098
      0.03901771      0.59421611
      5.73574108     -0.02482160
      1.48719201     -0.12414582
      0.52428121     -0.23973108
      0.20872538     -0.11436430
 
          11   0
s              4   1.000000
     34.94271067     -0.01198412
      6.01742392     -0.05472052
      0.48352569      0.58055871
      0.18428361      0.47700799
p              4   1.000000
      5.63193069      0.05713170
      1.46027553      0.28574555
      0.51479231      0.55178731
      0.20494769      0.26323149
s              7   1.000000
      0.38350848     -0.19622400
      0.04707223      0.94808224
      0.02222627      0.24898079
     34.94271067      0.00551443
      6.01742392      0.02517939
      0.48352569     -0.26714134
      0.18428361     -0.21949296
p              7   1.000000
      1.83062075     -0.01161116
      0.10124670      0.57058994
      0.03901771      0.59589645
      5.63193069     -0.02526039
      1.46027553     -0.12634044
      0.51479231     -0.24396899
      0.20494769     -0.11638601
 
          12   0
s              4   1.000000
     34.93440760     -0.01198412
      6.01599406     -0.05472052
      0.48341079      0.58055871
      0.18423982      0.47700799
p              4   1.000000
      5.63059243      0.05713170
      1.45992854      0.28574555
      0.51466999      0.55178731
      0.20489899      0.26323149
s              7   1.000000
      0.38350848     -0.19623178
      0.04707223      0.94811984
      0.02222627      0.24899066
     34.93440760      0.00551569
      6.01599406      0.02518510
      0.48341079     -0.26720197
      0.18423982     -0.21954278
p              7   1.000000
      1.83062075     -0.01161159
      0.10124670      0.57061120
      0.03901771      0.59591866
      5.63059243     -0.02526615
      1.45992854     -0.12636923
      0.51466999     -0.24402457
      0.20489899     -0.11641252
 
          13   0
s              4   1.000000
     34.92023852     -0.01198412
      6.01355403     -0.05472053
      0.48321473      0.58055871
      0.18416509      0.47700799
p              4   1.000000
      5.62830872      0.05713170
      1.45933641      0.28574555
      0.51446124      0.55178731
      0.20481589      0.26323149
s              7   1.000000
      0.38350848     -0.19624507
      0.04707223      0.94818407
      0.02222627      0.24900753
     34.92023852      0.00551782
      6.01355403      0.02519486
      0.48321473     -0.26730549
      0.18416509     -0.21962784
p              7   1.000000
      1.83062075     -0.01161233
      0.10124670      0.57064751
      0.03901771      0.59595657
      5.62830872     -0.02527597
      1.45933641     -0.12641837
      0.51446124     -0.24411948
      0.20481589     -0.11645779
 
          14   0
s              4   1.000000
     34.93930814     -0.01198412
      6.01683797     -0.05472052
      0.48347860      0.58055871
      0.18426566      0.47700799
p              4   1.000000
      5.63138228      0.05713170
      1.46013334      0.28574555
      0.51474219      0.55178730
      0.20492773      0.26323149
s              7   1.000000
      0.38350848     -0.19622719
      0.04707223      0.94809764
      0.02222627      0.24898483
     34.93930814      0.00551495
      6.01683797      0.02518173
      0.48347860     -0.26716618
      0.18426566     -0.21951338
p              7   1.000000
      1.83062075     -0.01161133
      0.10124670      0.57059865
      0.03901771      0.59590555
      5.63138228     -0.02526275
      1.46013334     -0.12635224
      0.51474219     -0.24399176
      0.20492773     -0.11639687
 
          15   0
s              4   1.000000
     35.41228846     -0.01198412
      6.09828910     -0.05472052
      0.49002355      0.58055871
      0.18676010      0.47700799
p              4   1.000000
      5.70761542      0.05713170
      1.47989945      0.28574555
      0.52171035      0.55178731
      0.20770188      0.26323149
s              7   1.000000
      0.38350848     -0.19579175
      0.04707223      0.94599377
      0.02222627      0.24843233
     35.41228846      0.00544455
      6.09828910      0.02486029
      0.49002355     -0.26375584
      0.18676010     -0.21671132
p              7   1.000000
      1.83062075     -0.01158713
      0.10124670      0.56940921
      0.03901771      0.59466335
      5.70761542     -0.02493902
      1.47989945     -0.12473308
      0.52171035     -0.24086509
      0.20770188     -0.11490529
 
          16   0
s              4   1.000000
     35.40891651     -0.01198412
      6.09770842     -0.05472052
      0.48997689      0.58055871
      0.18674232      0.47700799
p              4   1.000000
      5.70707194      0.05713170
      1.47975853      0.28574555
      0.52166067      0.55178731
      0.20768210      0.26323149
s              7   1.000000
      0.38350848     -0.19579480
      0.04707223      0.94600850
      0.02222627      0.24843618
     35.40891651      0.00544505
      6.09770842      0.02486255
      0.48997689     -0.26377985
      0.18674232     -0.21673105
p              7   1.000000
      1.83062075     -0.01158730
      0.10124670      0.56941753
      0.03901771      0.59467205
      5.70707194     -0.02494130
      1.47975853     -0.12474448
      0.52166067     -0.24088711
      0.20768210     -0.11491579
 
          17   0
s              4   1.000000
     34.93920372     -0.01198412
      6.01681999     -0.05472052
      0.48347716      0.58055871
      0.18426511      0.47700799
p              4   1.000000
      5.63136545      0.05713170
      1.46012897      0.28574555
      0.51474065      0.55178731
      0.20492712      0.26323149
s              7   1.000000
      0.38350848     -0.19622728
      0.04707223      0.94809812
      0.02222627      0.24898496
     34.93920372      0.00551496
      6.01681999      0.02518180
      0.48347716     -0.26716694
      0.18426511     -0.21951400
p              7   1.000000
      1.83062075     -0.01161134
      0.10124670      0.57059892
      0.03901771      0.59590584
      5.63136545     -0.02526282
      1.46012897     -0.12635260
      0.51474065     -0.24399246
      0.20492712     -0.11639720
 
          18   0
s              4   1.000000
     34.92140234     -0.01198412
      6.01375445     -0.05472052
      0.48323083      0.58055871
      0.18417123      0.47700799
p              4   1.000000
      5.62849629      0.05713170
      1.45938504      0.28574555
      0.51447839      0.55178731
      0.20482271      0.26323149
s              7   1.000000
      0.38350848     -0.19624398
      0.04707223      0.94817879
      0.02222627      0.24900614
     34.92140234      0.00551765
      6.01375445      0.02519406
      0.48323083     -0.26729699
      0.18417123     -0.21962085
p              7   1.000000
      1.83062075     -0.01161227
      0.10124670      0.57064453
      0.03901771      0.59595345
      5.62849629     -0.02527517
      1.45938504     -0.12641434
      0.51447839     -0.24411168
      0.20482271     -0.11645408
 
          19   0
s              4   1.000000
     34.93677537     -0.01198412
      6.01640181     -0.05472052
      0.48344356      0.58055871
      0.18425231      0.47700799
p              4   1.000000
      5.63097406      0.05713170
      1.46002749      0.28574555
      0.51470487      0.55178731
      0.20491288      0.26323149
s              7   1.000000
      0.38350848     -0.19622956
      0.04707223      0.94810912
      0.02222627      0.24898786
     34.93677537      0.00551533
      6.01640181      0.02518347
      0.48344356     -0.26718468
      0.18425231     -0.21952857
p              7   1.000000
      1.83062075     -0.01161146
      0.10124670      0.57060514
      0.03901771      0.59591231
      5.63097406     -0.02526451
      1.46002749     -0.12636102
      0.51470487     -0.24400872
      0.20491288     -0.11640496
 
          20   0
s              4   1.000000
     34.94738189     -0.01198412
      6.01822834     -0.05472053
      0.48359033      0.58055871
      0.18430824      0.47700800
p              4   1.000000
      5.63268358      0.05713170
      1.46047074      0.28574555
      0.51486113      0.55178731
      0.20497509      0.26323149
s              7   1.000000
      0.38350848     -0.19621962
      0.04707223      0.94806110
      0.02222627      0.24897523
     34.94738189      0.00551373
      6.01822834      0.02517618
      0.48359033     -0.26710724
      0.18430824     -0.21946495
p              7   1.000000
      1.83062075     -0.01161091
      0.10124670      0.57057799
      0.03901771      0.59588395
      5.63268358     -0.02525716
      1.46047074     -0.12632426
      0.51486113     -0.24393773
      0.20497509     -0.11637109
 
          21   0
s              4   1.000000
     35.60837342     -0.01198412
      6.13205655     -0.05472053
      0.49273691      0.58055871
      0.18779423      0.47700800
p              4   1.000000
      5.73921963      0.05713170
      1.48809395      0.28574555
      0.52459917      0.55178731
      0.20885197      0.26323149
s              7   1.000000
      0.38350848     -0.19561573
      0.04707223      0.94514333
      0.02222627      0.24820899
     35.60837342      0.00541588
      6.13205655      0.02472937
      0.49273691     -0.26236688
      0.18779423     -0.21557010
p              7   1.000000
      1.83062075     -0.01157734
      0.10124670      0.56892842
      0.03901771      0.59416121
      5.73921963     -0.02480715
      1.48809395     -0.12407356
      0.52459917     -0.23959155
      0.20885197     -0.11429773
 
          22   0
s              4   1.000000
     57.43598359     -0.01198412
      9.89095164     -0.05472053
      0.79478017      0.58055871
      0.30291039      0.47700800
p              4   1.000000
      6.77009288      0.05713170
      1.75538399      0.28574555
      0.61882718      0.55178731
      0.24636576      0.26323149
s              7   1.000000
      0.47894987     -0.18901950
      0.05878681      0.91327276
      0.02775758      0.23983928
     57.43598359      0.00422664
      9.89095164      0.01929920
      0.79478017     -0.20475530
      0.30291039     -0.16823434
p              7   1.000000
      2.28619608     -0.01168288
      0.12644335      0.57411464
      0.04872781      0.59957747
      6.77009288     -0.02620010
      1.75538399     -0.13104043
      0.61882718     -0.25304486
      0.24636576     -0.12071567
 
          23   0
s              4   1.000000
     35.09881431     -0.01198412
      6.04430626     -0.05472052
      0.48568580      0.58055871
      0.18510688      0.47700799
p              4   1.000000
      5.65709087      0.05713170
      1.46679919      0.28574555
      0.51709210      0.55178731
      0.20586328      0.26323149
s              7   1.000000
      0.38350848     -0.19607859
      0.04707223      0.94737971
      0.02222627      0.24879630
     35.09881431      0.00549101
      6.04430626      0.02507242
      0.48568580     -0.26600647
      0.18510688     -0.21856052
p              7   1.000000
      1.83062075     -0.01160307
      0.10124670      0.57019276
      0.03901771      0.59548161
      5.65709087     -0.02515267
      1.46679919     -0.12580166
      0.51709210     -0.24292857
      0.20586328     -0.11588967
 
          24   0
s              4   1.000000
     35.12774577     -0.01198412
      6.04928849     -0.05472052
      0.48608614      0.58055871
      0.18525946      0.47700799
p              4   1.000000
      5.66175393      0.05713170
      1.46800825      0.28574555
      0.51751834      0.55178731
      0.20603297      0.26323149
s              7   1.000000
      0.38350848     -0.19605183
      0.04707223      0.94725041
      0.02222627      0.24876234
     35.12774577      0.00548669
      6.04928849      0.02505270
      0.48608614     -0.26579718
      0.18525946     -0.21838856
p              7   1.000000
      1.83062075     -0.01160158
      0.10124670      0.57011965
      0.03901771      0.59540527
      5.66175393     -0.02513280
      1.46800825     -0.12570229
      0.51751834     -0.24273669
      0.20603297     -0.11579813
 
          25   0
s              4   1.000000
     61.42424524     -0.01198412
     10.57776330     -0.05472052
      0.84996841      0.58055871
      0.32394400      0.47700799
p              4   1.000000
      7.24019716      0.05713170
      1.87727501      0.28574555
      0.66179753      0.55178731
      0.26347300      0.26323149
s              7   1.000000
      0.47894987     -0.18771625
      0.05878681      0.90697594
      0.02775758      0.23818566
     61.42424524      0.00395542
     10.57776330      0.01806080
      0.84996841     -0.19161648
      0.32394400     -0.15743902
p              7   1.000000
      2.28619608     -0.01155970
      0.12644335      0.56806116
      0.04872781      0.59325549
      7.24019716     -0.02456780
      1.87727501     -0.12287642
      0.66179753     -0.23727980
      0.26347300     -0.11319491
 
          26   0
s              4   1.000000
     35.62286189     -0.01198412
      6.13455158     -0.05472053
      0.49293740      0.58055871
      0.18787064      0.47700800
p              4   1.000000
      5.74155483      0.05713170
      1.48869943      0.28574555
      0.52481262      0.55178731
      0.20893695      0.26323149
s              7   1.000000
      0.38350848     -0.19560283
      0.04707223      0.94508098
      0.02222627      0.24819261
     35.62286189      0.00541377
      6.13455158      0.02471975
      0.49293740     -0.26226482
      0.18787064     -0.21548624
p              7   1.000000
      1.83062075     -0.01157663
      0.10124670      0.56889316
      0.03901771      0.59412440
      5.74155483     -0.02479746
      1.48869943     -0.12402510
      0.52481262     -0.23949796
      0.20893695     -0.11425309
 
          27   0
s              4   1.000000
     34.94203984     -0.01198412
      6.01730839     -0.05472053
      0.48351640      0.58055871
      0.18428007      0.47700799
p              4   1.000000
      5.63182257      0.05713170
      1.46024749      0.28574555
      0.51478243      0.55178731
      0.20494376      0.26323149
s              7   1.000000
      0.38350848     -0.19622463
      0.04707223      0.94808528
      0.02222627      0.24898159
     34.94203984      0.00551454
      6.01730839      0.02517985
      0.48351640     -0.26714623
      0.18428007     -0.21949699
p              7   1.000000
      1.83062075     -0.01161119
      0.10124670      0.57059166
      0.03901771      0.59589823
      5.63182257     -0.02526086
      1.46024749     -0.12634277
      0.51478243     -0.24397348
      0.20494376     -0.11638815
 
          28   0
s              4   1.000000
     34.93356255     -0.01198412
      6.01584853     -0.05472052
      0.48339910      0.58055871
      0.18423536      0.47700800
p              4   1.000000
      5.63045623      0.05713170
      1.45989322      0.28574555
      0.51465754      0.55178731
      0.20489403      0.26323149
s              7   1.000000
      0.38350848     -0.19623257
      0.04707223      0.94812367
      0.02222627      0.24899166
     34.93356255      0.00551581
      6.01584853      0.02518569
      0.48339910     -0.26720814
      0.18423536     -0.21954785
p              7   1.000000
      1.83062075     -0.01161163
      0.10124670      0.57061337
      0.03901771      0.59592089
      5.63045623     -0.02526673
      1.45989322     -0.12637216
      0.51465754     -0.24403023
      0.20489403     -0.11641522
 
          29   0
s              4   1.000000
     34.92066927     -0.01198412
      6.01362820     -0.05472052
      0.48322068      0.58055871
      0.18416736      0.47700799
p              4   1.000000
      5.62837814      0.05713170
      1.45935441      0.28574555
      0.51446759      0.55178731
      0.20481841      0.26323149
s              7   1.000000
      0.38350848     -0.19624467
      0.04707223      0.94818211
      0.02222627      0.24900702
     34.92066927      0.00551776
      6.01362820      0.02519457
      0.48322068     -0.26730234
      0.18416736     -0.21962525
p              7   1.000000
      1.83062075     -0.01161230
      0.10124670      0.57064641
      0.03901771      0.59595539
      5.62837814     -0.02527567
      1.45935441     -0.12641688
      0.51446759     -0.24411659
      0.20481841     -0.11645642
 
          30   0
s              4   1.000000
     34.93637787     -0.01198412
      6.01633336     -0.05472052
      0.48343806      0.58055871
      0.18425021      0.47700799
p              4   1.000000
      5.63090999      0.05713170
      1.46001088      0.28574555
      0.51469901      0.55178731
      0.20491055      0.26323149
s              7   1.000000
      0.38350848     -0.19622993
      0.04707223      0.94811091
      0.02222627      0.24898832
     34.93637787      0.00551539
      6.01633336      0.02518375
      0.48343806     -0.26718758
      0.18425021     -0.21953096
p              7   1.000000
      1.83062075     -0.01161148
      0.10124670      0.57060616
      0.03901771      0.59591336
      5.63090999     -0.02526478
      1.46001088     -0.12636240
      0.51469901     -0.24401138
      0.20491055     -0.11640623
 
          31   0
s              4   1.000000
     35.41440554     -0.01198412
      6.09865368     -0.05472052
      0.49005285      0.58055871
      0.18677127      0.47700799
p              4   1.000000
      5.70795664      0.05713170
      1.47998792      0.28574555
      0.52174154      0.55178731
      0.20771430      0.26323149
s              7   1.000000
      0.38350848     -0.19578983
      0.04707223      0.94598453
      0.02222627      0.24842989
     35.41440554      0.00544424
      6.09865368      0.02485887
      0.49005285     -0.26374077
      0.18677127     -0.21669894
p              7   1.000000
      1.83062075     -0.01158702
      0.10124670      0.56940397
      0.03901771      0.59465789
      5.70795664     -0.02493759
      1.47998792     -0.12472592
      0.52174154     -0.24085127
      0.20771430     -0.11489869
 
          32   0
s              4   1.000000
     35.41492326     -0.01198412
      6.09874283     -0.05472052
      0.49006001      0.58055871
      0.18677400      0.47700799
p              4   1.000000
      5.70804009      0.05713170
      1.48000956      0.28574555
      0.52174917      0.55178731
      0.20771733      0.26323149
s              7   1.000000
      0.38350848     -0.19578936
      0.04707223      0.94598226
      0.02222627      0.24842931
     35.41492326      0.00544416
      6.09874283      0.02485852
      0.49006001     -0.26373708
      0.18677400     -0.21669591
p              7   1.000000
      1.83062075     -0.01158700
      0.10124670      0.56940270
      0.03901771      0.59465656
      5.70804009     -0.02493724
      1.48000956     -0.12472417
      0.52174917     -0.24084789
      0.20771733     -0.11489708
 
          33   0
s              4   1.000000
     34.93621795     -0.01198412
      6.01630582     -0.05472053
      0.48343584      0.58055871
      0.18424937      0.47700799
p              4   1.000000
      5.63088422      0.05713170
      1.46000420      0.28574555
      0.51469666      0.55178731
      0.20490961      0.26323149
s              7   1.000000
      0.38350848     -0.19623008
      0.04707223      0.94811165
      0.02222627      0.24898852
     34.93621795      0.00551541
      6.01630582      0.02518386
      0.48343584     -0.26718875
      0.18424937     -0.21953192
p              7   1.000000
      1.83062075     -0.01161149
      0.10124670      0.57060657
      0.03901771      0.59591381
      5.63088422     -0.02526489
      1.46000420     -0.12636295
      0.51469666     -0.24401245
      0.20490961     -0.11640674
 
          34   0
s              4   1.000000
     34.92070207     -0.01198412
      6.01363385     -0.05472053
      0.48322114      0.58055871
      0.18416754      0.47700799
p              4   1.000000
      5.62838343      0.05713170
      1.45935578      0.28574555
      0.51446807      0.55178731
      0.20481860      0.26323149
s              7   1.000000
      0.38350848     -0.19624464
      0.04707223      0.94818196
      0.02222627      0.24900697
     34.92070207      0.00551775
      6.01363385      0.02519454
      0.48322114     -0.26730210
      0.18416754     -0.21962505
p              7   1.000000
      1.83062075     -0.01161230
      0.10124670      0.57064632
      0.03901771      0.59595531
      5.62838343     -0.02527565
      1.45935578     -0.12641677
      0.51446807     -0.24411637
      0.20481860     -0.11645632
 
          35   0
s              4   1.000000
     34.93392736     -0.01198412
      6.01591136     -0.05472052
      0.48340415      0.58055871
      0.18423729      0.47700800
p              4   1.000000
      5.63051503      0.05713170
      1.45990847      0.28574555
      0.51466291      0.55178731
      0.20489617      0.26323149
s              7   1.000000
      0.38350848     -0.19623223
      0.04707223      0.94812202
      0.02222627      0.24899125
     34.93392736      0.00551576
      6.01591136      0.02518544
      0.48340415     -0.26720547
      0.18423729     -0.21954566
p              7   1.000000
      1.83062075     -0.01161161
      0.10124670      0.57061243
      0.03901771      0.59591991
      5.63051503     -0.02526648
      1.45990847     -0.12637089
      0.51466291     -0.24402779
      0.20489617     -0.11641406
 
          36   0
s              4   1.000000
     34.94086098     -0.01198412
      6.01710538     -0.05472052
      0.48350009      0.58055871
      0.18427385      0.47700799
p              4   1.000000
      5.63163256      0.05713170
      1.46019823      0.28574555
      0.51476506      0.55178731
      0.20493684      0.26323149
s              7   1.000000
      0.38350848     -0.19622573
      0.04707223      0.94809061
      0.02222627      0.24898298
     34.94086098      0.00551471
      6.01710538      0.02518066
      0.48350009     -0.26715484
      0.18427385     -0.21950406
p              7   1.000000
      1.83062075     -0.01161125
      0.10124670      0.57059468
      0.03901771      0.59590139
      5.63163256     -0.02526167
      1.46019823     -0.12634685
      0.51476506     -0.24398137
      0.20493684     -0.11639191
 
          37   0
s              4   1.000000
     35.62080731     -0.01198412
      6.13419777     -0.05472052
      0.49290896      0.58055871
      0.18785981      0.47700799
p              4   1.000000
      5.74122368      0.05713170
      1.48861357      0.28574555
      0.52478235      0.55178731
      0.20892490      0.26323149
s              7   1.000000
      0.38350848     -0.19560466
      0.04707223      0.94508982
      0.02222627      0.24819495
     35.62080731      0.00541407
      6.13419777      0.02472112
      0.49290896     -0.26227929
      0.18785981     -0.21549813
p              7   1.000000
      1.83062075     -0.01157673
      0.10124670      0.56889816
      0.03901771      0.59412962
      5.74122368     -0.02479884
      1.48861357     -0.12403197
      0.52478235     -0.23951123
      0.20892490     -0.11425942
 
          38   0
s              4   1.000000
     35.00706685     -0.01198412
      6.02850658     -0.05472052
      0.48441623      0.58055871
      0.18462301      0.47700799
p              4   1.000000
      5.64230337      0.05713170
      1.46296501      0.28574555
      0.51574044      0.55178731
      0.20532516      0.26323149
s              7   1.000000
      0.38350848     -0.19616384
      0.04707223      0.94779159
      0.02222627      0.24890447
     35.00706685      0.00550475
      6.02850658      0.02513518
      0.48441623     -0.26667232
      0.18462301     -0.21910761
p              7   1.000000
      1.83062075     -0.01160781
      0.10124670      0.57042562
      0.03901771      0.59572484
      5.64230337     -0.02521587
      1.46296501     -0.12611778
      0.51574044     -0.24353901
      0.20532516     -0.11618088
 
          39   0
s              4   1.000000
      8.30901260      0.05675242
      1.52044694      0.26014135
      0.42239681      0.53284611
      0.14018970      0.29162544
s              7   1.000000
      0.92936822     -0.06732834
      0.05643440      0.66945456
      0.02166600      0.51461400
      8.30901260     -0.02902254
      1.52044694     -0.13303331
      0.42239681     -0.27249140
      0.14018970     -0.14913391
p              4   1.000000
      0.64737396      0.05713170
      0.16785440      0.28574555
      0.05917387      0.55178731
      0.02355814      0.26323150
 
          40   0
s              4   1.000000
      8.30987705      0.05675242
      1.52060512      0.26014135
      0.42244075      0.53284611
      0.14020429      0.29162544
s              7   1.000000
      0.92936822     -0.06732723
      0.05643440      0.66944351
      0.02166600      0.51460550
      8.30987705     -0.02902023
      1.52060512     -0.13302271
      0.42244075     -0.27246969
      0.14020429     -0.14912203
p              4   1.000000
      0.64737396      0.05713170
      0.16785440      0.28574555
      0.05917387      0.55178731
      0.02355814      0.26323150
 
          41   0
s              4   1.000000
      8.30918251      0.05675242
      1.52047803      0.26014135
      0.42240544      0.53284611
      0.14019257      0.29162544
s              7   1.000000
      0.92936822     -0.06732812
      0.05643440      0.66945239
      0.02166600      0.51461233
      8.30918251     -0.02902208
      1.52047803     -0.13303122
      0.42240544     -0.27248713
      0.14019257     -0.14913157
p              4   1.000000
      0.64737396      0.05713170
      0.16785440      0.28574555
      0.05917387      0.55178731
      0.02355814      0.26323150
 
          42   0
s              4   1.000000
      8.30929391      0.05675242
      1.52049841      0.26014135
      0.42241111      0.53284611
      0.14019445      0.29162544
s              7   1.000000
      0.92936822     -0.06732798
      0.05643440      0.66945096
      0.02166600      0.51461124
      8.30929391     -0.02902178
      1.52049841     -0.13302986
      0.42241111     -0.27248433
      0.14019445     -0.14913004
p              4   1.000000
      0.64737396      0.05713170
      0.16785440      0.28574555
      0.05917387      0.55178731
      0.02355814      0.26323150
 
          43   0
s              4   1.000000
      8.30935830      0.05675242
      1.52051019      0.26014135
      0.42241438      0.53284611
      0.14019554      0.29162544
s              7   1.000000
      0.92936822     -0.06732790
      0.05643440      0.66945014
      0.02166600      0.51461060
      8.30935830     -0.02902161
      1.52051019     -0.13302907
      0.42241438     -0.27248271
      0.14019554     -0.14912916
p              4   1.000000
      0.64737396      0.05713170
      0.16785440      0.28574555
      0.05917387      0.55178731
      0.02355814      0.26323150
 
          44   0
s              4   1.000000
      8.30899745      0.05675242
      1.52044416      0.26014135
      0.42239604      0.53284611
      0.14018945      0.29162544
s              7   1.000000
      0.92936822     -0.06732836
      0.05643440      0.66945475
      0.02166600      0.51461415
      8.30899745     -0.02902258
      1.52044416     -0.13303349
      0.42239604     -0.27249178
      0.14018945     -0.14913412
p              4   1.000000
      0.64737396      0.05713170
      0.16785440      0.28574555
      0.05917387      0.55178731
      0.02355814      0.26323150
 
          45   0
s              4   1.000000
      8.30891957      0.05675242
      1.52042991      0.26014135
      0.42239208      0.53284611
      0.14018813      0.29162544
s              7   1.000000
      0.92936822     -0.06732846
      0.05643440      0.66945575
      0.02166600      0.51461492
      8.30891957     -0.02902279
      1.52042991     -0.13303445
      0.42239208     -0.27249373
      0.14018813     -0.14913519
p              4   1.000000
      0.64737396      0.05713170
      0.16785440      0.28574555
      0.05917387      0.55178731
      0.02355814      0.26323150
 
          46   0
s              4   1.000000
      8.30895231      0.05675242
      1.52043590      0.26014135
      0.42239374      0.53284611
      0.14018869      0.29162544
s              7   1.000000
      0.92936822     -0.06732842
      0.05643440      0.66945533
      0.02166600      0.51461460
      8.30895231     -0.02902270
      1.52043590     -0.13303405
      0.42239374     -0.27249291
      0.14018869     -0.14913474
p              4   1.000000
      0.64737396      0.05713170
      0.16785440      0.28574555
      0.05917387      0.55178731
      0.02355814      0.26323150
 
          47   0
s              4   1.000000
      8.30892086      0.05675242
      1.52043015      0.26014135
      0.42239214      0.53284611
      0.14018816      0.29162544
s              7   1.000000
      0.92936822     -0.06732846
      0.05643440      0.66945573
      0.02166600      0.51461489
      8.30892086     -0.02902278
      1.52043015     -0.13303443
      0.42239214     -0.27249370
      0.14018816     -0.14913517
p              4   1.000000
      0.64737396      0.05713170
      0.16785440      0.28574555
      0.05917387      0.55178731
      0.02355814      0.26323150
 
          48   0
s              4   1.000000
      8.30891282      0.05675242
      1.52042868      0.26014135
      0.42239173      0.53284611
      0.14018802      0.29162544
s              7   1.000000
      0.92936822     -0.06732847
      0.05643440      0.66945584
      0.02166600      0.51461497
      8.30891282     -0.02902280
      1.52042868     -0.13303453
      0.42239173     -0.27249390
      0.14018802     -0.14913528
p              4   1.000000
      0.64737396      0.05713170
      0.16785440      0.28574555
      0.05917387      0.55178731
      0.02355814      0.26323150
 
          49   0
s              4   1.000000
      8.30900533      0.05675242
      1.52044560      0.26014135
      0.42239644      0.53284611
      0.14018958      0.29162544
s              7   1.000000
      0.92936822     -0.06732835
      0.05643440      0.66945466
      0.02166600      0.51461407
      8.30900533     -0.02902256
      1.52044560     -0.13303340
      0.42239644     -0.27249158
      0.14018958     -0.14913401
p              4   1.000000
      0.64737396      0.05713170
      0.16785440      0.28574555
      0.05917387      0.55178731
      0.02355814      0.26323150
 
          50   0
s              4   1.000000
      8.30999047      0.05675242
      1.52062587      0.26014135
      0.42244652      0.53284611
      0.14020620      0.29162544
s              7   1.000000
      0.92936822     -0.06732708
      0.05643440      0.66944205
      0.02166600      0.51460438
      8.30999047     -0.02901992
      1.52062587     -0.13302132
      0.42244652     -0.27246684
      0.14020620     -0.14912047
p              4   1.000000
      0.64737396      0.05713170
      0.16785440      0.28574555
      0.05917387      0.55178731
      0.02355814      0.26323150
 
          51   0
s              4   1.000000
      8.31007695      0.05675242
      1.52064170      0.26014135
      0.42245091      0.53284611
      0.14020766      0.29162544
s              7   1.000000
      0.92936822     -0.06732697
      0.05643440      0.66944095
      0.02166600      0.51460354
      8.31007695     -0.02901969
      1.52064170     -0.13302026
      0.42245091     -0.27246467
      0.14020766     -0.14911928
p              4   1.000000
      0.64737396      0.05713170
      0.16785440      0.28574555
      0.05917387      0.55178731
      0.02355814      0.26323150
 
          52   0
s              4   1.000000
      8.30925851      0.05675242
      1.52049193      0.26014135
      0.42240931      0.53284611
      0.14019385      0.29162544
s              7   1.000000
      0.92936822     -0.06732802
      0.05643440      0.66945142
      0.02166600      0.51461159
      8.30925851     -0.02902188
      1.52049193     -0.13303029
      0.42240931     -0.27248522
      0.14019385     -0.14913053
p              4   1.000000
      0.64737396      0.05713170
      0.16785440      0.28574555
      0.05917387      0.55178731
      0.02355814      0.26323150
 
          53   0
s              4   1.000000
      8.30895197      0.05675242
      1.52043584      0.26014135
      0.42239373      0.53284611
      0.14018868      0.29162544
s              7   1.000000
      0.92936822     -0.06732842
      0.05643440      0.66945533
      0.02166600      0.51461460
      8.30895197     -0.02902270
      1.52043584     -0.13303405
      0.42239373     -0.27249292
      0.14018868     -0.14913474
p              4   1.000000
      0.64737396      0.05713170
      0.16785440      0.28574555
      0.05917387      0.55178731
      0.02355814      0.26323150
 
          54   0
s              4   1.000000
      8.30889194      0.05675242
      1.52042485      0.26014135
      0.42239067      0.53284611
      0.14018767      0.29162544
s              7   1.000000
      0.92936822     -0.06732850
      0.05643440      0.66945611
      0.02166600      0.51461519
      8.30889194     -0.02902286
      1.52042485     -0.13303479
      0.42239067     -0.27249443
      0.14018767     -0.14913557
p              4   1.000000
      0.64737396      0.05713170
      0.16785440      0.28574555
      0.05917387      0.55178731
      0.02355814      0.26323150
 
          55   0
s              4   1.000000
      8.30889331      0.05675242
      1.52042511      0.26014135
      0.42239074      0.53284611
      0.14018769      0.29162544
s              7   1.000000
      0.92936822     -0.06732849
      0.05643440      0.66945609
      0.02166600      0.51461517
      8.30889331     -0.02902286
      1.52042511     -0.13303477
      0.42239074     -0.27249439
      0.14018769     -0.14913555
p              4   1.000000
      0.64737396      0.05713170
      0.16785440      0.28574555
      0.05917387      0.55178731
      0.02355814      0.26323150
 
          56   0
s              4   1.000000
      8.30888714      0.05675242
      1.52042398      0.26014135
      0.42239043      0.53284611
      0.14018759      0.29162544
s              7   1.000000
      0.92936822     -0.06732850
      0.05643440      0.66945617
      0.02166600      0.51461524
      8.30888714     -0.02902287
      1.52042398     -0.13303485
      0.42239043     -0.27249455
      0.14018759     -0.14913563
p              4   1.000000
      0.64737396      0.05713170
      0.16785440      0.28574555
      0.05917387      0.55178731
      0.02355814      0.26323150
 
          57   0
s              4   1.000000
      8.30889203      0.05675242
      1.52042487      0.26014135
      0.42239068      0.53284611
      0.14018767      0.29162544
s              7   1.000000
      0.92936822     -0.06732850
      0.05643440      0.66945610
      0.02166600      0.51461519
      8.30889203     -0.02902286
      1.52042487     -0.13303479
      0.42239068     -0.27249443
      0.14018767     -0.14913557
p              4   1.000000
      0.64737396      0.05713170
      0.16785440      0.28574555
      0.05917387      0.55178731
      0.02355814      0.26323150
 
          58   0
s              4   1.000000
      8.30895568      0.05675242
      1.52043652      0.26014135
      0.42239391      0.53284611
      0.14018874      0.29162544
s              7   1.000000
      0.92936822     -0.06732841
      0.05643440      0.66945529
      0.02166600      0.51461455
      8.30895568     -0.02902269
      1.52043652     -0.13303401
      0.42239391     -0.27249283
      0.14018874     -0.14913469
p              4   1.000000
      0.64737396      0.05713170
      0.16785440      0.28574555
      0.05917387      0.55178731
      0.02355814      0.26323150
 
          59   0
s              4   1.000000
      8.30923688      0.05675242
      1.52048798      0.26014135
      0.42240821      0.53284611
      0.14019349      0.29162544
s              7   1.000000
      0.92936822     -0.06732805
      0.05643440      0.66945169
      0.02166600      0.51461179
      8.30923688     -0.02902194
      1.52048798     -0.13303056
      0.42240821     -0.27248576
      0.14019349     -0.14913083
p              4   1.000000
      0.64737396      0.05713170
      0.16785440      0.28574555
      0.05917387      0.55178731
      0.02355814      0.26323150
 
          60   0
s              4   1.000000
      8.30942419      0.05675242
      1.52052225      0.26014135
      0.42241773      0.53284611
      0.14019665      0.29162544
s              7   1.000000
      0.92936822     -0.06732781
      0.05643440      0.66944930
      0.02166600      0.51460995
      8.30942419     -0.02902144
      1.52052225     -0.13302826
      0.42241773     -0.27248106
      0.14019665     -0.14912825
p              4   1.000000
      0.64737396      0.05713170
      0.16785440      0.28574555
      0.05917387      0.55178731
      0.02355814      0.26323150
 
 [MO]
 Sym= Hole
 Ene= -0.9244107    
 Spin= Alpha
 Occup= 0
           1 -2.1358794E-03
           2  5.0504985E-03
           3 -1.0113575E-02
           4 -1.4499413E-02
           5  1.8550828E-04
           6  1.7246190E-03
           7  1.6996097E-03
           8 -2.6580205E-03
           9 -2.5822322E-03
          10 -4.2336723E-03
          11  5.6268491E-02
          12  6.6335075E-02
          13  5.2855788E-03
          14  1.7330961E-03
          15  3.8971205E-04
          16  1.6204197E-03
          17 -2.3482561E-02
          18  3.1549659E-02
          19  6.1325300E-02
          20  2.8477190E-02
          21  1.3751067E-02
          22 -1.9219500E-03
          23 -1.4651474E-03
          24  2.9500679E-03
          25  1.1187177E-02
          26 -1.8839469E-02
          27 -0.1335136    
          28 -0.1425802    
          29  9.6513368E-03
          30 -8.3837826E-03
          31  6.5324856E-03
          32  1.1877411E-02
          33  9.4277842E-04
          34 -5.4894477E-02
          35 -8.4713459E-02
          36 -0.3360351    
          37  1.1950854E-02
          38 -8.4895408E-03
          39 -6.5932907E-03
          40  2.1037323E-02
          41  7.6885916E-02
          42  1.9436570E-02
          43 -0.1295638    
          44  7.7232197E-02
          45 -2.9477954E-02
          46 -1.8454097E-03
          47  5.2975160E-03
          48 -4.4709191E-04
          49  1.6873345E-02
          50  4.5173291E-02
          51  0.2563168    
          52  0.2282672    
          53  1.6975780E-03
          54  1.7586777E-02
          55 -2.5026606E-02
          56 -4.8394781E-03
          57  1.4700743E-02
          58  2.9889634E-05
          59  1.3323919E-02
          60  0.1794360    
          61  1.4386482E-02
          62  1.4322751E-02
          63  9.7565027E-03
          64 -2.0137167E-02
          65 -1.1802391E-02
          66  2.9386051E-02
          67  1.5989464E-02
          68 -0.4630643    
          69  7.5180125E-03
          70 -8.1566572E-03
          71 -7.0998538E-03
          72  3.5939455E-02
          73  4.1561835E-03
          74  7.9032527E-03
          75  4.2978609E-03
          76  2.5300000E-02
          77 -8.2481164E-04
          78 -1.9830457E-04
          79 -3.3991809E-03
          80 -2.0189760E-02
          81  5.3460407E-03
          82 -8.2806507E-03
          83 -4.5978047E-02
          84  0.2341797    
          85 -2.3677945E-03
          86  2.6605034E-03
          87  1.9760760E-03
          88 -1.0269451E-02
          89 -9.4844442E-04
          90 -6.1022071E-03
          91 -4.6686819E-03
          92  5.0523750E-02
          93  1.4435569E-03
          94  2.9550623E-03
          95 -3.3916903E-04
          96  4.3987799E-03
          97  1.4202229E-03
          98  1.7920207E-02
          99  1.8086329E-02
         100 -0.2085133    
         101 -1.7741960E-04
         102 -7.8694495E-05
         103 -9.3689410E-04
         104  1.0499372E-02
         105  5.6003750E-04
         106  9.9632414E-03
         107  8.1503075E-03
         108 -0.1059544    
         109  1.4911083E-04
         110 -5.0632114E-04
         111 -1.5644956E-03
         112  1.1277509E-02
         113  3.3438762E-03
         114 -1.4633174E-02
         115 -1.3248893E-02
         116  0.1942289    
         117 -1.4418516E-03
         118 -5.9836288E-04
         119 -1.6251219E-03
         120 -9.4323074E-03
         121 -2.1953089E-03
         122 -8.5714711E-03
         123 -7.5589186E-03
         124  0.1921640    
         125  1.1003747E-03
         126 -2.9464590E-03
         127  6.0159410E-04
         128 -9.2461100E-03
         129 -4.6884699E-04
         130  6.4998693E-03
         131  6.1665857E-03
         132 -0.1173747    
         133  1.7745767E-04
         134 -1.3649714E-03
         135 -1.1021868E-04
         136  1.1172212E-02
         137 -2.7387708E-03
         138  1.1241126E-02
         139  1.3216754E-02
         140 -0.2133268    
         141  9.7261847E-04
         142 -2.2057154E-04
         143  1.4386614E-04
         144  1.0125754E-02
         145  2.8789213E-03
         146 -3.5758995E-04
         147 -7.9533150E-03
         148  5.6692071E-02
         149 -5.8349845E-04
         150 -1.1137015E-03
         151  2.9886854E-03
         152  4.7455165E-03
         153 -9.8316260E-03
         154 -3.4708932E-02
         155 -9.5385546E-03
         156  0.2469492    
         157  8.9135338E-03
         158  3.3673700E-03
         159  8.9761568E-04
         160 -1.1526121E-02
         161 -1.8666206E-03
         162 -4.4217710E-03
         163  2.7987652E-03
         164  3.7564736E-02
         165  7.3796501E-03
         166  3.8986173E-03
         167 -5.7443557E-04
         168 -2.2133259E-02
         169  2.9194321E-02
         170  4.5767974E-02
         171  0.2006819    
         172  6.2978715E-02
         173 -8.6588357E-03
         174 -1.1780232E-02
         175 -1.0353400E-02
         176 -1.2985020E-02
         177  1.0228295E-02
         178 -2.4518661E-02
         179  5.4986160E-02
         180  5.9886236E-02
         181 -3.3861219E-03
         182  3.8328075E-03
         183 -3.8189385E-03
         184  7.3268413E-05
         185 -6.9982549E-03
         186  9.0780323E-03
         187 -4.0153633E-03
         188 -1.5712161E-02
         189  2.3846813E-03
         190  6.1296480E-04
         191 -1.8416921E-03
         192  2.3496400E-03
         193  2.8187428E-03
         194 -4.4286209E-03
         195  9.8476489E-04
         196  1.2189393E-03
         197 -9.8540739E-04
         198  8.7824231E-04
         199 -3.3993952E-04
         200 -1.9437315E-04
         201 -1.0621502E-03
         202 -2.4734729E-04
         203 -2.4300413E-03
         204  5.7751760E-03
         205  1.2496542E-03
         206 -9.0316345E-04
         207 -2.7501938E-04
         208  9.2057722E-05
         209  1.0042080E-03
         210 -2.7986544E-03
         211 -3.3797519E-04
         212  1.3068516E-03
         213  2.1790003E-04
         214 -2.0200089E-03
         215 -3.1310145E-04
         216  9.2860323E-04
         217 -7.2239438E-04
         218  7.9584261E-04
         219 -7.6090201E-04
         220  2.4808079E-04
         221  4.5996314E-04
         222 -5.6883815E-04
         223  8.2020670E-05
         224  1.3058880E-04
         225  2.1701082E-04
         226 -2.0405753E-04
         227  1.4298855E-04
         228 -6.9082621E-04
         229  1.0016393E-04
         230  1.3852616E-04
         231  6.4421736E-05
         232 -3.8745179E-04
         233 -2.2379028E-04
         234  1.0823162E-03
         235 -1.8141945E-04
         236 -2.6045844E-03
         237  1.4460379E-04
         238  1.9053814E-04
         239 -1.3368772E-04
         240 -3.7802607E-04
         241  3.3873206E-04
         242 -2.8702689E-04
         243  1.9778445E-04
         244 -2.8096710E-03
         245 -1.0636099E-05
         246  2.3801718E-04
         247 -1.5241488E-04
         248  4.4539396E-04
         249  4.8558612E-04
         250  6.3945139E-05
         251  5.3658540E-04
         252 -2.8708428E-03
         253 -1.5250545E-04
         254 -1.6891849E-05
         255  2.0699814E-04
         256  4.4430114E-04
         257 -6.1817009E-05
         258  7.0952094E-04
         259  2.5195256E-04
         260 -1.0130173E-03
         261  1.1809375E-04
         262 -1.9712263E-05
         263 -6.1926425E-05
         264 -3.5959479E-04
         265  3.2276081E-04
         266 -6.2843884E-04
         267  2.8373746E-04
         268  5.5752753E-04
         269 -4.8657650E-05
         270  1.2992742E-04
         271 -6.6131608E-05
         272 -3.9996832E-04
         273 -5.5769639E-04
         274  1.2642884E-03
         275  5.9442950E-04
         276 -1.9450900E-04
         277  3.0053745E-04
         278 -6.0411450E-04
         279 -3.0452074E-04
         280 -2.3716161E-04
         281  1.3641563E-03
         282 -2.9249492E-03
         283  1.0222938E-03
         284 -1.9658518E-04
         285 -1.0778902E-03
         286 -3.2332126E-04
         287  2.5551036E-04
         288  4.9263402E-04
         289 -2.3662832E-04
         290 -6.9219503E-04
         291 -4.0372240E-04
         292  3.8211364E-03
         293 -3.0111344E-04
         294  5.6605221E-04
         295  5.0310796E-04
         296  4.7640255E-04
         297 -7.3371362E-04
         298  7.1353940E-03
         299 -6.1229743E-02
         300 -6.1290614E-02
         301 -1.1898394E-04
         302  1.7081763E-03
         303  1.3426566E-03
         304  7.1644003E-04
         305  4.2633084E-03
         306 -2.2036922E-03
         307  2.5349593E-04
         308 -4.7546951E-04
         309 -3.7391402E-03
         310  3.9299121E-03
         311 -2.2818153E-03
         312  4.5036097E-04
         313  1.7017133E-03
         314  8.4524229E-03
         315 -5.2109681E-02
         316  8.0795800E-03
         317 -1.7631397E-02
         318 -5.9236675E-03
         319 -5.7187281E-03
         320 -6.5957449E-02
         321  6.2835356E-03
         322  2.0425515E-02
         323 -5.9318002E-03
         324  5.5309054E-03
         325  3.6699884E-03
         326 -3.9586551E-03
         327 -7.3434887E-03
         328  4.3693082E-03
         329  1.5092790E-02
         330 -7.0742727E-03
         331  1.8372319E-03
         332  2.6914256E-04
         333 -1.4313936E-04
         334  1.6924706E-03
         335 -1.4100595E-03
         336 -1.7239907E-04
         337  5.9858314E-04
         338  1.0488459E-03
         339 -1.5188472E-02
         340 -1.7423050E-03
         341  3.4095172E-04
         342  6.7917601E-04
         343 -1.7797583E-05
         344 -4.3592192E-03
         345  1.0907768E-03
         346 -5.5419287E-04
         347  1.7544686E-05
         348  5.3842839E-05
         349 -4.3609557E-03
         350  2.6845019E-03
         351 -4.2908668E-04
         352  1.3933466E-03
         353  9.0518582E-04
         354 -1.4625077E-02
         355  3.7507107E-03
         356 -1.6739558E-03
         357  1.8523948E-04
         358  1.9167080E-04
         359  2.3596438E-03
         360 -6.8761450E-03
         361  4.3760594E-03
         362  5.7251253E-03
         363 -1.5123419E-02
         364  6.4851637E-03
         365  8.4174545E-03
         366 -5.9408294E-03
         367  3.6736464E-03
         368  4.5078696E-04
         369 -2.7511625E-03
         370  1.1985484E-03
         371  1.5072960E-07
         372 -9.5791288E-04
         373  2.4495710E-04
         374 -1.0416067E-04
         375 -1.9280709E-04
         376 -1.3798666E-05
         377  5.5004808E-04
         378  4.1067065E-04
         379 -3.5559200E-04
         380 -4.0884348E-04
         381  1.9175939E-04
         382 -2.4105496E-04
         383  3.9550388E-05
         384  3.2644201E-04
         385  4.2256736E-04
         386  1.5372982E-05
         387 -1.7912853E-04
         388  1.4579108E-05
         389  1.5806603E-05
         390  3.7602219E-04
         391  7.1675669E-05
         392 -1.3116741E-04
         393 -8.1126942E-05
         394  6.5587454E-05
         395 -3.3459160E-04
         396  7.3421434E-05
         397 -5.5954319E-05
         398 -4.7625192E-05
         399  4.5542014E-04
         400 -3.7592760E-04
         401  3.2047430E-04
         402  2.2564640E-05
         403 -3.3122331E-05
         404 -3.5825523E-04
         405  1.2403640E-03
         406 -1.3130337E-03
         407  1.3446820E-03
         408  1.2237484E-03
         409  3.7984224E-04
         410 -2.1572083E-03
         411 -5.4275669E-04
         412  7.3381257E-04
         413 -2.0006658E-03
         414 -2.2501731E-03
 Sym= Particle
 Ene= -0.9244107    
 Spin= Alpha
 Occup= 2
           1 -1.5905489E-03
           2  1.3438524E-03
           3 -1.4678746E-02
           4 -1.5338268E-02
           5  3.1416279E-03
           6 -1.5888371E-03
           7  2.1775961E-03
           8  1.2525034E-03
           9  5.4461528E-03
          10  2.5796263E-02
          11 -0.1077078    
          12 -8.6162686E-02
          13 -3.9324927E-04
          14 -1.5391379E-02
          15  2.4667701E-02
          16  1.0067511E-02
          17 -2.5481062E-03
          18 -8.6175501E-03
          19  8.5639842E-02
          20  8.6040214E-02
          21  3.9280779E-03
          22  4.5270468E-03
          23 -1.3769415E-02
          24 -1.3337190E-02
          25  7.0931916E-03
          26  4.4326939E-02
          27  0.1349404    
          28  0.2841434    
          29 -1.7365050E-03
          30 -2.1698114E-02
          31 -4.1385811E-02
          32 -0.1016412    
          33 -3.4410311E-03
          34  4.4679247E-02
          35  9.5380791E-02
          36  0.1842446    
          37  4.8576719E-03
          38 -2.2312013E-02
          39 -3.5056986E-02
          40 -6.5178670E-02
          41  1.3248785E-03
          42 -8.4531374E-02
          43 -0.1986463    
          44 -0.3563682    
          45  4.9119227E-04
          46  1.5586480E-02
          47  5.0316606E-02
          48  9.1005795E-02
          49  2.6726916E-03
          50  5.7848435E-02
          51  0.1440482    
          52  0.2368989    
          53 -3.2694293E-03
          54 -2.0362899E-02
          55 -4.6905678E-02
          56 -8.1168592E-02
          57 -2.3844033E-03
          58  3.6519915E-02
          59  0.1464549    
          60  0.2543305    
          61  4.9726791E-03
          62 -1.2751608E-02
          63 -5.7286676E-02
          64 -0.1143453    
          65  5.4797652E-04
          66 -4.3232541E-04
          67 -1.9336025E-03
          68  2.2893308E-02
          69  2.8946849E-03
          70  7.0291148E-03
          71  3.4350567E-03
          72 -1.1111539E-02
          73  9.4108088E-03
          74  3.5203744E-02
          75  2.0638760E-02
          76 -0.1410585    
          77 -9.3810493E-03
          78 -1.2584706E-02
          79  5.1943325E-03
          80  5.2853141E-02
          81  4.9224682E-03
          82  9.2892023E-03
          83 -6.0803839E-04
          84 -4.9675327E-02
          85 -9.3016075E-03
          86 -1.3351753E-02
          87  3.7475543E-03
          88  1.4678971E-02
          89  2.2287265E-04
          90 -1.3531213E-02
          91 -2.0318167E-02
          92  0.1679649    
          93 -4.3565533E-03
          94 -8.8800800E-05
          95  5.4114889E-03
          96 -3.8471669E-02
          97  1.6843483E-03
          98  5.7326104E-03
          99  6.5430212E-03
         100 -6.8335436E-02
         101 -4.3113963E-03
         102 -2.9146424E-03
         103 -9.6247654E-04
         104  1.3224439E-02
         105  2.7822137E-03
         106  1.2387497E-02
         107  1.0700490E-02
         108 -0.1215791    
         109 -4.3659993E-03
         110 -3.6322633E-03
         111 -1.4722861E-03
         112  3.2542493E-02
         113  3.6307349E-04
         114 -1.6922045E-02
         115 -3.6037799E-03
         116  0.1681707    
         117 -2.1482683E-03
         118  6.8227220E-03
         119  4.1395647E-04
         120 -4.0435787E-02
         121  1.3430943E-03
         122  2.6411284E-03
         123 -5.4192813E-03
         124  0.1623539    
         125 -5.4657343E-04
         126 -3.9618684E-04
         127 -2.0193062E-03
         128 -3.8578253E-02
         129 -1.1653231E-03
         130  7.2666602E-03
         131  1.0620696E-02
         132 -0.1238421    
         133 -3.0399638E-03
         134 -4.4840891E-03
         135 -1.9211213E-03
         136  3.3753220E-02
         137  2.2410285E-03
         138  8.2694199E-03
         139  4.1443035E-03
         140 -6.0813591E-02
         141 -5.0077792E-03
         142 -4.5991540E-03
         143 -4.8652152E-04
         144  1.3059912E-02
         145 -6.0721347E-03
         146 -1.5873667E-02
         147  2.3641535E-03
         148  0.1672361    
         149 -2.8210962E-03
         150  2.3085114E-03
         151  2.4967160E-04
         152 -3.5249181E-02
         153  1.7285334E-02
         154  2.6687622E-02
         155 -5.8554811E-03
         156 -4.8572250E-02
         157 -1.9467115E-02
         158 -2.2600822E-02
         159  7.7546611E-03
         160  7.3716026E-03
         161 -1.4705633E-02
         162 -1.7917997E-03
         163  3.1289279E-02
         164 -0.1390738    
         165  9.2558358E-03
         166 -2.7561460E-03
         167 -2.4004674E-02
         168  4.0088478E-02
         169 -2.9902714E-03
         170 -7.4576162E-02
         171 -0.2183352    
         172 -0.4288597    
         173  6.0260831E-03
         174  1.6628535E-02
         175  7.0092060E-02
         176  0.1266310    
         177 -1.1159359E-02
         178  2.7371241E-02
         179 -9.4572932E-02
         180 -9.0766110E-02
         181  9.8112468E-03
         182 -1.1482256E-02
         183  2.4203526E-02
         184  3.5294775E-02
         185  4.5715780E-03
         186  1.7915556E-04
         187 -3.0908303E-02
         188 -2.5724435E-02
         189 -1.2760060E-03
         190 -1.6343356E-03
         191  4.6160729E-03
         192  3.5764114E-03
         193 -2.9778611E-03
         194  1.2151531E-04
         195 -4.1669962E-05
         196  9.4177546E-03
         197  2.1476657E-03
         198 -2.2362268E-03
         199 -1.8552694E-03
         200 -4.7935070E-03
         201 -1.9727494E-03
         202  1.1811808E-03
         203 -3.3574365E-03
         204  3.3075071E-03
         205  3.6278816E-03
         206 -4.3903282E-03
         207  3.0230093E-04
         208 -1.4586285E-03
         209 -2.7359510E-03
         210  5.8909925E-03
         211  1.0520337E-03
         212 -1.5330157E-03
         213  5.0438428E-03
         214 -4.1894014E-03
         215  2.3986418E-03
         216 -1.5407657E-04
         217  5.4386351E-04
         218  8.1686705E-04
         219  1.5181025E-03
         220 -4.0407022E-03
         221  9.6172764E-04
         222 -3.4384834E-04
         223 -5.7412870E-04
         224 -3.1789724E-04
         225 -7.6456502E-04
         226 -1.0112240E-03
         227 -2.8272343E-04
         228  4.6806773E-03
         229  1.0145076E-03
         230  1.0241923E-04
         231 -3.0991132E-04
         232 -1.0848799E-03
         233 -3.0971420E-04
         234 -7.1835512E-04
         235 -7.0216897E-04
         236  3.0038352E-03
         237  5.2340055E-04
         238  5.9872858E-05
         239  5.5076289E-05
         240 -7.2582107E-04
         241 -2.8162898E-04
         242  1.8357431E-03
         243  3.5248380E-04
         244 -6.0679875E-03
         245  7.4188429E-04
         246 -5.0337269E-04
         247  2.4566316E-04
         248  1.0280297E-03
         249 -7.6327252E-04
         250  3.6808730E-03
         251 -8.4437057E-04
         252 -4.7012642E-03
         253  3.4990153E-04
         254 -5.7387183E-04
         255  4.7362835E-05
         256  8.4946986E-04
         257  3.2678258E-04
         258 -1.1048615E-03
         259 -7.3841104E-04
         260  9.3270425E-04
         261  5.3882686E-04
         262 -3.6452981E-04
         263 -7.7643002E-05
         264 -4.4980558E-04
         265 -2.3412857E-04
         266 -8.1907853E-04
         267 -9.1783283E-04
         268  4.3804636E-03
         269  4.7752092E-04
         270 -3.7630909E-04
         271 -4.2549069E-05
         272 -5.5017730E-04
         273  1.1993853E-03
         274 -1.3268249E-03
         275 -7.3237543E-04
         276 -3.0446281E-03
         277 -2.3794465E-04
         278  8.2571188E-04
         279 -7.6394044E-06
         280  1.4220128E-03
         281 -2.9413677E-03
         282  5.1794145E-03
         283 -1.2211897E-04
         284 -1.7644146E-03
         285  2.6674008E-03
         286 -1.6105238E-03
         287 -8.4090931E-04
         288 -9.7994064E-04
         289  3.1710253E-03
         290 -6.5816734E-03
         291 -3.7588761E-03
         292  3.3107568E-03
         293 -1.6893094E-03
         294  1.5242230E-03
         295  9.1973279E-04
         296 -1.5260292E-03
         297 -4.2373422E-04
         298 -8.0426941E-03
         299  9.4594300E-02
         300  0.1016477    
         301  1.7815813E-03
         302 -3.4439459E-03
         303 -1.5300262E-02
         304 -1.8348703E-02
         305  7.9625566E-03
         306  3.0275877E-04
         307 -1.0310176E-03
         308 -1.7007542E-03
         309  1.2939082E-03
         310  7.0007762E-04
         311  1.0067392E-02
         312 -2.4452882E-02
         313 -4.1591939E-02
         314 -1.8598584E-02
         315  1.8397149E-03
         316  5.3172768E-04
         317  5.2079624E-03
         318  6.7127487E-03
         319  2.3932416E-02
         320 -1.1140001E-03
         321 -1.0254292E-04
         322  1.0767180E-02
         323  2.0441907E-02
         324  2.4922572E-02
         325 -6.9500385E-03
         326 -1.4442662E-03
         327 -1.2650134E-02
         328 -1.0796103E-02
         329 -5.5539724E-03
         330 -3.7927327E-03
         331 -1.5467363E-03
         332 -3.5276387E-03
         333 -4.2480514E-03
         334  3.4451365E-02
         335 -1.3723077E-03
         336 -2.5675294E-03
         337 -1.6946437E-05
         338  1.5997542E-03
         339 -1.4833365E-02
         340 -4.4470741E-03
         341 -8.5229275E-04
         342  2.4624413E-03
         343  2.3909833E-03
         344 -2.2339653E-02
         345  5.2863779E-03
         346 -4.0310523E-03
         347 -5.4936152E-04
         348  2.6868077E-03
         349 -2.2567835E-02
         350 -3.4254235E-03
         351 -1.4534451E-03
         352 -9.4853545E-04
         353  8.4596244E-04
         354 -1.3600782E-02
         355 -3.3392343E-03
         356 -4.4001028E-04
         357 -2.1134557E-03
         358  9.1978180E-04
         359  3.5688099E-02
         360 -1.4339277E-03
         361 -1.1684466E-02
         362 -2.9343672E-02
         363  3.8289383E-02
         364 -1.5814018E-02
         365  4.3512452E-03
         366  4.9170819E-03
         367 -1.2988570E-02
         368 -1.1453167E-02
         369  1.2188759E-03
         370  5.3513533E-04
         371  1.2868124E-03
         372  2.6715655E-04
         373  7.8413272E-03
         374  2.9786516E-03
         375  1.5585782E-03
         376 -1.7625162E-04
         377 -4.3055443E-06
         378  2.4763666E-04
         379 -1.1646989E-03
         380  8.9027593E-04
         381  2.8518966E-04
         382 -3.3579886E-04
         383 -1.4819018E-06
         384  2.8134909E-04
         385  2.6930522E-04
         386  4.2179407E-04
         387 -7.2729733E-04
         388 -1.5726443E-04
         389  1.9688621E-04
         390 -1.0931025E-03
         391  7.4292527E-04
         392 -4.6364419E-04
         393 -1.1553276E-04
         394 -8.6810527E-05
         395  4.2015794E-04
         396  2.8479073E-04
         397 -6.6532026E-04
         398 -2.4937655E-04
         399  2.5625879E-04
         400  3.4304094E-04
         401 -3.1375512E-04
         402  1.6788757E-04
         403 -1.2417087E-04
         404  4.0720176E-04
         405 -1.1582524E-03
         406  3.7364156E-03
         407 -4.7056130E-03
         408 -2.2331988E-03
         409 -5.5326670E-03
         410  1.0382198E-03
         411  1.5525675E-03
         412 -5.6546871E-03
         413  1.4112990E-02
         414  1.5743317E-02
 Sym= Hole
 Ene= -6.3604392E-02
 Spin= Alpha
 Occup= 0
           1  2.0954092E-03
           2 -5.5860174E-03
           3  2.5455048E-02
           4  3.1394672E-02
           5 -7.2699122E-04
           6 -1.6989416E-03
           7 -1.9853546E-03
           8  2.8037617E-03
           9  4.1748239E-03
          10  8.8403970E-03
          11 -0.1069564    
          12 -0.1250277    
          13 -8.2210563E-03
          14  3.0836989E-03
          15 -1.3747513E-03
          16 -2.6502144E-03
          17  1.8371724E-02
          18 -2.0546950E-02
          19 -0.1303623    
          20 -0.1040577    
          21 -1.2223899E-02
          22  1.6260531E-03
          23  3.8935617E-04
          24  3.0206089E-04
          25 -8.2614832E-03
          26  1.1890134E-02
          27  0.1862272    
          28  0.1906701    
          29 -1.1158070E-02
          30  1.6237827E-02
          31  6.7505874E-03
          32  5.7112426E-03
          33 -3.9285584E-03
          34  4.1693155E-02
          35  2.9839192E-02
          36  0.2646284    
          37 -1.0112770E-02
          38  1.1820455E-02
          39  1.0096987E-02
          40  7.1200519E-03
          41 -0.1043390    
          42 -2.9416410E-03
          43  0.1727434    
          44 -5.4428272E-02
          45  3.4820653E-02
          46 -1.2676768E-03
          47  2.0251402E-03
          48 -8.0003083E-04
          49  1.9891704E-02
          50 -2.6837151E-02
          51 -0.1655644    
          52 -0.1645180    
          53 -2.0101715E-02
          54 -1.2597022E-02
          55 -1.3079043E-03
          56 -4.0433984E-03
          57 -1.6559940E-02
          58 -1.7110413E-02
          59 -8.5047290E-02
          60 -0.2926804    
          61 -8.9799240E-03
          62 -9.1755688E-03
          63 -1.7767298E-03
          64 -6.8036099E-03
          65  2.4403993E-02
          66  5.5033591E-02
          67  6.4007654E-03
          68 -0.2000654    
          69 -1.2603056E-02
          70 -3.1649005E-03
          71  8.9593781E-03
          72  9.6347118E-03
          73 -1.0083517E-02
          74 -4.5321900E-02
          75 -2.0928849E-02
          76  0.1751745    
          77  4.3712412E-03
          78  3.3446955E-03
          79  4.6098917E-03
          80 -8.9752087E-03
          81 -5.3379149E-03
          82 -1.9850858E-02
          83 -2.3744827E-02
          84  0.1984772    
          85  3.4054420E-03
          86 -1.7610901E-04
          87  1.0977256E-03
          88 -3.2372184E-03
          89  2.2229027E-04
          90  2.1176718E-03
          91  5.0338251E-03
          92 -3.7120849E-02
          93  3.1748286E-04
          94 -1.0328508E-03
          95 -1.1609622E-04
          96 -4.9621204E-04
          97 -2.4389736E-03
          98  1.8727820E-02
          99  2.3045672E-02
         100 -0.2498573    
         101  7.1154314E-04
         102 -5.1543460E-04
         103  5.1919738E-04
         104 -8.4063655E-04
         105 -3.5514862E-03
         106  8.1273327E-03
         107  1.1754001E-02
         108 -0.1562700    
         109  1.1363772E-03
         110 -1.3382401E-04
         111  1.1098867E-03
         112  8.5737486E-04
         113  7.5123929E-03
         114 -2.7044080E-03
         115 -1.9672720E-02
         116  0.1516058    
         117 -1.5473539E-03
         118  2.2709372E-03
         119  1.8780826E-03
         120 -4.6831518E-03
         121  2.2414550E-03
         122 -5.3995280E-03
         123 -9.8266872E-03
         124  0.1510839    
         125 -1.4864107E-03
         126  2.5062754E-03
         127  2.5966039E-04
         128 -4.6913028E-03
         129  3.2238491E-04
         130  9.0888273E-03
         131  9.9921934E-03
         132 -0.1601759    
         133  9.4047078E-04
         134  7.4508501E-04
         135 -2.2401220E-05
         136  3.4847055E-04
         137  1.1993464E-03
         138  1.7490245E-02
         139  1.4062892E-02
         140 -0.2526494    
         141  3.4884675E-04
         142 -7.4862895E-05
         143 -1.8260279E-04
         144 -1.7957101E-03
         145 -6.2467443E-04
         146  1.6698864E-03
         147  1.4318655E-03
         148 -3.8027402E-02
         149  3.1489989E-04
         150  1.9251077E-03
         151 -2.2950857E-03
         152 -2.3995254E-03
         153  3.3167580E-03
         154 -4.0902318E-03
         155 -9.7754886E-03
         156  0.1992541    
         157 -3.0667286E-03
         158  1.3892758E-03
         159 -2.0987329E-03
         160  8.1707630E-04
         161  6.6712117E-03
         162 -9.0000490E-03
         163 -2.1464711E-02
         164  0.1819454    
         165 -6.2596551E-03
         166  5.1612500E-04
         167  4.1822926E-04
         168 -5.9030079E-03
         169 -7.2319135E-02
         170  4.4067770E-02
         171 -8.1101194E-02
         172  0.1416738    
         173  2.9359877E-02
         174 -9.7087687E-03
         175 -1.5063335E-04
         176 -7.3571596E-03
         177 -5.5794269E-03
         178  3.2596461E-02
         179 -8.7600142E-02
         180 -9.7208641E-02
         181 -6.1789743E-04
         182 -2.0556862E-03
         183  6.5845740E-04
         184 -5.6995512E-03
         185  6.0517504E-03
         186 -1.3579941E-02
         187  3.1805992E-02
         188  4.6316646E-02
         189 -1.8587222E-03
         190 -6.7914365E-04
         191  8.3360879E-04
         192 -3.7304026E-03
         193 -2.3250442E-03
         194  1.5691612E-02
         195  1.3013477E-04
         196 -3.4255687E-02
         197  1.4582496E-04
         198 -1.3197708E-03
         199 -5.7809288E-04
         200  3.9432435E-03
         201  3.2722689E-03
         202 -1.9433426E-03
         203  6.9624810E-03
         204 -9.7198971E-03
         205 -3.3157398E-03
         206  2.5356035E-03
         207 -1.7339010E-04
         208 -8.0227025E-04
         209 -1.8528444E-03
         210 -1.4067893E-03
         211 -3.0992464E-03
         212  1.3145722E-02
         213 -4.8762540E-04
         214  4.3518208E-03
         215  5.6487613E-04
         216 -1.5227257E-03
         217  1.3861504E-03
         218 -3.1932988E-03
         219  1.2975440E-03
         220  3.0373528E-03
         221 -9.2201243E-04
         222  9.1986079E-04
         223 -5.0852555E-05
         224  4.7520822E-04
         225 -1.0261700E-04
         226  5.6851925E-03
         227  1.7612922E-03
         228 -1.2751759E-02
         229 -3.5426256E-04
         230 -4.8009271E-04
         231 -1.7697774E-04
         232  1.5302075E-03
         233  5.3407461E-04
         234  3.4206590E-04
         235  1.3217713E-03
         236 -3.0253660E-03
         237 -4.7270599E-04
         238 -5.8779586E-04
         239 -1.1300455E-05
         240  1.3874011E-03
         241 -4.0362927E-04
         242 -2.8860385E-03
         243 -1.1657393E-03
         244  1.7965263E-02
         245 -4.0298695E-04
         246 -8.7963810E-05
         247  1.2446988E-04
         248 -1.4449613E-03
         249 -2.1648488E-04
         250 -5.9689297E-03
         251 -1.6211000E-03
         252  1.7332083E-02
         253 -1.1922856E-04
         254  7.6452689E-04
         255 -5.1263598E-04
         256 -1.3668209E-03
         257 -2.1068491E-04
         258  2.4839891E-03
         259  9.3297398E-04
         260 -5.8221486E-03
         261 -2.8648987E-04
         262 -8.1501363E-05
         263  3.1817959E-05
         264  1.3741354E-03
         265 -9.5022825E-04
         266  6.7570079E-03
         267  1.3931113E-03
         268 -1.5667686E-02
         269 -1.8779931E-04
         270 -1.9739436E-04
         271 -4.4393586E-05
         272  1.4417213E-03
         273  9.1214059E-04
         274 -3.4625772E-03
         275 -8.5067883E-04
         276  3.8391571E-03
         277 -6.9601188E-04
         278  8.1844383E-04
         279  6.3667761E-04
         280  5.8090925E-04
         281 -2.4213763E-03
         282  5.2410986E-05
         283 -5.0024441E-03
         284  1.7084513E-02
         285  1.4427080E-03
         286  1.7630064E-03
         287  5.0365069E-04
         288 -9.7268471E-04
         289 -2.4052504E-03
         290  4.9610012E-03
         291  3.3830011E-03
         292 -3.2721765E-03
         293  1.3952124E-03
         294 -4.0300525E-04
         295 -1.3617115E-03
         296 -1.8186535E-03
         297 -9.6234097E-04
         298 -1.5045673E-02
         299  0.1257559    
         300  0.1209453    
         301  6.3868763E-04
         302 -1.4184798E-04
         303 -6.7557261E-04
         304  1.5807443E-03
         305 -7.0370603E-03
         306  1.5421271E-03
         307  7.2312396E-04
         308  1.8264522E-03
         309  2.4573905E-03
         310 -3.3685793E-03
         311 -3.7372028E-03
         312  9.6580600E-03
         313  7.0142057E-03
         314 -7.8657921E-03
         315  6.8375528E-02
         316 -6.0556731E-03
         317  1.5795445E-02
         318 -2.6729191E-03
         319 -2.1000862E-02
         320  7.1274072E-02
         321 -7.3289499E-03
         322 -1.2745980E-02
         323  8.5753053E-03
         324  1.1368694E-02
         325  3.8219974E-03
         326  2.3769145E-03
         327  2.9698184E-03
         328 -2.7805781E-03
         329 -2.0989652E-03
         330  2.2581595E-04
         331 -7.0389222E-05
         332  2.7510765E-04
         333 -8.5230242E-04
         334  4.1883923E-03
         335  3.0742440E-04
         336 -3.5928973E-04
         337 -7.2852900E-04
         338 -1.6021371E-04
         339  2.4192061E-03
         340  4.3371036E-03
         341  8.3411258E-05
         342  4.5495573E-04
         343  9.7870780E-04
         344  1.6301569E-03
         345  1.8690577E-03
         346  1.0212481E-03
         347  7.8866747E-04
         348 -5.3248688E-04
         349  1.5095326E-03
         350  1.3404344E-04
         351  1.5197035E-03
         352  6.4403797E-04
         353 -9.3507406E-04
         354  3.1254580E-03
         355 -3.2331611E-03
         356  1.4605572E-03
         357 -1.4304011E-03
         358 -9.4459194E-04
         359  2.4904739E-03
         360  3.4051440E-03
         361 -1.1501817E-03
         362  1.6991764E-03
         363  4.5357984E-03
         364  6.6858600E-03
         365 -9.9725090E-03
         366  2.6190057E-03
         367 -2.1274750E-04
         368  1.9751701E-03
         369  2.4726065E-03
         370 -2.8666854E-03
         371 -9.3291519E-06
         372  8.5066183E-04
         373 -1.0588574E-03
         374  7.6016394E-04
         375 -4.0088929E-04
         376 -5.2652170E-04
         377 -6.7762288E-05
         378 -6.5728021E-04
         379  9.0772501E-04
         380  7.6251361E-04
         381 -4.7853219E-04
         382  8.7287545E-04
         383 -8.3782295E-05
         384 -1.6067855E-03
         385 -1.5598498E-03
         386 -2.3103606E-04
         387  5.9657928E-04
         388  4.4960423E-05
         389 -2.5200626E-04
         390  3.3102868E-04
         391 -4.1347419E-04
         392  5.9495913E-04
         393  7.1180453E-05
         394 -2.1177715E-04
         395  6.7214464E-04
         396 -3.2137558E-04
         397  5.8681419E-04
         398  2.9971378E-04
         399 -1.7154603E-03
         400  1.6890535E-03
         401 -7.3549605E-04
         402  5.8991580E-05
         403  2.5224045E-04
         404  6.6868623E-04
         405 -1.4926477E-03
         406  9.0933486E-04
         407 -2.1070740E-03
         408 -9.6330111E-04
         409  1.2226840E-03
         410  3.2438664E-03
         411  2.4037108E-05
         412  1.4862057E-03
         413  1.1307962E-03
         414  1.8797470E-03
 Sym= Particle
 Ene= -6.3604392E-02
 Spin= Alpha
 Occup= 2
           1  2.7744339E-03
           2 -5.2108918E-03
           3  2.4554715E-02
           4  2.8117174E-02
           5 -1.7095421E-03
           6 -2.5363363E-04
           7 -3.3751011E-03
           8 -3.2496252E-03
           9 -5.8811312E-03
          10 -1.8324928E-02
          11  8.5656807E-02
          12  6.8007283E-02
          13  1.0266417E-03
          14  6.3570943E-03
          15 -2.0858290E-02
          16 -1.3373042E-02
          17  4.9677491E-03
          18  5.4147984E-03
          19 -7.3970012E-02
          20 -7.0345446E-02
          21 -7.1839821E-03
          22 -2.2289576E-03
          23  1.2857930E-02
          24  7.2054742E-03
          25 -4.1696918E-03
          26 -3.8016755E-02
          27 -0.1073629    
          28 -0.2309616    
          29 -6.7729549E-03
          30  1.7259318E-02
          31  2.3571659E-02
          32  6.4841464E-02
          33  2.5180946E-03
          34  1.3528390E-02
          35  2.6581524E-02
          36  8.2397290E-02
          37 -9.2670629E-03
          38  8.0103073E-03
          39  9.2118708E-03
          40 -1.9448169E-03
          41 -6.3873478E-03
          42  3.8223717E-02
          43  0.1142736    
          44  0.1672497    
          45  2.1307340E-03
          46 -1.0781980E-02
          47 -3.2066662E-02
          48 -5.1346492E-02
          49  1.1985104E-04
          50 -7.9889290E-02
          51 -0.2024913    
          52 -0.2908053    
          53 -1.0447334E-02
          54  2.7805988E-02
          55  7.1049534E-02
          56  8.9840651E-02
          57  1.3336665E-03
          58  5.1992619E-03
          59  5.1692933E-02
          60  8.4204495E-02
          61 -1.7406471E-02
          62 -4.8294910E-03
          63 -2.2640094E-02
          64 -2.7361890E-02
          65 -2.7759506E-03
          66 -1.8265933E-02
          67 -7.3496816E-03
          68  0.1462967    
          69 -2.0730620E-05
          70  8.2681719E-03
          71  6.1667860E-03
          72 -6.1048787E-02
          73  2.4489421E-04
          74  2.6065955E-02
          75  2.1551359E-02
          76 -0.2027611    
          77 -2.9812718E-03
          78 -1.2069002E-02
          79 -1.1584549E-02
          80  7.9184838E-02
          81 -2.9248926E-03
          82  6.4022020E-03
          83  3.6044642E-02
          84 -0.1780546    
          85  2.6127833E-03
          86  5.4421420E-03
          87 -1.2882787E-02
          88  4.2390373E-02
          89  3.6960472E-03
          90 -1.8542560E-02
          91 -3.6180090E-02
          92  0.3104863    
          93 -1.7554971E-03
          94  5.3638960E-03
          95  9.9510942E-03
          96 -7.8689374E-02
          97 -9.3334971E-04
          98  1.5987316E-03
          99  9.7674364E-03
         100 -6.3815780E-02
         101  5.6051090E-04
         102  2.6799787E-03
         103 -4.2419117E-03
         104  1.4665497E-02
         105  2.3924287E-03
         106  2.3363121E-02
         107  2.0833937E-02
         108 -0.2506227    
         109 -1.8274812E-03
         110 -3.9923606E-03
         111 -5.6245006E-03
         112  6.5304294E-02
         113  1.5627999E-03
         114 -2.5066881E-02
         115 -1.2635400E-02
         116  0.2733150    
         117 -2.1549228E-03
         118  7.2429553E-03
         119  4.1266289E-03
         120 -7.0866913E-02
         121 -1.7448213E-03
         122 -1.3469307E-02
         123 -1.2929019E-02
         124  0.2638057    
         125  1.6732768E-03
         126  3.3678606E-03
         127  1.3024861E-03
         128 -6.7760281E-02
         129  6.1896944E-04
         130  1.4020819E-02
         131  1.4708424E-02
         132 -0.2540128    
         133  9.7694271E-04
         134 -2.1606965E-03
         135 -5.7292636E-03
         136  6.6773511E-02
         137 -2.4548720E-04
         138  2.4990859E-03
         139  5.0345766E-03
         140 -5.5404697E-02
         141  7.3704123E-04
         142  1.4047365E-03
         143 -2.8434580E-03
         144  1.3689849E-02
         145  2.7612019E-03
         146 -1.7782003E-02
         147 -1.6749978E-02
         148  0.3111034    
         149 -2.5970282E-03
         150  3.7097991E-03
         151  1.8433601E-03
         152 -8.2103863E-02
         153 -1.4695638E-03
         154  1.1005145E-02
         155  1.0977398E-02
         156 -0.1820467    
         157 -1.2283503E-03
         158 -2.1727544E-03
         159 -7.1755471E-03
         160  3.9883960E-02
         161  8.0940645E-04
         162  1.0710781E-02
         163  1.5272975E-02
         164 -0.2017533    
         165 -3.5972313E-03
         166 -2.0412959E-03
         167 -2.2958051E-03
         168  8.1575021E-02
         169  9.9608283E-03
         170  1.3674926E-02
         171  3.9633725E-02
         172  0.1352513    
         173 -1.0824041E-02
         174  1.1321664E-03
         175 -1.0784229E-02
         176 -3.3179913E-02
         177  6.2062312E-03
         178 -2.4425950E-02
         179  9.5975988E-02
         180  8.7866865E-02
         181 -5.0746803E-03
         182  7.3774410E-03
         183 -2.3250617E-02
         184 -2.6514670E-02
         185 -2.4737853E-03
         186 -1.2831242E-03
         187  1.2372313E-02
         188  1.0773925E-02
         189  2.1068701E-03
         190  2.0770707E-04
         191  1.6003049E-03
         192  2.9712315E-05
         193  3.2014234E-03
         194 -4.7048260E-04
         195  6.3192325E-05
         196 -8.4279822E-03
         197 -9.5978071E-04
         198 -1.5527532E-04
         199  7.0297782E-04
         200  2.5153090E-03
         201  3.3028252E-04
         202 -1.2985792E-03
         203  3.3039265E-04
         204  2.3484256E-03
         205 -7.9350022E-04
         206  1.9982571E-03
         207  1.7108814E-03
         208 -1.3752830E-03
         209  3.1208817E-03
         210 -6.0446491E-03
         211 -6.8783335E-04
         212  8.8680227E-04
         213 -4.0804911E-03
         214  2.8115469E-03
         215 -1.7626652E-03
         216 -9.5555233E-04
         217 -9.3574537E-04
         218  1.3544873E-03
         219 -9.2707784E-04
         220  3.9440073E-04
         221 -8.9169123E-05
         222 -1.3855799E-03
         223 -2.7011582E-05
         224 -8.3579893E-05
         225  5.8891461E-04
         226 -7.5606524E-04
         227  1.4880652E-04
         228 -8.6881540E-04
         229 -6.3461921E-04
         230  5.5980583E-04
         231 -1.5583659E-04
         232  2.2072963E-04
         233  1.0754126E-04
         234  5.7742116E-04
         235 -5.9115741E-06
         236 -2.1087553E-03
         237 -2.5178937E-04
         238 -3.8369995E-04
         239 -2.3011993E-05
         240  1.3617200E-03
         241  4.6967578E-04
         242 -1.0834559E-03
         243 -3.1930691E-04
         244  1.7274671E-03
         245 -5.1879269E-05
         246 -1.9520815E-04
         247 -1.4257034E-04
         248  8.4337807E-05
         249  4.1709654E-04
         250 -1.1783298E-03
         251  6.3624472E-04
         252  4.8074062E-04
         253  5.3842319E-04
         254 -4.4032690E-04
         255 -3.9913418E-04
         256  4.3791624E-05
         257 -2.6783452E-04
         258  5.0737819E-04
         259  4.5584849E-04
         260  4.1556603E-04
         261 -7.0399576E-05
         262  3.1170898E-04
         263 -2.0142303E-04
         264 -2.6562111E-04
         265  3.1063586E-04
         266 -3.6328321E-04
         267  3.1531876E-04
         268 -3.9699895E-04
         269 -4.3042804E-04
         270  6.8280345E-04
         271  2.7502593E-04
         272 -7.2718062E-04
         273 -8.5287465E-04
         274  2.1928211E-03
         275  1.1165115E-03
         276 -1.2815081E-03
         277  8.5150430E-05
         278 -5.3327566E-04
         279 -2.8467909E-04
         280  2.6531456E-04
         281  1.7817761E-03
         282 -3.5899754E-03
         283  4.5857951E-04
         284  1.5039357E-03
         285 -9.2700153E-04
         286  3.5731232E-04
         287  4.3384855E-05
         288  3.6760836E-04
         289 -1.8500877E-03
         290  2.9038645E-03
         291  1.9035155E-03
         292  1.2725639E-03
         293  2.2718317E-03
         294 -1.3710960E-03
         295 -1.6843016E-03
         296 -1.1985606E-03
         297 -5.4288207E-04
         298  6.9871070E-03
         299 -8.4897332E-02
         300 -9.0763293E-02
         301  1.2592308E-03
         302  3.5892907E-04
         303  1.4927253E-02
         304  1.7254483E-02
         305 -5.1090703E-03
         306  2.6653737E-03
         307 -1.5786394E-03
         308  3.8701289E-03
         309  4.7848215E-03
         310  1.2040753E-03
         311  7.2629418E-04
         312  4.3818033E-03
         313  1.8512189E-02
         314  1.0981650E-02
         315  2.6518574E-03
         316 -3.2104091E-03
         317  6.4225714E-03
         318  1.4696834E-02
         319  2.1149199E-02
         320 -4.3402473E-03
         321 -5.0205085E-03
         322  2.6225403E-03
         323 -3.3229686E-02
         324 -5.3406380E-02
         325  1.3505679E-03
         326  6.6353800E-03
         327  2.0049578E-02
         328  9.2197312E-03
         329 -2.4017863E-02
         330  3.0656569E-03
         331  2.0522908E-04
         332 -5.1132049E-03
         333 -4.1246600E-03
         334  6.8597510E-02
         335  1.4467645E-03
         336  1.3772028E-03
         337  4.5594573E-03
         338  3.6423287E-04
         339 -1.4950455E-02
         340 -3.8289339E-03
         341  2.8857279E-03
         342  8.3021726E-03
         343  2.7181692E-03
         344 -4.9470913E-02
         345  3.4574048E-05
         346  2.3998960E-03
         347  4.2906902E-03
         348  1.0230816E-03
         349 -4.7808312E-02
         350 -9.1826631E-04
         351  2.7614522E-03
         352  2.3346033E-03
         353 -1.3189947E-03
         354 -1.2005960E-02
         355 -1.1859044E-03
         356  6.2297453E-04
         357 -8.8381805E-03
         358 -6.1477418E-03
         359  6.2226176E-02
         360  8.9184787E-06
         361  6.8571838E-04
         362 -2.1066745E-03
         363 -9.2382776E-03
         364 -3.3111218E-02
         365 -1.9253700E-03
         366  1.7706851E-03
         367  5.0751347E-04
         368  1.1908027E-02
         369  1.0451260E-02
         370  3.3325955E-04
         371 -2.2324661E-03
         372  3.6345157E-03
         373 -6.1937948E-03
         374 -2.3157941E-03
         375 -5.7692692E-04
         376  6.2365283E-04
         377 -6.2973588E-04
         378 -1.7828640E-04
         379 -9.9793274E-04
         380 -7.0013593E-05
         381 -5.1702460E-04
         382  1.8950613E-04
         383 -2.7715787E-04
         384  5.0291442E-04
         385  2.7361643E-04
         386 -4.1687928E-04
         387 -2.9314979E-04
         388 -8.5131549E-05
         389  2.8974618E-04
         390  6.6578481E-04
         391 -5.1324000E-04
         392  9.6661997E-06
         393 -1.1682493E-04
         394 -4.8351832E-04
         395 -5.2653096E-04
         396 -1.7375463E-04
         397  1.0920829E-05
         398  2.0025385E-04
         399 -3.4215383E-04
         400 -3.0659320E-04
         401 -1.3497258E-04
         402  4.3913189E-04
         403 -4.5501493E-04
         404 -4.3539508E-04
         405  1.4234771E-03
         406 -2.2076496E-03
         407  2.1982163E-03
         408  1.6049618E-03
         409  3.5266248E-03
         410  1.3027667E-03
         411  9.6045982E-04
         412  2.8879943E-03
         413 -1.3654239E-02
         414 -1.3694961E-02
