 [Molden Format]
 [Atoms] Angs
C       1      6     -1.16248178     -2.71878441      1.10800046
C       2      6     -0.51788423     -1.93398598     -0.06544260
C       3      6     -0.93528053     -2.47774559     -1.45174752
C       4      6      0.98467271     -2.15064904      0.01402438
C       5      6      1.47625141     -3.44929477      0.03610793
C       6      6      2.83265368     -3.71613310      0.07667865
C       7      6      3.73017842     -2.66293139      0.09714678
C       8      6      3.26654725     -1.36368715      0.07799343
C       9      6      1.89562410     -1.09488866      0.03384362
N      10      7      1.44028096      0.21284543      0.01322305
C      11      6      2.40504010      1.26374862     -0.00852447
C      12      6      2.85181740      1.76471151     -1.22491542
C      13      6      3.79587774      2.77686525     -1.24725179
C      14      6      4.29617260      3.28754831     -0.06067812
C      15      6      3.85266650      2.78548164      1.15218755
C      16      6      2.90873499      1.77370919      1.18210998
C      17      6      0.09243394      0.51932235      0.03155197
C      18      6     -0.25837229      1.89046214      0.07920185
C      19      6     -1.55739038      2.28497220      0.09402893
C      20      6     -2.59214013      1.33087031      0.06083292
C      21      6     -3.93563712      1.75525781      0.06798988
C      22      6     -4.93292522      0.82877277      0.02942371
F      23      9     -6.23656344      1.23119992      0.03446495
C      24      6     -4.65450694     -0.53935412     -0.01528523
C      25      6     -3.35381146     -0.96041602     -0.01972973
C      26      6     -2.26164597     -0.05529539      0.01690959
C      27      6     -0.89385868     -0.45862644      0.00688417
H      28      1     -1.80757270     -2.07952279      1.70398723
H      29      1     -0.38812757     -3.09903305      1.77150031
H      30      1     -1.74207142     -3.56734278      0.75229738
H      31      1     -0.30395756     -2.02556870     -2.21597250
H      32      1     -0.79839363     -3.55513359     -1.49657290
H      33      1     -1.96627803     -2.24422736     -1.69480462
H      34      1      0.78271990     -4.27653223      0.02305889
H      35      1      3.18406033     -4.73703772      0.09045371
H      36      1      4.79365063     -2.85012064      0.12852115
H      37      1      3.97115497     -0.54661558      0.09604389
H      38      1      2.45552460      1.35868432     -2.14412427
H      39      1      4.14167145      3.16583409     -2.19349360
H      40      1      5.03270613      4.07693152     -0.08090052
H      41      1      4.24271033      3.18158505      2.07807489
H      42      1      2.55595709      1.37437470      2.12182213
H      43      1      0.52632785      2.62985807      0.10365871
H      44      1     -1.81096382      3.33407470      0.12927373
H      45      1     -4.16552652      2.80933588      0.10232397
H      46      1     -5.47192353     -1.24334786     -0.04433769
H      47      1     -3.18152703     -2.02006523     -0.04883733
 [GTO]
           1   0
s              4   1.000000
     37.00414782     -0.01198412
      6.37242045     -0.05472052
      0.51205117      0.58055871
      0.19515538      0.47700799
p              4   1.000000
      5.96418514      0.05713170
      1.54642415      0.28574555
      0.54516237      0.55178731
      0.21703853      0.26323149
s              7   1.000000
      0.38350848     -0.19443404
      0.04707223      0.93943385
      0.02222627      0.24670960
     37.00414782      0.00522001
      6.37242045      0.02383502
      0.51205117     -0.25287826
      0.19515538     -0.20777391
p              7   1.000000
      1.83062075     -0.01151167
      0.10124670      0.56570088
      0.03901771      0.59079054
      5.96418514     -0.02390614
      1.54642415     -0.11956714
      0.54516237     -0.23088944
      0.21703853     -0.11014638
 
           2   0
s              4   1.000000
     37.09553478     -0.01198412
      6.38815804     -0.05472053
      0.51331576      0.58055871
      0.19563734      0.47700799
p              4   1.000000
      5.97891454      0.05713170
      1.55024326      0.28574555
      0.54650872      0.55178731
      0.21757454      0.26323149
s              7   1.000000
      0.38350848     -0.19436080
      0.04707223      0.93907994
      0.02222627      0.24661666
     37.09553478      0.00520767
      6.38815804      0.02377866
      0.51331576     -0.25228028
      0.19563734     -0.20728258
p              7   1.000000
      1.83062075     -0.01150759
      0.10124670      0.56550084
      0.03901771      0.59058163
      5.97891454     -0.02384935
      1.55024326     -0.11928309
      0.54650872     -0.23034092
      0.21757454     -0.10988470
 
           3   0
s              4   1.000000
     37.03422736     -0.01198412
      6.37760040     -0.05472053
      0.51246740      0.58055871
      0.19531401      0.47700799
p              4   1.000000
      5.96903325      0.05713170
      1.54768119      0.28574555
      0.54560551      0.55178731
      0.21721496      0.26323149
s              7   1.000000
      0.38350848     -0.19440988
      0.04707223      0.93931711
      0.02222627      0.24667894
     37.03422736      0.00521594
      6.37760040      0.02381644
      0.51246740     -0.25268113
      0.19531401     -0.20761194
p              7   1.000000
      1.83062075     -0.01151032
      0.10124670      0.56563489
      0.03901771      0.59072161
      5.96903325     -0.02388742
      1.54768119     -0.11947350
      0.54560551     -0.23070862
      0.21721496     -0.11006011
 
           4   0
s              4   1.000000
     35.29372569     -0.01198412
      6.07787161     -0.05472053
      0.48838292      0.58055871
      0.18613482      0.47700799
p              4   1.000000
      5.68850593      0.05713170
      1.47494465      0.28574555
      0.51996363      0.55178731
      0.20700648      0.26323149
s              7   1.000000
      0.38350848     -0.19589944
      0.04707223      0.94651411
      0.02222627      0.24856898
     35.29372569      0.00546203
      6.07787161      0.02494011
      0.48838292     -0.26460268
      0.18613482     -0.21740711
p              7   1.000000
      1.83062075     -0.01159311
      0.10124670      0.56970338
      0.03901771      0.59497053
      5.68850593     -0.02501941
      1.47494465     -0.12513516
      0.51996363     -0.24164153
      0.20700648     -0.11527569
 
           5   0
s              4   1.000000
     35.03879076     -0.01198412
      6.03396970     -0.05472052
      0.48485521      0.58055871
      0.18479032      0.47700800
p              4   1.000000
      5.64741651      0.05713170
      1.46429077      0.28574555
      0.51620781      0.55178731
      0.20551122      0.26323149
s              7   1.000000
      0.38350848     -0.19613430
      0.04707223      0.94764885
      0.02222627      0.24886698
     35.03879076      0.00549999
      6.03396970      0.02511345
      0.48485521     -0.26644172
      0.18479032     -0.21891813
p              7   1.000000
      1.83062075     -0.01160617
      0.10124670      0.57034491
      0.03901771      0.59564057
      5.64741651     -0.02519398
      1.46429077     -0.12600830
      0.51620781     -0.24332760
      0.20551122     -0.11608003
 
           6   0
s              4   1.000000
     34.91182749     -0.01198412
      6.01210558     -0.05472052
      0.48309834      0.58055871
      0.18412073      0.47700799
p              4   1.000000
      5.62695306      0.05713170
      1.45898490      0.28574555
      0.51433733      0.55178731
      0.20476655      0.26323149
s              7   1.000000
      0.38350848     -0.19625297
      0.04707223      0.94822222
      0.02222627      0.24901755
     34.91182749      0.00551909
      6.01210558      0.02520066
      0.48309834     -0.26736698
      0.18412073     -0.21967837
p              7   1.000000
      1.83062075     -0.01161277
      0.10124670      0.57066909
      0.03901771      0.59597910
      5.62695306     -0.02528181
      1.45898490     -0.12644757
      0.51433733     -0.24417585
      0.20476655     -0.11648469
 
           7   0
s              4   1.000000
     34.91957495     -0.01198412
      6.01343975     -0.05472052
      0.48320554      0.58055871
      0.18416159      0.47700799
p              4   1.000000
      5.62820176      0.05713170
      1.45930867      0.28574555
      0.51445147      0.55178731
      0.20481199      0.26323149
s              7   1.000000
      0.38350848     -0.19624569
      0.04707223      0.94818707
      0.02222627      0.24900833
     34.91957495      0.00551792
      6.01343975      0.02519532
      0.48320554     -0.26731034
      0.18416159     -0.21963182
p              7   1.000000
      1.83062075     -0.01161236
      0.10124670      0.57064921
      0.03901771      0.59595835
      5.62820176     -0.02527643
      1.45930867     -0.12642068
      0.51445147     -0.24412393
      0.20481199     -0.11645992
 
           8   0
s              4   1.000000
     35.03739940     -0.01198412
      6.03373010     -0.05472053
      0.48483596      0.58055871
      0.18478298      0.47700799
p              4   1.000000
      5.64719225      0.05713170
      1.46423262      0.28574555
      0.51618731      0.55178731
      0.20550306      0.26323149
s              7   1.000000
      0.38350848     -0.19613559
      0.04707223      0.94765510
      0.02222627      0.24886862
     35.03739940      0.00550020
      6.03373010      0.02511440
      0.48483596     -0.26645182
      0.18478298     -0.21892644
p              7   1.000000
      1.83062075     -0.01160624
      0.10124670      0.57034845
      0.03901771      0.59564425
      5.64719225     -0.02519494
      1.46423262     -0.12601309
      0.51618731     -0.24333686
      0.20550306     -0.11608445
 
           9   0
s              4   1.000000
     35.26925756     -0.01198412
      6.07365799     -0.05472052
      0.48804433      0.58055871
      0.18600578      0.47700800
p              4   1.000000
      5.68456225      0.05713170
      1.47392211      0.28574555
      0.51960315      0.55178731
      0.20686297      0.26323149
s              7   1.000000
      0.38350848     -0.19592179
      0.04707223      0.94662207
      0.02222627      0.24859732
     35.26925756      0.00546565
      6.07365799      0.02495664
      0.48804433     -0.26477810
      0.18600578     -0.21755125
p              7   1.000000
      1.83062075     -0.01159436
      0.10124670      0.56976442
      0.03901771      0.59503429
      5.68456225     -0.02503606
      1.47392211     -0.12521845
      0.51960315     -0.24180237
      0.20686297     -0.11535241
 
          10   0
s              4   1.000000
     61.21516935     -0.01198412
     10.54175870     -0.05472052
      0.84707529      0.58055871
      0.32284136      0.47700799
p              4   1.000000
      7.21555297      0.05713170
      1.87088514      0.28574555
      0.65954491      0.55178731
      0.26257619      0.26323149
s              7   1.000000
      0.47894987     -0.18777883
      0.05878681      0.90727830
      0.02775758      0.23826506
     61.21516935      0.00396882
     10.54175870      0.01812200
      0.84707529     -0.19226574
      0.32284136     -0.15797247
p              7   1.000000
      2.28619608     -0.01156563
      0.12644335      0.56835256
      0.04872781      0.59355981
      7.21555297     -0.02464844
      1.87088514     -0.12327975
      0.65954491     -0.23805866
      0.26257619     -0.11356647
 
          11   0
s              4   1.000000
     35.24502670     -0.01198412
      6.06948524     -0.05472052
      0.48770904      0.58055871
      0.18587799      0.47700799
p              4   1.000000
      5.68065682      0.05713170
      1.47290949      0.28574555
      0.51924617      0.55178731
      0.20672085      0.26323149
s              7   1.000000
      0.38350848     -0.19594396
      0.04707223      0.94672918
      0.02222627      0.24862545
     35.24502670      0.00546924
      6.06948524      0.02497304
      0.48770904     -0.26495206
      0.18587799     -0.21769417
p              7   1.000000
      1.83062075     -0.01159559
      0.10124670      0.56982498
      0.03901771      0.59509753
      5.68065682     -0.02505257
      1.47290949     -0.12530104
      0.51924617     -0.24196186
      0.20672085     -0.11542850
 
          12   0
s              4   1.000000
     35.00398654     -0.01198412
      6.02797613     -0.05472052
      0.48437360      0.58055871
      0.18460677      0.47700799
p              4   1.000000
      5.64180690      0.05713170
      1.46283628      0.28574555
      0.51569506      0.55178731
      0.20530709      0.26323149
s              7   1.000000
      0.38350848     -0.19616672
      0.04707223      0.94780548
      0.02222627      0.24890810
     35.00398654      0.00550522
      6.02797613      0.02513730
      0.48437360     -0.26669474
      0.18460677     -0.21912602
p              7   1.000000
      1.83062075     -0.01160797
      0.10124670      0.57043347
      0.03901771      0.59573301
      5.64180690     -0.02521800
      1.46283628     -0.12612842
      0.51569506     -0.24355956
      0.20530709     -0.11619069
 
          13   0
s              4   1.000000
     34.92131479     -0.01198412
      6.01373937     -0.05472052
      0.48322962      0.58055871
      0.18417077      0.47700799
p              4   1.000000
      5.62848219      0.05713170
      1.45938138      0.28574555
      0.51447710      0.55178731
      0.20482220      0.26323149
s              7   1.000000
      0.38350848     -0.19624406
      0.04707223      0.94817918
      0.02222627      0.24900626
     34.92131479      0.00551766
      6.01373937      0.02519412
      0.48322962     -0.26729763
      0.18417077     -0.21962138
p              7   1.000000
      1.83062075     -0.01161227
      0.10124670      0.57064475
      0.03901771      0.59595370
      5.62848219     -0.02527523
      1.45938138     -0.12641464
      0.51447710     -0.24411227
      0.20482220     -0.11645436
 
          14   0
s              4   1.000000
     34.91994216     -0.01198412
      6.01350299     -0.05472052
      0.48321062      0.58055871
      0.18416353      0.47700800
p              4   1.000000
      5.62826095      0.05713170
      1.45932402      0.28574555
      0.51445688      0.55178731
      0.20481415      0.26323149
s              7   1.000000
      0.38350848     -0.19624535
      0.04707223      0.94818541
      0.02222627      0.24900789
     34.91994216      0.00551787
      6.01350299      0.02519507
      0.48321062     -0.26730766
      0.18416353     -0.21962962
p              7   1.000000
      1.83062075     -0.01161234
      0.10124670      0.57064828
      0.03901771      0.59595734
      5.62826095     -0.02527618
      1.45932402     -0.12641940
      0.51445688     -0.24412146
      0.20481415     -0.11645875
 
          15   0
s              4   1.000000
     34.92135841     -0.01198412
      6.01374688     -0.05472053
      0.48323022      0.58055871
      0.18417100      0.47700800
p              4   1.000000
      5.62848922      0.05713170
      1.45938321      0.28574555
      0.51447774      0.55178731
      0.20482245      0.26323149
s              7   1.000000
      0.38350848     -0.19624402
      0.04707223      0.94817898
      0.02222627      0.24900619
     34.92135841      0.00551765
      6.01374688      0.02519409
      0.48323022     -0.26729731
      0.18417100     -0.21962112
p              7   1.000000
      1.83062075     -0.01161227
      0.10124670      0.57064464
      0.03901771      0.59595357
      5.62848922     -0.02527520
      1.45938321     -0.12641449
      0.51447774     -0.24411197
      0.20482245     -0.11645422
 
          16   0
s              4   1.000000
     35.00293932     -0.01198412
      6.02779579     -0.05472053
      0.48435911      0.58055871
      0.18460125      0.47700800
p              4   1.000000
      5.64163811      0.05713170
      1.46279252      0.28574555
      0.51567963      0.55178731
      0.20530095      0.26323149
s              7   1.000000
      0.38350848     -0.19616769
      0.04707223      0.94781020
      0.02222627      0.24890935
     35.00293932      0.00550537
      6.02779579      0.02513801
      0.48435911     -0.26670236
      0.18460125     -0.21913228
p              7   1.000000
      1.83062075     -0.01160803
      0.10124670      0.57043613
      0.03901771      0.59573580
      5.64163811     -0.02521872
      1.46279252     -0.12613204
      0.51567963     -0.24356654
      0.20530095     -0.11619402
 
          17   0
s              4   1.000000
     35.24463962     -0.01198412
      6.06941858     -0.05472052
      0.48770368      0.58055871
      0.18587594      0.47700799
p              4   1.000000
      5.68059443      0.05713170
      1.47289331      0.28574555
      0.51924047      0.55178731
      0.20671858      0.26323149
s              7   1.000000
      0.38350848     -0.19594431
      0.04707223      0.94673089
      0.02222627      0.24862592
     35.24463962      0.00546930
      6.06941858      0.02497330
      0.48770368     -0.26495484
      0.18587594     -0.21769646
p              7   1.000000
      1.83062075     -0.01159561
      0.10124670      0.56982594
      0.03901771      0.59509854
      5.68059443     -0.02505284
      1.47289331     -0.12530236
      0.51924047     -0.24196441
      0.20671858     -0.11542971
 
          18   0
s              4   1.000000
     35.03324508     -0.01198412
      6.03301469     -0.05472052
      0.48477847      0.58055871
      0.18476107      0.47700800
p              4   1.000000
      5.64652268      0.05713170
      1.46405901      0.28574555
      0.51612611      0.55178731
      0.20547870      0.26323149
s              7   1.000000
      0.38350848     -0.19613946
      0.04707223      0.94767377
      0.02222627      0.24887352
     35.03324508      0.00550082
      6.03301469      0.02511724
      0.48477847     -0.26648200
      0.18476107     -0.21895123
p              7   1.000000
      1.83062075     -0.01160646
      0.10124670      0.57035902
      0.03901771      0.59565525
      5.64652268     -0.02519781
      1.46405901     -0.12602742
      0.51612611     -0.24336453
      0.20547870     -0.11609765
 
          19   0
s              4   1.000000
     34.98837348     -0.01198412
      6.02528743     -0.05472052
      0.48415755      0.58055871
      0.18452443      0.47700799
p              4   1.000000
      5.63929045      0.05713170
      1.46218380      0.28574555
      0.51546504      0.55178731
      0.20521551      0.26323149
s              7   1.000000
      0.38350848     -0.19618129
      0.04707223      0.94787587
      0.02222627      0.24892660
     34.98837348      0.00550756
      6.02528743      0.02514801
      0.48415755     -0.26680839
      0.18452443     -0.21921940
p              7   1.000000
      1.83062075     -0.01160878
      0.10124670      0.57047327
      0.03901771      0.59577460
      5.63929045     -0.02522879
      1.46218380     -0.12618238
      0.51546504     -0.24366375
      0.20521551     -0.11624039
 
          20   0
s              4   1.000000
     35.18265074     -0.01198412
      6.05874358     -0.05472052
      0.48684590      0.58055871
      0.18554902      0.47700800
p              4   1.000000
      5.67060330      0.05713170
      1.47030276      0.28574555
      0.51832722      0.55178731
      0.20635500      0.26323149
s              7   1.000000
      0.38350848     -0.19600121
      0.04707223      0.94700582
      0.02222627      0.24869811
     35.18265074      0.00547851
      6.05874358      0.02501534
      0.48684590     -0.26540088
      0.18554902     -0.21806294
p              7   1.000000
      1.83062075     -0.01159877
      0.10124670      0.56998137
      0.03901771      0.59526089
      5.67060330     -0.02509518
      1.47030276     -0.12551414
      0.51832722     -0.24237335
      0.20635500     -0.11562480
 
          21   0
s              4   1.000000
     35.04135388     -0.01198412
      6.03441109     -0.05472053
      0.48489068      0.58055871
      0.18480384      0.47700800
p              4   1.000000
      5.64782962      0.05713170
      1.46439788      0.28574555
      0.51624557      0.55178731
      0.20552626      0.26323149
s              7   1.000000
      0.38350848     -0.19613192
      0.04707223      0.94763733
      0.02222627      0.24886396
     35.04135388      0.00549961
      6.03441109      0.02511169
      0.48489068     -0.26642310
      0.18480384     -0.21890284
p              7   1.000000
      1.83062075     -0.01160604
      0.10124670      0.57033840
      0.03901771      0.59563373
      5.64782962     -0.02519222
      1.46439788     -0.12599946
      0.51624557     -0.24331053
      0.20552626     -0.11607189
 
          22   0
s              4   1.000000
     34.93824267     -0.01198412
      6.01665449     -0.05472052
      0.48346386      0.58055871
      0.18426004      0.47700800
p              4   1.000000
      5.63121055      0.05713170
      1.46008881      0.28574555
      0.51472649      0.55178731
      0.20492148      0.26323149
s              7   1.000000
      0.38350848     -0.19622818
      0.04707223      0.94810247
      0.02222627      0.24898610
     34.93824267      0.00551511
      6.01665449      0.02518246
      0.48346386     -0.26717396
      0.18426004     -0.21951977
p              7   1.000000
      1.83062075     -0.01161139
      0.10124670      0.57060138
      0.03901771      0.59590838
      5.63121055     -0.02526349
      1.46008881     -0.12635593
      0.51472649     -0.24399890
      0.20492148     -0.11640027
 
          23   0
s              4   1.000000
     47.13006418     -0.01198412
      8.11618704     -0.05472052
      0.65217026      0.58055871
      0.24855823      0.47700799
p              4   1.000000
     12.57784919      0.05713170
      3.26124848      0.28574555
      1.14969101      0.55178731
      0.45771180      0.26323149
s              7   1.000000
      0.68659740     -0.20804068
      0.08427369      1.00517609
      0.03979181      0.26397450
     47.13006418      0.00721111
      8.11618704      0.03292657
      0.65217026     -0.34933528
      0.24855823     -0.28702647
p              7   1.000000
      3.27737070     -0.01127506
      0.18126254      0.55407368
      0.06985363      0.57864765
     12.57784919     -0.02038273
      3.26124848     -0.10194472
      1.14969101     -0.19685977
      0.45771180     -0.09391244
 
          24   0
s              4   1.000000
     34.94508023     -0.01198412
      6.01783197     -0.05472052
      0.48355848      0.58055871
      0.18429610      0.47700799
p              4   1.000000
      5.63231261      0.05713170
      1.46037455      0.28574555
      0.51482722      0.55178731
      0.20496159      0.26323149
s              7   1.000000
      0.38350848     -0.19622178
      0.04707223      0.94807151
      0.02222627      0.24897796
     34.94508023      0.00551408
      6.01783197      0.02517776
      0.48355848     -0.26712404
      0.18429610     -0.21947875
p              7   1.000000
      1.83062075     -0.01161103
      0.10124670      0.57058388
      0.03901771      0.59589010
      5.63231261     -0.02525875
      1.46037455     -0.12633223
      0.51482722     -0.24395313
      0.20496159     -0.11637844
 
          25   0
s              4   1.000000
     35.02168835     -0.01198412
      6.03102453     -0.05472053
      0.48461855      0.58055871
      0.18470013      0.47700799
p              4   1.000000
      5.64466001      0.05713170
      1.46357605      0.28574555
      0.51595585      0.55178731
      0.20541091      0.26323149
s              7   1.000000
      0.38350848     -0.19615022
      0.04707223      0.94772577
      0.02222627      0.24888716
     35.02168835      0.00550256
      6.03102453      0.02512516
      0.48461855     -0.26656599
      0.18470013     -0.21902024
p              7   1.000000
      1.83062075     -0.01160705
      0.10124670      0.57038840
      0.03901771      0.59568596
      5.64466001     -0.02520578
      1.46357605     -0.12606730
      0.51595585     -0.24344153
      0.20541091     -0.11613438
 
          26   0
s              4   1.000000
     35.18379925     -0.01198412
      6.05894136     -0.05472052
      0.48686179      0.58055871
      0.18555508      0.47700799
p              4   1.000000
      5.67078841      0.05713170
      1.47035076      0.28574555
      0.51834414      0.55178731
      0.20636173      0.26323149
s              7   1.000000
      0.38350848     -0.19600016
      0.04707223      0.94700071
      0.02222627      0.24869677
     35.18379925      0.00547834
      6.05894136      0.02501456
      0.48686179     -0.26539260
      0.18555508     -0.21805614
p              7   1.000000
      1.83062075     -0.01159871
      0.10124670      0.56997849
      0.03901771      0.59525785
      5.67078841     -0.02509440
      1.47035076     -0.12551021
      0.51834414     -0.24236576
      0.20636173     -0.11562118
 
          27   0
s              4   1.000000
     35.25921541     -0.01198412
      6.07192865     -0.05472052
      0.48790537      0.58055871
      0.18595281      0.47700800
p              4   1.000000
      5.68294370      0.05713170
      1.47350244      0.28574555
      0.51945521      0.55178731
      0.20680407      0.26323149
s              7   1.000000
      0.38350848     -0.19593097
      0.04707223      0.94666644
      0.02222627      0.24860898
     35.25921541      0.00546714
      6.07192865      0.02496344
      0.48790537     -0.26485017
      0.18595281     -0.21761046
p              7   1.000000
      1.83062075     -0.01159487
      0.10124670      0.56978950
      0.03901771      0.59506051
      5.68294370     -0.02504290
      1.47350244     -0.12525267
      0.51945521     -0.24186844
      0.20680407     -0.11538393
 
          28   0
s              4   1.000000
      8.30690198      0.05675242
      1.52006072      0.26014135
      0.42228951      0.53284611
      0.14015409      0.29162544
s              7   1.000000
      0.92936822     -0.06733106
      0.05643440      0.66948157
      0.02166600      0.51463477
      8.30690198     -0.02902819
      1.52006072     -0.13305920
      0.42228951     -0.27254442
      0.14015409     -0.14916293
p              4   1.000000
      0.64737396      0.05713170
      0.16785440      0.28574555
      0.05917387      0.55178731
      0.02355814      0.26323150
 
          29   0
s              4   1.000000
      8.30682411      0.05675242
      1.52004647      0.26014135
      0.42228555      0.53284611
      0.14015278      0.29162544
s              7   1.000000
      0.92936822     -0.06733116
      0.05643440      0.66948256
      0.02166600      0.51463552
      8.30682411     -0.02902839
      1.52004647     -0.13306015
      0.42228555     -0.27254638
      0.14015278     -0.14916400
p              4   1.000000
      0.64737396      0.05713170
      0.16785440      0.28574555
      0.05917387      0.55178731
      0.02355814      0.26323150
 
          30   0
s              4   1.000000
      8.30600727      0.05675242
      1.51989700      0.26014135
      0.42224403      0.53284611
      0.14013900      0.29162544
s              7   1.000000
      0.92936822     -0.06733221
      0.05643440      0.66949302
      0.02166600      0.51464357
      8.30600727     -0.02903058
      1.51989700     -0.13307017
      0.42224403     -0.27256691
      0.14013900     -0.14917523
p              4   1.000000
      0.64737396      0.05713170
      0.16785440      0.28574555
      0.05917387      0.55178731
      0.02355814      0.26323150
 
          31   0
s              4   1.000000
      8.30642344      0.05675242
      1.51997315      0.26014135
      0.42226518      0.53284611
      0.14014602      0.29162544
s              7   1.000000
      0.92936822     -0.06733167
      0.05643440      0.66948769
      0.02166600      0.51463947
      8.30642344     -0.02902947
      1.51997315     -0.13306507
      0.42226518     -0.27255645
      0.14014602     -0.14916951
p              4   1.000000
      0.64737396      0.05713170
      0.16785440      0.28574555
      0.05917387      0.55178731
      0.02355814      0.26323150
 
          32   0
s              4   1.000000
      8.30632566      0.05675242
      1.51995526      0.26014135
      0.42226021      0.53284611
      0.14014437      0.29162544
s              7   1.000000
      0.92936822     -0.06733180
      0.05643440      0.66948895
      0.02166600      0.51464044
      8.30632566     -0.02902973
      1.51995526     -0.13306627
      0.42226021     -0.27255891
      0.14014437     -0.14917086
p              4   1.000000
      0.64737396      0.05713170
      0.16785440      0.28574555
      0.05917387      0.55178731
      0.02355814      0.26323150
 
          33   0
s              4   1.000000
      8.30673866      0.05675242
      1.52003083      0.26014135
      0.42228121      0.53284611
      0.14015134      0.29162544
s              7   1.000000
      0.92936822     -0.06733127
      0.05643440      0.66948365
      0.02166600      0.51463636
      8.30673866     -0.02902862
      1.52003083     -0.13306120
      0.42228121     -0.27254853
      0.14015134     -0.14916517
p              4   1.000000
      0.64737396      0.05713170
      0.16785440      0.28574555
      0.05917387      0.55178731
      0.02355814      0.26323150
 
          34   0
s              4   1.000000
      8.30992872      0.05675242
      1.52061457      0.26014135
      0.42244338      0.53284611
      0.14020516      0.29162544
s              7   1.000000
      0.92936822     -0.06732716
      0.05643440      0.66944284
      0.02166600      0.51460498
      8.30992872     -0.02902009
      1.52061457     -0.13302207
      0.42244338     -0.27246839
      0.14020516     -0.14912132
p              4   1.000000
      0.64737396      0.05713170
      0.16785440      0.28574555
      0.05917387      0.55178731
      0.02355814      0.26323150
 
          35   0
s              4   1.000000
      8.30879804      0.05675242
      1.52040767      0.26014135
      0.42238590      0.53284611
      0.14018608      0.29162544
s              7   1.000000
      0.92936822     -0.06732862
      0.05643440      0.66945731
      0.02166600      0.51461611
      8.30879804     -0.02902311
      1.52040767     -0.13303594
      0.42238590     -0.27249679
      0.14018608     -0.14913686
p              4   1.000000
      0.64737396      0.05713170
      0.16785440      0.28574555
      0.05917387      0.55178731
      0.02355814      0.26323150
 
          36   0
s              4   1.000000
      8.30888730      0.05675242
      1.52042401      0.26014135
      0.42239044      0.53284611
      0.14018759      0.29162544
s              7   1.000000
      0.92936822     -0.06732850
      0.05643440      0.66945616
      0.02166600      0.51461524
      8.30888730     -0.02902287
      1.52042401     -0.13303484
      0.42239044     -0.27249454
      0.14018759     -0.14913563
p              4   1.000000
      0.64737396      0.05713170
      0.16785440      0.28574555
      0.05917387      0.55178731
      0.02355814      0.26323150
 
          37   0
s              4   1.000000
      8.31054665      0.05675242
      1.52072765      0.26014135
      0.42247479      0.53284611
      0.14021559      0.29162544
s              7   1.000000
      0.92936822     -0.06732637
      0.05643440      0.66943494
      0.02166600      0.51459892
      8.31054665     -0.02901843
      1.52072765     -0.13301450
      0.42247479     -0.27245287
      0.14021559     -0.14911282
p              4   1.000000
      0.64737396      0.05713170
      0.16785440      0.28574555
      0.05917387      0.55178731
      0.02355814      0.26323150
 
          38   0
s              4   1.000000
      8.30921596      0.05675242
      1.52048415      0.26014135
      0.42240714      0.53284611
      0.14019313      0.29162544
s              7   1.000000
      0.92936822     -0.06732808
      0.05643440      0.66945197
      0.02166600      0.51461199
      8.30921596     -0.02902199
      1.52048415     -0.13303081
      0.42240714     -0.27248629
      0.14019313     -0.14913111
p              4   1.000000
      0.64737396      0.05713170
      0.16785440      0.28574555
      0.05917387      0.55178731
      0.02355814      0.26323150
 
          39   0
s              4   1.000000
      8.30886571      0.05675242
      1.52042006      0.26014135
      0.42238934      0.53284611
      0.14018722      0.29162544
s              7   1.000000
      0.92936822     -0.06732853
      0.05643440      0.66945644
      0.02166600      0.51461544
      8.30886571     -0.02902293
      1.52042006     -0.13303511
      0.42238934     -0.27249509
      0.14018722     -0.14913593
p              4   1.000000
      0.64737396      0.05713170
      0.16785440      0.28574555
      0.05917387      0.55178731
      0.02355814      0.26323150
 
          40   0
s              4   1.000000
      8.30882797      0.05675242
      1.52041315      0.26014135
      0.42238742      0.53284611
      0.14018659      0.29162544
s              7   1.000000
      0.92936822     -0.06732858
      0.05643440      0.66945692
      0.02166600      0.51461581
      8.30882797     -0.02902303
      1.52041315     -0.13303557
      0.42238742     -0.27249603
      0.14018659     -0.14913645
p              4   1.000000
      0.64737396      0.05713170
      0.16785440      0.28574555
      0.05917387      0.55178731
      0.02355814      0.26323150
 
          41   0
s              4   1.000000
      8.30886424      0.05675242
      1.52041979      0.26014135
      0.42238927      0.53284611
      0.14018720      0.29162544
s              7   1.000000
      0.92936822     -0.06732853
      0.05643440      0.66945646
      0.02166600      0.51461546
      8.30886424     -0.02902293
      1.52041979     -0.13303513
      0.42238927     -0.27249512
      0.14018720     -0.14913595
p              4   1.000000
      0.64737396      0.05713170
      0.16785440      0.28574555
      0.05917387      0.55178731
      0.02355814      0.26323150
 
          42   0
s              4   1.000000
      8.30921038      0.05675242
      1.52048313      0.26014135
      0.42240686      0.53284611
      0.14019304      0.29162544
s              7   1.000000
      0.92936822     -0.06732809
      0.05643440      0.66945203
      0.02166600      0.51461206
      8.30921038     -0.02902201
      1.52048313     -0.13303088
      0.42240686     -0.27248643
      0.14019304     -0.14913119
p              4   1.000000
      0.64737396      0.05713170
      0.16785440      0.28574555
      0.05917387      0.55178731
      0.02355814      0.26323150
 
          43   0
s              4   1.000000
      8.31115627      0.05675242
      1.52083920      0.26014135
      0.42250578      0.53284611
      0.14022587      0.29162544
s              7   1.000000
      0.92936822     -0.06732558
      0.05643440      0.66942715
      0.02166600      0.51459293
      8.31115627     -0.02901680
      1.52083920     -0.13300703
      0.42250578     -0.27243756
      0.14022587     -0.14910444
p              4   1.000000
      0.64737396      0.05713170
      0.16785440      0.28574555
      0.05917387      0.55178731
      0.02355814      0.26323150
 
          44   0
s              4   1.000000
      8.30935888      0.05675242
      1.52051030      0.26014135
      0.42241441      0.53284611
      0.14019555      0.29162544
s              7   1.000000
      0.92936822     -0.06732790
      0.05643440      0.66945014
      0.02166600      0.51461060
      8.30935888     -0.02902161
      1.52051030     -0.13302906
      0.42241441     -0.27248270
      0.14019555     -0.14912915
p              4   1.000000
      0.64737396      0.05713170
      0.16785440      0.28574555
      0.05917387      0.55178731
      0.02355814      0.26323150
 
          45   0
s              4   1.000000
      8.30931728      0.05675242
      1.52050269      0.26014135
      0.42241230      0.53284611
      0.14019484      0.29162544
s              7   1.000000
      0.92936822     -0.06732795
      0.05643440      0.66945067
      0.02166600      0.51461099
      8.30931728     -0.02902172
      1.52050269     -0.13302957
      0.42241230     -0.27248374
      0.14019484     -0.14912972
p              4   1.000000
      0.64737396      0.05713170
      0.16785440      0.28574555
      0.05917387      0.55178731
      0.02355814      0.26323150
 
          46   0
s              4   1.000000
      8.30905582      0.05675242
      1.52045484      0.26014135
      0.42239900      0.53284611
      0.14019043      0.29162544
s              7   1.000000
      0.92936822     -0.06732829
      0.05643440      0.66945401
      0.02166600      0.51461358
      8.30905582     -0.02902242
      1.52045484     -0.13303278
      0.42239900     -0.27249031
      0.14019043     -0.14913331
p              4   1.000000
      0.64737396      0.05713170
      0.16785440      0.28574555
      0.05917387      0.55178731
      0.02355814      0.26323150
 
          47   0
s              4   1.000000
      8.31135538      0.05675242
      1.52087564      0.26014135
      0.42251591      0.53284611
      0.14022923      0.29162544
s              7   1.000000
      0.92936822     -0.06732533
      0.05643440      0.66942460
      0.02166600      0.51459097
      8.31135538     -0.02901627
      1.52087564     -0.13300459
      0.42251591     -0.27243257
      0.14022923     -0.14910171
p              4   1.000000
      0.64737396      0.05713170
      0.16785440      0.28574555
      0.05917387      0.55178731
      0.02355814      0.26323150
 
 [MO]
 Sym= Hole
 Ene= -0.8134671    
 Spin= Alpha
 Occup= 0
           1  5.2605648E-02
           2  4.9923863E-02
           3  5.2484162E-02
           4 -7.2861716E-02
           5 -2.8542770E-02
           6 -5.0368714E-03
           7 -6.6804551E-03
           8  9.4765080E-03
           9 -1.2717418E-03
          10  2.5456422E-03
          11  2.5587052E-03
          12  5.0219875E-02
          13 -8.5794006E-04
          14 -7.3373801E-04
          15 -9.3857205E-04
          16 -6.1685117E-03
          17 -5.7333309E-02
          18 -4.3374952E-02
          19 -4.7171362E-02
          20 -0.1017170    
          21  3.0696701E-02
          22  4.1657882E-03
          23  6.4734393E-03
          24  1.3007943E-02
          25  4.3430403E-03
          26  6.1538308E-03
          27  1.6816236E-03
          28 -0.2988228    
          29 -3.9876690E-03
          30  2.2077672E-04
          31 -1.7061313E-03
          32  2.6649123E-02
          33 -1.0969624E-03
          34  1.5166616E-04
          35 -4.2277148E-05
          36  2.4470016E-02
          37  3.0114013E-04
          38 -5.5332690E-05
          39  5.6412979E-04
          40 -1.6515945E-03
          41  1.0302719E-03
          42 -9.4115324E-03
          43  1.5284825E-03
          44  0.3117464    
          45 -1.8239130E-04
          46  1.5949014E-06
          47  1.3345139E-04
          48 -1.6916320E-02
          49  6.7468896E-04
          50 -2.6661723E-03
          51  1.7799903E-03
          52  7.7539846E-02
          53 -2.8990295E-05
          54 -2.6749432E-04
          55 -2.9885847E-04
          56 -9.0525439E-03
          57 -2.1362882E-03
          58  1.2267162E-02
          59 -2.0866024E-03
          60 -0.2785610    
          61  1.2337299E-03
          62 -1.6653967E-03
          63  2.7011207E-04
          64  1.5239857E-02
          65  1.4246806E-03
          66  2.7855949E-03
          67  1.0751752E-03
          68 -0.1652506    
          69 -2.0316890E-03
          70  8.6367328E-04
          71 -7.9238473E-04
          72  2.1175677E-02
          73 -4.2695771E-03
          74  5.9035695E-03
          75  7.2669303E-03
          76  0.5102136    
          77  1.8931592E-03
          78 -1.8525011E-03
          79 -1.7519635E-03
          80 -5.9045322E-02
          81  2.4472398E-04
          82 -8.2947803E-04
          83 -2.8631667E-04
          84 -3.0357664E-02
          85 -3.2717458E-04
          86  4.1328382E-04
          87  4.4618675E-04
          88  2.5123460E-02
          89  4.6797764E-02
          90 -2.9080620E-02
          91 -3.6391363E-02
          92  5.7613503E-02
          93 -2.9227963E-02
          94  1.4133236E-02
          95  1.6677294E-02
          96 -1.0312549E-02
          97 -1.4949764E-02
          98  1.3608425E-02
          99  1.6137518E-02
         100 -2.2969735E-03
         101  5.9551988E-03
         102 -2.5769365E-03
         103 -2.8411241E-03
         104  3.6189493E-03
         105  1.0258368E-04
         106 -1.7361828E-03
         107  1.8946877E-03
         108  7.9813423E-03
         109 -6.2471066E-05
         110  1.1537050E-04
         111 -2.4750771E-04
         112 -3.0408704E-03
         113  1.4761223E-02
         114 -1.3288463E-02
         115 -1.6186198E-02
         116 -1.5585882E-03
         117 -5.8616390E-03
         118  2.5489554E-03
         119  2.3074341E-03
         120  3.5493833E-03
         121 -4.6432372E-02
         122  3.5687570E-02
         123  3.2531392E-02
         124  5.6579489E-02
         125  2.8614793E-02
         126 -1.4914179E-02
         127 -1.5846621E-02
         128 -9.5507288E-03
         129  1.4279917E-03
         130  1.0649414E-03
         131  2.5590751E-03
         132 -0.1538062    
         133 -2.0955950E-03
         134 -6.7514944E-04
         135  9.1485213E-04
         136  2.3476860E-02
         137 -2.1218294E-03
         138 -1.5851766E-03
         139  8.7880753E-03
         140 -0.1420033    
         141  1.0455530E-03
         142  5.1557616E-04
         143 -1.6217300E-03
         144  1.2101966E-02
         145  9.4629807E-04
         146  1.4443364E-03
         147 -4.5537269E-03
         148  0.1208403    
         149 -2.1814930E-04
         150 -1.4589986E-04
         151 -6.1267019E-05
         152 -1.0259508E-02
         153  5.1234564E-04
         154 -5.6723197E-04
         155 -6.4107277E-03
         156  0.2020727    
         157 -1.5621554E-04
         158  3.3490095E-04
         159  1.5672778E-04
         160 -1.8269481E-02
         161  1.1647203E-05
         162  5.8865629E-04
         163  3.7014224E-03
         164 -0.1054987    
         165  1.3671853E-04
         166  2.4350180E-04
         167 -2.3574258E-04
         168  5.9803771E-03
         169 -7.5912671E-05
         170  1.5027793E-03
         171  7.6994807E-03
         172 -0.2184372    
         173  1.3685615E-04
         174 -8.2192520E-05
         175 -5.3243776E-04
         176  1.6676467E-02
         177  1.0533139E-04
         178 -6.3157221E-04
         179 -3.1005081E-03
         180  8.7381683E-02
         181  1.1838260E-04
         182  1.1677711E-04
         183 -1.1786593E-04
         184  2.1727490E-03
         185  2.7365031E-04
         186  1.4794491E-04
         187 -9.0238813E-04
         188  2.0951541E-02
         189 -8.2703657E-05
         190 -1.4498994E-04
         191  2.8316551E-04
         192 -1.3229157E-03
         193 -5.2915316E-04
         194 -1.9177498E-03
         195 -5.6322599E-03
         196  0.2053582    
         197  5.8530504E-04
         198  1.0623565E-03
         199  3.5158661E-04
         200 -1.0362290E-02
         201 -3.7899084E-04
         202 -3.4066700E-04
         203 -1.0512093E-03
         204  2.7282100E-02
         205 -1.8653138E-04
         206  4.1556064E-04
         207  2.9918959E-04
         208 -4.5742569E-03
         209  3.2125029E-03
         210  2.8443686E-03
         211  1.0790777E-02
         212 -0.3936783    
         213 -3.5200750E-03
         214 -1.6414942E-03
         215 -2.3485957E-04
         216  3.2538548E-02
         217 -2.0110203E-02
         218 -2.1276255E-03
         219  7.5293332E-04
         220 -1.0221840E-02
         221 -1.0693844E-02
         222 -1.4747149E-02
         223 -4.5438209E-03
         224 -1.1605014E-02
         225  6.0748833E-04
         226 -1.0672951E-02
         227 -2.9492911E-02
         228  1.0372699E-03
         229  7.6995273E-03
         230  1.0707553E-02
         231  7.0807576E-04
         232  5.3132242E-03
         233  6.6413968E-03
         234  9.2291590E-03
         235  8.3314721E-03
         236 -1.1207425E-02
         237  3.1980556E-02
         238  1.8680019E-04
         239  1.7859457E-03
         240 -1.2623069E-02
         241 -4.3561081E-03
         242  3.0213371E-02
         243 -4.6104239E-04
         244 -7.7594724E-03
         245  2.9602791E-03
         246 -7.6894555E-03
         247 -5.3946686E-04
         248  1.0016572E-03
         249 -1.3293822E-04
         250  1.5354900E-03
         251  1.0595637E-03
         252 -1.1394559E-04
         253  3.0568300E-04
         254 -5.0356099E-04
         255  3.6054634E-04
         256  2.0428060E-02
         257 -1.3019093E-03
         258  3.7666882E-04
         259 -1.0533488E-04
         260 -1.9092803E-04
         261  2.7838112E-03
         262  1.3232823E-04
         263  7.5302314E-04
         264  4.5762055E-05
         265  2.9545987E-04
         266 -1.8849125E-02
         267 -1.1749976E-02
         268 -7.9798009E-03
         269  1.5041258E-02
         270  1.6580051E-02
         271 -7.1809185E-03
         272  1.8996555E-02
         273 -2.7695727E-03
         274 -1.2086740E-03
         275 -1.2275255E-03
         276  3.8112194E-04
         277 -3.4298107E-05
         278 -6.7222230E-05
         279 -1.1401146E-04
         280  3.6490359E-04
         281  3.8487462E-03
         282 -1.9264665E-02
         283  2.7391720E-03
         284  1.3320869E-03
         285  1.1996452E-03
         286  3.8826087E-04
         287  1.2518020E-02
         288  6.9606081E-03
         289 -1.4407107E-02
         290 -1.5621325E-02
         291 -6.8800095E-03
         292 -3.8169841E-05
         293  6.4849766E-04
         294  1.7499183E-04
         295 -3.8276528E-04
         296 -1.4043618E-02
         297 -1.5650155E-03
         298  4.4426240E-04
         299 -1.5402825E-04
         300 -3.3544490E-04
         301  8.0746636E-03
         302  2.3546263E-06
         303  2.5196583E-04
         304  1.3669401E-04
         305  3.1099433E-05
         306 -4.8539434E-03
         307  3.1274505E-04
         308 -2.1073049E-05
         309 -1.9482714E-04
         310  1.0817358E-05
         311 -5.5438624E-04
         312 -7.4870727E-04
         313  6.8244158E-04
         314  7.5470092E-04
         315 -5.7465327E-04
         316  1.4455108E-02
 Sym= Particle
 Ene= -0.8134671    
 Spin= Alpha
 Occup= 2
           1  1.3108162E-02
           2  1.6542582E-02
           3 -1.0968505E-03
           4  2.5273734E-03
           5 -1.7449088E-02
           6 -1.3993248E-02
           7  3.0784570E-03
           8 -3.1933540E-03
           9  1.0979931E-03
          10  4.2974772E-03
          11 -6.8917306E-04
          12 -1.6708783E-04
          13 -2.7269411E-03
          14 -7.4935862E-04
          15  8.6622691E-04
          16 -1.0060953E-02
          17 -1.0121557E-02
          18 -1.3176936E-02
          19 -3.7487086E-03
          20 -5.0490010E-03
          21  1.4630710E-02
          22  1.0774626E-02
          23 -3.7246877E-03
          24  5.4201069E-03
          25 -2.8861759E-03
          26  9.1065485E-03
          27 -2.5694941E-03
          28 -0.1774606    
          29  1.3301955E-03
          30 -3.2705765E-03
          31  1.9559569E-03
          32  8.3583325E-02
          33  9.8550227E-04
          34  4.5116376E-03
          35 -5.4908899E-04
          36 -0.1829245    
          37 -1.6939641E-03
          38 -1.1992624E-03
          39 -7.5233192E-04
          40  7.2958328E-02
          41 -2.3176898E-04
          42 -1.0787881E-02
          43  1.2404899E-03
          44  0.3737429    
          45  4.9598311E-04
          46  3.2306998E-03
          47  3.4718294E-05
          48 -0.1153831    
          49 -4.5178074E-04
          50  6.4744256E-03
          51 -1.8222642E-03
          52 -0.2347345    
          53  7.5183442E-04
          54 -2.2972026E-03
          55  5.7829317E-04
          56  8.3250500E-02
          57  1.2311292E-03
          58  1.1605752E-04
          59 -6.5535639E-04
          60 -0.1019263    
          61 -8.0499332E-04
          62  2.9099139E-04
          63 -2.6608439E-04
          64  3.6582675E-02
          65 -3.2723402E-03
          66 -1.3190429E-02
          67 -4.2115902E-03
          68  0.4441812    
          69  2.1874383E-03
          70  5.7849186E-03
          71  2.4178696E-03
          72 -0.2005923    
          73  3.2579561E-03
          74 -3.6534811E-03
          75 -5.6380588E-03
          76 -0.2989510    
          77 -1.8599109E-03
          78  5.9874298E-04
          79  3.4614197E-05
          80  0.1663850    
          81  1.0409824E-03
          82  1.6705785E-02
          83 -1.9412220E-02
          84 -1.0080233E-02
          85  1.0971899E-04
          86 -7.1882252E-03
          87  7.3464955E-03
          88 -1.4605183E-02
          89 -3.1999774E-02
          90  2.2579283E-02
          91  1.5071685E-02
          92 -2.1770662E-02
          93  4.0029772E-02
          94 -2.2314636E-02
          95 -1.7831588E-02
          96  1.1522829E-02
          97  8.0645205E-03
          98 -2.9857470E-02
          99  1.1196407E-02
         100  1.3814047E-03
         101  2.2745593E-03
         102  1.0059881E-02
         103 -1.0113582E-03
         104 -1.4373242E-03
         105 -3.9331286E-04
         106  1.4418159E-02
         107 -1.4388211E-02
         108 -5.0807837E-03
         109  1.4339887E-03
         110 -3.2793237E-03
         111  3.7786548E-03
         112  4.3750131E-03
         113 -8.3155520E-03
         114  1.6897941E-02
         115 -2.8324060E-04
         116 -4.5475012E-04
         117  2.7013526E-04
         118 -7.0742448E-03
         119 -1.9649465E-03
         120  3.2601232E-04
         121  3.1063272E-02
         122 -4.4874880E-02
         123  5.4708952E-03
         124 -1.9023029E-02
         125 -3.7471335E-02
         126  2.8497130E-02
         127  1.0203945E-02
         128  9.9322721E-03
         129 -1.5974166E-03
         130  7.4801227E-04
         131 -6.5898988E-03
         132  0.2260865    
         133  9.2587055E-04
         134 -1.1646879E-04
         135  2.2233417E-04
         136 -0.1071653    
         137  3.0057868E-03
         138  1.0705779E-03
         139  2.8840473E-04
         140 -8.8668898E-02
         141 -1.9330588E-03
         142 -1.9593746E-03
         143 -6.8564451E-04
         144  2.5268747E-02
         145 -1.1737521E-03
         146 -1.1062433E-03
         147  2.1492585E-03
         148 -5.8384236E-02
         149  7.4041099E-04
         150 -1.8497923E-04
         151 -1.4058469E-03
         152  2.5466176E-02
         153  8.9857425E-04
         154 -5.1782891E-04
         155 -6.4688032E-03
         156  0.1757033    
         157 -1.0845828E-03
         158  1.8499819E-04
         159  2.1621215E-03
         160 -7.1080878E-02
         161  3.7662354E-05
         162 -1.3909468E-03
         163 -5.0896849E-03
         164  0.1555121    
         165 -4.2931020E-04
         166  4.7527871E-04
         167  9.5407403E-04
         168 -3.8178507E-02
         169  4.8553114E-04
         170  1.7274581E-03
         171  1.0877809E-02
         172 -0.3133007    
         173 -7.9474534E-04
         174 -9.4021263E-04
         175 -4.6373229E-03
         176  0.1306925    
         177  1.2497706E-04
         178 -1.0386338E-03
         179 -2.3263355E-03
         180  7.3033690E-02
         181  7.3080300E-04
         182  5.7710218E-04
         183  1.7405261E-03
         184 -5.7542715E-02
         185  1.2168185E-04
         186 -1.3668233E-03
         187 -4.3637259E-03
         188  0.1216028    
         189 -7.9612317E-04
         190  6.8334257E-04
         191  1.2244503E-03
         192 -3.6528103E-02
         193  3.8806302E-04
         194 -1.3791170E-03
         195 -5.5542472E-03
         196  0.1489365    
         197 -1.5997223E-03
         198  5.1491696E-04
         199  2.7555102E-03
         200 -6.2250972E-02
         201 -6.6007749E-05
         202  1.7018564E-03
         203  1.1666544E-02
         204 -0.3471371    
         205 -1.2037748E-03
         206 -3.7083976E-04
         207 -4.7542187E-03
         208  0.1334322    
         209  1.8407076E-03
         210 -1.0770304E-03
         211 -8.9639928E-03
         212  0.1025239    
         213 -2.8753493E-03
         214  1.6762317E-03
         215  4.8625972E-03
         216 -4.2868376E-02
         217 -1.2202594E-02
         218  3.9226469E-04
         219 -2.0085252E-03
         220 -8.3977794E-03
         221 -4.2038136E-03
         222 -2.2090941E-05
         223 -1.2729231E-02
         224 -2.0915499E-02
         225  1.1540900E-03
         226  7.0989500E-03
         227 -8.6742137E-03
         228 -7.7509484E-04
         229 -6.8904751E-04
         230  3.6425975E-03
         231 -3.8235602E-03
         232 -4.1908305E-03
         233  1.1203971E-02
         234  3.6978454E-03
         235 -1.1383737E-02
         236  3.0515620E-03
         237 -3.7518719E-03
         238  1.0596714E-02
         239  1.6434288E-02
         240 -9.0148783E-04
         241  6.4550532E-04
         242  1.5199889E-02
         243 -6.8342662E-03
         244  3.5751204E-03
         245  5.8871745E-03
         246 -5.1854756E-03
         247  1.0781022E-03
         248 -8.1859669E-04
         249  2.9002335E-03
         250 -8.8285451E-05
         251 -3.6324110E-02
         252  1.8337918E-04
         253  1.1732365E-03
         254 -2.8688256E-03
         255  1.2072589E-03
         256  9.7639419E-02
         257  1.0000713E-03
         258  1.1740046E-03
         259  1.8157108E-03
         260 -5.9114490E-04
         261 -6.2291697E-02
         262  1.1865277E-03
         263 -4.3090916E-04
         264  1.3453956E-03
         265 -4.6702381E-04
         266 -5.0216481E-02
         267  5.7889046E-03
         268  1.5525213E-02
         269 -1.7073080E-02
         270 -1.4887637E-02
         271 -2.2955227E-03
         272 -6.1810631E-03
         273  4.2520966E-03
         274 -5.7493849E-03
         275  3.7612242E-03
         276 -2.2591616E-03
         277  3.9063802E-04
         278  1.0248457E-04
         279  3.7317777E-03
         280 -2.4853048E-03
         281 -3.5892280E-03
         282  6.0970671E-03
         283 -3.3734741E-03
         284  4.2894292E-03
         285 -1.9208820E-03
         286 -1.1161963E-03
         287 -6.9787940E-03
         288 -1.4501606E-02
         289  1.1051624E-02
         290  1.9551810E-02
         291 -3.4303342E-03
         292 -7.5604185E-04
         293  3.1152135E-04
         294 -1.4178142E-03
         295  2.7487935E-03
         296 -3.7221964E-02
         297  1.0740048E-03
         298 -6.6999230E-05
         299 -5.9805112E-04
         300  8.2715903E-04
         301 -6.9887685E-03
         302  2.8051087E-05
         303  2.1590883E-04
         304 -4.6602861E-05
         305 -1.7091647E-03
         306  4.4407975E-02
         307 -1.0115252E-04
         308 -4.7004894E-05
         309 -1.5454921E-04
         310 -7.2500238E-04
         311  3.7115060E-02
         312 -5.8737111E-05
         313 -1.2744643E-03
         314 -1.4452587E-03
         315  2.0999114E-03
         316  3.0922979E-02
 Sym= Hole
 Ene= -0.1612767    
 Spin= Alpha
 Occup= 0
           1 -1.0891843E-03
           2  4.6368930E-03
           3  1.6936405E-03
           4 -1.0624904E-02
           5 -1.5667659E-04
           6  1.8496315E-03
           7 -7.0669869E-04
           8 -2.9229038E-04
           9  3.0345595E-04
          10  9.7639317E-04
          11 -1.6161500E-04
          12  5.2431864E-03
          13 -1.2782392E-04
          14  2.3396091E-05
          15 -1.3233528E-04
          16 -2.0310821E-03
          17  1.0189896E-03
          18 -9.2459219E-03
          19  1.2602293E-04
          20 -1.1529000E-02
          21  4.4409337E-04
          22 -1.2707288E-03
          23  2.9394234E-04
          24  3.7993205E-04
          25  2.8774990E-03
          26 -1.2656797E-02
          27  1.3916194E-03
          28  0.2029540    
          29 -1.5027720E-03
          30  5.2113330E-04
          31  1.2943645E-04
          32  4.7945199E-03
          33 -2.9483772E-04
          34  4.5936652E-03
          35 -1.5546554E-03
          36 -0.1371515    
          37  1.3884930E-04
          38 -1.0313246E-04
          39  4.9554551E-04
          40 -1.8275969E-03
          41  2.3506423E-04
          42  7.7804551E-03
          43 -1.2504826E-03
          44 -0.3154558    
          45 -2.0943077E-04
          46  3.8055071E-04
          47  9.9559198E-05
          48 -5.4986747E-03
          49  5.6877558E-04
          50  4.2623994E-03
          51 -5.5085757E-04
          52 -0.1339124    
          53 -1.7300491E-04
          54  3.7594447E-05
          55 -1.5148685E-04
          56 -1.4920268E-03
          57  3.7750596E-04
          58 -7.7026715E-03
          59  9.7593362E-04
          60  0.2056662    
          61 -1.5737381E-04
          62 -4.5301343E-04
          63  3.8829626E-06
          64  3.5395408E-03
          65  6.7490747E-04
          66 -9.5440792E-03
          67  5.4746065E-03
          68  0.3324318    
          69 -4.0717161E-04
          70 -2.1935086E-04
          71 -2.8195829E-04
          72 -3.2428236E-04
          73  5.2355207E-04
          74 -2.4055260E-04
          75 -2.8401015E-03
          76 -0.1239079    
          77 -1.4361167E-04
          78  9.3918346E-04
          79 -6.4271869E-04
          80  3.8436381E-03
          81 -3.2086391E-04
          82  1.5240409E-03
          83 -6.2774270E-05
          84  1.3608246E-02
          85  1.9564475E-04
          86 -4.2287753E-05
          87 -1.2708953E-04
          88 -2.2543245E-03
          89 -1.1169433E-02
          90  1.1175999E-02
          91  7.3526558E-03
          92 -1.5911434E-02
          93  4.6461793E-03
          94 -3.5374664E-04
          95 -2.4746314E-03
          96  1.1823210E-03
          97  3.5509637E-03
          98  3.8572875E-04
          99 -8.7642949E-03
         100  5.2864553E-04
         101 -1.2935960E-03
         102 -6.9426198E-04
         103  4.0772339E-04
         104 -8.0930744E-04
         105 -8.2938946E-05
         106 -5.3144171E-04
         107  6.5029546E-04
         108 -1.1356384E-03
         109 -3.4550510E-06
         110 -1.0190982E-05
         111  5.6324494E-05
         112  1.7366149E-03
         113 -3.5454216E-03
         114 -6.1435107E-04
         115  9.1666300E-03
         116  6.7026436E-04
         117  1.1491592E-03
         118  6.7459035E-04
         119 -2.5980963E-04
         120 -7.8596448E-04
         121  1.1063148E-02
         122 -1.0830215E-02
         123 -8.5360995E-03
         124 -1.6217943E-02
         125 -4.5613046E-03
         126  4.4057265E-04
         127  2.4578334E-03
         128  8.2438928E-04
         129 -5.7865202E-04
         130 -5.4586469E-03
         131  1.1405836E-02
         132 -0.3301664    
         133  6.3829724E-04
         134  2.2136254E-04
         135  2.6135062E-04
         136 -8.4052747E-03
         137  1.1521145E-03
         138  8.9607813E-04
         139 -4.8497166E-03
         140  0.1044095    
         141 -5.2652822E-04
         142 -6.0803373E-05
         143  7.2045060E-04
         144 -3.7733356E-03
         145 -6.8085454E-04
         146 -7.9754135E-04
         147 -1.0780180E-02
         148  0.3112214    
         149  2.7560676E-04
         150  2.4652181E-04
         151 -1.6419300E-04
         152  3.0965186E-03
         153 -4.7763088E-04
         154 -7.9628569E-04
         155 -2.3867604E-03
         156  0.1135373    
         157  1.6685438E-04
         158 -5.8493992E-05
         159  8.3764717E-05
         160  4.2980914E-03
         161  1.6446720E-04
         162  2.3041829E-03
         163  1.0082208E-02
         164 -0.3024687    
         165 -9.9718724E-05
         166 -4.4829078E-05
         167  1.7928227E-04
         168 -5.6754705E-03
         169 -2.0736599E-05
         170  1.9965607E-03
         171  9.8268986E-03
         172 -0.2758365    
         173 -7.7385124E-07
         174  4.6936148E-05
         175  4.6949284E-05
         176 -4.5658401E-03
         177  3.3899149E-05
         178 -9.0368261E-04
         179 -4.9094791E-03
         180  0.1344901    
         181 -4.1510626E-05
         182 -2.1055878E-04
         183 -8.1137544E-04
         184  2.5278820E-02
         185 -5.5471337E-06
         186 -1.3936104E-04
         187 -2.2067511E-03
         188  5.9061259E-02
         189 -6.9669128E-05
         190  1.2490571E-04
         191  2.7274652E-04
         192 -6.3083349E-03
         193  9.9182376E-05
         194 -1.6415885E-03
         195 -7.8157410E-03
         196  0.2694607    
         197 -2.5152476E-04
         198 -1.9394769E-04
         199 -5.5467452E-05
         200  1.0616640E-03
         201  6.4457097E-04
         202  8.8138775E-05
         203 -5.7254755E-03
         204  0.1359762    
         205 -4.1238271E-04
         206 -6.7782280E-04
         207 -1.6234939E-04
         208  5.0524962E-03
         209 -3.6806290E-03
         210 -2.0325538E-03
         211  1.1059342E-02
         212 -0.2396709    
         213  1.7205918E-03
         214  3.4184227E-04
         215  1.0118771E-04
         216 -7.7813528E-03
         217  1.9492804E-03
         218 -1.7527762E-03
         219  2.2627275E-04
         220  1.1367097E-03
         221  1.1592214E-03
         222 -5.1961583E-03
         223  1.7633049E-03
         224 -1.2731439E-03
         225  3.1555380E-04
         226  4.4386144E-04
         227 -1.2654903E-03
         228 -1.0526774E-04
         229 -1.0408603E-03
         230  6.5532967E-04
         231 -5.9559697E-04
         232  2.0761730E-03
         233  2.7764746E-04
         234  2.5568444E-03
         235 -2.2500078E-03
         236  1.8449995E-03
         237  7.7864621E-03
         238 -1.6045746E-03
         239  2.6436744E-04
         240 -1.9220452E-04
         241 -1.3317677E-04
         242 -6.2441132E-03
         243  1.6351610E-03
         244 -4.5832267E-04
         245 -7.1531837E-04
         246 -2.9375698E-04
         247 -1.3552927E-03
         248  3.7207606E-04
         249 -5.5579407E-05
         250  2.3434202E-05
         251  1.6502960E-03
         252 -6.3414325E-04
         253  3.2099633E-05
         254 -2.6687043E-04
         255  2.1339689E-05
         256  6.5465276E-03
         257  9.3899050E-04
         258  1.1801364E-04
         259 -1.9035120E-04
         260  1.3246945E-04
         261  2.5042819E-03
         262 -1.5222351E-03
         263  1.7638440E-04
         264  2.8055935E-04
         265 -2.6160883E-04
         266 -4.9940748E-03
         267  3.6242472E-03
         268  9.5136056E-04
         269 -1.9961584E-03
         270 -3.4378292E-03
         271  1.5857407E-03
         272 -5.1577371E-03
         273  3.7584524E-04
         274  4.8836385E-04
         275  1.5370697E-03
         276 -5.8860482E-05
         277  9.8279786E-05
         278  2.1642589E-05
         279 -2.0809253E-05
         280  2.9222563E-05
         281 -8.4118359E-04
         282  5.5343378E-03
         283 -3.7900746E-04
         284 -5.0908589E-04
         285 -1.5686657E-03
         286  5.4524160E-05
         287 -3.9910055E-03
         288 -8.7322545E-04
         289  1.8751113E-03
         290  3.6319906E-03
         291  1.5893384E-03
         292  1.1681829E-03
         293 -2.5409876E-04
         294 -1.3390149E-04
         295 -3.1992167E-04
         296  7.4785100E-03
         297 -2.8398549E-04
         298 -1.1167079E-04
         299  1.7070955E-04
         300 -1.3105468E-05
         301  1.2195091E-03
         302 -4.6773188E-04
         303  4.6034045E-05
         304  5.7739344E-05
         305  2.6608133E-04
         306 -6.6827200E-03
         307  1.3570608E-04
         308 -7.0265029E-05
         309 -4.7858393E-05
         310  1.3133009E-06
         311  1.9312651E-03
         312 -3.8770825E-04
         313 -1.1487372E-05
         314 -1.8009973E-04
         315  4.4302731E-05
         316  3.7820356E-03
 Sym= Particle
 Ene= -0.1612767    
 Spin= Alpha
 Occup= 2
           1 -2.4223577E-02
           2 -2.2456512E-02
           3 -1.0456304E-02
           4  1.8064186E-02
           5  2.3863195E-02
           6  2.1390270E-02
           7  1.9157117E-03
           8 -9.6239252E-03
           9 -2.3873174E-04
          10 -2.8912551E-03
          11 -1.8906437E-03
          12  1.1846051E-02
          13  1.8672712E-04
          14  4.8491947E-04
          15  1.8877566E-03
          16  9.1543393E-03
          17  2.5576012E-02
          18  7.4965651E-03
          19  1.0751856E-02
          20  2.7908346E-02
          21 -2.4937052E-02
          22 -1.9005682E-02
          23  5.0039706E-04
          24 -1.3712643E-02
          25  1.8833103E-03
          26 -9.9143963E-03
          27  2.0541311E-03
          28  0.2080152    
          29 -2.2258417E-04
          30  2.4561060E-03
          31  3.5704699E-04
          32 -6.4292878E-02
          33 -1.0204287E-04
          34 -4.3030181E-03
          35 -1.0031563E-03
          36  0.1564945    
          37  3.2157559E-04
          38  1.4624168E-03
          39  1.7138143E-03
          40 -6.2141482E-02
          41 -3.0437796E-04
          42  1.0484742E-02
          43 -2.0957920E-03
          44 -0.3699191    
          45  3.5139173E-04
          46 -3.2067923E-03
          47  1.1206171E-03
          48  0.1062464    
          49 -3.8198245E-04
          50 -5.7172542E-03
          51 -2.8845968E-04
          52  0.2097641    
          53  1.7240738E-04
          54  1.5949365E-03
          55  7.4967404E-04
          56 -6.7888975E-02
          57  1.0608535E-03
          58 -5.0133020E-03
          59  1.1413025E-03
          60  0.1413013    
          61 -4.1837423E-04
          62  6.3553348E-04
          63 -4.9288012E-04
          64 -3.9071452E-02
          65 -1.3099684E-03
          66  1.1993486E-02
          67 -3.0582217E-03
          68 -0.3688553    
          69  1.8632554E-03
          70 -5.4253461E-03
          71  1.1394670E-03
          72  0.1431253    
          73  9.9616253E-04
          74 -8.3675887E-04
          75  1.1787842E-03
          76  3.2974191E-02
          77 -1.2351112E-03
          78  1.5209243E-03
          79 -3.6506835E-04
          80 -2.6274126E-02
          81 -2.4931235E-04
          82 -5.0584623E-03
          83  5.9526945E-03
          84  4.6246811E-03
          85 -2.3229621E-04
          86  1.6687678E-03
          87 -2.4602003E-03
          88 -5.5141211E-03
          89  3.3680596E-03
          90  1.1961549E-02
          91 -1.3802272E-02
          92  1.8211121E-03
          93 -3.4380574E-03
          94 -4.0145968E-03
          95  3.8952960E-03
          96 -1.5048047E-03
          97 -1.0460003E-03
          98 -3.3421428E-03
          99  5.7327687E-03
         100 -1.8453519E-04
         101  2.0626168E-04
         102  1.7279957E-03
         103 -3.6386633E-03
         104  9.2784793E-04
         105  3.9917778E-04
         106 -3.4527979E-03
         107  4.2399932E-03
         108  6.6504546E-04
         109 -5.1621173E-04
         110  8.4326253E-04
         111 -1.2629257E-03
         112 -5.7783120E-05
         113  1.3422064E-03
         114  7.2000045E-03
         115 -8.2948739E-03
         116  5.3947861E-04
         117 -8.4493787E-04
         118 -2.8858504E-03
         119  4.2809895E-03
         120  2.2561447E-04
         121 -2.9853447E-03
         122 -5.5939099E-03
         123  7.9536838E-03
         124  2.2737132E-03
         125  2.6429382E-03
         126  1.6222012E-03
         127 -2.0564925E-03
         128 -1.3839351E-03
         129 -1.4254892E-05
         130  2.5518832E-03
         131 -8.9672031E-03
         132  0.2634087    
         133  1.5194192E-04
         134 -1.3785248E-03
         135  3.5040074E-03
         136 -7.5318716E-02
         137 -6.4031774E-04
         138 -5.1211816E-04
         139  9.5369481E-03
         140 -0.2475501    
         141  1.3712801E-04
         142 -1.1316008E-04
         143 -2.0203651E-03
         144  7.2016940E-02
         145  8.1842160E-04
         146  4.0840765E-04
         147  3.8012696E-04
         148 -1.1683103E-02
         149 -4.6391410E-04
         150  1.0911050E-04
         151  1.9163598E-04
         152  1.2264706E-03
         153 -1.9093059E-04
         154 -1.5937221E-03
         155 -8.6193653E-03
         156  0.2721909    
         157  2.9624212E-05
         158  8.9660642E-04
         159  3.5506119E-03
         160 -9.1320314E-02
         161  2.1171763E-04
         162 -6.9525337E-04
         163 -3.7665209E-03
         164  0.1075942    
         165 -2.9537870E-04
         166  5.0226221E-04
         167  8.7727094E-04
         168 -2.4671460E-02
         169  6.3424552E-05
         170  2.3371757E-03
         171  1.3067547E-02
         172 -0.3688236    
         173 -2.7450346E-04
         174 -1.2395091E-03
         175 -5.7375999E-03
         176  0.1478236    
         177  2.6478447E-04
         178 -8.3939428E-04
         179 -2.9451111E-03
         180  8.8292830E-02
         181  2.3593618E-04
         182  1.7723863E-04
         183  2.2059972E-03
         184 -6.3637957E-02
         185  2.2767906E-04
         186 -1.9524985E-03
         187 -6.8664150E-03
         188  0.1986323    
         189 -5.7427905E-04
         190  1.1005579E-03
         191  1.8606515E-03
         192 -6.0211219E-02
         193  7.1089604E-04
         194 -1.1045452E-05
         195 -3.7744087E-03
         196  0.1221597    
         197 -1.3280425E-03
         198 -1.1855570E-03
         199  1.4313867E-03
         200 -4.5348100E-02
         201 -1.6176628E-04
         202  2.0146954E-03
         203  1.2581877E-02
         204 -0.3844545    
         205 -5.6846726E-05
         206 -9.2456082E-04
         207 -4.2225919E-03
         208  0.1312357    
         209 -1.0795728E-03
         210 -8.8469224E-04
         211  4.4323504E-03
         212  2.0375555E-02
         213  5.1312655E-04
         214  6.9928254E-05
         215 -1.4786612E-03
         216 -2.9806256E-02
         217  1.4388298E-02
         218 -2.2431635E-03
         219 -5.6406469E-03
         220 -1.2302403E-02
         221  8.9428043E-03
         222 -3.3062573E-05
         223  9.8532615E-03
         224  2.5081651E-02
         225  1.6740696E-03
         226 -5.9535298E-03
         227  1.0662653E-02
         228  1.3581327E-03
         229 -5.0224988E-03
         230 -6.7099878E-03
         231  8.5507007E-04
         232 -1.6691698E-05
         233 -8.5185431E-03
         234 -1.3217199E-02
         235 -1.0069051E-04
         236 -3.4441245E-03
         237 -3.0059302E-03
         238 -7.5516743E-03
         239 -1.4030760E-02
         240  3.5600429E-03
         241  6.8562262E-04
         242 -2.3886910E-02
         243  3.8483213E-03
         244  1.5542525E-02
         245  1.1284418E-02
         246  1.0174307E-02
         247 -1.5993560E-03
         248  9.2351949E-04
         249 -7.9753494E-04
         250  3.0616709E-04
         251  2.5633972E-02
         252 -6.3456129E-04
         253 -3.2686803E-04
         254  2.7133282E-03
         255 -1.0161112E-03
         256 -9.1252282E-02
         257 -8.2889870E-05
         258 -7.0922403E-04
         259 -1.7367855E-03
         260  1.8427713E-04
         261  5.6855727E-02
         262 -7.9008617E-04
         263 -2.0830645E-04
         264 -1.5587551E-03
         265 -6.9732231E-04
         266  3.6520705E-02
         267 -1.4256932E-03
         268  1.6369061E-04
         269  6.2622428E-03
         270 -4.5673726E-03
         271  2.8435041E-03
         272  1.2403681E-04
         273 -7.7700615E-04
         274  1.9903795E-04
         275  1.9807280E-03
         276  6.1709777E-04
         277 -1.0522674E-03
         278  1.2762741E-03
         279 -6.9228705E-04
         280  2.6794869E-04
         281  4.9939798E-04
         282 -1.4093010E-03
         283  2.2648661E-03
         284  3.6762070E-04
         285 -2.0724740E-03
         286  1.4254179E-05
         287  1.5057432E-03
         288  2.6119078E-04
         289 -2.8125888E-03
         290  2.4252387E-03
         291  4.2513669E-03
         292 -5.4907246E-04
         293  5.7325780E-04
         294 -1.6132761E-04
         295  1.0984796E-03
         296 -5.0220460E-02
         297 -1.3810804E-03
         298  1.2585515E-03
         299  1.9472405E-04
         300 -1.1977932E-03
         301  5.4437867E-03
         302 -1.1885846E-04
         303 -2.0831726E-04
         304  1.3371292E-04
         305 -1.7105605E-03
         306  4.0908027E-02
         307 -5.4919458E-04
         308  7.7188463E-04
         309  6.7534239E-04
         310 -1.4486861E-03
         311  5.6363460E-02
         312  3.2598985E-04
         313 -5.1725708E-04
         314 -1.9655635E-03
         315 -7.7069172E-04
         316  3.2662340E-02
 Sym= Hole
 Ene= -9.2556529E-02
 Spin= Alpha
 Occup= 0
           1  2.1675212E-02
           2  3.4899323E-03
           3  3.4744214E-02
           4 -2.8166842E-02
           5 -6.1918441E-03
           6 -4.0936223E-04
           7  6.1248862E-03
           8  3.1313996E-03
           9 -4.0567576E-04
          10  3.3165626E-03
          11 -6.0149276E-04
          12  3.5449378E-02
          13 -3.7940255E-05
          14  1.9865143E-04
          15 -7.9530239E-04
          16  1.0095685E-02
          17 -2.3257112E-02
          18 -6.7617646E-03
          19 -2.6261711E-02
          20 -4.2891495E-02
          21  6.5146540E-03
          22  9.3787134E-04
          23 -7.0639537E-03
          24  1.8173717E-03
          25  3.2786415E-03
          26 -7.0590572E-03
          27  8.7733672E-04
          28 -7.8101004E-03
          29 -1.4358000E-03
          30  1.6513362E-04
          31 -4.2119424E-05
          32  1.6334927E-05
          33 -7.2536740E-04
          34 -1.3969107E-04
          35 -8.5374742E-04
          36  4.9387097E-02
          37  2.3060138E-04
          38 -1.5366016E-04
          39  3.2562634E-04
          40  3.9716004E-03
          41  6.8570813E-04
          42 -3.4097959E-03
          43  4.5756885E-04
          44  6.6769220E-02
          45 -5.0667146E-05
          46 -1.4722864E-04
          47  2.3586665E-04
          48  3.9401203E-03
          49 -2.9736187E-04
          50 -6.9888186E-04
          51 -1.7392650E-04
          52  3.7622899E-02
          53  2.4971733E-04
          54 -2.6943948E-04
          55  1.3721031E-04
          56  1.3342857E-03
          57  1.1738929E-03
          58 -9.2728616E-04
          59  5.9588667E-04
          60 -3.4168568E-02
          61 -2.6737779E-04
          62  1.2563261E-04
          63 -2.7196709E-04
          64 -3.6558057E-03
          65 -9.1979152E-04
          66  5.1085795E-03
          67 -9.4096782E-04
          68 -0.1040668    
          69  2.6153910E-04
          70 -1.7337536E-05
          71 -2.1168476E-04
          72 -6.0763555E-03
          73  5.4136937E-04
          74 -1.9924752E-03
          75  4.8468375E-04
          76 -6.3212700E-02
          77 -1.2151327E-04
          78  7.2315910E-05
          79  1.1420796E-04
          80  2.4882141E-03
          81 -8.8284149E-05
          82 -1.4911727E-03
          83  1.6971838E-03
          84  4.0816371E-03
          85 -6.5352083E-06
          86 -2.2086425E-04
          87 -9.2916860E-05
          88 -3.6145791E-03
          89 -4.4439198E-03
          90 -3.6840462E-03
          91  9.5554860E-03
          92 -7.1359705E-03
          93  2.1194443E-03
          94 -4.1935821E-03
          95 -5.8373826E-04
          96  7.5052259E-04
          97  1.3236206E-03
          98 -9.2214989E-03
          99  6.0669961E-03
         100  1.0634043E-03
         101 -8.8962202E-04
         102  3.3070831E-04
         103 -2.0972233E-04
         104 -3.2197233E-04
         105  5.1470415E-05
         106  1.8816921E-03
         107 -1.7816540E-03
         108 -1.6295607E-03
         109  8.7731505E-06
         110  3.9033104E-05
         111 -8.4594940E-05
         112  4.8243888E-05
         113 -1.4870716E-03
         114  1.0431464E-02
         115 -7.1035102E-03
         116  4.8351861E-04
         117  8.6327433E-04
         118 -3.0031221E-04
         119  1.0003403E-04
         120 -3.4679321E-04
         121  4.6951328E-03
         122  2.1422793E-05
         123 -6.8176589E-03
         124 -7.2437343E-03
         125 -2.0898043E-03
         126  3.9428007E-03
         127  6.1914447E-04
         128  3.8893500E-04
         129  1.2416103E-04
         130  1.9156628E-03
         131 -3.8024103E-03
         132  0.1244700    
         133 -1.2746982E-04
         134  2.4423609E-04
         135 -1.5477897E-04
         136  1.7573270E-03
         137 -2.8175503E-04
         138  2.2418251E-04
         139 -1.5720952E-02
         140  0.4460748    
         141 -4.6621815E-05
         142  4.8789701E-05
         143 -2.1712088E-04
         144  6.9467886E-03
         145  1.9631794E-04
         146  5.4325559E-04
         147 -7.5500128E-03
         148  0.2317022    
         149 -1.2209575E-04
         150 -1.5515885E-04
         151 -6.1231942E-05
         152  3.5748915E-03
         153 -5.7239633E-04
         154  4.7875804E-04
         155  1.0721389E-02
         156 -0.3200105    
         157 -3.3387321E-05
         158 -1.4482369E-04
         159  4.6384844E-04
         160 -6.1228387E-03
         161  3.7694382E-04
         162  1.8485297E-03
         163  4.7119386E-03
         164 -0.1408093    
         165 -1.0145925E-04
         166  8.8825174E-05
         167 -1.4578168E-04
         168  3.3464055E-03
         169 -4.1398921E-04
         170 -1.6305945E-03
         171 -7.4343616E-03
         172  0.2123825    
         173  7.8936086E-05
         174 -8.2657163E-05
         175 -2.4298130E-04
         176  7.8981593E-03
         177  2.6037189E-04
         178  1.0522362E-03
         179  4.0563447E-03
         180 -0.1191574    
         181 -8.7020555E-05
         182  1.6586520E-04
         183  8.9768163E-04
         184 -2.5601858E-02
         185  1.2323901E-04
         186 -2.4508624E-03
         187 -1.4571920E-02
         188  0.4272170    
         189 -1.0693045E-04
         190 -1.5270305E-04
         191 -1.2904663E-05
         192  7.5746044E-03
         193 -7.1901025E-04
         194 -1.7089758E-03
         195 -3.1977131E-03
         196  0.1249518    
         197  2.2201959E-04
         198  5.1570114E-05
         199 -6.8694746E-05
         200  1.7203725E-03
         201  6.0227886E-04
         202  3.7960208E-03
         203  1.2880617E-02
         204 -0.4080996    
         205 -1.8846428E-04
         206  1.3628219E-04
         207  3.5765374E-04
         208 -1.0676962E-02
         209 -2.0470840E-03
         210 -2.8114726E-03
         211  9.0808012E-03
         212 -0.2351530    
         213  7.7953830E-04
         214  4.7795664E-05
         215  1.1182413E-04
         216 -2.5147451E-03
         217  6.2540048E-03
         218  1.5320517E-03
         219  3.4504638E-03
         220  2.3786763E-03
         221 -5.5036298E-03
         222 -2.1481385E-02
         223  2.1257424E-03
         224 -5.2161789E-03
         225  1.7676745E-03
         226 -3.3120618E-03
         227 -1.1241175E-02
         228  5.7894754E-04
         229  2.0371673E-03
         230  2.5429733E-03
         231  3.9194510E-03
         232  7.5214831E-03
         233 -2.2065667E-03
         234  3.7403794E-03
         235  1.9838191E-03
         236 -5.3826985E-03
         237  2.3507711E-02
         238 -1.7506406E-03
         239  1.0497073E-03
         240 -4.1427659E-03
         241  2.3092751E-03
         242 -1.9224091E-03
         243 -1.4056234E-03
         244 -6.4153685E-03
         245 -2.9108215E-03
         246 -2.7832307E-03
         247 -1.2764824E-03
         248  7.1086036E-04
         249 -4.0291805E-05
         250  4.7390076E-04
         251 -1.7071262E-03
         252 -7.9085428E-04
         253  2.0824747E-04
         254  2.4978333E-04
         255  9.3544259E-05
         256 -5.9390343E-03
         257  7.9283165E-04
         258  7.3738054E-05
         259 -5.7870926E-05
         260  2.4252189E-05
         261 -9.4297505E-04
         262 -5.0710578E-04
         263  9.1163209E-05
         264 -2.6750556E-04
         265 -1.7657071E-04
         266  5.9648580E-03
         267  2.2418092E-03
         268  1.3245763E-03
         269 -2.8298844E-03
         270 -1.2634047E-03
         271  1.6080283E-03
         272 -2.7763366E-03
         273  1.1635628E-05
         274  1.2873108E-03
         275 -2.1836301E-04
         276 -3.6026043E-04
         277  4.0233899E-05
         278  5.8981375E-05
         279  3.5158966E-05
         280 -5.2586103E-05
         281 -3.6987054E-04
         282  2.6407195E-03
         283 -3.1566389E-05
         284 -1.1855820E-03
         285  1.7803010E-04
         286 -2.4975528E-04
         287 -2.0312797E-03
         288 -1.1992173E-03
         289  2.8691546E-03
         290  1.4588248E-03
         291  1.1221468E-03
         292 -7.0087146E-04
         293 -1.8540048E-05
         294  4.3731405E-05
         295  3.4672985E-04
         296 -6.6548833E-03
         297  4.0722478E-04
         298 -9.6820404E-06
         299  4.2987554E-05
         300  2.3578003E-05
         301 -2.2657836E-04
         302 -3.8491904E-05
         303 -5.6380486E-06
         304 -7.8487115E-05
         305 -2.8825718E-05
         306 -2.8940491E-04
         307  2.5474887E-05
         308 -1.6373157E-04
         309 -1.2866536E-04
         310  2.0852231E-04
         311 -5.1078759E-03
         312 -8.3824352E-04
         313  3.4427739E-04
         314  5.0527067E-04
         315 -9.4501273E-04
         316  5.0284606E-03
 Sym= Particle
 Ene= -9.2556529E-02
 Spin= Alpha
 Occup= 2
           1 -1.7024610E-02
           2 -2.1761362E-02
           3 -1.8720459E-02
           4  3.8366687E-02
           5  1.2147480E-02
           6  7.7032913E-03
           7  9.9569075E-03
           8 -1.0910344E-02
           9 -2.0900130E-04
          10 -1.3188373E-03
          11 -4.1971379E-03
          12 -9.2262222E-04
          13  8.9860550E-04
          14 -4.5939840E-04
          15  1.7451140E-03
          16  1.2558163E-02
          17  1.9297743E-02
          18  2.9088767E-02
          19  1.4553284E-02
          20  4.6327546E-02
          21 -1.4093339E-02
          22 -8.1227859E-03
          23 -1.0847031E-02
          24 -1.2595858E-02
          25 -4.4490565E-03
          26  9.5912153E-03
          27 -1.5243245E-03
          28 -5.4948837E-02
          29  3.3927842E-03
          30 -3.2594348E-03
          31  1.1907315E-03
          32  1.3644984E-02
          33  1.3518176E-03
          34 -7.8011747E-04
          35  2.3989053E-04
          36 -1.7725095E-02
          37 -1.1143029E-03
          38  1.2590770E-03
          39  1.8744275E-04
          40  2.4214482E-03
          41 -8.8459207E-04
          42 -7.2685682E-04
          43 -1.3242790E-05
          44  7.3954269E-02
          45  3.3879938E-04
          46  4.8458745E-04
          47 -6.6036773E-05
          48 -1.9141678E-02
          49  1.1508071E-04
          50  8.3897077E-04
          51 -5.5524084E-04
          52 -3.6088783E-02
          53  4.7741123E-05
          54 -2.9956803E-04
          55  7.2860462E-04
          56  9.2772553E-03
          57 -6.4669910E-04
          58  2.5219750E-03
          59 -6.4807024E-04
          60 -3.8164426E-02
          61 -2.3710709E-05
          62 -1.7007949E-05
          63  1.7194047E-04
          64  4.5657381E-03
          65  1.1199245E-03
          66 -3.5426680E-03
          67  2.4800969E-04
          68  4.5127731E-02
          69 -3.6293486E-04
          70  1.3038418E-03
          71  5.2083024E-06
          72 -1.8024611E-03
          73  1.1203169E-03
          74  7.9465500E-04
          75 -8.3707226E-04
          76  6.9038950E-02
          77 -1.5235591E-03
          78  4.2847672E-04
          79  1.4030895E-03
          80 -1.8920150E-02
          81 -1.9643786E-04
          82 -4.6223812E-03
          83  5.6760595E-03
          84  1.5773688E-03
          85  1.2702394E-04
          86  1.0217379E-03
          87 -1.4751842E-03
          88 -5.8085662E-03
          89  4.9449708E-03
          90 -6.5774831E-05
          91 -5.3404002E-03
          92  6.0580140E-03
          93  5.4274249E-04
          94 -7.1983212E-03
          95  4.5259045E-03
          96 -1.0194094E-04
          97 -1.9904475E-03
          98  1.0060601E-02
          99 -5.3881193E-03
         100 -1.0440955E-03
         101  2.0923505E-03
         102 -7.4964215E-04
         103 -5.8323186E-04
         104  2.5430073E-03
         105  5.4958690E-04
         106 -4.0761014E-03
         107  4.9267104E-03
         108  1.4185351E-03
         109 -5.4866693E-04
         110  7.9151371E-04
         111 -1.2532555E-03
         112  1.3769057E-03
         113  2.0668642E-03
         114 -6.2226281E-03
         115  2.4515651E-03
         116  3.0343072E-04
         117 -2.2124830E-03
         118  3.4135941E-04
         119  1.2349566E-03
         120  2.0708153E-03
         121 -4.9454165E-03
         122  7.9116561E-03
         123 -1.2841776E-03
         124  6.3599818E-03
         125 -5.1942526E-04
         126  4.2291703E-03
         127 -2.8277962E-03
         128  7.9682992E-05
         129 -2.6188323E-03
         130 -2.2343865E-03
         131  5.0349124E-03
         132 -0.1334790    
         133  3.2246541E-03
         134  3.1041499E-04
         135 -1.5686497E-03
         136  3.9476506E-02
         137  9.3646478E-05
         138 -3.9646190E-04
         139  1.2978770E-02
         140 -0.3910709    
         141  5.6919386E-04
         142 -4.3797202E-04
         143 -3.8519350E-03
         144  0.1094884    
         145 -2.6802431E-07
         146 -3.6253413E-04
         147 -1.3738710E-02
         148  0.3924657    
         149  5.6035205E-04
         150  2.1727863E-04
         151  3.3653881E-03
         152 -8.8344917E-02
         153  1.1552777E-04
         154 -1.5949729E-03
         155 -5.3929058E-03
         156  0.1448278    
         157  6.0360023E-04
         158  1.7607167E-03
         159  1.7486251E-03
         160 -4.2561382E-02
         161 -5.7006371E-04
         162  2.2461673E-03
         163  1.3586721E-02
         164 -0.4048117    
         165  6.1725281E-05
         166 -8.8560168E-04
         167 -3.0513776E-03
         168  9.8257400E-02
         169  9.0815120E-05
         170 -9.1754546E-04
         171 -5.3628371E-03
         172  0.1577721    
         173 -2.1085930E-04
         174 -6.2112295E-04
         175  1.4854756E-03
         176 -5.2186951E-02
         177 -9.5242453E-05
         178  3.8833107E-04
         179  1.5291403E-03
         180 -4.3198645E-02
         181  4.6024998E-04
         182 -3.5489028E-04
         183 -5.7552790E-04
         184  1.9968806E-02
         185 -2.4545520E-06
         186 -3.3336568E-03
         187 -1.1625969E-02
         188  0.3468170    
         189 -7.5425705E-05
         190  9.1019308E-04
         191  2.6543927E-03
         192 -8.1927031E-02
         193  9.4539660E-05
         194  3.0116893E-03
         195  1.1902154E-02
         196 -0.3781811    
         197  1.0082223E-03
         198 -8.4134308E-04
         199 -3.3862859E-03
         200  8.5727565E-02
         201 -1.7742773E-03
         202 -2.3500863E-03
         203  4.5133657E-03
         204 -0.1184357    
         205  2.2532896E-03
         206  2.4139741E-03
         207 -2.0101941E-03
         208  4.0996768E-02
         209  4.0230029E-03
         210  2.2278782E-03
         211 -1.3814592E-02
         212  0.3728256    
         213 -1.4875325E-03
         214 -1.1279102E-03
         215  2.9138832E-03
         216 -9.0819098E-02
         217 -2.8825200E-03
         218  4.0174578E-05
         219  2.2418961E-02
         220  5.7904632E-04
         221  7.5792875E-03
         222  5.3413170E-03
         223  1.8856031E-03
         224 -5.7967268E-03
         225 -1.5735864E-03
         226  5.7815230E-03
         227  1.4051839E-02
         228 -3.7295695E-03
         229 -6.2238621E-03
         230 -1.2369135E-02
         231  1.5830240E-03
         232  9.4104378E-04
         233 -6.3801608E-03
         234  2.4926898E-03
         235 -1.4591252E-02
         236 -5.7794305E-04
         237 -2.0758811E-02
         238  3.8031868E-03
         239  6.3482490E-03
         240  1.2586940E-02
         241  6.6042901E-03
         242  3.9023093E-03
         243  8.5356890E-04
         244 -1.5298099E-02
         245  1.2150054E-02
         246  1.0829049E-02
         247  6.7384518E-04
         248 -6.7039940E-04
         249  1.2294932E-03
         250 -9.1178709E-04
         251 -4.3105897E-03
         252  3.6412966E-04
         253  6.5357388E-05
         254 -4.3384367E-04
         255 -6.2606978E-04
         256  1.6543461E-02
         257 -8.7176042E-04
         258  1.0147155E-04
         259  1.1815993E-04
         260 -3.1460091E-05
         261 -8.9511639E-03
         262  3.9748996E-04
         263 -8.9876412E-05
         264 -1.5914853E-05
         265 -3.2873801E-04
         266 -5.4034069E-03
         267 -3.2823249E-03
         268  3.5766615E-03
         269 -6.3229399E-03
         270  4.5748348E-03
         271  3.0891721E-03
         272  1.3503145E-03
         273 -6.0411362E-04
         274  4.8190658E-03
         275 -1.8058780E-03
         276  5.8182928E-04
         277 -1.3264663E-03
         278  1.3182440E-03
         279 -1.6224968E-03
         280  6.5463391E-04
         281  4.9291307E-04
         282 -2.4429301E-03
         283  1.9386610E-03
         284 -3.4846929E-03
         285  1.4788924E-03
         286  6.7570811E-04
         287  3.7609679E-03
         288 -3.4658979E-03
         289  7.7594891E-03
         290 -6.4445408E-03
         291  4.7762175E-03
         292 -3.6031962E-04
         293 -3.7583758E-04
         294 -1.2508189E-04
         295  1.8455712E-03
         296 -7.2386436E-02
         297 -4.8482939E-04
         298 -5.7481895E-05
         299 -4.3247271E-04
         300 -2.7121291E-03
         301  7.4386492E-02
         302  9.2510571E-04
         303 -1.1986909E-03
         304  2.2299297E-04
         305  2.6979211E-03
         306 -7.3515929E-02
         307 -9.3596755E-04
         308  1.2508151E-03
         309  6.5163715E-04
         310 -2.2017290E-03
         311  7.3864885E-02
         312  9.9154140E-06
         313  7.2362134E-04
         314 -3.7988246E-04
         315  2.2669999E-04
         316 -6.0747217E-02
