 [Molden Format]
 [Atoms] Angs
C       1      6     -7.58117044     -2.10208693     -0.47613704
C       2      6     -6.59659792     -1.75713633      0.34496864
C       3      6     -5.64037014     -0.67350676      0.15462581
C       4      6     -4.74964254     -0.36846864      1.18481390
C       5      6     -3.83221866      0.65517814      1.05826768
C       6      6     -3.76734200      1.39865850     -0.11203606
C       7      6     -2.77901561      2.53006266     -0.25770068
O       8      8     -1.64807598      2.42991826      0.57622196
C       9      6     -0.74274860      1.43566185      0.33731268
C      10      6     -0.85378275      0.46592384     -0.64826445
C      11      6      0.14068004     -0.48881124     -0.79941342
C      12      6      1.26129998     -0.50406969      0.01409817
C      13      6      2.36269922     -1.54714154     -0.08692210
C      14      6      2.30639110     -2.35640851     -1.39068604
C      15      6      2.17378455     -2.51459605      1.09041789
C      16      6      3.70746611     -0.83776822     -0.06330415
C      17      6      4.78344856     -1.26123283      0.70554140
C      18      6      5.99746932     -0.60172369      0.66374389
C      19      6      6.16433701      0.50440109     -0.15937697
O      20      8      7.37500466      1.13010481     -0.17354435
C      21      6      5.09764028      0.93538432     -0.93812706
C      22      6      3.88970028      0.26828127     -0.88703193
C      23      6      1.35664578      0.47062179      1.00630672
C      24      6      0.37796780      1.42459914      1.16832158
C      25      6     -4.64407509      1.09784374     -1.14811419
C      26      6     -5.56803606      0.08177186     -1.01708341
H      27      1     -8.24214570     -2.91951658     -0.24413636
H      28      1     -7.77532421     -1.59035215     -1.40311285
H      29      1     -6.46755814     -2.31028963      1.26771321
H      30      1     -4.78357668     -0.94068596      2.10120204
H      31      1     -3.15408506      0.88018083      1.86824032
H      32      1     -3.25755622      3.46816234      0.04959973
H      33      1     -2.47529536      2.63406268     -1.30955674
H      34      1     -1.71237235      0.43023886     -1.30069844
H      35      1      0.01609997     -1.22646274     -1.57629538
H      36      1      2.31663752     -1.69963548     -2.25700329
H      37      1      1.41584765     -2.97964672     -1.42450025
H      38      1      3.17799749     -3.00591744     -1.44740237
H      39      1      2.33496977     -2.00890127      2.03906118
H      40      1      1.15504256     -2.89780940      1.07890934
H      41      1      2.85458235     -3.35922492      1.01476013
H      42      1      4.68968800     -2.11650954      1.35522888
H      43      1      6.82988713     -0.93178739      1.26495148
H      44      1      7.34603026      1.87693541     -0.78334148
H      45      1      5.21547085      1.79622580     -1.58407247
H      46      1      3.06763622      0.62118071     -1.49272685
H      47      1      2.22101222      0.48544832      1.65421331
H      48      1      0.45724044      2.18011352      1.93437419
H      49      1     -4.59913667      1.66802642     -2.06599017
H      50      1     -6.23374455     -0.13245773     -1.83861778
 [GTO]
           1   0
s              4   1.000000
     34.69949376     -0.01198412
      5.97553995     -0.05472052
      0.48016013      0.58055871
      0.18300091      0.47700799
p              4   1.000000
      5.59272993      0.05713170
      1.45011136      0.28574555
      0.51120913      0.55178731
      0.20352116      0.26323149
s              7   1.000000
      0.38350848     -0.19645402
      0.04707223      0.94919362
      0.02222627      0.24927265
     34.69949376      0.00555133
      5.97553995      0.02534785
      0.48016013     -0.26892857
      0.18300091     -0.22096142
p              7   1.000000
      1.83062075     -0.01162394
      0.10124670      0.57121830
      0.03901771      0.59655265
      5.59272993     -0.02543003
      1.45011136     -0.12718890
      0.51120913     -0.24560739
      0.20352116     -0.11716761
 
           2   0
s              4   1.000000
     34.80336973     -0.01198412
      5.99342825     -0.05472053
      0.48159753      0.58055871
      0.18354874      0.47700799
p              4   1.000000
      5.60947226      0.05713170
      1.45445239      0.28574555
      0.51273948      0.55178730
      0.20413042      0.26323149
s              7   1.000000
      0.38350848     -0.19635526
      0.04707223      0.94871644
      0.02222627      0.24914734
     34.80336973      0.00553551
      5.99342825      0.02527563
      0.48159753     -0.26816239
      0.18354874     -0.22033190
p              7   1.000000
      1.83062075     -0.01161845
      0.10124670      0.57094851
      0.03901771      0.59627091
      5.60947226     -0.02535731
      1.45445239     -0.12682518
      0.51273948     -0.24490503
      0.20413042     -0.11683255
 
           3   0
s              4   1.000000
     34.99892071     -0.01198412
      6.02710375     -0.05472052
      0.48430350      0.58055871
      0.18458005      0.47700799
p              4   1.000000
      5.64099041      0.05713170
      1.46262458      0.28574555
      0.51562043      0.55178731
      0.20527738      0.26323149
s              7   1.000000
      0.38350848     -0.19617144
      0.04707223      0.94782830
      0.02222627      0.24891410
     34.99892071      0.00550598
      6.02710375      0.02514077
      0.48430350     -0.26673160
      0.18458005     -0.21915631
p              7   1.000000
      1.83062075     -0.01160823
      0.10124670      0.57044638
      0.03901771      0.59574652
      5.64099041     -0.02522150
      1.46262458     -0.12614592
      0.51562043     -0.24359336
      0.20527738     -0.11620681
 
           4   0
s              4   1.000000
     35.02377617     -0.01198412
      6.03138407     -0.05472052
      0.48464745      0.58055871
      0.18471114      0.47700799
p              4   1.000000
      5.64499651      0.05713170
      1.46366330      0.28574555
      0.51598661      0.55178731
      0.20542316      0.26323149
s              7   1.000000
      0.38350848     -0.19614827
      0.04707223      0.94771637
      0.02222627      0.24888470
     35.02377617      0.00550224
      6.03138407      0.02512373
      0.48464745     -0.26655081
      0.18471114     -0.21900777
p              7   1.000000
      1.83062075     -0.01160695
      0.10124670      0.57038309
      0.03901771      0.59568042
      5.64499651     -0.02520434
      1.46366330     -0.12606009
      0.51598661     -0.24342761
      0.20542316     -0.11612774
 
           5   0
s              4   1.000000
     34.99627673     -0.01198412
      6.02664844     -0.05472052
      0.48426692      0.58055871
      0.18456611      0.47700799
p              4   1.000000
      5.64056426      0.05713170
      1.46251409      0.28574555
      0.51558147      0.55178731
      0.20526187      0.26323149
s              7   1.000000
      0.38350848     -0.19617391
      0.04707223      0.94784023
      0.02222627      0.24891724
     34.99627673      0.00550637
      6.02664844      0.02514258
      0.48426692     -0.26675085
      0.18456611     -0.21917212
p              7   1.000000
      1.83062075     -0.01160837
      0.10124670      0.57045312
      0.03901771      0.59575356
      5.64056426     -0.02522333
      1.46251409     -0.12615506
      0.51558147     -0.24361100
      0.20526187     -0.11621523
 
           6   0
s              4   1.000000
     34.98748066     -0.01198412
      6.02513368     -0.05472052
      0.48414520      0.58055871
      0.18451972      0.47700800
p              4   1.000000
      5.63914654      0.05713170
      1.46214649      0.28574555
      0.51545189      0.55178731
      0.20521028      0.26323149
s              7   1.000000
      0.38350848     -0.19618212
      0.04707223      0.94787989
      0.02222627      0.24892765
     34.98748066      0.00550770
      6.02513368      0.02514862
      0.48414520     -0.26681489
      0.18451972     -0.21922475
p              7   1.000000
      1.83062075     -0.01160883
      0.10124670      0.57047555
      0.03901771      0.59577698
      5.63914654     -0.02522941
      1.46214649     -0.12618546
      0.51545189     -0.24366971
      0.20521028     -0.11624324
 
           7   0
s              4   1.000000
     37.07165961     -0.01198412
      6.38404654     -0.05472052
      0.51298538      0.58055871
      0.19551142      0.47700800
p              4   1.000000
      5.97506643      0.05713170
      1.54924550      0.28574555
      0.54615698      0.55178731
      0.21743451      0.26323149
s              7   1.000000
      0.38350848     -0.19437989
      0.04707223      0.93917218
      0.02222627      0.24664086
     37.07165961      0.00521089
      6.38404654      0.02379336
      0.51298538     -0.25243623
      0.19551142     -0.20741072
p              7   1.000000
      1.83062075     -0.01150866
      0.10124670      0.56555297
      0.03901771      0.59063608
      5.97506643     -0.02386416
      1.54924550     -0.11935717
      0.54615698     -0.23048398
      0.21743451     -0.10995295
 
           8   0
s              4   1.000000
     77.92978356     -0.01198412
     13.42015357     -0.05472052
      1.07836660      0.58055871
      0.41099220      0.47700799
p              4   1.000000
      8.03633585      0.05713170
      2.08370188      0.28574555
      0.73456939      0.55178731
      0.29244473      0.26323149
s              7   1.000000
      0.57971233     -0.18688962
      0.07115450      0.90298196
      0.03359728      0.23713678
     77.92978356      0.00377436
     13.42015357      0.01723404
      1.07836660     -0.18284498
      0.41099220     -0.15023203
p              7   1.000000
      2.76717072     -0.01172127
      0.15304476      0.57600104
      0.05897927      0.60154753
      8.03633585     -0.02669173
      2.08370188     -0.13349933
      0.73456939     -0.25779312
      0.29244473     -0.12298084
 
           9   0
s              4   1.000000
     35.08047713     -0.01198412
      6.04114844     -0.05472052
      0.48543205      0.58055871
      0.18501017      0.47700799
p              4   1.000000
      5.65413536      0.05713170
      1.46603287      0.28574555
      0.51682195      0.55178731
      0.20575573      0.26323149
s              7   1.000000
      0.38350848     -0.19609558
      0.04707223      0.94746179
      0.02222627      0.24881784
     35.08047713      0.00549375
      6.04114844      0.02508494
      0.48543205     -0.26613929
      0.18501017     -0.21866965
p              7   1.000000
      1.83062075     -0.01160402
      0.10124670      0.57023916
      0.03901771      0.59553012
      5.65413536     -0.02516528
      1.46603287     -0.12586472
      0.51682195     -0.24305034
      0.20575573     -0.11594776
 
          10   0
s              4   1.000000
     34.97467372     -0.01198412
      6.02292822     -0.05472052
      0.48396798      0.58055871
      0.18445218      0.47700799
p              4   1.000000
      5.63708237      0.05713170
      1.46161128      0.28574555
      0.51526321      0.55178731
      0.20513516      0.26323149
s              7   1.000000
      0.38350848     -0.19619408
      0.04707223      0.94793771
      0.02222627      0.24894284
     34.97467372      0.00550962
      6.02292822      0.02515742
      0.48396798     -0.26690819
      0.18445218     -0.21930141
p              7   1.000000
      1.83062075     -0.01160949
      0.10124670      0.57050823
      0.03901771      0.59581109
      5.63708237     -0.02523826
      1.46161128     -0.12622976
      0.51526321     -0.24375525
      0.20513516     -0.11628404
 
          11   0
s              4   1.000000
     35.01153477     -0.01198412
      6.02927599     -0.05472052
      0.48447805      0.58055871
      0.18464658      0.47700799
p              4   1.000000
      5.64302349      0.05713170
      1.46315173      0.28574555
      0.51580626      0.55178731
      0.20535136      0.26323149
s              7   1.000000
      0.38350848     -0.19615968
      0.04707223      0.94777147
      0.02222627      0.24889918
     35.01153477      0.00550408
      6.02927599      0.02513212
      0.48447805     -0.26663982
      0.18464658     -0.21908090
p              7   1.000000
      1.83062075     -0.01160758
      0.10124670      0.57041424
      0.03901771      0.59571294
      5.64302349     -0.02521279
      1.46315173     -0.12610235
      0.51580626     -0.24350922
      0.20535136     -0.11616667
 
          12   0
s              4   1.000000
     35.18563745     -0.01198412
      6.05925792     -0.05472052
      0.48688723      0.58055871
      0.18556477      0.47700799
p              4   1.000000
      5.67108469      0.05713170
      1.47042758      0.28574555
      0.51837122      0.55178731
      0.20637252      0.26323149
s              7   1.000000
      0.38350848     -0.19599846
      0.04707223      0.94699255
      0.02222627      0.24869463
     35.18563745      0.00547806
      6.05925792      0.02501331
      0.48688723     -0.26537936
      0.18556477     -0.21804526
p              7   1.000000
      1.83062075     -0.01159862
      0.10124670      0.56997387
      0.03901771      0.59525304
      5.67108469     -0.02509314
      1.47042758     -0.12550392
      0.51837122     -0.24235362
      0.20637252     -0.11561539
 
          13   0
s              4   1.000000
     37.09593801     -0.01198412
      6.38822748     -0.05472052
      0.51332134      0.58055871
      0.19563947      0.47700799
p              4   1.000000
      5.97897953      0.05713170
      1.55026011      0.28574555
      0.54651466      0.55178731
      0.21757690      0.26323149
s              7   1.000000
      0.38350848     -0.19436047
      0.04707223      0.93907839
      0.02222627      0.24661624
     37.09593801      0.00520761
      6.38822748      0.02377841
      0.51332134     -0.25227764
      0.19563947     -0.20728042
p              7   1.000000
      1.83062075     -0.01150758
      0.10124670      0.56549995
      0.03901771      0.59058070
      5.97897953     -0.02384910
      1.55026011     -0.11928184
      0.54651466     -0.23033850
      0.21757690     -0.10988355
 
          14   0
s              4   1.000000
     37.03306020     -0.01198412
      6.37739940     -0.05472052
      0.51245125      0.58055871
      0.19530786      0.47700799
p              4   1.000000
      5.96884513      0.05713170
      1.54763241      0.28574555
      0.54558832      0.55178731
      0.21720811      0.26323149
s              7   1.000000
      0.38350848     -0.19441082
      0.04707223      0.93932164
      0.02222627      0.24668013
     37.03306020      0.00521610
      6.37739940      0.02381716
      0.51245125     -0.25268877
      0.19530786     -0.20761822
p              7   1.000000
      1.83062075     -0.01151037
      0.10124670      0.56563744
      0.03901771      0.59072428
      5.96884513     -0.02388815
      1.54763241     -0.11947713
      0.54558832     -0.23071563
      0.21720811     -0.11006346
 
          15   0
s              4   1.000000
     37.03318447     -0.01198412
      6.37742080     -0.05472052
      0.51245297      0.58055871
      0.19530851      0.47700800
p              4   1.000000
      5.96886515      0.05713170
      1.54763761      0.28574555
      0.54559015      0.55178731
      0.21720884      0.26323149
s              7   1.000000
      0.38350848     -0.19441072
      0.04707223      0.93932115
      0.02222627      0.24667998
     37.03318447      0.00521608
      6.37742080      0.02381709
      0.51245297     -0.25268796
      0.19530851     -0.20761755
p              7   1.000000
      1.83062075     -0.01151037
      0.10124670      0.56563717
      0.03901771      0.59072399
      5.96886515     -0.02388807
      1.54763761     -0.11947675
      0.54559015     -0.23071489
      0.21720884     -0.11006310
 
          16   0
s              4   1.000000
     35.18736557     -0.01198412
      6.05955551     -0.05472052
      0.48691114      0.58055871
      0.18557389      0.47700799
p              4   1.000000
      5.67136322      0.05713170
      1.47049980      0.28574555
      0.51839668      0.55178731
      0.20638265      0.26323149
s              7   1.000000
      0.38350848     -0.19599687
      0.04707223      0.94698486
      0.02222627      0.24869261
     35.18736557      0.00547781
      6.05955551      0.02501214
      0.48691114     -0.26536690
      0.18557389     -0.21803502
p              7   1.000000
      1.83062075     -0.01159853
      0.10124670      0.56996952
      0.03901771      0.59524851
      5.67136322     -0.02509196
      1.47049980     -0.12549800
      0.51839668     -0.24234220
      0.20638265     -0.11560994
 
          17   0
s              4   1.000000
     35.00621598     -0.01198412
      6.02836006     -0.05472052
      0.48440445      0.58055871
      0.18461853      0.47700799
p              4   1.000000
      5.64216623      0.05713170
      1.46292945      0.28574555
      0.51572790      0.55178731
      0.20532016      0.26323149
s              7   1.000000
      0.38350848     -0.19616464
      0.04707223      0.94779542
      0.02222627      0.24890547
     35.00621598      0.00550488
      6.02836006      0.02513577
      0.48440445     -0.26667851
      0.18461853     -0.21911269
p              7   1.000000
      1.83062075     -0.01160786
      0.10124670      0.57042779
      0.03901771      0.59572710
      5.64216623     -0.02521646
      1.46292945     -0.12612072
      0.51572790     -0.24354469
      0.20532016     -0.11618359
 
          18   0
s              4   1.000000
     34.96745022     -0.01198412
      6.02168427     -0.05472053
      0.48386802      0.58055871
      0.18441408      0.47700799
p              4   1.000000
      5.63591811      0.05713170
      1.46130941      0.28574555
      0.51515679      0.55178731
      0.20509279      0.26323149
s              7   1.000000
      0.38350848     -0.19620084
      0.04707223      0.94797035
      0.02222627      0.24895139
     34.96745022      0.00551071
      6.02168427      0.02516238
      0.48386802     -0.26696085
      0.18441408     -0.21934467
p              7   1.000000
      1.83062075     -0.01160987
      0.10124670      0.57052668
      0.03901771      0.59583039
      5.63591811     -0.02524326
      1.46130941     -0.12625476
      0.51515679     -0.24380352
      0.20509279     -0.11630707
 
          19   0
s              4   1.000000
     34.95600000     -0.01198412
      6.01971245     -0.05472052
      0.48370958      0.58055871
      0.18435369      0.47700799
p              4   1.000000
      5.63407261      0.05713170
      1.46083090      0.28574555
      0.51498810      0.55178731
      0.20502564      0.26323149
s              7   1.000000
      0.38350848     -0.19621155
      0.04707223      0.94802211
      0.02222627      0.24896499
     34.95600000      0.00551243
      6.01971245      0.02517025
      0.48370958     -0.26704436
      0.18435369     -0.21941328
p              7   1.000000
      1.83062075     -0.01161046
      0.10124670      0.57055595
      0.03901771      0.59586093
      5.63407261     -0.02525119
      1.46083090     -0.12629440
      0.51498810     -0.24388008
      0.20502564     -0.11634359
 
          20   0
s              4   1.000000
     77.79576915     -0.01198412
     13.39707518     -0.05472052
      1.07651215      0.58055871
      0.41028543      0.47700799
p              4   1.000000
      8.02251591      0.05713170
      2.08011858      0.28574555
      0.73330617      0.55178731
      0.29194182      0.26323149
s              7   1.000000
      0.57971233     -0.18691866
      0.07115450      0.90312225
      0.03359728      0.23717361
     77.79576915      0.00378085
     13.39707518      0.01726369
      1.07651215     -0.18315953
      0.41028543     -0.15049048
p              7   1.000000
      2.76717072     -0.01172472
      0.15304476      0.57617069
      0.05897927      0.60172469
      8.02251591     -0.02673558
      2.08011858     -0.13371863
      0.73330617     -0.25821659
      0.29194182     -0.12318286
 
          21   0
s              4   1.000000
     34.95478765     -0.01198412
      6.01950367     -0.05472052
      0.48369280      0.58055871
      0.18434730      0.47700799
p              4   1.000000
      5.63387721      0.05713170
      1.46078023      0.28574555
      0.51497024      0.55178731
      0.20501853      0.26323149
s              7   1.000000
      0.38350848     -0.19621269
      0.04707223      0.94802759
      0.02222627      0.24896643
     34.95478765      0.00551262
      6.01950367      0.02517108
      0.48369280     -0.26705320
      0.18434730     -0.21942055
p              7   1.000000
      1.83062075     -0.01161053
      0.10124670      0.57055905
      0.03901771      0.59586417
      5.63387721     -0.02525203
      1.46078023     -0.12629860
      0.51497024     -0.24388819
      0.20501853     -0.11634746
 
          22   0
s              4   1.000000
     35.04125004     -0.01198412
      6.03439321     -0.05472052
      0.48488924      0.58055871
      0.18480329      0.47700800
p              4   1.000000
      5.64781288      0.05713170
      1.46439355      0.28574555
      0.51624404      0.55178731
      0.20552565      0.26323149
s              7   1.000000
      0.38350848     -0.19613201
      0.04707223      0.94763780
      0.02222627      0.24886408
     35.04125004      0.00549962
      6.03439321      0.02511176
      0.48488924     -0.26642386
      0.18480329     -0.21890346
p              7   1.000000
      1.83062075     -0.01160604
      0.10124670      0.57033867
      0.03901771      0.59563401
      5.64781288     -0.02519229
      1.46439355     -0.12599982
      0.51624404     -0.24331123
      0.20552565     -0.11607222
 
          23   0
s              4   1.000000
     35.03836312     -0.01198412
      6.03389606     -0.05472052
      0.48484929      0.58055871
      0.18478807      0.47700799
p              4   1.000000
      5.64734758      0.05713170
      1.46427290      0.28574555
      0.51620151      0.55178731
      0.20550872      0.26323149
s              7   1.000000
      0.38350848     -0.19613470
      0.04707223      0.94765077
      0.02222627      0.24886747
     35.03836312      0.00550006
      6.03389606      0.02511374
      0.48484929     -0.26644483
      0.18478807     -0.21892069
p              7   1.000000
      1.83062075     -0.01160619
      0.10124670      0.57034601
      0.03901771      0.59564170
      5.64734758     -0.02519428
      1.46427290     -0.12600977
      0.51620151     -0.24333045
      0.20550872     -0.11608139
 
          24   0
s              4   1.000000
     34.97966306     -0.01198412
      6.02378742     -0.05472052
      0.48403702      0.58055871
      0.18447849      0.47700800
p              4   1.000000
      5.63788653      0.05713170
      1.46181979      0.28574555
      0.51533671      0.55178731
      0.20516443      0.26323149
s              7   1.000000
      0.38350848     -0.19618942
      0.04707223      0.94791519
      0.02222627      0.24893691
     34.97966306      0.00550887
      6.02378742      0.02515399
      0.48403702     -0.26687184
      0.18447849     -0.21927153
p              7   1.000000
      1.83062075     -0.01160923
      0.10124670      0.57049549
      0.03901771      0.59579782
      5.63788653     -0.02523481
      1.46181979     -0.12621250
      0.51533671     -0.24372192
      0.20516443     -0.11626814
 
          25   0
s              4   1.000000
     34.99133514     -0.01198412
      6.02579745     -0.05472053
      0.48419854      0.58055871
      0.18454005      0.47700800
p              4   1.000000
      5.63976779      0.05713170
      1.46230757      0.28574555
      0.51550867      0.55178731
      0.20523289      0.26323149
s              7   1.000000
      0.38350848     -0.19617852
      0.04707223      0.94786251
      0.02222627      0.24892309
     34.99133514      0.00550712
      6.02579745      0.02514598
      0.48419854     -0.26678682
      0.18454005     -0.21920168
p              7   1.000000
      1.83062075     -0.01160863
      0.10124670      0.57046571
      0.03901771      0.59576671
      5.63976779     -0.02522674
      1.46230757     -0.12617214
      0.51550867     -0.24364398
      0.20523289     -0.11623096
 
          26   0
s              4   1.000000
     35.00384640     -0.01198412
      6.02795199     -0.05472053
      0.48437166      0.58055871
      0.18460603      0.47700799
p              4   1.000000
      5.64178431      0.05713170
      1.46283043      0.28574555
      0.51569299      0.55178731
      0.20530627      0.26323149
s              7   1.000000
      0.38350848     -0.19616684
      0.04707223      0.94780610
      0.02222627      0.24890827
     35.00384640      0.00550524
      6.02795199      0.02513739
      0.48437166     -0.26669575
      0.18460603     -0.21912686
p              7   1.000000
      1.83062075     -0.01160798
      0.10124670      0.57043383
      0.03901771      0.59573341
      5.64178431     -0.02521810
      1.46283043     -0.12612890
      0.51569299     -0.24356049
      0.20530627     -0.11619113
 
          27   0
s              4   1.000000
      8.30702172      0.05675242
      1.52008263      0.26014135
      0.42229560      0.53284611
      0.14015611      0.29162544
s              7   1.000000
      0.92936822     -0.06733090
      0.05643440      0.66948003
      0.02166600      0.51463358
      8.30702172     -0.02902786
      1.52008263     -0.13305773
      0.42229560     -0.27254141
      0.14015611     -0.14916128
p              4   1.000000
      0.64737396      0.05713170
      0.16785440      0.28574555
      0.05917387      0.55178731
      0.02355814      0.26323150
 
          28   0
s              4   1.000000
      8.30718638      0.05675242
      1.52011276      0.26014135
      0.42230397      0.53284611
      0.14015889      0.29162544
s              7   1.000000
      0.92936822     -0.06733069
      0.05643440      0.66947793
      0.02166600      0.51463196
      8.30718638     -0.02902742
      1.52011276     -0.13305571
      0.42230397     -0.27253728
      0.14015889     -0.14915902
p              4   1.000000
      0.64737396      0.05713170
      0.16785440      0.28574555
      0.05917387      0.55178731
      0.02355814      0.26323150
 
          29   0
s              4   1.000000
      8.30984640      0.05675242
      1.52059951      0.26014135
      0.42243919      0.53284611
      0.14020377      0.29162544
s              7   1.000000
      0.92936822     -0.06732727
      0.05643440      0.66944389
      0.02166600      0.51460580
      8.30984640     -0.02902031
      1.52059951     -0.13302308
      0.42243919     -0.27247046
      0.14020377     -0.14912244
p              4   1.000000
      0.64737396      0.05713170
      0.16785440      0.28574555
      0.05917387      0.55178731
      0.02355814      0.26323150
 
          30   0
s              4   1.000000
      8.30922711      0.05675242
      1.52048619      0.26014135
      0.42240771      0.53284611
      0.14019332      0.29162544
s              7   1.000000
      0.92936822     -0.06732806
      0.05643440      0.66945182
      0.02166600      0.51461189
      8.30922711     -0.02902196
      1.52048619     -0.13303068
      0.42240771     -0.27248601
      0.14019332     -0.14913096
p              4   1.000000
      0.64737396      0.05713170
      0.16785440      0.28574555
      0.05917387      0.55178731
      0.02355814      0.26323150
 
          31   0
s              4   1.000000
      8.30960758      0.05675242
      1.52055581      0.26014135
      0.42242705      0.53284611
      0.14019974      0.29162544
s              7   1.000000
      0.92936822     -0.06732758
      0.05643440      0.66944695
      0.02166600      0.51460814
      8.30960758     -0.02902095
      1.52055581     -0.13302601
      0.42242705     -0.27247645
      0.14019974     -0.14912573
p              4   1.000000
      0.64737396      0.05713170
      0.16785440      0.28574555
      0.05917387      0.55178731
      0.02355814      0.26323150
 
          32   0
s              4   1.000000
      8.30699023      0.05675242
      1.52007687      0.26014135
      0.42229400      0.53284611
      0.14015558      0.29162544
s              7   1.000000
      0.92936822     -0.06733094
      0.05643440      0.66948044
      0.02166600      0.51463390
      8.30699023     -0.02902795
      1.52007687     -0.13305811
      0.42229400     -0.27254220
      0.14015558     -0.14916172
p              4   1.000000
      0.64737396      0.05713170
      0.16785440      0.28574555
      0.05917387      0.55178731
      0.02355814      0.26323150
 
          33   0
s              4   1.000000
      8.30666532      0.05675242
      1.52001741      0.26014135
      0.42227748      0.53284611
      0.14015010      0.29162544
s              7   1.000000
      0.92936822     -0.06733136
      0.05643440      0.66948460
      0.02166600      0.51463708
      8.30666532     -0.02902882
      1.52001741     -0.13306210
      0.42227748     -0.27255037
      0.14015010     -0.14916619
p              4   1.000000
      0.64737396      0.05713170
      0.16785440      0.28574555
      0.05917387      0.55178731
      0.02355814      0.26323150
 
          34   0
s              4   1.000000
      8.31016368      0.05675242
      1.52065757      0.26014135
      0.42245532      0.53284611
      0.14020912      0.29162544
s              7   1.000000
      0.92936822     -0.06732686
      0.05643440      0.66943984
      0.02166600      0.51460267
      8.31016368     -0.02901946
      1.52065757     -0.13301919
      0.42245532     -0.27246249
      0.14020912     -0.14911809
p              4   1.000000
      0.64737396      0.05713170
      0.16785440      0.28574555
      0.05917387      0.55178731
      0.02355814      0.26323150
 
          35   0
s              4   1.000000
      8.30998211      0.05675242
      1.52062434      0.26014135
      0.42244609      0.53284611
      0.14020606      0.29162544
s              7   1.000000
      0.92936822     -0.06732709
      0.05643440      0.66944216
      0.02166600      0.51460446
      8.30998211     -0.02901994
      1.52062434     -0.13302142
      0.42244609     -0.27246705
      0.14020606     -0.14912058
p              4   1.000000
      0.64737396      0.05713170
      0.16785440      0.28574555
      0.05917387      0.55178731
      0.02355814      0.26323150
 
          36   0
s              4   1.000000
      8.30639003      0.05675242
      1.51996704      0.26014135
      0.42226349      0.53284611
      0.14014546      0.29162544
s              7   1.000000
      0.92936822     -0.06733172
      0.05643440      0.66948813
      0.02166600      0.51463979
      8.30639003     -0.02902956
      1.51996704     -0.13306548
      0.42226349     -0.27255729
      0.14014546     -0.14916997
p              4   1.000000
      0.64737396      0.05713170
      0.16785440      0.28574555
      0.05917387      0.55178731
      0.02355814      0.26323150
 
          37   0
s              4   1.000000
      8.30619911      0.05675242
      1.51993210      0.26014135
      0.42225378      0.53284611
      0.14014223      0.29162544
s              7   1.000000
      0.92936822     -0.06733196
      0.05643440      0.66949056
      0.02166600      0.51464168
      8.30619911     -0.02903007
      1.51993210     -0.13306782
      0.42225378     -0.27256208
      0.14014223     -0.14917259
p              4   1.000000
      0.64737396      0.05713170
      0.16785440      0.28574555
      0.05917387      0.55178731
      0.02355814      0.26323150
 
          38   0
s              4   1.000000
      8.30639120      0.05675242
      1.51996725      0.26014135
      0.42226355      0.53284611
      0.14014547      0.29162544
s              7   1.000000
      0.92936822     -0.06733171
      0.05643440      0.66948811
      0.02166600      0.51463979
      8.30639120     -0.02902955
      1.51996725     -0.13306546
      0.42226355     -0.27255726
      0.14014547     -0.14916996
p              4   1.000000
      0.64737396      0.05713170
      0.16785440      0.28574555
      0.05917387      0.55178731
      0.02355814      0.26323150
 
          39   0
s              4   1.000000
      8.30640641      0.05675242
      1.51997003      0.26014135
      0.42226432      0.53284611
      0.14014573      0.29162544
s              7   1.000000
      0.92936822     -0.06733170
      0.05643440      0.66948791
      0.02166600      0.51463964
      8.30640641     -0.02902951
      1.51997003     -0.13306528
      0.42226432     -0.27255688
      0.14014573     -0.14916975
p              4   1.000000
      0.64737396      0.05713170
      0.16785440      0.28574555
      0.05917387      0.55178731
      0.02355814      0.26323150
 
          40   0
s              4   1.000000
      8.30640398      0.05675242
      1.51996959      0.26014135
      0.42226420      0.53284611
      0.14014569      0.29162544
s              7   1.000000
      0.92936822     -0.06733170
      0.05643440      0.66948794
      0.02166600      0.51463966
      8.30640398     -0.02902952
      1.51996959     -0.13306531
      0.42226420     -0.27255694
      0.14014569     -0.14916978
p              4   1.000000
      0.64737396      0.05713170
      0.16785440      0.28574555
      0.05917387      0.55178731
      0.02355814      0.26323150
 
          41   0
s              4   1.000000
      8.30619471      0.05675242
      1.51993130      0.26014135
      0.42225356      0.53284611
      0.14014216      0.29162544
s              7   1.000000
      0.92936822     -0.06733197
      0.05643440      0.66949062
      0.02166600      0.51464173
      8.30619471     -0.02903008
      1.51993130     -0.13306787
      0.42225356     -0.27256220
      0.14014216     -0.14917266
p              4   1.000000
      0.64737396      0.05713170
      0.16785440      0.28574555
      0.05917387      0.55178731
      0.02355814      0.26323150
 
          42   0
s              4   1.000000
      8.30993549      0.05675242
      1.52061581      0.26014135
      0.42244372      0.53284611
      0.14020527      0.29162544
s              7   1.000000
      0.92936822     -0.06732715
      0.05643440      0.66944276
      0.02166600      0.51460493
      8.30993549     -0.02902007
      1.52061581     -0.13302199
      0.42244372     -0.27246822
      0.14020527     -0.14912122
p              4   1.000000
      0.64737396      0.05713170
      0.16785440      0.28574555
      0.05917387      0.55178731
      0.02355814      0.26323150
 
          43   0
s              4   1.000000
      8.30912345      0.05675242
      1.52046722      0.26014135
      0.42240244      0.53284611
      0.14019157      0.29162544
s              7   1.000000
      0.92936822     -0.06732820
      0.05643440      0.66945314
      0.02166600      0.51461291
      8.30912345     -0.02902224
      1.52046722     -0.13303195
      0.42240244     -0.27248861
      0.14019157     -0.14913238
p              4   1.000000
      0.64737396      0.05713170
      0.16785440      0.28574555
      0.05917387      0.55178731
      0.02355814      0.26323150
 
          44   0
s              4   1.000000
      8.31291838      0.05675242
      1.52116165      0.26014135
      0.42259536      0.53284611
      0.14025560      0.29162544
s              7   1.000000
      0.92936822     -0.06732332
      0.05643440      0.66940462
      0.02166600      0.51457561
      8.31291838     -0.02901209
      1.52116165     -0.13298543
      0.42259536     -0.27239333
      0.14025560     -0.14908024
p              4   1.000000
      0.64737396      0.05713170
      0.16785440      0.28574555
      0.05917387      0.55178731
      0.02355814      0.26323150
 
          45   0
s              4   1.000000
      8.30875098      0.05675242
      1.52039906      0.26014135
      0.42238351      0.53284611
      0.14018529      0.29162544
s              7   1.000000
      0.92936822     -0.06732868
      0.05643440      0.66945790
      0.02166600      0.51461658
      8.30875098     -0.02902324
      1.52039906     -0.13303652
      0.42238351     -0.27249797
      0.14018529     -0.14913750
p              4   1.000000
      0.64737396      0.05713170
      0.16785440      0.28574555
      0.05917387      0.55178731
      0.02355814      0.26323150
 
          46   0
s              4   1.000000
      8.31003225      0.05675242
      1.52063352      0.26014135
      0.42244864      0.53284611
      0.14020691      0.29162544
s              7   1.000000
      0.92936822     -0.06732703
      0.05643440      0.66944152
      0.02166600      0.51460396
      8.31003225     -0.02901981
      1.52063352     -0.13302081
      0.42244864     -0.27246579
      0.14020691     -0.14911989
p              4   1.000000
      0.64737396      0.05713170
      0.16785440      0.28574555
      0.05917387      0.55178731
      0.02355814      0.26323150
 
          47   0
s              4   1.000000
      8.31001713      0.05675242
      1.52063075      0.26014135
      0.42244787      0.53284611
      0.14020665      0.29162544
s              7   1.000000
      0.92936822     -0.06732705
      0.05643440      0.66944171
      0.02166600      0.51460411
      8.31001713     -0.02901985
      1.52063075     -0.13302099
      0.42244787     -0.27246617
      0.14020665     -0.14912010
p              4   1.000000
      0.64737396      0.05713170
      0.16785440      0.28574555
      0.05917387      0.55178731
      0.02355814      0.26323150
 
          48   0
s              4   1.000000
      8.30921053      0.05675242
      1.52048315      0.26014135
      0.42240687      0.53284611
      0.14019304      0.29162544
s              7   1.000000
      0.92936822     -0.06732809
      0.05643440      0.66945203
      0.02166600      0.51461206
      8.30921053     -0.02902201
      1.52048315     -0.13303088
      0.42240687     -0.27248643
      0.14019304     -0.14913119
p              4   1.000000
      0.64737396      0.05713170
      0.16785440      0.28574555
      0.05917387      0.55178731
      0.02355814      0.26323150
 
          49   0
s              4   1.000000
      8.30912649      0.05675242
      1.52046777      0.26014135
      0.42240260      0.53284611
      0.14019162      0.29162544
s              7   1.000000
      0.92936822     -0.06732819
      0.05643440      0.66945310
      0.02166600      0.51461288
      8.30912649     -0.02902223
      1.52046777     -0.13303191
      0.42240260     -0.27248854
      0.14019162     -0.14913234
p              4   1.000000
      0.64737396      0.05713170
      0.16785440      0.28574555
      0.05917387      0.55178731
      0.02355814      0.26323150
 
          50   0
s              4   1.000000
      8.30950320      0.05675242
      1.52053671      0.26014135
      0.42242175      0.53284611
      0.14019798      0.29162544
s              7   1.000000
      0.92936822     -0.06732771
      0.05643440      0.66944828
      0.02166600      0.51460918
      8.30950320     -0.02902123
      1.52053671     -0.13302729
      0.42242175     -0.27247908
      0.14019798     -0.14912716
p              4   1.000000
      0.64737396      0.05713170
      0.16785440      0.28574555
      0.05917387      0.55178731
      0.02355814      0.26323150
 
 [MO]
 Sym= Hole
 Ene= -0.5931374    
 Spin= Alpha
 Occup= 0
           1 -2.9240787E-04
           2  3.4459095E-02
           3 -3.5658695E-02
           4 -2.9746508E-02
           5  1.6710458E-04
           6 -1.1732513E-03
           7  1.4001130E-03
           8  4.4657441E-04
           9  4.0564916E-04
          10  1.5051709E-02
          11 -1.6070465E-02
          12 -9.2250798E-03
          13 -2.0931456E-04
          14 -7.0368675E-05
          15 -5.3756573E-04
          16  2.7629005E-04
          17 -5.3690077E-04
          18 -4.4289496E-02
          19  4.4632610E-02
          20  2.4506580E-02
          21  3.5275734E-04
          22 -5.3235469E-04
          23  6.2686740E-04
          24 -4.1609779E-05
          25 -1.4657349E-03
          26 -0.3330511    
          27  0.3235118    
          28  0.1919397    
          29  2.3882581E-04
          30 -8.6689172E-03
          31  8.3993897E-03
          32  5.1424098E-03
          33  3.0478206E-04
          34 -0.2858202    
          35  0.2764744    
          36  0.1617312    
          37 -1.5143280E-04
          38 -8.8752843E-03
          39  8.2572922E-03
          40  4.4339746E-03
          41  1.5345393E-04
          42  4.2306162E-02
          43 -4.1737717E-02
          44 -2.4062308E-02
          45 -4.9442530E-04
          46 -6.1507878E-04
          47 -2.4015104E-05
          48 -1.0770246E-03
          49  6.0757081E-04
          50 -5.0420975E-03
          51  6.2952498E-03
          52  9.3330313E-03
          53  2.9430632E-04
          54 -9.2818751E-04
          55  1.4330901E-03
          56  1.3597556E-04
          57 -2.7216983E-03
          58  6.0006408E-03
          59 -2.2727270E-03
          60  4.5560946E-04
          61  2.1966442E-03
          62 -1.6203259E-04
          63 -2.3738379E-03
          64 -1.1009138E-04
          65  2.9074291E-03
          66 -5.8631278E-03
          67 -1.0050510E-03
          68 -2.9577882E-04
          69 -2.5496918E-03
          70 -9.2580495E-04
          71 -1.0635979E-03
          72 -5.2646064E-04
          73 -2.0248585E-03
          74  6.1400249E-03
          75  2.4179462E-03
          76  3.3772555E-03
          77  5.3217018E-04
          78 -1.0153797E-03
          79 -9.7939733E-04
          80  3.3280118E-03
          81  6.7780988E-04
          82  9.4152702E-04
          83  3.8083470E-03
          84 -3.7950543E-03
          85 -7.8508648E-04
          86 -5.7869079E-04
          87  1.5821590E-04
          88  1.5140604E-04
          89 -3.5469717E-04
          90  3.0866000E-03
          91  2.0209204E-03
          92 -9.6377986E-04
          93 -7.9562055E-04
          94  3.8317806E-04
          95 -3.1213069E-04
          96 -2.2396223E-04
          97  2.8466707E-04
          98 -8.3098368E-04
          99  4.8217757E-04
         100 -8.5582280E-05
         101 -3.1517263E-04
         102  6.5481283E-05
         103  8.9935165E-05
         104 -6.7242690E-05
         105 -3.1643354E-05
         106 -2.6676276E-05
         107 -3.5970609E-04
         108  2.5839254E-04
         109  4.1726984E-05
         110 -1.1944936E-04
         111  2.7212833E-05
         112  2.4845233E-04
         113  1.9495445E-04
         114  2.5664340E-05
         115  1.8954641E-05
         116 -2.3868011E-04
         117 -2.9011990E-04
         118 -2.6052439E-05
         119 -8.8205445E-05
         120  1.0602082E-04
         121 -3.6854731E-04
         122  9.4949012E-04
         123 -1.5310945E-04
         124 -1.5146137E-04
         125  2.4042730E-04
         126 -2.5003767E-04
         127  2.1795313E-05
         128  6.9343914E-05
         129  2.0383234E-04
         130 -6.4786727E-04
         131  4.5972731E-04
         132  1.8117414E-04
         133 -5.7235568E-05
         134 -1.1500098E-04
         135  2.6011197E-05
         136 -2.3796078E-05
         137 -8.0412326E-05
         138 -1.9146134E-04
         139  1.0448701E-03
         140  1.0172655E-03
         141 -7.8299290E-06
         142  6.4610009E-05
         143  1.6116916E-06
         144 -5.4237102E-05
         145  5.7461686E-05
         146 -9.9429009E-05
         147  3.8665507E-04
         148  5.8780372E-04
         149 -2.2312161E-05
         150  6.6072898E-05
         151 -1.2311070E-04
         152 -7.0853239E-05
         153 -1.6764205E-04
         154 -1.1742637E-04
         155 -2.0497550E-04
         156 -6.8634131E-04
         157  9.8203192E-05
         158 -9.1869078E-05
         159  4.5646939E-05
         160  3.7048889E-05
         161 -1.5955319E-04
         162 -1.4484407E-05
         163 -3.6408563E-04
         164 -2.9731900E-04
         165 -5.3810581E-05
         166 -8.4423300E-05
         167 -9.6319367E-05
         168 -1.1019467E-04
         169  1.1080967E-04
         170  3.2759347E-04
         171 -5.0165068E-04
         172 -1.0426819E-03
         173  7.5231976E-05
         174 -3.2248109E-04
         175  1.5740877E-04
         176 -1.3764519E-05
         177  6.2381121E-04
         178 -3.3344238E-03
         179 -2.7198342E-03
         180  3.3905460E-03
         181 -1.1310878E-03
         182  6.8480411E-04
         183  3.7829955E-06
         184  6.6436354E-05
         185 -1.8265003E-03
         186 -1.6951408E-03
         187 -6.7943656E-03
         188  9.1757374E-03
         189 -6.1150664E-04
         190  1.0970225E-04
         191  6.1881088E-04
         192 -5.4762483E-04
         193  8.7880652E-04
         194  0.3305577    
         195 -0.3241562    
         196 -0.1848164    
         197 -4.3155861E-04
         198  8.7006716E-03
         199 -7.7276081E-03
         200 -4.9154940E-03
         201 -1.1389346E-03
         202  0.2819676    
         203 -0.2756960    
         204 -0.1572643    
         205  4.6821535E-04
         206  8.3985375E-03
         207 -7.2255027E-03
         208 -4.5280918E-03
         209 -1.2963722E-03
         210  9.8832534E-05
         211  6.9488818E-04
         212 -7.4640597E-04
         213 -2.8377250E-04
         214  2.0650220E-03
         215  7.6794357E-05
         216  1.8327041E-03
         217 -1.4357278E-03
         218 -5.1423511E-04
         219  3.1344278E-03
         220 -3.0988472E-04
         221  9.4738387E-04
         222 -8.0121047E-04
         223 -8.3377404E-04
         224  1.8313638E-03
         225  6.8404530E-05
         226  1.2974218E-02
         227 -1.2827583E-02
         228 -7.0535969E-03
         229 -6.4553326E-04
         230  1.9425464E-04
         231  1.3609194E-02
         232 -1.3125408E-02
         233 -6.8198852E-03
         234  2.0370891E-02
         235 -1.8691538E-03
         236 -1.2240211E-03
         237  4.2229114E-04
         238  1.0866713E-03
         239 -1.1365631E-02
         240  1.5973621E-03
         241  4.3819580E-04
         242  1.4809975E-03
         243 -6.6767324E-04
         244 -1.8774932E-03
         245  4.2304659E-04
         246  3.2221719E-03
         247 -8.5752778E-04
         248  8.4235473E-04
         249  1.1847471E-03
         250 -1.0532567E-04
         251  8.1046055E-05
         252 -1.2301432E-04
         253 -1.3558719E-03
         254 -3.7627292E-04
         255  1.6940387E-04
         256 -1.1126896E-04
         257  2.0667822E-04
         258  7.1503338E-05
         259  1.1251545E-04
         260  9.7881632E-05
         261  5.8175898E-05
         262  1.1366304E-04
         263 -8.6355567E-06
         264  3.2211881E-04
         265  5.4961285E-05
         266  4.0497365E-05
         267  2.7566006E-05
         268 -8.4283580E-05
         269 -1.2930667E-04
         270 -2.3921317E-04
         271  2.9366519E-04
         272  7.4384458E-05
         273  9.3282710E-05
         274 -1.1687254E-04
         275 -6.6392153E-04
         276  1.1311291E-03
         277 -1.3575039E-04
         278 -3.9387433E-04
         279  1.0847804E-04
         280  1.4255007E-04
         281 -2.8742797E-05
         282  1.2378619E-04
         283  2.7917869E-05
         284  2.1728181E-05
         285 -2.5879774E-05
         286  1.2925851E-04
         287 -8.9149756E-07
         288 -3.0231498E-05
         289  1.6977874E-04
         290  1.8350862E-05
         291 -3.2180167E-05
         292 -6.4548782E-05
         293 -1.3635594E-05
         294  2.1284717E-04
         295  7.2770781E-05
         296 -2.0120537E-05
         297 -5.8005684E-05
         298 -1.3487844E-04
         299 -1.4248384E-04
         300 -5.8069156E-05
         301  4.2472042E-05
         302 -5.6607038E-05
         303 -4.4359908E-06
         304  4.6946740E-04
         305  4.3824140E-04
         306 -6.8992842E-04
         307  1.6478650E-04
         308  1.0547812E-04
         309 -1.3221104E-03
         310 -6.0062110E-05
         311  5.0119421E-04
         312  2.7515469E-04
         313 -2.0753070E-04
         314  6.4610603E-04
         315 -3.7522525E-06
         316  3.8460703E-04
         317  1.8608930E-03
         318  2.7497171E-04
         319 -1.0316660E-05
         320  4.9839484E-05
         321 -1.1382673E-02
         322  1.1296622E-02
         323  7.0500723E-03
         324  1.7068197E-04
         325  1.7198357E-04
         326 -1.2435677E-02
         327  1.2153591E-02
         328  6.6010114E-03
 Sym= Particle
 Ene= -0.5931374    
 Spin= Alpha
 Occup= 2
           1 -2.7845053E-03
           2  0.2414854    
           3 -0.2519498    
           4 -0.1942730    
           5  3.4512177E-03
           6 -5.0396286E-02
           7  5.6060731E-02
           8  4.2003226E-02
           9 -1.0108114E-03
          10 -0.1363167    
          11  0.1429434    
          12  0.1025914    
          13  1.2807478E-03
          14  5.4943012E-03
          15 -6.3440595E-03
          16 -7.7736164E-03
          17  6.1917628E-05
          18 -0.3080917    
          19  0.3039389    
          20  0.1754093    
          21  6.3661899E-04
          22  8.6318091E-02
          23 -8.2485616E-02
          24 -4.6464756E-02
          25 -2.2462560E-03
          26  0.1531066    
          27 -0.1452499    
          28 -8.4651046E-02
          29  1.6271919E-03
          30 -4.1295554E-02
          31  4.1910931E-02
          32  2.4016274E-02
          33  1.8784568E-03
          34  0.1879481    
          35 -0.1800855    
          36 -0.1059547    
          37 -2.7079089E-03
          38 -5.1362708E-02
          39  5.4071531E-02
          40  2.9286284E-02
          41 -1.9313472E-04
          42 -0.3286023    
          43  0.3223483    
          44  0.1862905    
          45 -3.1607260E-04
          46  0.1032684    
          47 -9.4703443E-02
          48 -5.4810140E-02
          49 -6.8774172E-03
          50 -3.4891140E-02
          51  1.7678116E-02
          52  2.4724270E-03
          53 -6.1585805E-03
          54 -9.6957926E-03
          55  8.6124009E-03
          56  8.9493574E-04
          57  2.1815738E-02
          58 -2.9905302E-02
          59 -7.2005009E-03
          60 -3.2793917E-02
          61 -2.6168378E-02
          62  1.0561514E-02
          63  1.2413668E-02
          64  1.6587470E-02
          65 -6.2213684E-03
          66  5.6901821E-03
          67 -1.1262648E-02
          68  1.6732606E-03
          69  1.8921703E-04
          70 -2.2701179E-03
          71  8.8810166E-03
          72  2.9409134E-03
          73  5.8351387E-03
          74 -9.9589946E-03
          75 -1.1017382E-03
          76 -9.1389185E-03
          77 -2.5699451E-03
          78  1.3430573E-02
          79  3.7816432E-03
          80  8.7547535E-03
          81 -4.5170318E-03
          82  3.4802344E-03
          83 -7.8206863E-03
          84  3.7737773E-03
          85  3.2255687E-03
          86  7.6115696E-04
          87  4.0857733E-04
          88  1.4756029E-03
          89  1.8991950E-03
          90 -1.6257927E-03
          91 -1.6556357E-04
          92 -2.9897196E-03
          93 -2.1560197E-03
          94  3.4984471E-03
          95 -1.6394547E-03
          96  2.4231030E-03
          97 -9.3212537E-04
          98  1.4742689E-03
          99 -1.2876835E-03
         100 -1.3878333E-04
         101 -1.2339597E-03
         102  1.3548390E-03
         103 -7.8455545E-04
         104  2.1421909E-04
         105  6.1738933E-04
         106  2.7650440E-04
         107  2.8861899E-04
         108 -3.0785607E-04
         109 -1.7597353E-03
         110  1.0224684E-03
         111 -8.3346374E-04
         112  1.4688776E-04
         113  1.2583183E-03
         114  5.1876495E-04
         115  6.6793809E-04
         116 -6.9545255E-05
         117 -2.2523205E-03
         118  4.5470599E-04
         119 -1.1242238E-03
         120 -3.2333986E-04
         121  2.9553313E-04
         122 -5.3630822E-04
         123 -5.7043985E-04
         124 -2.3139265E-04
         125 -9.1105781E-04
         126  7.7004946E-04
         127  7.8246121E-05
         128 -1.0342409E-04
         129  9.8284851E-05
         130 -2.7910402E-04
         131 -1.8973835E-04
         132  4.9942627E-04
         133 -5.2201084E-04
         134  7.3336635E-04
         135  1.8464356E-05
         136 -1.4884393E-04
         137  3.4455824E-04
         138  4.7313134E-04
         139 -2.0497800E-04
         140  2.4862817E-04
         141 -5.1630998E-04
         142 -6.5731688E-04
         143 -2.8744309E-05
         144 -1.9007578E-04
         145  6.3797685E-05
         146  3.7335677E-04
         147  1.9057406E-04
         148 -9.2036003E-05
         149  1.4316561E-05
         150 -3.4693902E-04
         151  8.4026178E-05
         152 -1.0780359E-06
         153 -7.4912357E-05
         154  2.3951505E-04
         155 -1.1493447E-04
         156  1.0638528E-04
         157  5.1087700E-05
         158  2.9301221E-04
         159  4.1380050E-04
         160  6.2841209E-05
         161  1.2639361E-04
         162  1.6397082E-04
         163  2.1409443E-04
         164  1.7617870E-04
         165  2.4333212E-04
         166 -3.2681783E-04
         167 -1.6550337E-04
         168 -1.8827441E-04
         169  3.6349057E-04
         170 -5.5544311E-04
         171 -9.9079291E-05
         172 -1.7542655E-04
         173 -5.6472671E-04
         174  1.2818015E-03
         175  1.9304089E-04
         176 -2.2646826E-04
         177 -2.6434963E-03
         178  5.7634632E-03
         179 -6.8195054E-04
         180 -4.4617006E-03
         181 -1.2539682E-04
         182  9.8848820E-04
         183 -3.7262210E-04
         184  1.3719533E-03
         185  5.6816279E-03
         186 -7.9139741E-03
         187  1.0831819E-04
         188 -3.7620021E-03
         189 -4.0567303E-03
         190 -4.5596194E-04
         191 -1.1703246E-03
         192 -1.6164608E-04
         193 -2.0525937E-03
         194  9.1057509E-02
         195 -9.3171813E-02
         196 -5.1139165E-02
         197  3.4370201E-03
         198 -2.4479451E-02
         199  2.8389502E-02
         200  1.6772227E-02
         201 -2.3386836E-04
         202  0.2317020    
         203 -0.2238732    
         204 -0.1243721    
         205  1.7481050E-03
         206 -6.6346258E-02
         207  6.5660536E-02
         208  3.5654351E-02
         209  2.8469393E-03
         210 -1.7471826E-05
         211  4.1743610E-02
         212 -4.3893222E-02
         213 -3.3738673E-02
         214 -8.7199762E-04
         215  2.1761602E-03
         216  4.1254994E-02
         217 -4.1790865E-02
         218 -3.0538851E-02
         219  1.2270354E-02
         220 -5.1605827E-03
         221 -2.8568160E-02
         222  2.6747406E-02
         223  2.2639237E-02
         224  1.2954773E-03
         225  1.2760602E-03
         226  2.6727343E-02
         227 -2.7730832E-02
         228 -1.6999157E-02
         229 -2.2466638E-04
         230  4.3564217E-04
         231  4.0530607E-02
         232 -4.0826689E-02
         233 -2.9252307E-02
         234 -0.1101289    
         235  5.2420437E-02
         236 -1.5963687E-02
         237 -4.9163971E-02
         238 -9.0522328E-03
         239  6.6579998E-02
         240 -2.7827082E-02
         241  9.0961168E-03
         242  1.9510532E-02
         243 -1.5186474E-02
         244  1.5196874E-03
         245 -2.9083493E-03
         246  2.2012390E-02
         247 -6.2406613E-03
         248 -1.3470667E-02
         249 -2.2744413E-03
         250 -5.6937168E-04
         251  4.9873686E-04
         252 -3.0197159E-03
         253 -7.2289840E-04
         254 -1.9922965E-04
         255 -1.5587079E-03
         256  1.3240059E-03
         257 -9.5865893E-04
         258 -4.7878639E-04
         259  9.3790266E-05
         260 -2.0451944E-03
         261  1.4573541E-03
         262 -9.8240562E-04
         263 -3.8308071E-04
         264 -7.2710752E-04
         265 -7.1780779E-04
         266 -5.9902499E-04
         267  5.4941402E-04
         268 -2.7324815E-04
         269 -6.5035000E-04
         270 -1.1882666E-03
         271  4.6323545E-05
         272 -1.2207425E-03
         273 -8.6952059E-04
         274 -7.6605626E-05
         275 -1.4077873E-03
         276  2.3887065E-04
         277 -4.7300998E-04
         278  6.6997879E-04
         279 -7.7789294E-04
         280 -9.5096743E-04
         281 -6.0802983E-04
         282  2.8498788E-04
         283  3.1111811E-04
         284 -4.0149092E-04
         285 -4.2397130E-04
         286  1.1427113E-03
         287  5.6483019E-05
         288  1.7187266E-04
         289 -9.2980865E-04
         290  2.3029544E-04
         291 -9.5527578E-04
         292 -2.7157445E-04
         293 -2.1912529E-04
         294  2.0400170E-04
         295  6.2585383E-04
         296  1.0980837E-03
         297  8.6069590E-04
         298  1.5985049E-04
         299 -6.3940370E-04
         300  9.3516329E-04
         301 -4.5049581E-04
         302  1.4794157E-04
         303 -3.2522657E-04
         304 -6.1982486E-04
         305 -7.5890002E-04
         306  2.3067908E-03
         307  5.4801261E-04
         308 -5.3795043E-04
         309  3.4041193E-03
         310 -3.2387588E-03
         311  3.3316412E-03
         312 -4.0589337E-04
         313  3.2284041E-04
         314  2.2221734E-04
         315 -3.7600035E-03
         316  3.6035872E-03
         317 -2.4853398E-03
         318  5.0881883E-04
         319  1.2086929E-03
         320  4.2316350E-03
         321  2.7173510E-02
         322 -2.2807010E-02
         323 -1.3691450E-02
         324  2.7445988E-03
         325  1.9594952E-03
         326  5.1088501E-02
         327 -5.1176477E-02
         328 -3.1608321E-02
 Sym= Hole
 Ene= -0.5089736    
 Spin= Alpha
 Occup= 0
           1  4.3810792E-03
           2 -0.2202662    
           3  0.2331587    
           4  0.1772607    
           5 -1.7290184E-03
           6  2.2976969E-04
           7  8.1687851E-04
           8 -5.5262860E-04
           9 -3.3187674E-04
          10 -0.1078000    
          11  0.1115697    
          12  7.4682012E-02
          13  3.8980619E-05
          14 -7.9516298E-04
          15  3.9291859E-04
          16 -1.5893108E-03
          17  1.3908536E-04
          18  0.2990941    
          19 -0.2971800    
          20 -0.1759109    
          21 -5.5264391E-04
          22  2.5715346E-03
          23 -3.6377963E-03
          24 -1.9651128E-03
          25 -9.7967149E-04
          26  0.1433585    
          27 -0.1376036    
          28 -7.7343747E-02
          29 -4.1910107E-04
          30 -9.9462329E-04
          31 -1.0895529E-03
          32  5.3193391E-04
          33  2.4305249E-03
          34 -0.1920308    
          35  0.1852587    
          36  0.1018249    
          37 -1.4475369E-03
          38 -4.8890086E-03
          39  6.1290446E-03
          40  3.2691124E-03
          41 -1.0858383E-03
          42 -0.3197153    
          43  0.3084272    
          44  0.1830184    
          45  9.1720326E-04
          46  2.6005856E-04
          47  3.3420096E-03
          48  2.8132333E-03
          49 -8.2802642E-03
          50  2.6523590E-02
          51 -3.8370181E-02
          52 -3.8062371E-02
          53 -1.7036997E-03
          54  3.3920747E-03
          55 -2.9981830E-03
          56 -1.0220866E-03
          57  1.4900768E-02
          58 -3.9972104E-02
          59 -1.1777747E-02
          60 -1.3570788E-02
          61 -1.1035755E-02
          62  4.5253281E-03
          63 -3.8545921E-03
          64  6.1712170E-04
          65 -7.9085594E-03
          66  9.4554285E-03
          67 -1.7017985E-02
          68  1.1477939E-02
          69  3.8386991E-03
          70 -7.9565598E-03
          71  1.6729994E-03
          72 -1.2271870E-03
          73  8.9085894E-03
          74 -2.3893451E-02
          75 -4.6740309E-03
          76 -1.0079810E-02
          77 -2.2665663E-03
          78 -8.5199391E-03
          79  1.4471456E-03
          80  2.0993890E-03
          81 -4.8858179E-03
          82  3.3973977E-03
          83 -1.3405249E-02
          84  6.8585258E-03
          85  1.4294746E-03
          86 -1.8904647E-03
          87  1.0277629E-03
          88 -6.2818557E-04
          89  2.6389766E-03
          90 -2.7790647E-03
          91  3.2721099E-03
          92 -4.8147100E-03
          93 -4.7321661E-04
          94  9.9492972E-05
          95  1.4007556E-03
          96  5.0426449E-04
          97 -2.2446176E-03
          98  3.9533251E-03
          99 -1.3252483E-03
         100  1.3242820E-03
         101  1.2367282E-03
         102 -7.0667628E-04
         103  1.3730150E-03
         104  2.3490086E-04
         105 -2.8147915E-05
         106 -3.8068873E-04
         107  3.6141032E-04
         108 -2.7258361E-03
         109  2.7675787E-04
         110 -2.2168084E-04
         111  5.1315703E-05
         112 -2.9688911E-04
         113  1.0370007E-03
         114 -3.2470605E-04
         115  1.9129128E-03
         116  3.6859108E-04
         117 -1.5516764E-04
         118 -2.4746708E-04
         119  4.2312487E-05
         120  3.1231219E-04
         121  9.2503458E-04
         122 -2.0363412E-03
         123 -5.8031987E-05
         124 -6.0693815E-04
         125  5.5853225E-04
         126 -8.7337784E-04
         127  3.6316458E-04
         128 -2.0895252E-04
         129 -7.7227101E-04
         130  1.0857112E-03
         131 -2.7532681E-04
         132  1.2747676E-03
         133  2.1921028E-04
         134  1.6873193E-04
         135 -1.6282756E-04
         136  1.0025021E-04
         137  2.9849829E-04
         138 -1.0474720E-04
         139 -5.9381832E-04
         140  8.0109021E-04
         141  1.8998217E-05
         142  4.4470136E-05
         143 -9.1561633E-05
         144 -9.6347940E-06
         145 -3.8624453E-04
         146 -3.5407810E-04
         147 -1.0958224E-04
         148 -7.3849544E-04
         149  6.8909067E-05
         150 -1.0923353E-04
         151  1.5622277E-04
         152 -3.4470670E-04
         153  7.1221380E-04
         154  1.4321789E-03
         155 -7.2188018E-04
         156  9.1270771E-04
         157 -2.7892416E-04
         158  1.2852122E-04
         159  1.2879549E-04
         160  1.7663840E-05
         161  1.0118268E-03
         162  8.5149828E-04
         163 -2.2379770E-04
         164 -7.7230716E-04
         165  1.6509843E-04
         166  3.6084157E-04
         167 -1.3706843E-04
         168 -5.7768902E-06
         169 -8.1326137E-04
         170  7.3632936E-04
         171 -1.1031406E-03
         172  8.2024699E-04
         173  3.9193960E-04
         174 -4.8735598E-04
         175 -1.2330640E-04
         176  2.1906674E-04
         177 -3.3071216E-03
         178  1.0573280E-02
         179  3.1829008E-03
         180 -1.0272830E-02
         181  4.5852520E-04
         182  1.6289255E-04
         183  6.6368807E-06
         184 -7.7877118E-04
         185  7.8714136E-03
         186 -1.0697191E-02
         187  5.1242104E-03
         188 -7.6308753E-03
         189 -2.1828585E-03
         190 -9.0860465E-04
         191 -5.9973565E-04
         192 -3.6137129E-04
         193 -2.1729863E-03
         194 -0.1035136    
         195  9.7351037E-02
         196  5.4557461E-02
         197  6.8767852E-04
         198 -3.5964404E-03
         199  1.1555464E-03
         200  5.3296058E-04
         201  5.5758446E-04
         202  0.2334546    
         203 -0.2272446    
         204 -0.1287851    
         205 -1.3144350E-03
         206  1.3002203E-03
         207 -3.1364954E-03
         208 -1.4156635E-03
         209 -1.6194957E-03
         210  5.3847009E-05
         211 -1.5500331E-03
         212  1.7912062E-03
         213  8.7956735E-04
         214 -2.3695030E-03
         215  3.6858389E-04
         216 -2.3890198E-03
         217  2.3850494E-03
         218  3.3207461E-03
         219 -1.2933729E-02
         220  1.2047680E-03
         221 -6.7604538E-03
         222  6.0773995E-03
         223  4.6685776E-03
         224  3.4099496E-03
         225 -2.7081225E-04
         226  2.7214631E-04
         227 -2.5805461E-04
         228 -2.2281347E-04
         229 -4.6374961E-03
         230 -2.4478565E-04
         231  6.3154870E-03
         232 -4.3081576E-03
         233 -3.8096160E-03
         234 -0.1294975    
         235  1.5483672E-02
         236  8.3695734E-03
         237 -3.3829887E-03
         238 -2.2463880E-03
         239  8.0234207E-02
         240 -9.8069804E-03
         241  4.5172451E-03
         242 -5.4180077E-03
         243 -3.4731794E-03
         244  1.6614014E-02
         245 -6.9151790E-04
         246 -2.2113526E-03
         247  1.2196144E-03
         248  2.7317149E-03
         249 -1.0918422E-03
         250  2.0693068E-03
         251 -2.7686008E-04
         252  8.5492310E-04
         253  1.2573116E-05
         254  2.5932440E-03
         255  9.6658227E-04
         256 -4.3918553E-04
         257  2.6978616E-04
         258  2.1320776E-04
         259  5.3800462E-04
         260  2.1519580E-04
         261 -2.1748454E-04
         262  2.4184654E-04
         263  5.7862117E-04
         264 -8.0738001E-04
         265  1.6592696E-04
         266  1.8274764E-05
         267 -1.3158731E-04
         268  4.2302001E-04
         269  1.6006229E-03
         270  8.4905262E-04
         271 -8.2848885E-05
         272  2.6998954E-04
         273 -2.0000308E-04
         274  7.4663747E-04
         275  5.4225082E-05
         276  2.2674949E-04
         277  1.4941332E-04
         278 -6.5486721E-04
         279 -1.9971034E-03
         280  7.0066875E-05
         281 -3.3180663E-04
         282  1.9245766E-04
         283 -3.8184834E-04
         284  2.6170933E-04
         285  2.6039837E-04
         286 -3.0979389E-04
         287 -1.2766547E-04
         288 -7.4622549E-05
         289  4.4755827E-04
         290  2.7425867E-04
         291 -5.4785494E-05
         292  2.9091848E-04
         293 -1.5059901E-04
         294 -7.9513073E-04
         295 -1.7396842E-04
         296  9.4810806E-05
         297 -1.0964617E-04
         298  2.0924190E-04
         299  9.4033225E-04
         300  2.9857477E-04
         301 -1.2206806E-04
         302 -2.4633069E-04
         303 -8.3774275E-06
         304 -1.8851168E-03
         305  2.6099710E-04
         306 -9.9117111E-04
         307  3.9514585E-04
         308  3.1554309E-04
         309  4.4727908E-03
         310 -3.6013033E-04
         311 -6.1838166E-04
         312  1.3001277E-03
         313 -3.3033968E-04
         314  2.2075719E-03
         315 -2.9525983E-05
         316  2.3628869E-03
         317 -6.8059872E-04
         318  1.1475841E-04
         319  2.0120575E-03
         320 -3.8615228E-05
         321  1.1834990E-03
         322  7.6902630E-05
         323 -2.2636836E-03
         324 -2.7489027E-03
         325 -4.1597724E-04
         326 -3.3338850E-03
         327  3.7501538E-03
         328  1.7919187E-03
 Sym= Particle
 Ene= -0.5089736    
 Spin= Alpha
 Occup= 2
           1 -2.4579349E-03
           2  2.8911721E-02
           3 -3.0020483E-02
           4 -1.9573836E-02
           5  3.3769908E-03
           6 -1.3375387E-02
           7  1.3203145E-02
           8  7.5053154E-03
           9 -6.3149550E-04
          10 -1.1683417E-02
          11  1.3688907E-02
          12  6.9294577E-03
          13  1.7425457E-03
          14 -4.5052104E-04
          15 -3.0221043E-03
          16 -5.9962092E-04
          17 -1.4647156E-03
          18 -4.3713782E-02
          19  4.0656939E-02
          20  2.4584994E-02
          21  2.8216713E-03
          22  1.0952460E-02
          23 -8.9352718E-03
          24 -4.6910662E-03
          25  5.1135820E-04
          26  0.3432741    
          27 -0.3331804    
          28 -0.1982204    
          29  2.9686515E-03
          30 -0.1004904    
          31  0.1013764    
          32  6.0778096E-02
          33 -5.7745661E-04
          34 -0.2967058    
          35  0.2871678    
          36  0.1666503    
          37  4.8141559E-03
          38  9.4612643E-02
          39 -8.5725494E-02
          40 -4.8813559E-02
          41 -1.3999336E-03
          42 -5.4065082E-02
          43  5.3386997E-02
          44  3.0304804E-02
          45  5.7301251E-03
          46  2.2345023E-02
          47 -1.5834587E-02
          48 -5.3932602E-03
          49 -3.8982697E-03
          50 -9.0821888E-03
          51  2.0419965E-03
          52  9.0366248E-03
          53  4.7501116E-03
          54  2.3842971E-03
          55  1.6939318E-03
          56 -2.2481232E-04
          57  3.8742565E-03
          58 -2.2009863E-03
          59 -7.5217602E-03
          60 -8.5386438E-03
          61 -6.0342555E-03
          62  1.1562187E-03
          63  1.0598386E-02
          64  4.5524235E-03
          65  1.7546121E-03
          66 -2.3647326E-04
          67 -4.4474099E-03
          68 -2.7864294E-03
          69 -1.1567813E-02
          70  1.6215060E-02
          71  8.0555519E-03
          72 -1.5955926E-03
          73 -2.7751666E-03
          74  9.8139457E-03
          75  5.7094931E-03
          76  1.9474576E-03
          77 -3.2373553E-03
          78  7.0532616E-03
          79 -2.3261989E-03
          80 -6.9007003E-03
          81  8.8560005E-04
          82 -1.2775353E-02
          83 -1.1030477E-02
          84  1.5467860E-02
          85 -1.5244040E-03
          86  4.9337680E-03
          87  4.1093692E-04
          88 -2.0771843E-04
          89 -3.9497289E-04
          90  4.6487669E-03
          91  5.6353868E-03
          92 -6.1126072E-03
          93  7.5977406E-04
          94 -3.7980557E-03
          95 -1.3249150E-03
          96  3.0703992E-03
          97  2.7755194E-04
          98 -2.9872602E-04
          99  1.5156515E-04
         100 -1.2586187E-04
         101  5.2870333E-04
         102 -3.4177187E-04
         103  6.3958036E-04
         104 -4.8119971E-04
         105 -3.3984744E-04
         106 -2.2941550E-04
         107  8.8068024E-05
         108 -4.2662682E-04
         109  7.6557306E-04
         110  5.4117764E-04
         111  3.2896874E-04
         112 -1.2561651E-04
         113  7.7794818E-04
         114 -2.9397212E-05
         115  1.2255304E-03
         116 -4.6097394E-04
         117 -5.8965961E-04
         118  6.9119356E-04
         119 -3.1872233E-04
         120 -2.2375624E-04
         121 -7.0855505E-04
         122  8.7186380E-04
         123  8.0026226E-04
         124  5.1639869E-04
         125  7.3211291E-04
         126 -5.6393811E-04
         127  4.6428779E-04
         128 -8.0301135E-05
         129  2.3011935E-04
         130  1.0232546E-03
         131 -2.1969671E-03
         132 -3.2815551E-03
         133 -9.2325128E-05
         134 -5.5663649E-04
         135  7.6371740E-04
         136  1.0820936E-03
         137 -2.2242688E-04
         138 -9.8072470E-04
         139  1.8498842E-03
         140  2.0738936E-03
         141  1.9266164E-04
         142  3.5458038E-04
         143 -1.4691452E-04
         144 -5.3636937E-05
         145 -4.7335787E-05
         146 -4.3345886E-04
         147  7.3331705E-04
         148  1.1190439E-03
         149  1.0371257E-04
         150  9.3782648E-05
         151 -1.3307108E-04
         152 -1.8408473E-04
         153 -8.1253296E-05
         154 -1.4541866E-05
         155 -3.5181633E-04
         156 -1.8938197E-04
         157  2.3986328E-04
         158  5.5597680E-05
         159 -1.7503994E-04
         160 -2.7889351E-04
         161 -2.0663207E-05
         162  1.1091371E-03
         163 -2.4866497E-03
         164 -2.7613838E-03
         165  1.4247428E-04
         166 -7.2700495E-04
         167  1.1378804E-03
         168  1.0373528E-03
         169 -3.3665341E-04
         170 -2.1078078E-04
         171  1.1236584E-03
         172  1.9982127E-03
         173  7.0407876E-04
         174 -8.8832167E-04
         175  2.0416435E-04
         176 -2.0319408E-04
         177 -5.3421146E-04
         178  8.3484808E-03
         179  9.5943715E-03
         180 -9.9588521E-03
         181  4.4250951E-04
         182 -5.6715724E-03
         183 -3.4318389E-03
         184  3.1674979E-03
         185  1.1138417E-03
         186 -1.3211269E-02
         187 -1.3728086E-02
         188  1.3979290E-02
         189 -4.3746047E-03
         190  5.0153234E-03
         191  7.7791401E-04
         192 -2.5103979E-03
         193 -1.8068617E-03
         194  0.3445260    
         195 -0.3401671    
         196 -0.1910050    
         197  4.2982339E-03
         198 -0.1053335    
         199  0.1066361    
         200  6.1883379E-02
         201  3.3807012E-04
         202 -0.2999215    
         203  0.2947060    
         204  0.1697162    
         205  1.2427499E-03
         206  8.9565657E-02
         207 -9.0260118E-02
         208 -4.9794674E-02
         209  3.5707622E-03
         210 -6.5541273E-04
         211  5.7165870E-03
         212 -9.4110034E-03
         213 -4.0817526E-03
         214  3.6173637E-04
         215  2.9245745E-03
         216 -3.8454053E-03
         217  1.2757093E-02
         218  3.9348966E-03
         219  1.8156922E-03
         220  3.5266770E-04
         221  1.3887783E-02
         222 -1.2368413E-02
         223 -5.2079838E-03
         224 -1.0100495E-03
         225  2.3027968E-03
         226  8.2478821E-02
         227 -7.7394351E-02
         228 -4.5501254E-02
         229  1.1549764E-03
         230  4.1361726E-03
         231 -6.3069962E-02
         232  6.6044472E-02
         233  3.7281524E-02
         234 -1.2767523E-02
         235  8.4925378E-03
         236  7.4842339E-03
         237 -9.1338251E-03
         238  1.9769376E-02
         239  1.7032331E-02
         240 -7.8687380E-04
         241  8.4034842E-04
         242 -1.4736420E-02
         243 -1.4324857E-02
         244  9.8409951E-03
         245  1.6848365E-03
         246 -1.7914919E-02
         247  5.2934447E-03
         248 -2.6369736E-02
         249  2.8741912E-03
         250 -7.4310787E-04
         251 -3.5818457E-03
         252 -3.8394930E-03
         253  5.8747265E-03
         254  5.8574282E-04
         255 -7.6796825E-04
         256  3.8042336E-04
         257 -5.6141417E-04
         258 -2.4032639E-04
         259 -4.0523117E-04
         260  8.8874658E-04
         261 -5.0157472E-04
         262  1.2800148E-03
         263  4.2467040E-05
         264  6.2464445E-04
         265 -3.5624711E-05
         266  5.5416900E-04
         267 -4.8849604E-04
         268  2.4433873E-04
         269  2.4922469E-06
         270 -5.5156433E-04
         271  3.6542991E-04
         272 -7.3752645E-04
         273 -2.3267747E-04
         274 -1.2650696E-04
         275  4.0061492E-04
         276 -1.0632218E-03
         277  1.2617003E-03
         278 -6.0290389E-04
         279 -2.0826131E-04
         280 -2.4561174E-04
         281  1.3095563E-03
         282  1.5010014E-04
         283 -6.5197988E-04
         284  2.7924366E-04
         285 -2.3440060E-05
         286  5.7654564E-05
         287 -6.1950827E-04
         288 -1.0053217E-03
         289  5.3608534E-04
         290 -5.3205054E-05
         291  9.1994254E-05
         292  7.8249199E-04
         293  8.2086353E-04
         294  2.1758454E-04
         295 -1.5136799E-04
         296  1.8027566E-04
         297 -9.7059511E-04
         298 -1.0537412E-03
         299  3.3446963E-04
         300 -2.4966025E-04
         301  2.2334814E-04
         302 -5.6115520E-04
         303 -5.2583392E-04
         304  6.2780920E-04
         305 -9.0747344E-04
         306  6.1774853E-04
         307 -2.7914759E-04
         308  1.5457615E-03
         309  4.7272083E-04
         310  8.5814239E-04
         311  5.1199546E-04
         312  1.7966229E-03
         313 -1.7566510E-03
         314  2.0755304E-03
         315 -1.0968776E-03
         316 -2.3395489E-03
         317 -5.9838258E-03
         318  3.7784607E-03
         319  1.0378293E-04
         320  5.3822313E-04
         321  8.5265309E-02
         322 -7.8260966E-02
         323 -4.7682192E-02
         324 -3.4033577E-04
         325 -7.8091299E-04
         326 -7.4042864E-02
         327  7.0183516E-02
         328  4.0339049E-02
