 [Molden Format]
 [Atoms] Angs
C       1      6     -3.38785318      2.09386524     -1.25222334
C       2      6     -2.87989245      1.37397468      0.01042229
C       3      6     -3.38576001      2.09624097      1.27265234
C       4      6     -3.43483966     -0.03690503      0.01317811
C       5      6     -4.80235116     -0.26832936      0.02175229
C       6      6     -5.32295198     -1.55072228      0.02872890
C       7      6     -4.46745966     -2.63914384      0.02861165
C       8      6     -3.10394196     -2.43501085      0.01919367
C       9      6     -2.58100784     -1.14085667      0.00986724
N      10      7     -1.21872792     -0.97782419     -0.00768278
C      11      6     -0.57538263      0.24008216     -0.00264406
C      12      6     -1.35820630      1.40289969      0.00816703
C      13      6     -0.71310681      2.62970374      0.01131865
C      14      6      0.65971864      2.71631407      0.00392572
C      15      6      1.43299433      1.55816425     -0.01262301
C      16      6      0.83227374      0.29908469     -0.01341707
C      17      6      1.68619831     -0.96630627     -0.06208004
C      18      6      1.33377617     -1.90561860      1.12361967
C      19      6      1.47270296     -1.64852483     -1.43304382
C      20      6      3.17730256     -0.66662144      0.01219778
C      21      6      4.09041640     -1.71134475      0.04780096
C      22      6      5.45465988     -1.48374304      0.08675938
C      23      6      5.93449107     -0.18467956      0.09121970
C      24      6      5.04805328      0.87056415      0.05619682
C      25      6      3.67288257      0.63772130      0.01262772
N      26      7      2.80248655      1.69456991     -0.03103664
H      27      1     -4.47412249      2.10232219     -1.28127235
H      28      1     -3.02417140      1.58119003     -2.14077104
H      29      1     -3.03781925      3.12192676     -1.28222523
H      30      1     -4.47194054      2.10844866      1.30154713
H      31      1     -3.03295612      3.12328303      1.30257649
H      32      1     -3.02422024      1.58295769      2.16178537
H      33      1     -5.48666933      0.56697296      0.02329861
H      34      1     -6.39225791     -1.69863435      0.03502220
H      35      1     -4.86212621     -3.64442353      0.03567215
H      36      1     -2.42461614     -3.27680117      0.01899628
H      37      1     -0.66622373     -1.81598429      0.02351556
H      38      1     -1.28658806      3.54336375      0.01948780
H      39      1      1.14870793      3.67970555      0.00752115
H      40      1      0.57765264     -1.46212985      1.76770170
H      41      1      2.21325245     -2.07310247      1.74164672
H      42      1      0.98644065     -2.88043556      0.78331244
H      43      1      1.97945129     -2.61010051     -1.46650507
H      44      1      0.42298701     -1.79899939     -1.67002037
H      45      1      1.89667187     -1.01668689     -2.21190632
H      46      1      3.73349748     -2.73082378      0.04623105
H      47      1      6.13968989     -2.31754792      0.11218995
H      48      1      6.99717780      0.00460967      0.12232543
H      49      1      5.40709217      1.89043633      0.06050548
H      50      1      3.18065097      2.62879098     -0.01039246
 [GTO]
           1   0
s              4   1.000000
     37.02790771     -0.01198412
      6.37651210     -0.05472052
      0.51237995      0.58055871
      0.19528068      0.47700800
p              4   1.000000
      5.96801467      0.05713170
      1.54741709      0.28574555
      0.54551241      0.55178731
      0.21717789      0.26323149
s              7   1.000000
      0.38350848     -0.19441496
      0.04707223      0.93934162
      0.02222627      0.24668537
     37.02790771      0.00521680
      6.37651210      0.02382035
      0.51237995     -0.25272252
      0.19528068     -0.20764594
p              7   1.000000
      1.83062075     -0.01151060
      0.10124670      0.56564875
      0.03901771      0.59073609
      5.96801467     -0.02389135
      1.54741709     -0.11949316
      0.54551241     -0.23074659
      0.21717789     -0.11007823
 
           2   0
s              4   1.000000
     37.10277132     -0.01198412
      6.38940423     -0.05472052
      0.51341589      0.58055871
      0.19567550      0.47700799
p              4   1.000000
      5.98008089      0.05713170
      1.55054568      0.28574555
      0.54661533      0.55178731
      0.21761698      0.26323149
s              7   1.000000
      0.38350848     -0.19435502
      0.04707223      0.93905202
      0.02222627      0.24660932
     37.10277132      0.00520669
      6.38940423      0.02377421
      0.51341589     -0.25223304
      0.19567550     -0.20724377
p              7   1.000000
      1.83062075     -0.01150727
      0.10124670      0.56548505
      0.03901771      0.59056512
      5.98008089     -0.02384486
      1.55054568     -0.11926065
      0.54661533     -0.23029759
      0.21761698     -0.10986403
 
           3   0
s              4   1.000000
     37.02820513     -0.01198412
      6.37656332     -0.05472052
      0.51238407      0.58055871
      0.19528225      0.47700799
p              4   1.000000
      5.96806261      0.05713170
      1.54742952      0.28574555
      0.54551679      0.55178731
      0.21717963      0.26323149
s              7   1.000000
      0.38350848     -0.19441472
      0.04707223      0.93934047
      0.02222627      0.24668508
     37.02820513      0.00521676
      6.37656332      0.02382016
      0.51238407     -0.25272057
      0.19528225     -0.20764434
p              7   1.000000
      1.83062075     -0.01151059
      0.10124670      0.56564808
      0.03901771      0.59073540
      5.96806261     -0.02389117
      1.54742952     -0.11949224
      0.54551679     -0.23074480
      0.21717963     -0.11007737
 
           4   0
s              4   1.000000
     35.26101000     -0.01198412
      6.07223769     -0.05472053
      0.48793021      0.58055871
      0.18596228      0.47700799
p              4   1.000000
      5.68323294      0.05713170
      1.47357744      0.28574555
      0.51948165      0.55178731
      0.20681459      0.26323149
s              7   1.000000
      0.38350848     -0.19592933
      0.04707223      0.94665850
      0.02222627      0.24860690
     35.26101000      0.00546687
      6.07223769      0.02496222
      0.48793021     -0.26483729
      0.18596228     -0.21759987
p              7   1.000000
      1.83062075     -0.01159478
      0.10124670      0.56978502
      0.03901771      0.59505582
      5.68323294     -0.02504168
      1.47357744     -0.12524655
      0.51948165     -0.24185663
      0.20681459     -0.11537830
 
           5   0
s              4   1.000000
     35.02299158     -0.01198412
      6.03124895     -0.05472052
      0.48463659      0.58055871
      0.18470700      0.47700799
p              4   1.000000
      5.64487006      0.05713170
      1.46363051      0.28574555
      0.51597505      0.55178731
      0.20541856      0.26323149
s              7   1.000000
      0.38350848     -0.19614900
      0.04707223      0.94771989
      0.02222627      0.24888563
     35.02299158      0.00550236
      6.03124895      0.02512427
      0.48463659     -0.26655652
      0.18470700     -0.21901245
p              7   1.000000
      1.83062075     -0.01160699
      0.10124670      0.57038508
      0.03901771      0.59568248
      5.64487006     -0.02520488
      1.46363051     -0.12606280
      0.51597505     -0.24343284
      0.20541856     -0.11613023
 
           6   0
s              4   1.000000
     34.91699480     -0.01198412
      6.01299543     -0.05472053
      0.48316984      0.58055871
      0.18414798      0.47700799
p              4   1.000000
      5.62778591      0.05713170
      1.45920085      0.28574555
      0.51441345      0.55178731
      0.20479686      0.26323149
s              7   1.000000
      0.38350848     -0.19624812
      0.04707223      0.94819877
      0.02222627      0.24901140
     34.91699480      0.00551831
      6.01299543      0.02519710
      0.48316984     -0.26732920
      0.18414798     -0.21964732
p              7   1.000000
      1.83062075     -0.01161250
      0.10124670      0.57065583
      0.03901771      0.59596527
      5.62778591     -0.02527822
      1.45920085     -0.12642963
      0.51441345     -0.24414122
      0.20479686     -0.11646817
 
           7   0
s              4   1.000000
     34.91631820     -0.01198412
      6.01287891     -0.05472052
      0.48316048      0.58055871
      0.18414442      0.47700800
p              4   1.000000
      5.62767685      0.05713170
      1.45917257      0.28574555
      0.51440349      0.55178731
      0.20479289      0.26323149
s              7   1.000000
      0.38350848     -0.19624875
      0.04707223      0.94820184
      0.02222627      0.24901221
     34.91631820      0.00551841
      6.01287891      0.02519756
      0.48316048     -0.26733415
      0.18414442     -0.21965139
p              7   1.000000
      1.83062075     -0.01161253
      0.10124670      0.57065756
      0.03901771      0.59596705
      5.62767685     -0.02527869
      1.45917257     -0.12643198
      0.51440349     -0.24414575
      0.20479289     -0.11647033
 
           8   0
s              4   1.000000
     35.02074807     -0.01198412
      6.03086260     -0.05472052
      0.48460554      0.58055871
      0.18469517      0.47700800
p              4   1.000000
      5.64450846      0.05713170
      1.46353676      0.28574555
      0.51594200      0.55178731
      0.20540540      0.26323149
s              7   1.000000
      0.38350848     -0.19615109
      0.04707223      0.94772999
      0.02222627      0.24888829
     35.02074807      0.00550270
      6.03086260      0.02512580
      0.48460554     -0.26657282
      0.18469517     -0.21902585
p              7   1.000000
      1.83062075     -0.01160710
      0.10124670      0.57039079
      0.03901771      0.59568847
      5.64450846     -0.02520643
      1.46353676     -0.12607054
      0.51594200     -0.24344779
      0.20540540     -0.11613737
 
           9   0
s              4   1.000000
     35.15834078     -0.01198412
      6.05455721     -0.05472052
      0.48650951      0.58055871
      0.18542081      0.47700799
p              4   1.000000
      5.66668512      0.05713170
      1.46928683      0.28574555
      0.51796908      0.55178731
      0.20621241      0.26323149
s              7   1.000000
      0.38350848     -0.19602360
      0.04707223      0.94711399
      0.02222627      0.24872651
     35.15834078      0.00548213
      6.05455721      0.02503187
      0.48650951     -0.26557620
      0.18542081     -0.21820700
p              7   1.000000
      1.83062075     -0.01160002
      0.10124670      0.57004252
      0.03901771      0.59532473
      5.66668512     -0.02511182
      1.46928683     -0.12559738
      0.51796908     -0.24253409
      0.20621241     -0.11570148
 
          10   0
s              4   1.000000
     61.01475508     -0.01198412
     10.50724570     -0.05472052
      0.84430202      0.58055871
      0.32178440      0.47700799
p              4   1.000000
      7.19192975      0.05713170
      1.86475999      0.28574555
      0.65738560      0.55178731
      0.26171654      0.26323149
s              7   1.000000
      0.47894987     -0.18783937
      0.05878681      0.90757080
      0.02775758      0.23834187
     61.01475508      0.00398175
     10.50724570      0.01818102
      0.84430202     -0.19289198
      0.32178440     -0.15848702
p              7   1.000000
      2.28619608     -0.01157136
      0.12644335      0.56863439
      0.04872781      0.59385414
      7.19192975     -0.02472623
      1.86475999     -0.12366880
      0.65738560     -0.23880992
      0.26171654     -0.11392486
 
          11   0
s              4   1.000000
     35.20906253     -0.01198412
      6.06329191     -0.05472053
      0.48721138      0.58055871
      0.18568831      0.47700799
p              4   1.000000
      5.67486025      0.05713170
      1.47140652      0.28574555
      0.51871633      0.55178731
      0.20650991      0.26323149
s              7   1.000000
      0.38350848     -0.19597694
      0.04707223      0.94688853
      0.02222627      0.24866730
     35.20906253      0.00547458
      6.06329191      0.02499741
      0.48721138     -0.26521065
      0.18568831     -0.21790665
p              7   1.000000
      1.83062075     -0.01159742
      0.10124670      0.56991505
      0.03901771      0.59519163
      5.67486025     -0.02507712
      1.47140652     -0.12542382
      0.51871633     -0.24219895
      0.20650991     -0.11554160
 
          12   0
s              4   1.000000
     35.25810427     -0.01198412
      6.07173730     -0.05472052
      0.48789000      0.58055871
      0.18594695      0.47700799
p              4   1.000000
      5.68276461      0.05713170
      1.47345601      0.28574555
      0.51943884      0.55178731
      0.20679755      0.26323149
s              7   1.000000
      0.38350848     -0.19593199
      0.04707223      0.94667134
      0.02222627      0.24861027
     35.25810427      0.00546730
      6.07173730      0.02496419
      0.48789000     -0.26485815
      0.18594695     -0.21761701
p              7   1.000000
      1.83062075     -0.01159492
      0.10124670      0.56979228
      0.03901771      0.59506338
      5.68276461     -0.02504366
      1.47345601     -0.12525645
      0.51943884     -0.24187576
      0.20679755     -0.11538742
 
          13   0
s              4   1.000000
     35.02370316     -0.01198412
      6.03137149     -0.05472053
      0.48464643      0.58055871
      0.18471075      0.47700799
p              4   1.000000
      5.64498475      0.05713170
      1.46366025      0.28574555
      0.51598553      0.55178731
      0.20542273      0.26323149
s              7   1.000000
      0.38350848     -0.19614834
      0.04707223      0.94771670
      0.02222627      0.24888480
     35.02370316      0.00550226
      6.03137149      0.02512378
      0.48464643     -0.26655134
      0.18471075     -0.21900820
p              7   1.000000
      1.83062075     -0.01160695
      0.10124670      0.57038328
      0.03901771      0.59568062
      5.64498475     -0.02520439
      1.46366025     -0.12606034
      0.51598553     -0.24342810
      0.20542273     -0.11612798
 
          14   0
s              4   1.000000
     35.01221708     -0.01198412
      6.02939349     -0.05472053
      0.48448749      0.58055871
      0.18465018      0.47700799
p              4   1.000000
      5.64313346      0.05713170
      1.46318024      0.28574555
      0.51581631      0.55178731
      0.20535536      0.26323149
s              7   1.000000
      0.38350848     -0.19615904
      0.04707223      0.94776839
      0.02222627      0.24889838
     35.01221708      0.00550398
      6.02939349      0.02513165
      0.48448749     -0.26663486
      0.18465018     -0.21907682
p              7   1.000000
      1.83062075     -0.01160754
      0.10124670      0.57041251
      0.03901771      0.59571112
      5.64313346     -0.02521232
      1.46318024     -0.12609999
      0.51581631     -0.24350467
      0.20535536     -0.11616450
 
          15   0
s              4   1.000000
     35.15623033     -0.01198412
      6.05419377     -0.05472052
      0.48648030      0.58055871
      0.18540968      0.47700799
p              4   1.000000
      5.66634496      0.05713170
      1.46919864      0.28574555
      0.51793798      0.55178731
      0.20620004      0.26323149
s              7   1.000000
      0.38350848     -0.19602554
      0.04707223      0.94712339
      0.02222627      0.24872897
     35.15623033      0.00548244
      6.05419377      0.02503330
      0.48648030     -0.26559143
      0.18540968     -0.21821951
p              7   1.000000
      1.83062075     -0.01160012
      0.10124670      0.57004784
      0.03901771      0.59533031
      5.66634496     -0.02511327
      1.46919864     -0.12560461
      0.51793798     -0.24254806
      0.20620004     -0.11570815
 
          16   0
s              4   1.000000
     35.28974050     -0.01198412
      6.07718532     -0.05472052
      0.48832777      0.58055871
      0.18611380      0.47700799
p              4   1.000000
      5.68786361      0.05713170
      1.47477810      0.28574555
      0.51990492      0.55178731
      0.20698311      0.26323149
s              7   1.000000
      0.38350848     -0.19590308
      0.04707223      0.94653167
      0.02222627      0.24857358
     35.28974050      0.00546262
      6.07718532      0.02494280
      0.48832777     -0.26463123
      0.18611380     -0.21743057
p              7   1.000000
      1.83062075     -0.01159332
      0.10124670      0.56971330
      0.03901771      0.59498093
      5.68786361     -0.02502212
      1.47477810     -0.12514872
      0.51990492     -0.24166771
      0.20698311     -0.11528818
 
          17   0
s              4   1.000000
     37.08880010     -0.01198412
      6.38699827     -0.05472052
      0.51322256      0.58055871
      0.19560182      0.47700799
p              4   1.000000
      5.97782907      0.05713170
      1.54996181      0.28574555
      0.54640950      0.55178731
      0.21753504      0.26323149
s              7   1.000000
      0.38350848     -0.19436618
      0.04707223      0.93910595
      0.02222627      0.24662348
     37.08880010      0.00520857
      6.38699827      0.02378281
      0.51322256     -0.25232425
      0.19560182     -0.20731871
p              7   1.000000
      1.83062075     -0.01150789
      0.10124670      0.56551553
      0.03901771      0.59059696
      5.97782907     -0.02385353
      1.54996181     -0.11930397
      0.54640950     -0.23038126
      0.21753504     -0.10990394
 
          18   0
s              4   1.000000
     37.00202082     -0.01198412
      6.37205416     -0.05472052
      0.51202174      0.58055871
      0.19514416      0.47700799
p              4   1.000000
      5.96384232      0.05713170
      1.54633526      0.28574555
      0.54513103      0.55178731
      0.21702606      0.26323149
s              7   1.000000
      0.38350848     -0.19443576
      0.04707223      0.93944212
      0.02222627      0.24671177
     37.00202082      0.00522030
      6.37205416      0.02383634
      0.51202174     -0.25289221
      0.19514416     -0.20778537
p              7   1.000000
      1.83062075     -0.01151176
      0.10124670      0.56570555
      0.03901771      0.59079540
      5.96384232     -0.02390747
      1.54633526     -0.11957377
      0.54513103     -0.23090224
      0.21702606     -0.11015248
 
          19   0
s              4   1.000000
     37.03269727     -0.01198412
      6.37733690     -0.05472052
      0.51244623      0.58055871
      0.19530594      0.47700799
p              4   1.000000
      5.96878663      0.05713170
      1.54761725      0.28574555
      0.54558297      0.55178731
      0.21720598      0.26323149
s              7   1.000000
      0.38350848     -0.19441111
      0.04707223      0.93932304
      0.02222627      0.24668050
     37.03269727      0.00521615
      6.37733690      0.02381739
      0.51244623     -0.25269115
      0.19530594     -0.20762017
p              7   1.000000
      1.83062075     -0.01151039
      0.10124670      0.56563824
      0.03901771      0.59072513
      5.96878663     -0.02388837
      1.54761725     -0.11947826
      0.54558297     -0.23071781
      0.21720598     -0.11006450
 
          20   0
s              4   1.000000
     35.28603625     -0.01198412
      6.07654742     -0.05472052
      0.48827651      0.58055871
      0.18609427      0.47700800
p              4   1.000000
      5.68726658      0.05713170
      1.47462330      0.28574555
      0.51985035      0.55178731
      0.20696138      0.26323149
s              7   1.000000
      0.38350848     -0.19590646
      0.04707223      0.94654801
      0.02222627      0.24857787
     35.28603625      0.00546317
      6.07654742      0.02494530
      0.48827651     -0.26465778
      0.18609427     -0.21745239
p              7   1.000000
      1.83062075     -0.01159350
      0.10124670      0.56972254
      0.03901771      0.59499056
      5.68726658     -0.02502464
      1.47462330     -0.12516132
      0.51985035     -0.24169205
      0.20696138     -0.11529979
 
          21   0
s              4   1.000000
     35.03049423     -0.01198412
      6.03254097     -0.05472053
      0.48474041      0.58055871
      0.18474657      0.47700799
p              4   1.000000
      5.64607930      0.05713170
      1.46394405      0.28574555
      0.51608558      0.55178731
      0.20546256      0.26323149
s              7   1.000000
      0.38350848     -0.19614202
      0.04707223      0.94768614
      0.02222627      0.24887678
     35.03049423      0.00550124
      6.03254097      0.02511913
      0.48474041     -0.26650199
      0.18474657     -0.21896765
p              7   1.000000
      1.83062075     -0.01160660
      0.10124670      0.57036601
      0.03901771      0.59566257
      5.64607930     -0.02519970
      1.46394405     -0.12603691
      0.51608558     -0.24338285
      0.20546256     -0.11610639
 
          22   0
s              4   1.000000
     34.91625011     -0.01198412
      6.01286719     -0.05472052
      0.48315953      0.58055871
      0.18414406      0.47700799
p              4   1.000000
      5.62766588      0.05713170
      1.45916973      0.28574555
      0.51440248      0.55178731
      0.20479249      0.26323149
s              7   1.000000
      0.38350848     -0.19624882
      0.04707223      0.94820216
      0.02222627      0.24901228
     34.91625011      0.00551843
      6.01286719      0.02519761
      0.48315953     -0.26733465
      0.18414406     -0.21965180
p              7   1.000000
      1.83062075     -0.01161253
      0.10124670      0.57065773
      0.03901771      0.59596725
      5.62766588     -0.02527874
      1.45916973     -0.12643222
      0.51440248     -0.24414621
      0.20479249     -0.11647055
 
          23   0
s              4   1.000000
     34.91695623     -0.01198412
      6.01298879     -0.05472053
      0.48316931      0.58055871
      0.18414778      0.47700799
p              4   1.000000
      5.62777969      0.05713170
      1.45919924      0.28574555
      0.51441289      0.55178731
      0.20479663      0.26323149
s              7   1.000000
      0.38350848     -0.19624815
      0.04707223      0.94819895
      0.02222627      0.24901145
     34.91695623      0.00551832
      6.01298879      0.02519712
      0.48316931     -0.26732948
      0.18414778     -0.21964755
p              7   1.000000
      1.83062075     -0.01161250
      0.10124670      0.57065593
      0.03901771      0.59596535
      5.62777969     -0.02527825
      1.45919924     -0.12642976
      0.51441289     -0.24414147
      0.20479663     -0.11646829
 
          24   0
s              4   1.000000
     35.01268797     -0.01198412
      6.02947459     -0.05472052
      0.48449401      0.58055871
      0.18465266      0.47700799
p              4   1.000000
      5.64320936      0.05713170
      1.46319992      0.28574555
      0.51582325      0.55178731
      0.20535812      0.26323149
s              7   1.000000
      0.38350848     -0.19615860
      0.04707223      0.94776628
      0.02222627      0.24889782
     35.01268797      0.00550391
      6.02947459      0.02513133
      0.48449401     -0.26663143
      0.18465266     -0.21907401
p              7   1.000000
      1.83062075     -0.01160752
      0.10124670      0.57041131
      0.03901771      0.59570987
      5.64320936     -0.02521199
      1.46319992     -0.12609837
      0.51582325     -0.24350153
      0.20535812     -0.11616300
 
          25   0
s              4   1.000000
     35.15488391     -0.01198412
      6.05396190     -0.05472052
      0.48646167      0.58055871
      0.18540258      0.47700800
p              4   1.000000
      5.66612795      0.05713170
      1.46914237      0.28574555
      0.51791815      0.55178731
      0.20619214      0.26323149
s              7   1.000000
      0.38350848     -0.19602679
      0.04707223      0.94712939
      0.02222627      0.24873056
     35.15488391      0.00548264
      6.05396190      0.02503422
      0.48646167     -0.26560115
      0.18540258     -0.21822749
p              7   1.000000
      1.83062075     -0.01160019
      0.10124670      0.57005123
      0.03901771      0.59533383
      5.66612795     -0.02511419
      1.46914237     -0.12560922
      0.51791815     -0.24255697
      0.20619214     -0.11571240
 
          26   0
s              4   1.000000
     60.98085876     -0.01198412
     10.50140847     -0.05472052
      0.84383298      0.58055871
      0.32160564      0.47700799
p              4   1.000000
      7.18793432      0.05713170
      1.86372404      0.28574555
      0.65702040      0.55178731
      0.26157114      0.26323149
s              7   1.000000
      0.47894987     -0.18784966
      0.05878681      0.90762053
      0.02775758      0.23835493
     60.98085876      0.00398395
     10.50140847      0.01819104
      0.84383298     -0.19299828
      0.32160564     -0.15857435
p              7   1.000000
      2.28619608     -0.01157234
      0.12644335      0.56868231
      0.04872781      0.59390418
      7.18793432     -0.02473943
      1.86372404     -0.12373483
      0.65702040     -0.23893744
      0.26157114     -0.11398569
 
          27   0
s              4   1.000000
      8.30636937      0.05675242
      1.51996326      0.26014135
      0.42226244      0.53284611
      0.14014511      0.29162544
s              7   1.000000
      0.92936822     -0.06733174
      0.05643440      0.66948839
      0.02166600      0.51464001
      8.30636937     -0.02902961
      1.51996326     -0.13306573
      0.42226244     -0.27255781
      0.14014511     -0.14917026
p              4   1.000000
      0.64737396      0.05713170
      0.16785440      0.28574555
      0.05917387      0.55178731
      0.02355814      0.26323150
 
          28   0
s              4   1.000000
      8.30626932      0.05675242
      1.51994495      0.26014135
      0.42225735      0.53284611
      0.14014342      0.29162544
s              7   1.000000
      0.92936822     -0.06733187
      0.05643440      0.66948966
      0.02166600      0.51464098
      8.30626932     -0.02902988
      1.51994495     -0.13306696
      0.42225735     -0.27256032
      0.14014342     -0.14917163
p              4   1.000000
      0.64737396      0.05713170
      0.16785440      0.28574555
      0.05917387      0.55178731
      0.02355814      0.26323150
 
          29   0
s              4   1.000000
      8.30636916      0.05675242
      1.51996322      0.26014135
      0.42226243      0.53284611
      0.14014510      0.29162544
s              7   1.000000
      0.92936822     -0.06733174
      0.05643440      0.66948839
      0.02166600      0.51464001
      8.30636916     -0.02902961
      1.51996322     -0.13306573
      0.42226243     -0.27255781
      0.14014510     -0.14917026
p              4   1.000000
      0.64737396      0.05713170
      0.16785440      0.28574555
      0.05917387      0.55178731
      0.02355814      0.26323150
 
          30   0
s              4   1.000000
      8.30637789      0.05675242
      1.51996482      0.26014135
      0.42226287      0.53284611
      0.14014525      0.29162544
s              7   1.000000
      0.92936822     -0.06733173
      0.05643440      0.66948828
      0.02166600      0.51463991
      8.30637789     -0.02902959
      1.51996482     -0.13306563
      0.42226287     -0.27255759
      0.14014525     -0.14917014
p              4   1.000000
      0.64737396      0.05713170
      0.16785440      0.28574555
      0.05917387      0.55178731
      0.02355814      0.26323150
 
          31   0
s              4   1.000000
      8.30637389      0.05675242
      1.51996408      0.26014135
      0.42226267      0.53284611
      0.14014518      0.29162544
s              7   1.000000
      0.92936822     -0.06733174
      0.05643440      0.66948833
      0.02166600      0.51463996
      8.30637389     -0.02902960
      1.51996408     -0.13306568
      0.42226267     -0.27255769
      0.14014518     -0.14917019
p              4   1.000000
      0.64737396      0.05713170
      0.16785440      0.28574555
      0.05917387      0.55178731
      0.02355814      0.26323150
 
          32   0
s              4   1.000000
      8.30626050      0.05675242
      1.51994334      0.26014135
      0.42225690      0.53284611
      0.14014327      0.29162544
s              7   1.000000
      0.92936822     -0.06733188
      0.05643440      0.66948979
      0.02166600      0.51464108
      8.30626050     -0.02902990
      1.51994334     -0.13306707
      0.42225690     -0.27256054
      0.14014327     -0.14917175
p              4   1.000000
      0.64737396      0.05713170
      0.16785440      0.28574555
      0.05917387      0.55178731
      0.02355814      0.26323150
 
          33   0
s              4   1.000000
      8.30973959      0.05675242
      1.52057997      0.26014135
      0.42243377      0.53284611
      0.14020197      0.29162544
s              7   1.000000
      0.92936822     -0.06732741
      0.05643440      0.66944526
      0.02166600      0.51460684
      8.30973959     -0.02902059
      1.52057997     -0.13302439
      0.42243377     -0.27247314
      0.14020197     -0.14912391
p              4   1.000000
      0.64737396      0.05713170
      0.16785440      0.28574555
      0.05917387      0.55178731
      0.02355814      0.26323150
 
          34   0
s              4   1.000000
      8.30885428      0.05675242
      1.52041797      0.26014135
      0.42238876      0.53284611
      0.14018703      0.29162544
s              7   1.000000
      0.92936822     -0.06732855
      0.05643440      0.66945658
      0.02166600      0.51461556
      8.30885428     -0.02902296
      1.52041797     -0.13303525
      0.42238876     -0.27249537
      0.14018703     -0.14913609
p              4   1.000000
      0.64737396      0.05713170
      0.16785440      0.28574555
      0.05917387      0.55178731
      0.02355814      0.26323150
 
          35   0
s              4   1.000000
      8.30885927      0.05675242
      1.52041888      0.26014135
      0.42238901      0.53284611
      0.14018712      0.29162544
s              7   1.000000
      0.92936822     -0.06732854
      0.05643440      0.66945652
      0.02166600      0.51461551
      8.30885927     -0.02902295
      1.52041888     -0.13303519
      0.42238901     -0.27249525
      0.14018712     -0.14913601
p              4   1.000000
      0.64737396      0.05713170
      0.16785440      0.28574555
      0.05917387      0.55178731
      0.02355814      0.26323150
 
          36   0
s              4   1.000000
      8.30907100      0.05675242
      1.52045762      0.26014135
      0.42239978      0.53284611
      0.14019069      0.29162544
s              7   1.000000
      0.92936822     -0.06732827
      0.05643440      0.66945382
      0.02166600      0.51461343
      8.30907100     -0.02902238
      1.52045762     -0.13303259
      0.42239978     -0.27248993
      0.14019069     -0.14913311
p              4   1.000000
      0.64737396      0.05713170
      0.16785440      0.28574555
      0.05917387      0.55178731
      0.02355814      0.26323150
 
          37   0
s              4   1.000000
      8.31748507      0.05675242
      1.52199729      0.26014135
      0.42282751      0.53284611
      0.14033265      0.29162544
s              7   1.000000
      0.92936822     -0.06731745
      0.05643440      0.66934631
      0.02166600      0.51453079
      8.31748507     -0.02899989
      1.52199729     -0.13292950
      0.42282751     -0.27227877
      0.14033265     -0.14901754
p              4   1.000000
      0.64737396      0.05713170
      0.16785440      0.28574555
      0.05917387      0.55178731
      0.02355814      0.26323150
 
          38   0
s              4   1.000000
      8.31000396      0.05675242
      1.52062834      0.26014135
      0.42244720      0.53284611
      0.14020643      0.29162544
s              7   1.000000
      0.92936822     -0.06732707
      0.05643440      0.66944188
      0.02166600      0.51460426
      8.31000396     -0.02901989
      1.52062834     -0.13302115
      0.42244720     -0.27246650
      0.14020643     -0.14912028
p              4   1.000000
      0.64737396      0.05713170
      0.16785440      0.28574555
      0.05917387      0.55178731
      0.02355814      0.26323150
 
          39   0
s              4   1.000000
      8.30920153      0.05675242
      1.52048151      0.26014135
      0.42240641      0.53284611
      0.14019289      0.29162544
s              7   1.000000
      0.92936822     -0.06732810
      0.05643440      0.66945215
      0.02166600      0.51461214
      8.30920153     -0.02902203
      1.52048151     -0.13303099
      0.42240641     -0.27248665
      0.14019289     -0.14913131
p              4   1.000000
      0.64737396      0.05713170
      0.16785440      0.28574555
      0.05917387      0.55178731
      0.02355814      0.26323150
 
          40   0
s              4   1.000000
      8.30664821      0.05675242
      1.52001428      0.26014135
      0.42227661      0.53284611
      0.14014981      0.29162544
s              7   1.000000
      0.92936822     -0.06733138
      0.05643440      0.66948482
      0.02166600      0.51463725
      8.30664821     -0.02902886
      1.52001428     -0.13306231
      0.42227661     -0.27255080
      0.14014981     -0.14916642
p              4   1.000000
      0.64737396      0.05713170
      0.16785440      0.28574555
      0.05917387      0.55178731
      0.02355814      0.26323150
 
          41   0
s              4   1.000000
      8.30684609      0.05675242
      1.52005049      0.26014135
      0.42228667      0.53284611
      0.14015315      0.29162544
s              7   1.000000
      0.92936822     -0.06733113
      0.05643440      0.66948228
      0.02166600      0.51463532
      8.30684609     -0.02902833
      1.52005049     -0.13305988
      0.42228667     -0.27254583
      0.14015315     -0.14916370
p              4   1.000000
      0.64737396      0.05713170
      0.16785440      0.28574555
      0.05917387      0.55178731
      0.02355814      0.26323150
 
          42   0
s              4   1.000000
      8.30583394      0.05675242
      1.51986528      0.26014135
      0.42223522      0.53284611
      0.14013607      0.29162544
s              7   1.000000
      0.92936822     -0.06733243
      0.05643440      0.66949524
      0.02166600      0.51464528
      8.30583394     -0.02903104
      1.51986528     -0.13307230
      0.42223522     -0.27257127
      0.14013607     -0.14917762
p              4   1.000000
      0.64737396      0.05713170
      0.16785440      0.28574555
      0.05917387      0.55178731
      0.02355814      0.26323150
 
          43   0
s              4   1.000000
      8.30627955      0.05675242
      1.51994682      0.26014135
      0.42225787      0.53284611
      0.14014359      0.29162544
s              7   1.000000
      0.92936822     -0.06733186
      0.05643440      0.66948953
      0.02166600      0.51464088
      8.30627955     -0.02902985
      1.51994682     -0.13306683
      0.42225787     -0.27256007
      0.14014359     -0.14917149
p              4   1.000000
      0.64737396      0.05713170
      0.16785440      0.28574555
      0.05917387      0.55178731
      0.02355814      0.26323150
 
          44   0
s              4   1.000000
      8.30649509      0.05675242
      1.51998626      0.26014135
      0.42226883      0.53284611
      0.14014723      0.29162544
s              7   1.000000
      0.92936822     -0.06733158
      0.05643440      0.66948678
      0.02166600      0.51463877
      8.30649509     -0.02902927
      1.51998626     -0.13306419
      0.42226883     -0.27255465
      0.14014723     -0.14916853
p              4   1.000000
      0.64737396      0.05713170
      0.16785440      0.28574555
      0.05917387      0.55178731
      0.02355814      0.26323150
 
          45   0
s              4   1.000000
      8.30647858      0.05675242
      1.51998324      0.26014135
      0.42226799      0.53284611
      0.14014695      0.29162544
s              7   1.000000
      0.92936822     -0.06733160
      0.05643440      0.66948699
      0.02166600      0.51463892
      8.30647858     -0.02902932
      1.51998324     -0.13306439
      0.42226799     -0.27255506
      0.14014695     -0.14916875
p              4   1.000000
      0.64737396      0.05713170
      0.16785440      0.28574555
      0.05917387      0.55178731
      0.02355814      0.26323150
 
          46   0
s              4   1.000000
      8.30978904      0.05675242
      1.52058901      0.26014135
      0.42243628      0.53284611
      0.14020280      0.29162544
s              7   1.000000
      0.92936822     -0.06732734
      0.05643440      0.66944463
      0.02166600      0.51460637
      8.30978904     -0.02902046
      1.52058901     -0.13302379
      0.42243628     -0.27247190
      0.14020280     -0.14912324
p              4   1.000000
      0.64737396      0.05713170
      0.16785440      0.28574555
      0.05917387      0.55178731
      0.02355814      0.26323150
 
          47   0
s              4   1.000000
      8.30886111      0.05675242
      1.52041921      0.26014135
      0.42238911      0.53284611
      0.14018715      0.29162544
s              7   1.000000
      0.92936822     -0.06732854
      0.05643440      0.66945650
      0.02166600      0.51461549
      8.30886111     -0.02902294
      1.52041921     -0.13303517
      0.42238911     -0.27249520
      0.14018715     -0.14913599
p              4   1.000000
      0.64737396      0.05713170
      0.16785440      0.28574555
      0.05917387      0.55178731
      0.02355814      0.26323150
 
          48   0
s              4   1.000000
      8.30886531      0.05675242
      1.52041998      0.26014135
      0.42238932      0.53284611
      0.14018722      0.29162544
s              7   1.000000
      0.92936822     -0.06732853
      0.05643440      0.66945645
      0.02166600      0.51461544
      8.30886531     -0.02902293
      1.52041998     -0.13303511
      0.42238932     -0.27249510
      0.14018722     -0.14913593
p              4   1.000000
      0.64737396      0.05713170
      0.16785440      0.28574555
      0.05917387      0.55178731
      0.02355814      0.26323150
 
          49   0
s              4   1.000000
      8.30904483      0.05675242
      1.52045283      0.26014135
      0.42239845      0.53284611
      0.14019025      0.29162544
s              7   1.000000
      0.92936822     -0.06732830
      0.05643440      0.66945415
      0.02166600      0.51461368
      8.30904483     -0.02902245
      1.52045283     -0.13303291
      0.42239845     -0.27249059
      0.14019025     -0.14913347
p              4   1.000000
      0.64737396      0.05713170
      0.16785440      0.28574555
      0.05917387      0.55178731
      0.02355814      0.26323150
 
          50   0
s              4   1.000000
      8.31459320      0.05675242
      1.52146812      0.26014135
      0.42268050      0.53284611
      0.14028386      0.29162544
s              7   1.000000
      0.92936822     -0.06732117
      0.05643440      0.66938323
      0.02166600      0.51455916
      8.31459320     -0.02900762
      1.52146812     -0.13296491
      0.42268050     -0.27235130
      0.14028386     -0.14905724
p              4   1.000000
      0.64737396      0.05713170
      0.16785440      0.28574555
      0.05917387      0.55178731
      0.02355814      0.26323150
 
 [MO]
 Sym= Hole
 Ene=  -1.050396    
 Spin= Alpha
 Occup= 0
           1  1.5206607E-02
           2  1.1742125E-02
           3 -1.2162523E-02
           4  2.0215150E-02
           5 -1.0547251E-02
           6 -4.9355179E-03
           7  1.9692159E-03
           8 -4.4298046E-03
           9 -8.5458851E-05
          10 -1.7130519E-04
          11  1.6128205E-04
          12 -8.5711153E-03
          13  1.6312575E-04
          14  1.8123767E-04
          15 -1.5989537E-04
          16  6.8306788E-03
          17 -1.4862139E-02
          18 -1.1460377E-02
          19  1.2191297E-02
          20  2.0035591E-02
          21  1.0640460E-02
          22  5.1390836E-03
          23 -2.0330856E-03
          24 -4.5325551E-03
          25 -1.5516581E-04
          26 -2.3894852E-04
          27 -1.7021874E-04
          28 -1.9149415E-02
          29  2.1389742E-04
          30  1.6805134E-04
          31  6.3245687E-05
          32  1.7011039E-03
          33  1.0099717E-04
          34  2.8566760E-04
          35  7.1706418E-05
          36  3.4897223E-03
          37  7.3252595E-05
          38  1.4571623E-04
          39 -6.9111375E-05
          40 -2.2400499E-03
          41  1.3264294E-05
          42  2.9307210E-05
          43 -4.0641084E-05
          44  1.5866870E-02
          45  1.1103143E-04
          46  1.3485845E-04
          47  2.3903718E-05
          48 -1.4461243E-03
          49  1.0131299E-04
          50  1.1549816E-04
          51 -2.9097884E-05
          52 -1.9711722E-03
          53  3.1057443E-05
          54  1.3431985E-04
          55  1.0273414E-04
          56 -5.7746028E-04
          57 -1.4087485E-05
          58 -1.2280086E-05
          59 -3.9304889E-04
          60 -1.7134946E-02
          61 -1.4167753E-04
          62  1.2320547E-05
          63 -1.2680459E-04
          64  1.1097246E-03
          65  6.1798794E-04
          66  1.1067595E-03
          67  2.7649399E-04
          68 -1.8739856E-04
          69 -2.7678936E-04
          70 -3.9201090E-04
          71  1.6660112E-04
          72  3.6642330E-03
          73 -1.9529189E-03
          74 -1.1667572E-03
          75  2.2588391E-04
          76  3.6576856E-02
          77  1.2929925E-03
          78  1.0859742E-03
          79  2.2144223E-04
          80  9.5218449E-04
          81  7.0526352E-04
          82  1.0081719E-03
          83 -2.6190060E-04
          84 -1.9453941E-02
          85 -3.5033465E-04
          86  9.0518722E-04
          87  7.2285254E-04
          88 -5.1850998E-03
          89  4.2161666E-04
          90  7.9975132E-04
          91 -1.1633872E-03
          92  0.1940425    
          93  6.7502871E-05
          94  1.0195925E-03
          95  1.6040802E-05
          96 -2.0389507E-02
          97  1.3196750E-03
          98  2.2179955E-03
          99 -5.3998589E-05
         100  3.7671905E-02
         101 -2.3429554E-04
         102  4.6464265E-04
         103 -6.8154791E-04
         104 -1.2784440E-02
         105 -1.4089448E-03
         106 -3.0884652E-03
         107  2.6612822E-03
         108 -0.1981858    
         109 -1.8471477E-04
         110 -8.8155393E-05
         111 -7.6725899E-04
         112  1.2704039E-02
         113  3.6470108E-03
         114  7.6764729E-03
         115  8.1809575E-04
         116 -6.2298991E-02
         117 -4.2809802E-03
         118 -3.4090916E-03
         119 -9.4867210E-05
         120  2.4493163E-02
         121  2.6764555E-03
         122 -4.5579998E-04
         123 -2.0235337E-03
         124 -0.2674399    
         125 -3.6200685E-03
         126 -1.1559867E-03
         127  1.2332651E-04
         128  2.7153913E-02
         129 -1.4244058E-03
         130  1.5867628E-03
         131  3.6839468E-03
         132  4.8865367E-02
         133 -6.1799079E-04
         134 -2.2266727E-04
         135 -6.8855420E-04
         136 -2.0930343E-03
         137  5.1208917E-02
         138  2.5733886E-02
         139  6.0852565E-02
         140 -6.6563644E-02
         141 -2.7153291E-02
         142 -2.3459285E-03
         143 -6.2434343E-03
         144  8.7819519E-03
         145 -5.5643637E-02
         146 -1.7972585E-02
         147 -5.6550890E-02
         148 -9.2079185E-02
         149  2.8628308E-02
         150  1.5889078E-03
         151  6.1659468E-03
         152  1.1236529E-02
         153  1.4877492E-03
         154  8.4928507E-03
         155 -3.6986114E-03
         156 -0.3681036    
         157 -2.9461978E-03
         158  5.4577383E-04
         159 -1.0763152E-03
         160  2.2838373E-02
         161 -1.8491199E-05
         162 -1.9082217E-03
         163  2.0560478E-03
         164  6.0028244E-02
         165  2.4076679E-05
         166 -3.9176870E-05
         167  8.0351130E-04
         168 -1.3812782E-03
         169  7.4839301E-04
         170 -1.2729939E-02
         171  2.3225618E-03
         172  0.4098158    
         173  4.3421849E-05
         174 -2.7508789E-04
         175  1.8248592E-04
         176 -1.4006739E-02
         177  5.7620340E-04
         178 -4.9877632E-03
         179  2.7748388E-03
         180  0.1328493    
         181  2.9770892E-05
         182 -5.9883692E-04
         183 -1.2163943E-04
         184 -8.1940843E-03
         185 -1.0189777E-03
         186  1.2258079E-02
         187 -2.7344204E-03
         188 -0.3298465    
         189 -2.8671781E-04
         190 -1.9997109E-04
         191 -4.8496877E-04
         192  1.2698368E-02
         193  2.8164063E-03
         194  5.2785142E-03
         195  7.8421913E-04
         196 -0.2789063    
         197 -3.8302199E-03
         198  2.0745802E-03
         199 -2.2098264E-03
         200  1.8540693E-02
         201 -1.5694404E-02
         202 -5.5744327E-03
         203  2.4791660E-03
         204  0.5008829    
         205  6.4063999E-03
         206 -6.0734485E-04
         207 -1.5952354E-03
         208 -5.2803535E-02
         209 -1.3947322E-02
         210  1.8970250E-03
         211  5.3442847E-03
         212 -1.5353643E-03
         213  2.1951778E-03
         214 -2.0049328E-03
         215 -2.5060722E-03
         216 -4.7117914E-03
         217  1.1507160E-03
         218  1.4549211E-03
         219  1.7383289E-04
         220 -2.9058445E-03
         221 -2.9422562E-03
         222 -1.5565001E-03
         223  5.3140114E-04
         224  1.3713449E-02
         225 -1.5201264E-03
         226 -5.0418931E-03
         227  1.5743640E-03
         228  2.1212026E-03
         229 -1.9644540E-04
         230  3.1756076E-03
         231  2.9326701E-03
         232  1.3932257E-03
         233  4.0182649E-04
         234  2.1614193E-03
         235  2.8637773E-03
         236  4.8771747E-03
         237 -1.2138366E-03
         238  1.1943436E-03
         239 -9.8553181E-05
         240  1.2936775E-04
         241  8.3445055E-05
         242 -2.4693212E-05
         243  1.1585340E-03
         244  1.3119051E-04
         245  7.7479628E-05
         246  1.8140352E-05
         247  2.5986863E-05
         248  1.8006397E-03
         249 -9.4495597E-05
         250  1.5838858E-04
         251  1.2080053E-04
         252  8.6781096E-05
         253  1.3624948E-04
         254  5.3005482E-05
         255  2.2042428E-04
         256  1.4947064E-04
         257 -3.1757416E-04
         258 -1.8907083E-03
         259  1.7292557E-04
         260  6.1404554E-04
         261  1.2438529E-03
         262 -1.3067063E-04
         263  4.4852551E-03
         264 -1.3227094E-03
         265  4.7552353E-04
         266  1.6758784E-04
         267 -2.3922203E-04
         268  2.7914825E-03
         269 -1.5778218E-03
         270  5.0154247E-04
         271 -9.3734143E-06
         272 -1.6693585E-04
         273 -2.2091160E-02
         274 -2.0906506E-02
         275 -2.0158987E-03
         276  6.3574123E-03
         277 -1.0262909E-02
         278 -1.0652455E-02
         279 -1.3886502E-02
         280 -4.3418999E-03
         281 -1.0826861E-02
         282 -2.3245751E-03
         283 -9.7199483E-03
         284 -2.7370052E-02
         285  5.8628112E-04
         286  4.6813167E-03
         287  1.0996566E-02
         288  1.0947414E-03
         289  2.7201885E-02
         290  1.2422617E-03
         291  5.9758015E-03
         292 -1.0091871E-02
         293 -3.4073407E-03
         294  3.3032037E-02
         295 -5.6640396E-04
         296 -1.0555265E-02
         297  1.7411867E-04
         298 -6.7959721E-03
         299  6.0575805E-03
         300  5.7252217E-03
         301  4.7790599E-03
         302  1.0771723E-02
         303 -1.1367362E-02
         304 -1.6685283E-03
         305  9.7296259E-04
         306 -3.2549028E-04
         307  1.3355085E-03
         308  8.9960464E-04
         309  4.4282828E-04
         310  3.2183685E-04
         311 -4.7322089E-04
         312  2.6117422E-04
         313  1.7585862E-02
         314 -1.0004838E-03
         315  4.5382432E-04
         316 -1.8133587E-04
         317 -2.4056566E-04
         318  1.5952727E-03
         319 -9.2141872E-04
         320  3.8254022E-04
         321  9.5199757E-05
         322 -1.7402046E-04
         323 -1.8655993E-02
         324  1.0054481E-02
         325 -3.0695263E-03
         326  1.4507489E-03
         327  5.8827265E-03
         328  9.6089944E-02
 Sym= Particle
 Ene=  -1.050396    
 Spin= Alpha
 Occup= 2
           1 -3.4451752E-03
           2 -2.0271696E-03
           3  4.1072983E-03
           4 -4.9516163E-03
           5  3.1020462E-03
           6  1.9542626E-03
           7 -1.3759905E-03
           8  1.4164902E-03
           9 -4.4712645E-04
          10 -5.5451953E-04
          11  1.6197235E-04
          12 -1.2036567E-03
          13  2.5181269E-04
          14 -2.3671865E-04
          15  1.0117389E-05
          16 -2.9160702E-03
          17  3.7180479E-03
          18  2.0677256E-03
          19 -4.2946432E-03
          20 -5.3585782E-03
          21 -3.3173021E-03
          22 -1.9343274E-03
          23  1.5165794E-03
          24  1.4984133E-03
          25 -1.6032493E-04
          26 -1.6682161E-04
          27  4.7956390E-04
          28  2.2646517E-03
          29 -5.8081896E-05
          30 -1.3446766E-04
          31 -1.9268011E-04
          32 -8.6196081E-04
          33  8.4005478E-05
          34  2.6555866E-04
          35  7.7878809E-05
          36  1.4074213E-03
          37 -1.8322897E-05
          38  5.5828590E-05
          39  1.2130652E-04
          40  9.7100456E-05
          41  1.6105962E-04
          42 -5.5358316E-05
          43  9.4635716E-06
          44 -3.3324724E-03
          45 -2.4163548E-04
          46 -2.4001907E-05
          47  2.4178671E-05
          48  1.3096017E-03
          49  1.5274347E-04
          50  1.4071986E-04
          51 -2.7497640E-04
          52  1.1789312E-03
          53 -1.3013155E-04
          54  6.5472123E-05
          55  2.7815660E-04
          56  5.9683557E-04
          57  8.5415813E-06
          58  1.0131660E-04
          59 -1.2924282E-04
          60  2.9578682E-03
          61  2.5723146E-05
          62 -8.2722661E-05
          63 -1.5840487E-05
          64  2.9986090E-04
          65  9.0406067E-04
          66  1.0095524E-03
          67  1.9512956E-04
          68 -1.4106997E-03
          69 -4.1964211E-04
          70 -4.3754789E-04
          71 -1.2645828E-04
          72 -7.0874160E-04
          73 -2.9746743E-03
          74 -1.7241797E-03
          75  7.8559562E-04
          76 -2.6694282E-03
          77  2.9668380E-03
          78  2.1059681E-03
          79 -5.6691712E-04
          80  5.6627854E-03
          81 -6.8512734E-04
          82 -1.7728686E-03
          83 -6.5146812E-04
          84  1.4463164E-02
          85  1.1726383E-03
          86  1.6632234E-03
          87 -1.3907317E-03
          88 -2.2450825E-03
          89  5.8617059E-04
          90  5.6833069E-05
          91 -5.2630069E-04
          92 -4.9690951E-02
          93 -3.5279867E-04
          94 -2.6047193E-05
          95  4.0935079E-04
          96  1.6347948E-02
          97  3.2619425E-04
          98 -1.0987480E-04
          99 -2.2673386E-04
         100  3.1039892E-02
         101 -5.7040027E-04
         102 -2.4099232E-05
         103  1.3369106E-04
         104 -8.4042484E-03
         105  1.0535168E-03
         106  1.0547347E-03
         107 -9.0179802E-04
         108  1.6990284E-02
         109 -8.6924736E-04
         110 -3.0505360E-04
         111 -1.1700755E-05
         112 -5.7924446E-03
         113 -7.9674902E-04
         114  6.3933141E-05
         115  1.8996213E-03
         116 -5.8279470E-02
         117 -6.4514222E-04
         118 -1.1030074E-04
         119 -1.4474525E-04
         120  1.2366153E-02
         121  5.9709041E-03
         122  5.8167959E-03
         123 -8.6665889E-03
         124  4.6502843E-02
         125 -5.7184878E-03
         126 -4.0094098E-03
         127  2.8220490E-03
         128 -2.8685126E-02
         129  4.4485839E-04
         130  6.8974826E-03
         131  2.1733828E-03
         132 -1.3433031E-02
         133 -1.7620204E-03
         134 -3.6164029E-03
         135 -1.5401823E-03
         136 -2.5991580E-02
         137  3.0418353E-02
         138  3.6870483E-03
         139  3.9885648E-02
         140 -5.3126965E-02
         141 -2.4786783E-02
         142 -1.1145738E-02
         143 -2.0664286E-02
         144  1.3042605E-02
         145 -3.6371652E-02
         146  2.3660420E-03
         147 -4.6979152E-02
         148 -6.0859568E-02
         149  2.7967745E-02
         150  1.1476062E-02
         151  2.4857420E-02
         152  1.5865007E-02
         153 -4.0914482E-03
         154  1.9252777E-02
         155 -4.8164646E-03
         156 -0.5152754    
         157  1.2563630E-03
         158 -6.0015768E-03
         159  1.2037597E-03
         160  0.1731461    
         161  9.7349036E-04
         162 -1.5406434E-02
         163  6.1434661E-03
         164  0.4748798    
         165 -1.5715034E-03
         166  5.3314879E-03
         167 -2.9164604E-03
         168 -0.1463994    
         169 -3.6048889E-04
         170 -3.6613998E-04
         171  1.9713538E-04
         172  7.2916946E-03
         173 -9.7965909E-05
         174  6.3813117E-04
         175  2.0949581E-05
         176 -4.6173274E-03
         177 -1.5671822E-04
         178  1.4737654E-02
         179 -3.5840012E-03
         180 -0.4834223    
         181  9.0760674E-05
         182 -4.4825808E-03
         183  1.2345407E-03
         184  0.1428025    
         185  1.1406565E-04
         186 -1.5074643E-02
         187  2.8229344E-03
         188  0.4686547    
         189 -5.9797155E-04
         190  4.9613020E-03
         191 -4.0524578E-04
         192 -0.1427601    
         193  1.4726254E-03
         194 -2.2772285E-03
         195 -7.6819252E-04
         196  1.0507466E-02
         197 -2.4686863E-03
         198  2.1412189E-03
         199  1.5674648E-03
         200 -1.4281353E-03
         201 -1.0805144E-03
         202  1.0084856E-03
         203 -5.8842037E-04
         204  6.5138577E-03
         205  2.6404817E-04
         206 -7.1556639E-04
         207 -2.0814114E-05
         208 -1.0548076E-02
         209  2.5522821E-03
         210  9.6663192E-05
         211 -9.9530781E-04
         212  8.3552412E-04
         213 -1.1974081E-03
         214  4.6486343E-04
         215  1.3571930E-03
         216  2.0261144E-03
         217 -6.4129854E-04
         218 -3.3467311E-06
         219  5.9514912E-04
         220  2.1566551E-04
         221 -9.5725147E-04
         222 -1.1939804E-04
         223 -8.4150373E-04
         224 -2.9516132E-03
         225  1.8369826E-04
         226  1.5816690E-03
         227 -1.1281285E-03
         228 -1.2832548E-03
         229 -4.1678856E-04
         230 -3.1392119E-04
         231  9.1327977E-04
         232 -2.8951816E-05
         233 -1.0242384E-03
         234 -1.7915959E-04
         235 -1.2738593E-03
         236 -2.0401301E-03
         237  3.4865786E-04
         238  4.6856861E-04
         239 -1.2769958E-04
         240  3.2674863E-05
         241  1.2178940E-04
         242  5.4122000E-05
         243 -2.4706082E-04
         244 -9.4354516E-05
         245  1.1834104E-04
         246 -4.3713775E-05
         247 -1.1586956E-04
         248 -9.6868840E-04
         249 -3.0021791E-04
         250  3.2132471E-04
         251  1.4273298E-04
         252  3.9520182E-05
         253  2.8281844E-05
         254 -1.4100455E-04
         255  7.9694124E-05
         256 -3.9563916E-04
         257  8.5299595E-05
         258 -9.2731026E-04
         259  1.0412186E-03
         260  1.8062246E-03
         261  3.5856878E-03
         262  8.0559152E-04
         263 -3.0028052E-03
         264 -4.4445855E-07
         265 -9.8853052E-05
         266 -1.1111998E-04
         267 -2.7530125E-04
         268  8.2041230E-03
         269 -1.0675365E-03
         270  1.9903072E-04
         271  3.4159129E-05
         272 -5.6871248E-04
         273  7.2528711E-03
         274 -1.2163823E-02
         275 -4.7481195E-03
         276 -1.4507771E-03
         277  5.6694616E-03
         278 -1.3636802E-02
         279  5.7441760E-03
         280 -3.6631611E-03
         281  1.5429195E-02
         282 -2.3914360E-02
         283 -6.1685503E-03
         284 -2.0768397E-02
         285  3.6241068E-03
         286  6.4904932E-03
         287  1.7011913E-02
         288 -6.0236673E-03
         289  3.8013796E-03
         290 -1.8599532E-04
         291 -1.7705234E-02
         292 -9.6465490E-04
         293 -1.3177910E-02
         294  3.2629345E-02
         295 -3.1670367E-03
         296 -9.2540886E-03
         297 -1.2211728E-02
         298 -1.7116394E-02
         299  3.6789879E-04
         300  1.1673808E-02
         301  1.8787257E-02
         302  1.2380985E-02
         303  4.2349556E-03
         304  5.9858925E-04
         305 -1.0901181E-03
         306 -3.5988167E-03
         307  1.1116286E-03
         308  0.1127035    
         309  1.0401701E-03
         310 -5.8473711E-04
         311  3.0827336E-04
         312  4.9105431E-05
         313 -4.6355790E-04
         314  4.6078122E-04
         315 -2.1690520E-04
         316  3.5594048E-03
         317 -9.6635730E-04
         318 -0.1200206    
         319  1.3464212E-04
         320  6.0795162E-05
         321 -4.2455550E-03
         322  5.0107820E-04
         323  0.1142886    
         324  1.6434488E-03
         325 -9.4196061E-04
         326  4.6126072E-05
         327  4.9263425E-04
         328  3.8474098E-02
