 [Molden Format]
 [Atoms] Angs
N       1      7      5.84310718     -3.95719089     -0.07411722
C       2      6      6.01090209     -2.82207865     -0.04671412
C       3      6      6.29434157     -1.43994591     -0.01198214
C       4      6      7.68449702     -1.19841548     -0.00012361
N       5      7      8.82481830     -1.06750517      0.00758184
C       6      6      5.34069603     -0.46125426      0.00842562
C       7      6      5.57093393      0.98230035      0.04783683
C       8      6      6.74183287      1.72014931      0.07089552
C       9      6      6.65323614      3.10647104      0.10942480
C      10      6      5.42443325      3.74486992      0.12457199
C      11      6      4.24212827      3.01380834      0.10070305
C      12      6      4.31969436      1.63761189      0.06237285
C      13      6      3.27510927      0.62185386      0.02810143
C      14      6      1.90581900      0.74331518      0.02425422
C      15      6      1.11479960     -0.41334551     -0.00493062
C      16      6     -0.34448330     -0.30883922     -0.00491373
C      17      6     -0.99201321      0.70887143     -0.70804686
C      18      6     -2.36539025      0.80657633     -0.71764857
C      19      6     -3.14784965     -0.10622044     -0.00542341
N      20      7     -4.53537878     -0.00633501     -0.00596227
C      21      6     -5.32788742     -1.16159341      0.05527961
C      22      6     -6.50121442     -1.17078046      0.80800062
C      23      6     -7.28487027     -2.30729253      0.85896976
C      24      6     -6.91006560     -3.44938607      0.17041326
C      25      6     -5.74384493     -3.44538024     -0.57717230
C      26      6     -4.95770686     -2.31127781     -0.64112714
C      27      6     -5.15502134      1.24960155     -0.06748516
C      28      6     -6.31652643      1.42540152     -0.81827522
C      29      6     -6.93036150      2.66186536     -0.86935019
C      30      6     -6.39564538      3.73965979     -0.18271698
C      31      6     -5.24070620      3.57011267      0.56315163
C      32      6     -4.62393306      2.33571575      0.62707511
C      33      6     -2.50471285     -1.12191475      0.70716608
C      34      6     -1.13166612     -1.22270600      0.69840602
C      35      6      1.73850543     -1.66249772     -0.03339340
C      36      6      3.11695245     -1.79284024     -0.03456095
C      37      6      3.89787819     -0.64745290     -0.00261281
H      38      1      7.70860469      1.24309294      0.05951190
H      39      1      7.55985796      3.69210031      0.12793878
H      40      1      5.38347921      4.82364804      0.15516404
H      41      1      3.28595329      3.51500805      0.11267937
H      42      1      1.44025281      1.71631543      0.06883486
H      43      1     -0.41077911      1.40972678     -1.28896049
H      44      1     -2.84774726      1.58678232     -1.28785245
H      45      1     -6.79023501     -0.28344061      1.35202255
H      46      1     -8.19048215     -2.30298377      1.44732166
H      47      1     -7.52322806     -4.33643670      0.21527890
H      48      1     -5.44776941     -4.32920679     -1.12264741
H      49      1     -4.05491522     -2.30588976     -1.23433392
H      50      1     -6.73003454      0.58777223     -1.36064585
H      51      1     -7.82847662      2.78600683     -1.45610027
H      52      1     -6.87645631      4.70491004     -0.22743207
H      53      1     -4.82117563      4.40324749      1.10759290
H      54      1     -3.73043380      2.20210216      1.21939184
H      55      1     -3.09437790     -1.82512788      1.27650570
H      56      1     -0.65664240     -2.00023686      1.27789431
H      57      1      1.12959985     -2.55263561     -0.07942662
H      58      1      3.56171718     -2.77469089     -0.06431936
 [GTO]
           1   0
s              4   1.000000
     53.06886732     -0.01198412
      9.13889808     -0.05472052
      0.73434946      0.58055871
      0.27987875      0.47700799
p              4   1.000000
      6.25533225      0.05713170
      1.62191425      0.28574555
      0.57177496      0.55178731
      0.22763347      0.26323149
s              7   1.000000
      0.47894987     -0.19076179
      0.05878681      0.92169089
      0.02775758      0.24205002
     53.06886732      0.00456674
      9.13889808      0.02085215
      0.73434946     -0.22123142
      0.27987875     -0.18177172
p              7   1.000000
      2.28619608     -0.01184671
      0.12644335      0.58216569
      0.04872781      0.60798556
      6.25533225     -0.02824926
      1.62191425     -0.14128932
      0.57177496     -0.27283593
      0.22763347     -0.13015705
 
           2   0
s              4   1.000000
     32.80827370     -0.01198412
      5.64985621     -0.05472053
      0.45399005      0.58055871
      0.17302685      0.47700799
p              4   1.000000
      5.28791041      0.05713170
      1.37107621      0.28574555
      0.48334679      0.55178731
      0.19242869      0.26323149
s              7   1.000000
      0.38350848     -0.19839934
      0.04707223      0.95859272
      0.02222627      0.25174101
     32.80827370      0.00585568
      5.64985621      0.02673753
      0.45399005     -0.28367244
      0.17302685     -0.23307551
p              7   1.000000
      1.83062075     -0.01173209
      0.10124670      0.57653289
      0.03901771      0.60210296
      5.28791041     -0.02682900
      1.37107621     -0.13418588
      0.48334679     -0.25911887
      0.19242869     -0.12361329
 
           3   0
s              4   1.000000
     34.85858027     -0.01198412
      6.00293596     -0.05472053
      0.48236152      0.58055871
      0.18383991      0.47700799
p              4   1.000000
      5.61837088      0.05713170
      1.45675967      0.28574555
      0.51355286      0.55178731
      0.20445424      0.26323149
s              7   1.000000
      0.38350848     -0.19630308
      0.04707223      0.94846434
      0.02222627      0.24908114
     34.85858027      0.00552714
      6.00293596      0.02523741
      0.48236152     -0.26775691
      0.18383991     -0.21999874
p              7   1.000000
      1.83062075     -0.01161555
      0.10124670      0.57080598
      0.03901771      0.59612207
      5.61837088     -0.02531882
      1.45675967     -0.12663268
      0.51355286     -0.24453331
      0.20445424     -0.11665522
 
           4   0
s              4   1.000000
     32.80708520     -0.01198412
      5.64965154     -0.05472053
      0.45397361      0.58055871
      0.17302058      0.47700799
p              4   1.000000
      5.28771885      0.05713170
      1.37102654      0.28574555
      0.48332928      0.55178730
      0.19242172      0.26323149
s              7   1.000000
      0.38350848     -0.19840066
      0.04707223      0.95859908
      0.02222627      0.25174267
     32.80708520      0.00585588
      5.64965154      0.02673845
      0.45397361     -0.28368221
      0.17302058     -0.23308354
p              7   1.000000
      1.83062075     -0.01173216
      0.10124670      0.57653649
      0.03901771      0.60210673
      5.28771885     -0.02682993
      1.37102654     -0.13419051
      0.48332928     -0.25912782
      0.19242172     -0.12361756
 
           5   0
s              4   1.000000
     53.06888436     -0.01198412
      9.13890101     -0.05472052
      0.73434969      0.58055871
      0.27987884      0.47700799
p              4   1.000000
      6.25533426      0.05713170
      1.62191477      0.28574555
      0.57177515      0.55178731
      0.22763354      0.26323149
s              7   1.000000
      0.47894987     -0.19076179
      0.05878681      0.92169086
      0.02775758      0.24205002
     53.06888436      0.00456674
      9.13890101      0.02085215
      0.73434969     -0.22123135
      0.27987884     -0.18177166
p              7   1.000000
      2.28619608     -0.01184671
      0.12644335      0.58216565
      0.04872781      0.60798553
      6.25533426     -0.02824925
      1.62191477     -0.14128928
      0.57177515     -0.27283585
      0.22763354     -0.13015701
 
           6   0
s              4   1.000000
     35.32603728     -0.01198412
      6.08343593     -0.05472052
      0.48883003      0.58055871
      0.18630523      0.47700799
p              4   1.000000
      5.69371379      0.05713170
      1.47629496      0.28574555
      0.52043966      0.55178731
      0.20719600      0.26323149
s              7   1.000000
      0.38350848     -0.19587000
      0.04707223      0.94637184
      0.02222627      0.24853161
     35.32603728      0.00545726
      6.08343593      0.02491831
      0.48883003     -0.26437136
      0.18630523     -0.21721705
p              7   1.000000
      1.83062075     -0.01159148
      0.10124670      0.56962294
      0.03901771      0.59488655
      5.69371379     -0.02499745
      1.47629496     -0.12502533
      0.52043966     -0.24142945
      0.20719600     -0.11517451
 
           7   0
s              4   1.000000
     35.40275190     -0.01198412
      6.09664682     -0.05472053
      0.48989159      0.58055871
      0.18670981      0.47700800
p              4   1.000000
      5.70607835      0.05713170
      1.47950091      0.28574555
      0.52156985      0.55178731
      0.20764595      0.26323149
s              7   1.000000
      0.38350848     -0.19580037
      0.04707223      0.94603545
      0.02222627      0.24844328
     35.40275190      0.00544595
      6.09664682      0.02486669
      0.48989159     -0.26382376
      0.18670981     -0.21676712
p              7   1.000000
      1.83062075     -0.01158761
      0.10124670      0.56943277
      0.03901771      0.59468795
      5.70607835     -0.02494546
      1.47950091     -0.12476533
      0.52156985     -0.24092737
      0.20764595     -0.11493499
 
           8   0
s              4   1.000000
     34.95090265     -0.01198412
      6.01883464     -0.05472052
      0.48363904      0.58055871
      0.18432681      0.47700799
p              4   1.000000
      5.63325104      0.05713170
      1.46061788      0.28574555
      0.51491300      0.55178731
      0.20499574      0.26323149
s              7   1.000000
      0.38350848     -0.19621632
      0.04707223      0.94804517
      0.02222627      0.24897106
     34.95090265      0.00551320
      6.01883464      0.02517375
      0.48363904     -0.26708155
      0.18432681     -0.21944384
p              7   1.000000
      1.83062075     -0.01161073
      0.10124670      0.57056898
      0.03901771      0.59587456
      5.63325104     -0.02525472
      1.46061788     -0.12631206
      0.51491300     -0.24391418
      0.20499574     -0.11635985
 
           9   0
s              4   1.000000
     34.92548740     -0.01198412
      6.01445793     -0.05472053
      0.48328736      0.58055871
      0.18419277      0.47700799
p              4   1.000000
      5.62915471      0.05713170
      1.45955576      0.28574555
      0.51453857      0.55178731
      0.20484667      0.26323149
s              7   1.000000
      0.38350848     -0.19624015
      0.04707223      0.94816027
      0.02222627      0.24900129
     34.92548740      0.00551703
      6.01445793      0.02519125
      0.48328736     -0.26726713
      0.18419277     -0.21959632
p              7   1.000000
      1.83062075     -0.01161205
      0.10124670      0.57063406
      0.03901771      0.59594253
      5.62915471     -0.02527233
      1.45955576     -0.12640016
      0.51453857     -0.24408431
      0.20484667     -0.11644102
 
          10   0
s              4   1.000000
     34.92514290     -0.01198412
      6.01439860     -0.05472053
      0.48328259      0.58055871
      0.18419096      0.47700799
p              4   1.000000
      5.62909918      0.05713170
      1.45954136      0.28574555
      0.51453350      0.55178731
      0.20484465      0.26323149
s              7   1.000000
      0.38350848     -0.19624047
      0.04707223      0.94816182
      0.02222627      0.24900170
     34.92514290      0.00551708
      6.01439860      0.02519148
      0.48328259     -0.26726965
      0.18419096     -0.21959839
p              7   1.000000
      1.83062075     -0.01161207
      0.10124670      0.57063494
      0.03901771      0.59594342
      5.62909918     -0.02527257
      1.45954136     -0.12640136
      0.51453350     -0.24408662
      0.20484465     -0.11644212
 
          11   0
s              4   1.000000
     34.94265372     -0.01198412
      6.01741411     -0.05472053
      0.48352490      0.58055871
      0.18428331      0.47700799
p              4   1.000000
      5.63192151      0.05713170
      1.46027315      0.28574555
      0.51479147      0.55178731
      0.20494736      0.26323149
s              7   1.000000
      0.38350848     -0.19622405
      0.04707223      0.94808249
      0.02222627      0.24898086
     34.94265372      0.00551444
      6.01741411      0.02517943
      0.48352490     -0.26714175
      0.18428331     -0.21949331
p              7   1.000000
      1.83062075     -0.01161116
      0.10124670      0.57059009
      0.03901771      0.59589661
      5.63192151     -0.02526043
      1.46027315     -0.12634064
      0.51479147     -0.24396937
      0.20494736     -0.11638619
 
          12   0
s              4   1.000000
     35.38984253     -0.01198412
      6.09442372     -0.05472052
      0.48971295      0.58055871
      0.18664173      0.47700799
p              4   1.000000
      5.70399767      0.05713170
      1.47896142      0.28574555
      0.52137967      0.55178731
      0.20757023      0.26323149
s              7   1.000000
      0.38350848     -0.19581206
      0.04707223      0.94609192
      0.02222627      0.24845810
     35.38984253      0.00544785
      6.09442372      0.02487536
      0.48971295     -0.26391575
      0.18664173     -0.21684271
p              7   1.000000
      1.83062075     -0.01158826
      0.10124670      0.56946469
      0.03901771      0.59472129
      5.70399767     -0.02495420
      1.47896142     -0.12480901
      0.52137967     -0.24101172
      0.20757023     -0.11497523
 
          13   0
s              4   1.000000
     35.38304439     -0.01198412
      6.09325303     -0.05472053
      0.48961888      0.58055871
      0.18660587      0.47700799
p              4   1.000000
      5.70290197      0.05713170
      1.47867732      0.28574555
      0.52127951      0.55178731
      0.20753036      0.26323149
s              7   1.000000
      0.38350848     -0.19581822
      0.04707223      0.94612169
      0.02222627      0.24846592
     35.38304439      0.00544885
      6.09325303      0.02487993
      0.48961888     -0.26396422
      0.18660587     -0.21688254
p              7   1.000000
      1.83062075     -0.01158860
      0.10124670      0.56948152
      0.03901771      0.59473884
      5.70290197     -0.02495880
      1.47867732     -0.12483202
      0.52127951     -0.24105616
      0.20753036     -0.11499643
 
          14   0
s              4   1.000000
     35.03916895     -0.01198412
      6.03403483     -0.05472053
      0.48486044      0.58055871
      0.18479232      0.47700799
p              4   1.000000
      5.64747746      0.05713170
      1.46430657      0.28574555
      0.51621338      0.55178730
      0.20551344      0.26323149
s              7   1.000000
      0.38350848     -0.19613395
      0.04707223      0.94764716
      0.02222627      0.24886652
     35.03916895      0.00549994
      6.03403483      0.02511319
      0.48486044     -0.26643897
      0.18479232     -0.21891588
p              7   1.000000
      1.83062075     -0.01160615
      0.10124670      0.57034396
      0.03901771      0.59563955
      5.64747746     -0.02519372
      1.46430657     -0.12600699
      0.51621338     -0.24332508
      0.20551344     -0.11607883
 
          15   0
s              4   1.000000
     35.09042980     -0.01198412
      6.04286237     -0.05472053
      0.48556978      0.58055871
      0.18506266      0.47700799
p              4   1.000000
      5.65573949      0.05713170
      1.46644880      0.28574555
      0.51696858      0.55178731
      0.20581410      0.26323149
s              7   1.000000
      0.38350848     -0.19608636
      0.04707223      0.94741722
      0.02222627      0.24880614
     35.09042980      0.00549226
      6.04286237      0.02507815
      0.48556978     -0.26606719
      0.18506266     -0.21861040
p              7   1.000000
      1.83062075     -0.01160350
      0.10124670      0.57021397
      0.03901771      0.59550378
      5.65573949     -0.02515843
      1.46644880     -0.12583048
      0.51696858     -0.24298423
      0.20581410     -0.11591623
 
          16   0
s              4   1.000000
     35.08861191     -0.01198412
      6.04254932     -0.05472052
      0.48554462      0.58055871
      0.18505307      0.47700799
p              4   1.000000
      5.65544649      0.05713170
      1.46637282      0.28574555
      0.51694180      0.55178731
      0.20580344      0.26323149
s              7   1.000000
      0.38350848     -0.19608804
      0.04707223      0.94742536
      0.02222627      0.24880829
     35.08861191      0.00549253
      6.04254932      0.02507939
      0.48554462     -0.26608035
      0.18505307     -0.21862123
p              7   1.000000
      1.83062075     -0.01160360
      0.10124670      0.57021856
      0.03901771      0.59550860
      5.65544649     -0.02515968
      1.46637282     -0.12583673
      0.51694180     -0.24299630
      0.20580344     -0.11592198
 
          17   0
s              4   1.000000
     35.01435016     -0.01198412
      6.02976083     -0.05472052
      0.48451701      0.58055871
      0.18466143      0.47700799
p              4   1.000000
      5.64347726      0.05713170
      1.46326938      0.28574555
      0.51584774      0.55178730
      0.20536787      0.26323149
s              7   1.000000
      0.38350848     -0.19615705
      0.04707223      0.94775880
      0.02222627      0.24889584
     35.01435016      0.00550366
      6.02976083      0.02513019
      0.48451701     -0.26661935
      0.18466143     -0.21906408
p              7   1.000000
      1.83062075     -0.01160743
      0.10124670      0.57040708
      0.03901771      0.59570546
      5.64347726     -0.02521084
      1.46326938     -0.12609263
      0.51584774     -0.24349044
      0.20536787     -0.11615771
 
          18   0
s              4   1.000000
     35.01761391     -0.01198412
      6.03032287     -0.05472052
      0.48456217      0.58055871
      0.18467864      0.47700800
p              4   1.000000
      5.64400330      0.05713170
      1.46340578      0.28574555
      0.51589582      0.55178731
      0.20538702      0.26323149
s              7   1.000000
      0.38350848     -0.19615401
      0.04707223      0.94774409
      0.02222627      0.24889199
     35.01761391      0.00550317
      6.03032287      0.02512795
      0.48456217     -0.26659561
      0.18467864     -0.21904458
p              7   1.000000
      1.83062075     -0.01160726
      0.10124670      0.57039877
      0.03901771      0.59569680
      5.64400330     -0.02520859
      1.46340578     -0.12608136
      0.51589582     -0.24346868
      0.20538702     -0.11614734
 
          19   0
s              4   1.000000
     35.19528961     -0.01198412
      6.06092010     -0.05472052
      0.48702079      0.58055871
      0.18561568      0.47700799
p              4   1.000000
      5.67264038      0.05713170
      1.47083094      0.28574555
      0.51851342      0.55178731
      0.20642913      0.26323149
s              7   1.000000
      0.38350848     -0.19598959
      0.04707223      0.94694966
      0.02222627      0.24868337
     35.19528961      0.00547663
      6.06092010      0.02500676
      0.48702079     -0.26530982
      0.18561568     -0.21798812
p              7   1.000000
      1.83062075     -0.01159812
      0.10124670      0.56994962
      0.03901771      0.59522771
      5.67264038     -0.02508654
      1.47083094     -0.12547090
      0.51851342     -0.24228986
      0.20642913     -0.11558497
 
          20   0
s              4   1.000000
     61.16065448     -0.01198412
     10.53237078     -0.05472052
      0.84632093      0.58055871
      0.32255386      0.47700799
p              4   1.000000
      7.20912720      0.05713170
      1.86921903      0.28574555
      0.65895755      0.55178731
      0.26234236      0.26323149
s              7   1.000000
      0.47894987     -0.18779524
      0.05878681      0.90735760
      0.02775758      0.23828588
     61.16065448      0.00397233
     10.53237078      0.01813802
      0.84632093     -0.19243571
      0.32255386     -0.15811213
p              7   1.000000
      2.28619608     -0.01156718
      0.12644335      0.56842897
      0.04872781      0.59363964
      7.20912720     -0.02466955
      1.86921903     -0.12338534
      0.65895755     -0.23826256
      0.26234236     -0.11366374
 
          21   0
s              4   1.000000
     35.20611944     -0.01198412
      6.06278509     -0.05472052
      0.48717065      0.58055871
      0.18567279      0.47700799
p              4   1.000000
      5.67438590      0.05713170
      1.47128353      0.28574555
      0.51867297      0.55178731
      0.20649265      0.26323149
s              7   1.000000
      0.38350848     -0.19597964
      0.04707223      0.94690158
      0.02222627      0.24867074
     35.20611944      0.00547502
      6.06278509      0.02499941
      0.48717065     -0.26523184
      0.18567279     -0.21792405
p              7   1.000000
      1.83062075     -0.01159757
      0.10124670      0.56992244
      0.03901771      0.59519931
      5.67438590     -0.02507913
      1.47128353     -0.12543388
      0.51867297     -0.24221837
      0.20649265     -0.11555087
 
          22   0
s              4   1.000000
     35.02116679     -0.01198412
      6.03093471     -0.05472052
      0.48461134      0.58055871
      0.18469738      0.47700799
p              4   1.000000
      5.64457594      0.05713170
      1.46355426      0.28574555
      0.51594816      0.55178731
      0.20540786      0.26323149
s              7   1.000000
      0.38350848     -0.19615070
      0.04707223      0.94772811
      0.02222627      0.24888780
     35.02116679      0.00550264
      6.03093471      0.02512552
      0.48461134     -0.26656978
      0.18469738     -0.21902335
p              7   1.000000
      1.83062075     -0.01160708
      0.10124670      0.57038973
      0.03901771      0.59568733
      5.64457594     -0.02520614
      1.46355426     -0.12606909
      0.51594816     -0.24344500
      0.20540786     -0.11613604
 
          23   0
s              4   1.000000
     34.92191450     -0.01198412
      6.01384264     -0.05472052
      0.48323792      0.58055871
      0.18417393      0.47700799
p              4   1.000000
      5.62857884      0.05713170
      1.45940645      0.28574555
      0.51448593      0.55178731
      0.20482571      0.26323149
s              7   1.000000
      0.38350848     -0.19624350
      0.04707223      0.94817646
      0.02222627      0.24900553
     34.92191450      0.00551757
      6.01384264      0.02519371
      0.48323792     -0.26729324
      0.18417393     -0.21961777
p              7   1.000000
      1.83062075     -0.01161224
      0.10124670      0.57064322
      0.03901771      0.59595208
      5.62857884     -0.02527481
      1.45940645     -0.12641256
      0.51448593     -0.24410825
      0.20482571     -0.11645244
 
          24   0
s              4   1.000000
     34.91715735     -0.01198412
      6.01302342     -0.05472053
      0.48317209      0.58055871
      0.18414884      0.47700799
p              4   1.000000
      5.62781211      0.05713170
      1.45920764      0.28574555
      0.51441585      0.55178731
      0.20479781      0.26323149
s              7   1.000000
      0.38350848     -0.19624796
      0.04707223      0.94819803
      0.02222627      0.24901121
     34.91715735      0.00551829
      6.01302342      0.02519699
      0.48317209     -0.26732801
      0.18414884     -0.21964634
p              7   1.000000
      1.83062075     -0.01161249
      0.10124670      0.57065541
      0.03901771      0.59596482
      5.62781211     -0.02527811
      1.45920764     -0.12642907
      0.51441585     -0.24414013
      0.20479781     -0.11646765
 
          25   0
s              4   1.000000
     34.92191107     -0.01198412
      6.01384205     -0.05472052
      0.48323787      0.58055871
      0.18417391      0.47700799
p              4   1.000000
      5.62857829      0.05713170
      1.45940630      0.28574555
      0.51448588      0.55178731
      0.20482570      0.26323149
s              7   1.000000
      0.38350848     -0.19624350
      0.04707223      0.94817647
      0.02222627      0.24900553
     34.92191107      0.00551757
      6.01384205      0.02519371
      0.48323787     -0.26729327
      0.18417391     -0.21961780
p              7   1.000000
      1.83062075     -0.01161224
      0.10124670      0.57064323
      0.03901771      0.59595208
      5.62857829     -0.02527481
      1.45940630     -0.12641257
      0.51448588     -0.24410827
      0.20482570     -0.11645245
 
          26   0
s              4   1.000000
     35.02018801     -0.01198412
      6.03076616     -0.05472052
      0.48459779      0.58055871
      0.18469221      0.47700799
p              4   1.000000
      5.64441819      0.05713170
      1.46351335      0.28574555
      0.51593374      0.55178731
      0.20540211      0.26323149
s              7   1.000000
      0.38350848     -0.19615161
      0.04707223      0.94773252
      0.02222627      0.24888894
     35.02018801      0.00550278
      6.03076616      0.02512619
      0.48459779     -0.26657690
      0.18469221     -0.21902920
p              7   1.000000
      1.83062075     -0.01160713
      0.10124670      0.57039222
      0.03901771      0.59568996
      5.64441819     -0.02520681
      1.46351335     -0.12607247
      0.51593374     -0.24345153
      0.20540211     -0.11613915
 
          27   0
s              4   1.000000
     35.20561218     -0.01198412
      6.06269773     -0.05472052
      0.48716363      0.58055871
      0.18567012      0.47700800
p              4   1.000000
      5.67430414      0.05713170
      1.47126233      0.28574555
      0.51866550      0.55178731
      0.20648967      0.26323149
s              7   1.000000
      0.38350848     -0.19598010
      0.04707223      0.94690383
      0.02222627      0.24867133
     35.20561218      0.00547509
      6.06269773      0.02499975
      0.48716363     -0.26523549
      0.18567012     -0.21792705
p              7   1.000000
      1.83062075     -0.01159760
      0.10124670      0.56992371
      0.03901771      0.59520065
      5.67430414     -0.02507948
      1.47126233     -0.12543561
      0.51866550     -0.24222172
      0.20648967     -0.11555247
 
          28   0
s              4   1.000000
     35.02133000     -0.01198412
      6.03096281     -0.05472053
      0.48461360      0.58055871
      0.18469824      0.47700799
p              4   1.000000
      5.64460225      0.05713170
      1.46356108      0.28574555
      0.51595057      0.55178731
      0.20540881      0.26323149
s              7   1.000000
      0.38350848     -0.19615055
      0.04707223      0.94772738
      0.02222627      0.24888760
     35.02133000      0.00550261
      6.03096281      0.02512541
      0.48461360     -0.26656859
      0.18469824     -0.21902238
p              7   1.000000
      1.83062075     -0.01160707
      0.10124670      0.57038931
      0.03901771      0.59568693
      5.64460225     -0.02520603
      1.46356108     -0.12606853
      0.51595057     -0.24344392
      0.20540881     -0.11613552
 
          29   0
s              4   1.000000
     34.92188285     -0.01198412
      6.01383719     -0.05472053
      0.48323748      0.58055871
      0.18417376      0.47700799
p              4   1.000000
      5.62857374      0.05713170
      1.45940512      0.28574555
      0.51448547      0.55178731
      0.20482553      0.26323149
s              7   1.000000
      0.38350848     -0.19624353
      0.04707223      0.94817661
      0.02222627      0.24900558
     34.92188285      0.00551758
      6.01383719      0.02519373
      0.48323748     -0.26729347
      0.18417376     -0.21961797
p              7   1.000000
      1.83062075     -0.01161224
      0.10124670      0.57064330
      0.03901771      0.59595216
      5.62857374     -0.02527483
      1.45940512     -0.12641267
      0.51448547     -0.24410846
      0.20482553     -0.11645254
 
          30   0
s              4   1.000000
     34.91705350     -0.01198412
      6.01300554     -0.05472053
      0.48317065      0.58055871
      0.18414829      0.47700799
p              4   1.000000
      5.62779537      0.05713170
      1.45920330      0.28574555
      0.51441432      0.55178731
      0.20479721      0.26323149
s              7   1.000000
      0.38350848     -0.19624806
      0.04707223      0.94819851
      0.02222627      0.24901133
     34.91705350      0.00551830
      6.01300554      0.02519706
      0.48317065     -0.26732877
      0.18414829     -0.21964697
p              7   1.000000
      1.83062075     -0.01161249
      0.10124670      0.57065568
      0.03901771      0.59596510
      5.62779537     -0.02527818
      1.45920330     -0.12642943
      0.51441432     -0.24414082
      0.20479721     -0.11646798
 
          31   0
s              4   1.000000
     34.92183560     -0.01198412
      6.01382906     -0.05472053
      0.48323682      0.58055871
      0.18417352      0.47700799
p              4   1.000000
      5.62856613      0.05713170
      1.45940315      0.28574555
      0.51448477      0.55178731
      0.20482525      0.26323149
s              7   1.000000
      0.38350848     -0.19624357
      0.04707223      0.94817682
      0.02222627      0.24900563
     34.92183560      0.00551758
      6.01382906      0.02519376
      0.48323682     -0.26729382
      0.18417352     -0.21961825
p              7   1.000000
      1.83062075     -0.01161224
      0.10124670      0.57064342
      0.03901771      0.59595228
      5.62856613     -0.02527487
      1.45940315     -0.12641283
      0.51448477     -0.24410878
      0.20482525     -0.11645269
 
          32   0
s              4   1.000000
     35.02032211     -0.01198412
      6.03078925     -0.05472052
      0.48459965      0.58055871
      0.18469292      0.47700799
p              4   1.000000
      5.64443980      0.05713170
      1.46351896      0.28574555
      0.51593572      0.55178731
      0.20540290      0.26323149
s              7   1.000000
      0.38350848     -0.19615149
      0.04707223      0.94773190
      0.02222627      0.24888880
     35.02032211      0.00550276
      6.03078925      0.02512610
      0.48459965     -0.26657592
      0.18469292     -0.21902840
p              7   1.000000
      1.83062075     -0.01160712
      0.10124670      0.57039188
      0.03901771      0.59568960
      5.64443980     -0.02520672
      1.46351896     -0.12607201
      0.51593572     -0.24345063
      0.20540290     -0.11613872
 
          33   0
s              4   1.000000
     35.01780654     -0.01198412
      6.03035605     -0.05472052
      0.48456484      0.58055871
      0.18467965      0.47700799
p              4   1.000000
      5.64403435      0.05713170
      1.46341383      0.28574555
      0.51589866      0.55178731
      0.20538815      0.26323149
s              7   1.000000
      0.38350848     -0.19615383
      0.04707223      0.94774323
      0.02222627      0.24889177
     35.01780654      0.00550314
      6.03035605      0.02512782
      0.48456484     -0.26659421
      0.18467965     -0.21904343
p              7   1.000000
      1.83062075     -0.01160725
      0.10124670      0.57039828
      0.03901771      0.59569627
      5.64403435     -0.02520846
      1.46341383     -0.12608069
      0.51589866     -0.24346740
      0.20538815     -0.11614672
 
          34   0
s              4   1.000000
     35.01356363     -0.01198412
      6.02962538     -0.05472052
      0.48450613      0.58055871
      0.18465728      0.47700799
p              4   1.000000
      5.64335049      0.05713170
      1.46323651      0.28574555
      0.51583615      0.55178731
      0.20536326      0.26323149
s              7   1.000000
      0.38350848     -0.19615779
      0.04707223      0.94776234
      0.02222627      0.24889677
     35.01356363      0.00550378
      6.02962538      0.02513073
      0.48450613     -0.26662507
      0.18465728     -0.21906878
p              7   1.000000
      1.83062075     -0.01160747
      0.10124670      0.57040909
      0.03901771      0.59570756
      5.64335049     -0.02521139
      1.46323651     -0.12609534
      0.51583615     -0.24349569
      0.20536326     -0.11616021
 
          35   0
s              4   1.000000
     35.02023561     -0.01198412
      6.03077435     -0.05472052
      0.48459845      0.58055871
      0.18469247      0.47700799
p              4   1.000000
      5.64442586      0.05713170
      1.46351534      0.28574555
      0.51593445      0.55178731
      0.20540239      0.26323149
s              7   1.000000
      0.38350848     -0.19615157
      0.04707223      0.94773229
      0.02222627      0.24888890
     35.02023561      0.00550278
      6.03077435      0.02512616
      0.48459845     -0.26657655
      0.18469247     -0.21902892
p              7   1.000000
      1.83062075     -0.01160713
      0.10124670      0.57039210
      0.03901771      0.59568980
      5.64442586     -0.02520678
      1.46351534     -0.12607231
      0.51593445     -0.24345121
      0.20540239     -0.11613900
 
          36   0
s              4   1.000000
     34.94558674     -0.01198412
      6.01791920     -0.05472052
      0.48356549      0.58055871
      0.18429878      0.47700799
p              4   1.000000
      5.63239424      0.05713170
      1.46039572      0.28574555
      0.51483468      0.55178731
      0.20496456      0.26323149
s              7   1.000000
      0.38350848     -0.19622130
      0.04707223      0.94806922
      0.02222627      0.24897738
     34.94558674      0.00551400
      6.01791920      0.02517741
      0.48356549     -0.26712034
      0.18429878     -0.21947571
p              7   1.000000
      1.83062075     -0.01161101
      0.10124670      0.57058258
      0.03901771      0.59588876
      5.63239424     -0.02525840
      1.46039572     -0.12633048
      0.51483468     -0.24394974
      0.20496456     -0.11637682
 
          37   0
s              4   1.000000
     35.40041315     -0.01198412
      6.09624407     -0.05472053
      0.48985922      0.58055871
      0.18669748      0.47700799
p              4   1.000000
      5.70570140      0.05713170
      1.47940317      0.28574555
      0.52153540      0.55178731
      0.20763223      0.26323149
s              7   1.000000
      0.38350848     -0.19580249
      0.04707223      0.94604567
      0.02222627      0.24844596
     35.40041315      0.00544630
      6.09624407      0.02486826
      0.48985922     -0.26384042
      0.18669748     -0.21678081
p              7   1.000000
      1.83062075     -0.01158772
      0.10124670      0.56943855
      0.03901771      0.59469398
      5.70570140     -0.02494705
      1.47940317     -0.12477324
      0.52153540     -0.24094264
      0.20763223     -0.11494228
 
          38   0
s              4   1.000000
      8.31004497      0.05675242
      1.52063585      0.26014135
      0.42244929      0.53284611
      0.14020712      0.29162544
s              7   1.000000
      0.92936822     -0.06732701
      0.05643440      0.66944135
      0.02166600      0.51460384
      8.31004497     -0.02901978
      1.52063585     -0.13302065
      0.42244929     -0.27246547
      0.14020712     -0.14911972
p              4   1.000000
      0.64737396      0.05713170
      0.16785440      0.28574555
      0.05917387      0.55178731
      0.02355814      0.26323150
 
          39   0
s              4   1.000000
      8.30898203      0.05675242
      1.52044134      0.26014135
      0.42239525      0.53284611
      0.14018919      0.29162544
s              7   1.000000
      0.92936822     -0.06732838
      0.05643440      0.66945495
      0.02166600      0.51461430
      8.30898203     -0.02902262
      1.52044134     -0.13303368
      0.42239525     -0.27249216
      0.14018919     -0.14913433
p              4   1.000000
      0.64737396      0.05713170
      0.16785440      0.28574555
      0.05917387      0.55178731
      0.02355814      0.26323150
 
          40   0
s              4   1.000000
      8.30888081      0.05675242
      1.52042282      0.26014135
      0.42239011      0.53284611
      0.14018748      0.29162544
s              7   1.000000
      0.92936822     -0.06732851
      0.05643440      0.66945624
      0.02166600      0.51461529
      8.30888081     -0.02902289
      1.52042282     -0.13303492
      0.42239011     -0.27249471
      0.14018748     -0.14913572
p              4   1.000000
      0.64737396      0.05713170
      0.16785440      0.28574555
      0.05917387      0.55178731
      0.02355814      0.26323150
 
          41   0
s              4   1.000000
      8.30895779      0.05675242
      1.52043691      0.26014135
      0.42239402      0.53284611
      0.14018878      0.29162544
s              7   1.000000
      0.92936822     -0.06732841
      0.05643440      0.66945526
      0.02166600      0.51461455
      8.30895779     -0.02902268
      1.52043691     -0.13303398
      0.42239402     -0.27249277
      0.14018878     -0.14913466
p              4   1.000000
      0.64737396      0.05713170
      0.16785440      0.28574555
      0.05917387      0.55178731
      0.02355814      0.26323150
 
          42   0
s              4   1.000000
      8.30960078      0.05675242
      1.52055457      0.26014135
      0.42242671      0.53284611
      0.14019963      0.29162544
s              7   1.000000
      0.92936822     -0.06732758
      0.05643440      0.66944703
      0.02166600      0.51460821
      8.30960078     -0.02902096
      1.52055457     -0.13302610
      0.42242671     -0.27247662
      0.14019963     -0.14912582
p              4   1.000000
      0.64737396      0.05713170
      0.16785440      0.28574555
      0.05917387      0.55178731
      0.02355814      0.26323150
 
          43   0
s              4   1.000000
      8.30960619      0.05675242
      1.52055556      0.26014135
      0.42242698      0.53284611
      0.14019972      0.29162544
s              7   1.000000
      0.92936822     -0.06732758
      0.05643440      0.66944697
      0.02166600      0.51460816
      8.30960619     -0.02902095
      1.52055556     -0.13302603
      0.42242698     -0.27247649
      0.14019972     -0.14912575
p              4   1.000000
      0.64737396      0.05713170
      0.16785440      0.28574555
      0.05917387      0.55178731
      0.02355814      0.26323150
 
          44   0
s              4   1.000000
      8.30987594      0.05675242
      1.52060492      0.26014135
      0.42244070      0.53284611
      0.14020427      0.29162544
s              7   1.000000
      0.92936822     -0.06732723
      0.05643440      0.66944352
      0.02166600      0.51460550
      8.30987594     -0.02902023
      1.52060492     -0.13302272
      0.42244070     -0.27246971
      0.14020427     -0.14912204
p              4   1.000000
      0.64737396      0.05713170
      0.16785440      0.28574555
      0.05917387      0.55178731
      0.02355814      0.26323150
 
          45   0
s              4   1.000000
      8.30968322      0.05675242
      1.52056965      0.26014135
      0.42243090      0.53284611
      0.14020102      0.29162544
s              7   1.000000
      0.92936822     -0.06732748
      0.05643440      0.66944598
      0.02166600      0.51460741
      8.30968322     -0.02902074
      1.52056965     -0.13302508
      0.42243090     -0.27247455
      0.14020102     -0.14912469
p              4   1.000000
      0.64737396      0.05713170
      0.16785440      0.28574555
      0.05917387      0.55178731
      0.02355814      0.26323150
 
          46   0
s              4   1.000000
      8.30894235      0.05675242
      1.52043408      0.26014135
      0.42239324      0.53284611
      0.14018852      0.29162544
s              7   1.000000
      0.92936822     -0.06732843
      0.05643440      0.66945546
      0.02166600      0.51461469
      8.30894235     -0.02902273
      1.52043408     -0.13303417
      0.42239324     -0.27249316
      0.14018852     -0.14913488
p              4   1.000000
      0.64737396      0.05713170
      0.16785440      0.28574555
      0.05917387      0.55178731
      0.02355814      0.26323150
 
          47   0
s              4   1.000000
      8.30881311      0.05675242
      1.52041043      0.26014135
      0.42238667      0.53284611
      0.14018634      0.29162544
s              7   1.000000
      0.92936822     -0.06732860
      0.05643440      0.66945712
      0.02166600      0.51461596
      8.30881311     -0.02902307
      1.52041043     -0.13303575
      0.42238667     -0.27249641
      0.14018634     -0.14913665
p              4   1.000000
      0.64737396      0.05713170
      0.16785440      0.28574555
      0.05917387      0.55178731
      0.02355814      0.26323150
 
          48   0
s              4   1.000000
      8.30894430      0.05675242
      1.52043444      0.26014135
      0.42239333      0.53284611
      0.14018855      0.29162544
s              7   1.000000
      0.92936822     -0.06732843
      0.05643440      0.66945543
      0.02166600      0.51461467
      8.30894430     -0.02902272
      1.52043444     -0.13303415
      0.42239333     -0.27249311
      0.14018855     -0.14913484
p              4   1.000000
      0.64737396      0.05713170
      0.16785440      0.28574555
      0.05917387      0.55178731
      0.02355814      0.26323150
 
          49   0
s              4   1.000000
      8.30968559      0.05675242
      1.52057008      0.26014135
      0.42243102      0.53284611
      0.14020106      0.29162544
s              7   1.000000
      0.92936822     -0.06732747
      0.05643440      0.66944596
      0.02166600      0.51460739
      8.30968559     -0.02902074
      1.52057008     -0.13302506
      0.42243102     -0.27247449
      0.14020106     -0.14912466
p              4   1.000000
      0.64737396      0.05713170
      0.16785440      0.28574555
      0.05917387      0.55178731
      0.02355814      0.26323150
 
          50   0
s              4   1.000000
      8.30969038      0.05675242
      1.52057096      0.26014135
      0.42243126      0.53284611
      0.14020114      0.29162544
s              7   1.000000
      0.92936822     -0.06732747
      0.05643440      0.66944589
      0.02166600      0.51460734
      8.30969038     -0.02902072
      1.52057096     -0.13302500
      0.42243126     -0.27247437
      0.14020114     -0.14912459
p              4   1.000000
      0.64737396      0.05713170
      0.16785440      0.28574555
      0.05917387      0.55178731
      0.02355814      0.26323150
 
          51   0
s              4   1.000000
      8.30894425      0.05675242
      1.52043443      0.26014135
      0.42239333      0.53284611
      0.14018855      0.29162544
s              7   1.000000
      0.92936822     -0.06732843
      0.05643440      0.66945543
      0.02166600      0.51461467
      8.30894425     -0.02902272
      1.52043443     -0.13303415
      0.42239333     -0.27249311
      0.14018855     -0.14913485
p              4   1.000000
      0.64737396      0.05713170
      0.16785440      0.28574555
      0.05917387      0.55178731
      0.02355814      0.26323150
 
          52   0
s              4   1.000000
      8.30881006      0.05675242
      1.52040987      0.26014135
      0.42238651      0.53284611
      0.14018629      0.29162544
s              7   1.000000
      0.92936822     -0.06732860
      0.05643440      0.66945715
      0.02166600      0.51461599
      8.30881006     -0.02902308
      1.52040987     -0.13303579
      0.42238651     -0.27249648
      0.14018629     -0.14913669
p              4   1.000000
      0.64737396      0.05713170
      0.16785440      0.28574555
      0.05917387      0.55178731
      0.02355814      0.26323150
 
          53   0
s              4   1.000000
      8.30893923      0.05675242
      1.52043351      0.26014135
      0.42239308      0.53284611
      0.14018847      0.29162544
s              7   1.000000
      0.92936822     -0.06732844
      0.05643440      0.66945550
      0.02166600      0.51461472
      8.30893923     -0.02902273
      1.52043351     -0.13303421
      0.42239308     -0.27249324
      0.14018847     -0.14913492
p              4   1.000000
      0.64737396      0.05713170
      0.16785440      0.28574555
      0.05917387      0.55178731
      0.02355814      0.26323150
 
          54   0
s              4   1.000000
      8.30968691      0.05675242
      1.52057033      0.26014135
      0.42243109      0.53284611
      0.14020108      0.29162544
s              7   1.000000
      0.92936822     -0.06732747
      0.05643440      0.66944593
      0.02166600      0.51460737
      8.30968691     -0.02902073
      1.52057033     -0.13302504
      0.42243109     -0.27247446
      0.14020108     -0.14912464
p              4   1.000000
      0.64737396      0.05713170
      0.16785440      0.28574555
      0.05917387      0.55178731
      0.02355814      0.26323150
 
          55   0
s              4   1.000000
      8.30988486      0.05675242
      1.52060655      0.26014135
      0.42244115      0.53284611
      0.14020442      0.29162544
s              7   1.000000
      0.92936822     -0.06732722
      0.05643440      0.66944340
      0.02166600      0.51460543
      8.30988486     -0.02902020
      1.52060655     -0.13302261
      0.42244115     -0.27246949
      0.14020442     -0.14912192
p              4   1.000000
      0.64737396      0.05713170
      0.16785440      0.28574555
      0.05917387      0.55178731
      0.02355814      0.26323150
 
          56   0
s              4   1.000000
      8.30960692      0.05675242
      1.52055569      0.26014135
      0.42242702      0.53284611
      0.14019973      0.29162544
s              7   1.000000
      0.92936822     -0.06732758
      0.05643440      0.66944696
      0.02166600      0.51460816
      8.30960692     -0.02902095
      1.52055569     -0.13302602
      0.42242702     -0.27247647
      0.14019973     -0.14912574
p              4   1.000000
      0.64737396      0.05713170
      0.16785440      0.28574555
      0.05917387      0.55178731
      0.02355814      0.26323150
 
          57   0
s              4   1.000000
      8.30966474      0.05675242
      1.52056627      0.26014135
      0.42242996      0.53284611
      0.14020071      0.29162544
s              7   1.000000
      0.92936822     -0.06732750
      0.05643440      0.66944622
      0.02166600      0.51460759
      8.30966474     -0.02902079
      1.52056627     -0.13302531
      0.42242996     -0.27247502
      0.14020071     -0.14912495
p              4   1.000000
      0.64737396      0.05713170
      0.16785440      0.28574555
      0.05917387      0.55178731
      0.02355814      0.26323150
 
          58   0
s              4   1.000000
      8.31010208      0.05675242
      1.52064630      0.26014135
      0.42245219      0.53284611
      0.14020809      0.29162544
s              7   1.000000
      0.92936822     -0.06732694
      0.05643440      0.66944062
      0.02166600      0.51460329
      8.31010208     -0.02901962
      1.52064630     -0.13301995
      0.42245219     -0.27246403
      0.14020809     -0.14911893
p              4   1.000000
      0.64737396      0.05713170
      0.16785440      0.28574555
      0.05917387      0.55178731
      0.02355814      0.26323150
 
 [MO]
 Sym= Hole
 Ene= -0.8923575    
 Spin= Alpha
 Occup= 0
           1 -2.4315856E-04
           2  1.4498669E-03
           3  2.4432065E-03
           4 -9.8972581E-02
           5 -1.3919272E-04
           6  2.7707231E-04
           7 -7.3883108E-05
           8  5.4691965E-05
           9 -2.7513455E-04
          10  6.6112756E-04
          11 -4.4038831E-04
          12  1.3676631E-03
          13 -4.4847516E-06
          14  2.6852777E-04
          15  2.0751807E-04
          16 -3.3129067E-03
          17  1.0826626E-04
          18 -8.8533474E-04
          19 -4.5347568E-03
          20  0.1987563    
          21 -1.8259413E-04
          22  1.6720913E-04
          23  2.2238279E-04
          24 -2.0176992E-03
          25  1.1043271E-04
          26 -2.1762840E-04
          27 -9.9147859E-05
          28  3.6245475E-03
          29 -6.0388302E-05
          30 -7.4021978E-06
          31  1.7810575E-04
          32 -2.7889332E-03
          33  3.9365957E-05
          34  5.7806756E-04
          35  2.4980544E-03
          36 -0.1027989    
          37 -1.0299659E-04
          38  8.3205152E-05
          39 -4.8872189E-05
          40  1.9599740E-04
          41  4.1727806E-04
          42 -1.3648041E-03
          43 -2.7394702E-03
          44  7.3259272E-02
          45 -4.0788847E-04
          46  2.3216280E-05
          47 -9.5527917E-05
          48  3.0774469E-03
          49  2.7004958E-04
          50 -2.2626605E-03
          51 -8.5358130E-04
          52  9.5600508E-02
          53 -5.9194055E-05
          54 -4.1504818E-04
          55 -1.0631050E-04
          56  5.6633539E-03
          57 -1.7946241E-04
          58  8.4088539E-04
          59 -2.0802275E-03
          60  7.3096804E-02
          61 -1.0609916E-04
          62  2.1412309E-04
          63 -2.3728231E-04
          64  2.5346358E-03
          65 -3.0894173E-04
          66 -4.3422700E-04
          67  4.9040763E-04
          68  3.3534170E-04
          69 -6.7389301E-05
          70  1.0976148E-04
          71  1.5368313E-04
          72 -6.0950388E-04
          73 -1.9609997E-04
          74  1.2142106E-03
          75  2.4609389E-03
          76 -7.0776425E-02
          77 -2.2883364E-06
          78  3.1409629E-05
          79  2.4457468E-04
          80 -4.0657884E-03
          81  2.4066268E-05
          82 -4.9412524E-04
          83  2.1114261E-03
          84 -8.6652957E-02
          85 -2.1513198E-04
          86 -5.5230863E-05
          87  2.1571538E-04
          88 -6.0272282E-03
          89 -1.2358174E-03
          90  3.8205786E-03
          91  1.7639752E-03
          92 -1.3975729E-02
          93 -1.1635151E-04
          94  1.2467579E-03
          95  3.3082991E-04
          96 -3.9043633E-04
          97  1.6627478E-03
          98 -4.2698188E-03
          99 -3.0013444E-03
         100  3.7347335E-02
         101 -9.0697070E-04
         102  1.0790513E-03
         103 -7.5142976E-04
         104  3.6909590E-03
         105 -7.6922006E-03
         106  7.6863766E-03
         107 -4.0144846E-03
         108  0.3605362    
         109  3.1868010E-03
         110  5.1915104E-04
         111 -6.3737168E-04
         112  1.1952880E-02
         113 -4.3768995E-04
         114  9.5235760E-04
         115 -1.5402365E-02
         116  0.3172337    
         117  1.7650508E-04
         118 -3.9999929E-04
         119 -1.5190959E-03
         120  7.0960843E-03
         121  5.3608482E-04
         122  3.5362737E-03
         123  4.7643241E-02
         124  3.4193046E-02
         125 -2.2134306E-04
         126 -9.8211400E-04
         127  3.1993666E-03
         128 -1.1313736E-02
         129  1.6900443E-02
         130  2.5921760E-02
         131 -7.3543921E-02
         132 -6.4283542E-02
         133 -7.0065330E-03
         134  5.2953153E-03
         135 -1.0677805E-03
         136 -5.7135839E-03
         137  5.8463016E-03
         138 -3.2548789E-02
         139 -8.6920619E-02
         140 -7.7168755E-02
         141 -4.5508291E-03
         142  6.9628125E-03
         143  4.9027354E-03
         144  3.6113115E-03
         145  1.2845711E-03
         146  3.6391690E-03
         147  3.0140519E-02
         148  1.9682085E-02
         149 -1.0987495E-05
         150  4.3209625E-04
         151  1.5155758E-03
         152  8.3953319E-03
         153 -7.4345031E-04
         154 -7.5931964E-04
         155  8.2438895E-03
         156  0.2760563    
         157  2.9177009E-04
         158 -2.7161115E-04
         159 -3.8012525E-03
         160 -2.1448053E-02
         161  6.0614264E-03
         162 -2.3556067E-02
         163  2.6436862E-02
         164 -7.7718355E-02
         165 -4.0438869E-03
         166  4.2515301E-05
         167 -1.7163111E-03
         168  1.1279122E-02
         169 -1.5490745E-02
         170 -9.2707187E-02
         171  3.9548825E-02
         172 -7.6949753E-02
         173  7.6448992E-03
         174  7.4930303E-03
         175  1.6568764E-03
         176  1.3725985E-03
         177  5.0616795E-03
         178  2.0513048E-02
         179 -4.1827671E-03
         180  1.7428573E-02
         181 -1.5494216E-03
         182 -1.8577935E-03
         183  6.6112273E-04
         184 -2.4943373E-03
         185  5.7048316E-04
         186  6.4003140E-02
         187 -3.7987653E-02
         188  0.1118838    
         189 -2.1518666E-04
         190 -2.0099829E-03
         191  1.2786036E-03
         192 -4.8747892E-03
         193 -3.7846847E-03
         194  1.3472742E-02
         195 -1.5231418E-02
         196  1.8938499E-02
         197  1.5395227E-03
         198 -1.2258119E-03
         199  2.2492157E-03
         200 -2.1501100E-03
         201  1.5271749E-02
         202 -7.1335323E-02
         203  6.4334668E-02
         204 -8.3179154E-02
         205 -8.6446134E-03
         206  2.4240938E-04
         207 -6.6879718E-03
         208  2.7725925E-03
         209 -5.7215057E-03
         210  2.8706068E-02
         211  2.2528781E-02
         212 -7.9416312E-02
         213  3.9663580E-03
         214 -2.7312440E-04
         215 -1.5731809E-03
         216  1.1252764E-02
         217  1.5290606E-02
         218  9.6984640E-02
         219  2.6061837E-02
         220 -7.7751331E-02
         221 -7.5345580E-03
         222 -7.2063920E-03
         223  2.7272110E-03
         224  1.4283907E-03
         225 -4.9755443E-03
         226 -2.2023497E-02
         227 -2.0132239E-03
         228  1.9455865E-02
         229  1.5313466E-03
         230  1.9363721E-03
         231  3.8156688E-04
         232 -2.4357080E-03
         233 -5.6132470E-04
         234 -7.0124805E-02
         235 -2.9043689E-02
         236  0.1142111    
         237  2.3352628E-04
         238  2.1957678E-03
         239  9.5994893E-04
         240 -4.8960848E-03
         241  3.8575679E-03
         242 -1.5082449E-02
         243 -1.3119375E-02
         244  1.8559076E-02
         245 -1.5096234E-03
         246  1.5376991E-03
         247  1.9475558E-03
         248 -2.2373928E-03
         249 -1.5173805E-02
         250  8.1515610E-02
         251  5.4262716E-02
         252 -8.6046644E-02
         253  8.5909357E-03
         254 -1.1080309E-03
         255 -6.4881057E-03
         256  2.7766402E-03
         257 -8.0866432E-03
         258  1.5735000E-02
         259 -8.6835667E-02
         260 -7.4695989E-02
         261  5.5421274E-03
         262 -6.0485899E-03
         263  6.0841031E-03
         264  3.3109649E-03
         265 -1.3035974E-02
         266 -3.0466693E-02
         267 -7.2548322E-02
         268 -5.7079155E-02
         269  5.7671955E-03
         270 -3.6504504E-03
         271 -1.4968655E-03
         272 -3.9950609E-03
         273  3.5067995E-03
         274 -2.7814852E-03
         275  1.4081116E-02
         276 -0.1191194    
         277 -2.4628050E-03
         278  3.9183986E-04
         279 -5.9704948E-04
         280  1.1399115E-04
         281 -1.6835858E-03
         282  2.1085497E-03
         283  9.4486382E-03
         284 -0.4522904    
         285  2.4187726E-04
         286 -4.0481321E-04
         287 -3.9931815E-04
         288 -8.3235744E-03
         289 -5.2090164E-04
         290  2.1616162E-03
         291  1.1651016E-02
         292 -0.3383617    
         293 -2.0851313E-04
         294  7.0393959E-04
         295 -2.4421297E-05
         296 -5.3526228E-03
         297  1.2661738E-03
         298 -1.0966398E-04
         299  9.9931000E-05
         300  1.3912289E-04
         301 -8.7004052E-03
         302 -4.6020956E-04
         303 -1.8649644E-04
         304  2.3100361E-04
         305  5.6975136E-06
         306  1.0061836E-03
         307  3.1401782E-04
         308 -6.1226478E-05
         309 -9.2159069E-05
         310 -8.4469488E-05
         311  6.7409752E-03
         312  1.1697722E-03
         313 -3.8502060E-04
         314  3.2278750E-04
         315  2.4286832E-04
         316  3.6415767E-03
         317  4.2705280E-03
         318  1.0008274E-03
         319 -1.5076364E-03
         320  2.3909765E-03
         321 -1.5338748E-02
         322  6.6111092E-03
         323 -4.6493275E-05
         324 -1.7028409E-03
         325 -6.5599480E-03
         326  2.0363752E-03
         327  4.1944202E-04
         328 -5.1899912E-04
         329  5.9860372E-03
         330  2.6036694E-03
         331 -3.2502769E-03
         332  9.5319292E-03
         333  1.3928692E-03
         334  2.5664610E-03
         335  3.1745660E-03
         336 -5.5711879E-03
         337 -1.2973498E-02
         338  6.0979463E-04
         339 -7.7188545E-04
         340 -1.1508547E-03
         341  7.4642117E-04
         342 -3.0542724E-04
         343 -7.6414683E-05
         344  3.2139728E-03
         345 -1.9880682E-03
         346  6.1894222E-03
         347  1.0363474E-02
         348  4.6791574E-05
         349  1.0508223E-03
         350  9.7548100E-04
         351  1.1385609E-03
         352 -1.1104843E-02
         353 -1.6685305E-03
         354 -4.0338896E-03
         355 -5.9437058E-03
         356 -5.0143613E-03
         357 -9.5165372E-03
         358 -1.3150867E-03
         359 -2.0029559E-03
         360  3.4465597E-03
         361 -5.6078229E-03
         362  1.2683181E-02
         363 -5.9738115E-04
         364  6.5637182E-04
         365 -1.1974532E-03
         366  6.8245031E-04
         367  3.9618337E-04
         368  9.7522010E-05
         369 -3.4693317E-03
         370 -1.5187052E-03
         371  6.2331869E-03
         372 -1.0395599E-02
         373  7.1730821E-05
         374 -8.5043529E-04
         375  1.0496182E-03
         376  1.2079076E-03
         377  1.0900464E-02
         378  2.0546657E-03
         379  3.7104024E-03
         380 -6.4658299E-03
         381 -4.8625409E-03
         382 -1.1854686E-03
         383  8.0084213E-04
         384 -5.5484707E-03
         385  3.4687594E-03
         386 -3.6823314E-03
         387 -9.8290143E-04
         388 -1.3650262E-05
         389  2.6991330E-03
         390 -3.3508071E-03
         391  1.7564457E-04
         392 -3.5191930E-03
         393 -9.8612742E-04
         394  6.1516603E-04
         395 -1.2936628E-04
         396  5.9446665E-03
         397  5.3582001E-03
         398  3.8595454E-04
         399 -3.3331511E-04
         400 -5.0455634E-04
         401  1.7948814E-02
 Sym= Particle
 Ene= -0.8923575    
 Spin= Alpha
 Occup= 2
           1 -1.9874658E-04
           2 -8.6482469E-04
           3 -5.7626627E-03
           4  0.2509646    
           5  3.6913672E-04
           6  6.9384289E-05
           7  5.0038309E-04
           8 -2.9064406E-02
           9 -7.3398522E-05
          10  5.5036991E-04
          11  2.8211446E-03
          12 -0.1242092    
          13  4.3346014E-04
          14 -3.0563588E-04
          15 -5.6733371E-04
          16  2.3973208E-02
          17  6.4520500E-06
          18  1.9120032E-03
          19  1.0742584E-02
          20 -0.4314268    
          21  1.2807270E-04
          22 -5.6496059E-04
          23 -2.3248363E-03
          24  9.1164954E-02
          25 -1.2434843E-05
          26  4.0911397E-04
          27  2.5538923E-03
          28 -0.1066385    
          29  2.2441462E-04
          30 -9.9910983E-05
          31 -7.7955978E-05
          32  1.1926117E-02
          33 -5.8473670E-05
          34 -9.4327750E-04
          35 -5.7614143E-03
          36  0.2353497    
          37  1.0984114E-04
          38  2.0829444E-04
          39  7.5969408E-04
          40 -2.2249244E-02
          41  1.3039207E-04
          42 -2.4273887E-03
          43 -1.1155033E-02
          44  0.4342916    
          45 -4.8111677E-05
          46  4.9062172E-04
          47  1.9518847E-03
          48 -8.2302846E-02
          49 -1.8578616E-04
          50 -2.0808209E-04
          51 -4.7700247E-03
          52  0.1711958    
          53  2.2520439E-04
          54 -3.8540151E-05
          55  7.8305870E-04
          56 -2.4624871E-02
          57  5.0764404E-05
          58  9.8034623E-05
          59  4.6269870E-03
          60 -0.1703094    
          61  9.2181042E-05
          62  4.5974295E-05
          63 -5.9054460E-04
          64  2.3054460E-02
          65 -7.4858946E-07
          66  3.2192018E-04
          67  3.6994484E-03
          68 -0.1316783    
          69  1.4226508E-04
          70 -1.6196213E-04
          71 -3.4205668E-04
          72  1.3284192E-02
          73 -1.0893187E-04
          74 -4.6469361E-04
          75 -5.4173432E-03
          76  0.1935467    
          77  2.5753083E-04
          78  3.1674201E-05
          79  4.6003974E-04
          80 -1.8950483E-02
          81  7.2784911E-05
          82 -2.6001735E-04
          83 -3.4339435E-03
          84  0.1153896    
          85  2.5382417E-04
          86 -5.4593454E-04
          87  7.2332041E-04
          88 -2.7932817E-02
          89 -4.7395722E-04
          90  9.8992651E-04
          91  7.2450163E-03
          92 -0.2448013    
          93  5.8204023E-04
          94 -7.5021829E-04
          95 -9.1341959E-04
          96  3.3554465E-02
          97 -1.2649590E-04
          98  2.1532997E-03
          99  8.4277997E-03
         100 -0.3011675    
         101  5.0491514E-04
         102 -1.6775450E-03
         103 -1.0767805E-03
         104  5.9245940E-02
         105 -4.4956020E-04
         106 -5.3805159E-04
         107 -1.9559169E-03
         108  0.1100622    
         109  2.5044725E-04
         110 -5.5391376E-04
         111  1.6007635E-03
         112 -2.4144532E-02
         113 -6.5121734E-05
         114  1.1823917E-03
         115 -6.5334528E-03
         116  0.2645906    
         117  1.1470609E-03
         118 -7.9519203E-04
         119  2.7131916E-03
         120 -4.5767818E-02
         121  4.7395643E-04
         122  2.9165947E-04
         123 -9.0189493E-04
         124 -1.4970452E-02
         125  5.5037503E-04
         126  1.1834636E-03
         127 -6.0478220E-04
         128  1.3921891E-02
         129  1.5670082E-02
         130  9.3150558E-03
         131 -6.3711345E-02
         132 -5.8711894E-02
         133 -1.1718716E-02
         134 -6.4295004E-03
         135  1.1203615E-02
         136  1.0962306E-02
         137 -8.4596947E-03
         138 -2.7207141E-03
         139  2.1874018E-02
         140  1.8066982E-02
         141  4.4444525E-03
         142  1.9330702E-04
         143 -6.3210255E-03
         144 -5.6207324E-03
         145  7.3390140E-04
         146  3.4569234E-03
         147  4.1664276E-02
         148  6.6062972E-02
         149 -3.7951404E-04
         150 -1.0769278E-03
         151 -4.9186884E-03
         152 -1.1641384E-02
         153 -2.6525767E-04
         154 -9.6806604E-04
         155 -5.7114740E-03
         156 -7.0717745E-02
         157 -1.2998574E-04
         158 -2.9123086E-04
         159  6.3926732E-04
         160  1.4357034E-02
         161  3.5365298E-03
         162  3.6035362E-03
         163  5.3087538E-03
         164  2.7908874E-03
         165 -2.7906119E-03
         166 -1.2079561E-03
         167 -8.5385173E-04
         168 -3.5352337E-03
         169  3.2989308E-03
         170  1.6177574E-02
         171 -6.9481959E-03
         172  1.5411916E-02
         173 -2.4921903E-03
         174 -2.5329294E-03
         175 -6.8979937E-04
         176 -1.0983587E-03
         177 -7.2115636E-04
         178  1.2212839E-04
         179 -8.2859892E-04
         180  1.4696631E-03
         181  2.7596383E-04
         182  5.9937773E-04
         183 -1.1319596E-04
         184  1.9764737E-04
         185  4.1400720E-04
         186 -1.1208924E-02
         187  6.9984961E-03
         188 -2.0120274E-02
         189 -3.7573458E-04
         190  8.1377785E-04
         191 -5.6117185E-04
         192  1.9745596E-03
         193  1.1072658E-03
         194 -1.1591128E-03
         195  2.6371432E-03
         196 -2.4339953E-03
         197 -5.5799377E-04
         198  1.0131008E-03
         199 -1.0804537E-03
         200  2.1462648E-03
         201 -3.4740765E-03
         202  1.8321645E-02
         203 -1.5950555E-02
         204  1.8801689E-02
         205  1.7305175E-03
         206 -2.9025995E-03
         207  3.9747776E-03
         208 -2.2229240E-03
         209 -3.3776781E-03
         210 -2.2303381E-03
         211  5.7588853E-03
         212  2.2062673E-03
         213  2.4423711E-03
         214  4.3789580E-04
         215 -1.3254398E-03
         216 -3.0414031E-03
         217 -3.4514931E-03
         218 -1.7037977E-02
         219 -4.3306691E-03
         220  1.5432719E-02
         221  2.5141581E-03
         222  2.3329814E-03
         223 -1.1767177E-03
         224 -1.0754656E-03
         225  7.2615390E-04
         226 -2.8796334E-04
         227 -1.0279730E-03
         228  1.8634690E-03
         229 -3.6873616E-04
         230 -7.4252527E-04
         231  1.8481477E-04
         232  2.2344475E-05
         233 -3.7931255E-04
         234  1.2296425E-02
         235  5.2537872E-03
         236 -2.0335535E-02
         237  2.5940931E-04
         238 -9.4762229E-04
         239 -2.7285717E-04
         240  1.9126021E-03
         241 -1.1707462E-03
         242  1.5250109E-03
         243  2.2573723E-03
         244 -2.4803269E-03
         245  4.7361309E-04
         246 -1.3209755E-03
         247 -6.2537292E-04
         248  2.2157151E-03
         249  3.5853479E-03
         250 -2.0453304E-02
         251 -1.3142343E-02
         252  1.8905906E-02
         253 -2.2169494E-03
         254  2.5354584E-03
         255  3.5996945E-03
         256 -2.0394267E-03
         257  6.9149011E-03
         258  3.2988046E-03
         259  2.3113748E-02
         260  1.9448675E-02
         261 -3.2793181E-03
         262  1.1618264E-04
         263 -7.0014321E-03
         264 -5.4009296E-03
         265 -1.2842494E-02
         266 -1.5518330E-02
         267 -6.6802308E-02
         268 -5.6679450E-02
         269  1.0314593E-02
         270  7.0480807E-03
         271  1.2445818E-02
         272  8.9812502E-03
         273 -2.5862160E-03
         274  3.1946742E-03
         275  8.5208695E-03
         276 -0.1788056    
         277  2.9547955E-03
         278 -1.2231342E-03
         279 -6.8949413E-04
         280  3.4584925E-02
         281  2.1283556E-04
         282 -7.5283175E-04
         283  4.9140030E-03
         284 -0.1620643    
         285  6.1761290E-05
         286  8.8200223E-04
         287 -3.3121346E-04
         288  1.7251316E-02
         289 -3.7481182E-04
         290 -5.1939883E-04
         291 -4.6126135E-03
         292  0.2024397    
         293  2.7942733E-04
         294 -6.7053494E-05
         295  9.6753065E-04
         296 -3.6186893E-02
         297 -2.1359469E-05
         298  1.6590605E-04
         299 -2.9336103E-05
         300  2.5728467E-04
         301 -1.1034826E-02
         302 -1.7400664E-05
         303  1.8177454E-04
         304 -2.3857926E-04
         305  5.8523094E-04
         306 -1.9041946E-02
         307  5.8595302E-05
         308  2.3725789E-04
         309  2.8317320E-06
         310 -8.2523795E-04
         311  2.6864037E-02
         312  2.2492359E-05
         313  7.3231146E-04
         314 -8.8971533E-04
         315 -6.0742756E-04
         316  1.3243413E-02
         317  1.7103857E-03
         318 -2.2272754E-04
         319  5.9479213E-04
         320 -1.1406952E-03
         321  1.3588086E-02
         322 -6.1495653E-03
         323 -3.8000869E-03
         324 -1.0823973E-02
         325 -3.1684285E-03
         326 -4.0809084E-03
         327  7.2936858E-03
         328 -5.3268496E-04
         329 -8.1240077E-04
         330  1.1768459E-03
         331  1.2639783E-03
         332 -2.4304586E-03
         333 -1.7515391E-04
         334 -1.1572478E-03
         335 -9.9685288E-04
         336  1.4197701E-03
         337  1.2850510E-03
         338 -3.1759759E-04
         339  9.8585515E-05
         340 -1.8995022E-04
         341  4.1370149E-04
         342 -3.2713817E-04
         343 -1.4557569E-04
         344 -1.3584705E-03
         345  7.5388222E-04
         346 -2.4064423E-03
         347 -2.8292979E-03
         348 -2.7076769E-05
         349 -5.9085415E-04
         350 -3.1078726E-04
         351 -4.8668982E-04
         352  1.3874278E-03
         353 -3.7183863E-04
         354  5.1610230E-04
         355 -5.6201860E-04
         356  2.0150107E-03
         357  2.5997278E-03
         358 -9.6753225E-05
         359  8.8164618E-04
         360 -1.2659588E-03
         361  1.3124048E-03
         362 -1.1004073E-03
         363  9.0208079E-05
         364 -3.5954601E-04
         365 -1.4909270E-05
         366  3.2238310E-04
         367  4.6675676E-04
         368  3.9511855E-05
         369  1.5991535E-03
         370  6.9949334E-04
         371 -2.7261002E-03
         372  3.0715698E-03
         373 -3.1340928E-04
         374  4.8078210E-04
         375 -2.4526951E-05
         376 -4.7455265E-04
         377 -1.4245135E-03
         378 -4.4936768E-04
         379 -1.7643577E-03
         380 -4.2973651E-04
         381  2.3166649E-03
         382 -8.5420357E-03
         383  7.8606053E-04
         384  7.7260123E-04
         385  7.5855397E-04
         386  2.1456415E-03
         387  6.1820643E-03
         388  2.4916141E-04
         389  1.6146818E-04
         390 -5.2205753E-03
         391 -4.5629283E-03
         392  1.7917230E-03
         393  1.0638601E-03
         394 -2.5632861E-03
         395  1.4901618E-04
         396 -3.0851778E-02
         397  1.2671842E-03
         398 -5.1753072E-04
         399  1.7662240E-04
         400  3.0419379E-04
         401 -9.2083346E-03
 Sym= Hole
 Ene= -9.1062240E-02
 Spin= Alpha
 Occup= 0
           1 -2.8371569E-04
           2  3.7174081E-04
           3 -4.5479456E-04
           4  2.3369169E-02
           5 -1.6168250E-04
           6  2.0941960E-04
           7 -1.2400860E-04
           8 -8.7976089E-04
           9 -7.5310825E-05
          10  4.2697429E-04
          11  1.7203960E-04
          12 -1.2656024E-02
          13 -1.1899185E-05
          14  2.0036371E-04
          15  1.1250808E-04
          16  6.9144956E-04
          17 -3.7145641E-04
          18  8.6433208E-04
          19  1.2150510E-03
          20 -6.1458949E-02
          21 -1.5192179E-04
          22  3.3524813E-04
          23 -3.4396435E-05
          24  5.2003991E-03
          25  2.1506305E-04
          26 -1.7506645E-04
          27 -1.7261795E-04
          28 -1.2861832E-02
          29 -3.4560104E-05
          30 -1.2498881E-05
          31  6.5355343E-05
          32 -9.4789044E-05
          33  1.8448425E-05
          34  9.5513074E-05
          35 -1.0084787E-03
          36  2.8023377E-02
          37 -8.5889900E-05
          38  8.0820020E-05
          39  1.3789066E-04
          40 -8.0821355E-04
          41  8.4089476E-04
          42 -1.2989589E-03
          43  1.7585133E-05
          44  2.5220416E-02
          45 -4.1268655E-04
          46 -7.0676084E-05
          47  7.4141787E-04
          48 -3.3016182E-03
          49  7.1201316E-04
          50  1.7296551E-04
          51  7.6650912E-03
          52 -0.2821449    
          53 -7.0497379E-05
          54  1.6922369E-05
          55 -2.2236025E-04
          56 -3.9440067E-03
          57 -4.9899862E-04
          58 -9.9061559E-05
          59  5.8049173E-04
          60 -1.2382168E-02
          61  2.0353589E-05
          62 -3.9980830E-05
          63 -3.3176122E-05
          64 -2.3774919E-03
          65  2.5056663E-04
          66 -3.9355559E-04
          67 -6.6252467E-03
          68  0.2463160    
          69  6.4117390E-05
          70  1.1546043E-05
          71  1.0874250E-04
          72 -7.6919521E-04
          73 -3.9935755E-04
          74 -3.4248154E-05
          75 -4.0917154E-03
          76  0.1345198    
          77  5.2595286E-05
          78 -4.8534574E-05
          79  2.9610324E-05
          80  2.3799337E-04
          81  3.1108566E-04
          82  3.0667530E-04
          83  4.8419069E-03
          84 -0.1790539    
          85  7.1943170E-05
          86  4.0074196E-06
          87  1.3275335E-05
          88 -1.2738797E-03
          89 -1.2684318E-03
          90  2.0640863E-03
          91  7.5637614E-03
          92 -0.2267257    
          93  1.7033280E-04
          94  1.1772984E-04
          95  1.9971169E-04
          96 -2.2083682E-03
          97  1.3828082E-03
          98 -6.0300292E-03
          99 -1.0448506E-02
         100  0.3858656    
         101 -7.2859059E-04
         102  4.4410978E-04
         103  1.9153095E-04
         104  2.5265671E-03
         105 -5.2643409E-03
         106  6.0056122E-03
         107 -3.2879587E-03
         108  0.1688552    
         109  3.8289167E-03
         110 -9.7204599E-04
         111 -1.0094260E-03
         112  4.5476034E-03
         113 -1.7767207E-04
         114  2.8377259E-03
         115  3.4501308E-03
         116 -0.2556271    
         117  5.3238438E-04
         118 -6.3632225E-04
         119  1.9316711E-03
         120  3.4808432E-04
         121  1.0775824E-03
         122  2.7070371E-03
         123  3.5348773E-02
         124  8.1502050E-02
         125 -1.4243499E-04
         126 -1.7012635E-03
         127 -7.6101157E-03
         128 -2.8010905E-03
         129 -1.3991824E-02
         130 -6.6600475E-03
         131  6.4418249E-02
         132  5.0013758E-02
         133  5.7294010E-03
         134 -2.7517262E-03
         135 -2.4088705E-03
         136  5.7146186E-04
         137  9.7584566E-03
         138 -4.1778758E-03
         139 -4.3245047E-02
         140 -3.6430985E-02
         141 -4.1448339E-03
         142  1.9458141E-03
         143  5.0817402E-03
         144  3.9058819E-03
         145  1.2260408E-03
         146 -1.5823820E-03
         147 -3.8638193E-02
         148 -6.5775678E-02
         149 -2.0241411E-04
         150  3.4452204E-04
         151  6.0432480E-04
         152  9.6345805E-03
         153 -6.9753692E-04
         154 -9.8924886E-04
         155  7.5087245E-03
         156  0.1260840    
         157  4.1910753E-04
         158 -6.1607236E-05
         159 -9.1580732E-04
         160 -1.6815139E-02
         161 -2.4633303E-03
         162 -7.8209685E-03
         163 -9.0310714E-05
         164 -1.6640123E-02
         165  2.3633698E-03
         166  5.9268065E-04
         167  1.7457288E-03
         168  5.7357298E-03
         169 -6.5827849E-03
         170 -3.6852427E-02
         171  1.5501994E-02
         172 -3.4453455E-02
         173  4.2323116E-03
         174  5.2192560E-03
         175  5.2328798E-04
         176  2.6213701E-03
         177  1.8422477E-03
         178  5.7048262E-03
         179 -4.9503607E-04
         180  5.6177028E-03
         181 -5.6366186E-04
         182 -1.2683696E-03
         183  6.2718132E-04
         184 -1.0493366E-03
         185 -4.7668375E-04
         186  2.6381845E-02
         187 -1.6799757E-02
         188  4.6100203E-02
         189  1.7979158E-04
         190 -1.8899584E-03
         191  1.0880566E-03
         192 -3.9102933E-03
         193 -1.7764276E-03
         194  1.1272805E-03
         195 -3.6069856E-03
         196  1.6824178E-03
         197  7.8328850E-04
         198 -1.0496015E-03
         199  8.3529868E-04
         200 -1.2600927E-03
         201  6.0808128E-03
         202 -3.2897945E-02
         203  2.8109450E-02
         204 -3.5067018E-02
         205 -3.0458781E-03
         206  2.5277771E-03
         207 -5.0795954E-03
         208  2.3890438E-03
         209  2.8092428E-03
         210  7.9448456E-03
         211 -2.0018138E-03
         212 -1.4207370E-02
         213 -2.2710457E-03
         214  4.0846408E-05
         215  1.6799401E-03
         216  6.0771806E-03
         217  6.0143410E-03
         218  3.7266724E-02
         219  1.1563479E-02
         220 -3.4601834E-02
         221 -4.0574670E-03
         222 -5.6115738E-03
         223  1.7042378E-03
         224  2.5113681E-03
         225 -1.4341334E-03
         226 -4.6820291E-03
         227 -1.0056229E-03
         228  4.8354245E-03
         229  6.5765134E-04
         230  1.4649661E-03
         231 -1.4284877E-04
         232 -1.2075527E-03
         233  8.1750972E-05
         234 -2.6892809E-02
         235 -1.2732890E-02
         236  4.6047639E-02
         237 -1.3107306E-04
         238  2.4311058E-03
         239  9.9975918E-04
         240 -3.7459491E-03
         241  2.0648795E-03
         242 -2.0151779E-03
         243 -2.4757723E-03
         244  9.7588159E-04
         245 -7.2853640E-04
         246  6.6898309E-04
         247  1.1722948E-03
         248 -1.5373921E-03
         249 -6.4421375E-03
         250  3.6011595E-02
         251  2.1891862E-02
         252 -3.5370551E-02
         253  3.0995724E-03
         254 -3.3700492E-03
         255 -5.2143503E-03
         256  2.3145063E-03
         257 -1.1728555E-02
         258 -7.0464453E-03
         259 -4.6094865E-02
         260 -4.1415002E-02
         261  5.7409243E-03
         262  8.5914995E-05
         263  4.9807937E-03
         264  3.7325392E-03
         265  1.8520257E-02
         266  2.1175198E-02
         267  5.2546907E-02
         268  4.9258363E-02
         269 -7.5779362E-03
         270  3.7608359E-03
         271 -3.8514228E-03
         272  2.1935811E-03
         273 -3.6953343E-04
         274  2.2323297E-04
         275  1.9618163E-02
         276 -0.4522181    
         277 -2.0437024E-03
         278  9.6223690E-04
         279 -9.6824748E-04
         280 -2.1189624E-03
         281 -4.5320654E-04
         282  2.1942190E-03
         283  3.9464215E-04
         284 -8.6392626E-02
         285 -6.3746622E-05
         286  6.4151944E-04
         287  1.1815280E-04
         288 -1.1521371E-03
         289 -1.0593734E-03
         290 -4.2670808E-04
         291 -9.2601646E-03
         292  0.3850331    
         293 -6.0883402E-05
         294  7.2801317E-04
         295 -1.3555952E-04
         296 -2.5997290E-03
         297 -2.8944129E-04
         298 -2.8018153E-04
         299  1.3883504E-04
         300 -1.6367626E-04
         301  5.8257100E-03
         302  4.4102836E-04
         303  1.2529796E-04
         304  1.1892121E-05
         305 -1.9692548E-04
         306  6.3050268E-03
         307 -3.5799813E-04
         308 -1.7591726E-04
         309 -6.2887215E-05
         310 -1.7868319E-05
         311  4.1162050E-03
         312  5.9653865E-04
         313 -2.0194100E-04
         314  2.7502395E-04
         315  1.1215812E-04
         316 -3.1631500E-03
         317  1.3779135E-03
         318  7.8144047E-04
         319 -2.5411576E-03
         320  3.7843519E-04
         321 -4.0083178E-03
         322  9.1425003E-03
         323 -1.6942779E-03
         324  7.5944123E-04
         325  4.0335953E-03
         326  7.9671107E-04
         327 -9.7572366E-03
         328  7.1018806E-04
         329  7.3664571E-04
         330 -3.3233732E-03
         331 -5.2022845E-03
         332  3.4199776E-03
         333  4.1207424E-04
         334  1.6748015E-03
         335  1.9334200E-03
         336 -3.0644445E-03
         337 -3.3069495E-03
         338  5.8003038E-04
         339 -2.7510093E-04
         340 -1.9724468E-04
         341 -1.7918128E-05
         342  7.3813857E-04
         343  2.3973141E-04
         344  2.3371093E-03
         345 -1.1720520E-03
         346  4.2264508E-03
         347  5.0528483E-03
         348 -3.6062163E-04
         349 -8.1467166E-05
         350  5.6796690E-04
         351 -1.8669960E-04
         352 -3.3909692E-03
         353  7.0921105E-04
         354  5.9411436E-04
         355 -4.9112702E-04
         356 -2.4505442E-03
         357 -4.2262101E-03
         358 -6.0096500E-04
         359 -1.0841445E-03
         360  1.9340320E-03
         361 -3.0556971E-03
         362  2.9240169E-03
         363 -5.7959772E-04
         364  2.1237861E-04
         365  1.4579375E-04
         366  9.5012678E-05
         367 -1.3494114E-03
         368 -4.7679010E-04
         369 -2.8784741E-03
         370 -9.4415550E-04
         371  4.0918193E-03
         372 -4.6269931E-03
         373  5.2099605E-04
         374  4.1344418E-04
         375  3.1229819E-04
         376 -8.4300322E-05
         377  2.7960776E-03
         378 -7.1020960E-04
         379 -6.5902877E-04
         380 -5.0700583E-05
         381 -2.4846748E-03
         382  9.3287760E-03
         383  2.4093980E-04
         384 -8.1698579E-04
         385 -2.7194312E-03
         386 -5.4386640E-03
         387 -4.9091708E-03
         388 -2.5967833E-05
         389 -1.4924156E-05
         390  6.4991671E-03
         391  1.1222329E-04
         392  4.5600079E-04
         393 -2.4934401E-04
         394  1.0183554E-03
         395 -1.4695760E-03
         396  3.3424518E-03
         397  4.3541393E-03
         398 -1.1087266E-04
         399  3.4865976E-04
         400 -3.6169498E-04
         401  2.4751436E-03
 Sym= Particle
 Ene= -9.1062240E-02
 Spin= Alpha
 Occup= 2
           1  4.0810011E-04
           2 -2.9978409E-04
           3 -1.3072749E-03
           4  5.3303979E-02
           5 -2.0761232E-04
           6 -2.6387064E-04
           7 -2.2136360E-04
           8  7.1179842E-05
           9 -1.9037610E-04
          10  8.0710619E-05
          11  4.5067215E-04
          12 -2.3837987E-02
          13 -3.3071911E-04
          14  2.4456487E-04
          15 -1.6589486E-06
          16 -2.7423177E-04
          17  6.6098000E-04
          18  2.6602912E-04
          19  1.8799943E-03
          20 -7.5338937E-02
          21 -1.0604400E-03
          22  2.2512455E-04
          23 -2.4400916E-04
          24  1.1996398E-02
          25 -1.7189218E-04
          26  2.0564703E-04
          27  6.7819725E-04
          28 -2.6104968E-02
          29 -1.3244558E-04
          30 -2.2696087E-05
          31 -9.3938703E-05
          32 -3.3874059E-04
          33  3.7038917E-04
          34 -1.9587208E-04
          35 -1.1128540E-03
          36  5.0055914E-02
          37 -1.1526623E-04
          38  3.8165430E-04
          39 -7.9132893E-05
          40 -6.5374142E-03
          41 -1.8025175E-05
          42 -5.9357227E-04
          43 -2.5172872E-03
          44  9.9359930E-02
          45 -8.1943296E-04
          46  1.3124063E-03
          47  1.3498944E-04
          48 -8.5992981E-03
          49  7.6830234E-05
          50  1.8197796E-04
          51  3.3130164E-03
          52 -0.1275082    
          53 -6.3532917E-04
          54  7.2073372E-04
          55 -1.3056415E-03
          56  5.8807630E-02
          57  6.6176668E-04
          58  6.2112452E-04
          59  4.9120928E-03
          60 -0.1782052    
          61 -1.1668464E-03
          62 -2.1558296E-04
          63 -8.8645442E-04
          64  3.0992594E-02
          65  5.7025195E-06
          66 -7.3596975E-04
          67 -6.0851737E-03
          68  0.2251799    
          69 -6.3490687E-04
          70  6.3995278E-04
          71  1.0986677E-03
          72 -5.0102759E-02
          73 -7.3382711E-05
          74  3.9339383E-04
          75 -6.0590165E-04
          76  3.1006411E-02
          77 -7.6920935E-04
          78 -2.0411103E-04
          79  9.3305556E-05
          80 -1.1554694E-02
          81  7.3255418E-04
          82  5.0003803E-04
          83  7.6499400E-03
          84 -0.2699109    
          85 -1.6441756E-03
          86 -2.5546762E-05
          87 -1.7499947E-03
          88  7.6031521E-02
          89 -1.0557763E-04
          90 -4.3888151E-05
          91 -5.6781783E-03
          92  0.2114204    
          93 -7.5751886E-04
          94  4.5399036E-04
          95  1.6270698E-03
          96 -4.5994204E-02
          97 -1.6470955E-03
          98  3.1331531E-04
          99 -7.6328442E-03
         100  0.2593783    
         101 -6.1796792E-04
         102  3.9763658E-04
         103  2.5325166E-03
         104 -6.8565756E-02
         105  7.9885004E-03
         106 -2.8903394E-03
         107  2.0642918E-02
         108 -0.5198548    
         109 -1.0194798E-02
         110  6.4579593E-03
         111 -5.9252018E-03
         112  0.1576971    
         113 -5.5069680E-04
         114 -5.2840994E-03
         115 -8.6494768E-03
         116  0.2528765    
         117 -3.3203992E-03
         118  3.2256499E-03
         119  8.7764364E-04
         120 -8.6782619E-02
         121 -1.5437376E-03
         122 -1.5865492E-03
         123 -9.9287992E-03
         124 -1.2622588E-02
         125 -1.2174115E-03
         126 -4.7820443E-03
         127  5.5184937E-03
         128  2.5711251E-02
         129  8.2892692E-03
         130  1.8686374E-03
         131 -4.9010493E-02
         132 -2.2902880E-02
         133 -8.3724298E-03
         134 -5.9730904E-03
         135  1.3669180E-02
         136 -1.3410217E-04
         137 -2.8077306E-03
         138  1.3273796E-03
         139  1.6906615E-02
         140  1.9275792E-02
         141  1.1263898E-03
         142 -1.8293683E-03
         143 -9.0675335E-03
         144 -7.0835231E-03
         145 -2.1493114E-03
         146 -2.3248815E-04
         147  6.7524821E-03
         148  1.6475515E-02
         149  1.8760789E-03
         150  2.9756976E-03
         151  2.6463058E-03
         152  9.5865910E-04
         153  9.1039640E-04
         154  1.3765204E-03
         155 -3.1305323E-03
         156 -2.6580555E-02
         157  2.1159183E-04
         158  1.2061044E-03
         159 -1.0559018E-03
         160  5.6751994E-03
         161 -1.8269436E-06
         162  4.8137265E-03
         163 -2.5337867E-03
         164  8.1467042E-03
         165  8.3271135E-04
         166 -5.6141574E-04
         167  1.0547535E-03
         168 -4.4541094E-03
         169  1.4073214E-03
         170  2.7942604E-03
         171 -1.3213244E-04
         172 -3.8718179E-04
         173 -5.5966876E-04
         174 -5.0742787E-05
         175 -1.0027854E-03
         176  1.8454138E-03
         177 -4.2363291E-04
         178 -1.4328053E-03
         179  4.1069731E-04
         180 -1.5887432E-03
         181  7.7199377E-04
         182  1.1889288E-03
         183 -2.8416159E-04
         184  8.0485718E-04
         185 -6.2844796E-05
         186  7.0275390E-04
         187 -4.5622105E-04
         188  3.8111972E-04
         189  7.3526095E-04
         190 -8.1674021E-04
         191  7.3977083E-04
         192 -1.6348541E-03
         193  4.2815247E-04
         194 -2.8042942E-03
         195  2.0162577E-03
         196 -4.9015614E-03
         197  3.2649509E-04
         198  1.2734955E-03
         199 -2.7147343E-04
         200  2.3609230E-03
         201 -1.2859453E-03
         202  4.3211570E-03
         203 -3.9914083E-03
         204  3.3964878E-03
         205  1.6235412E-03
         206  1.2467382E-03
         207  1.2553580E-03
         208  4.0353590E-04
         209 -3.6125266E-04
         210 -4.5847176E-03
         211 -1.2111701E-03
         212  6.9119628E-03
         213  4.6941792E-04
         214  2.0057454E-03
         215  1.6618867E-03
         216 -4.7017490E-03
         217 -1.4421310E-03
         218 -2.4720083E-03
         219 -1.3152797E-04
         220  4.1418144E-04
         221  1.1702500E-03
         222 -3.4155283E-04
         223 -1.0326097E-03
         224  1.6430999E-03
         225  4.7787119E-04
         226  2.4701457E-04
         227  3.7503134E-05
         228 -3.7364301E-04
         229 -4.2644967E-04
         230 -1.7550972E-04
         231 -3.5835215E-04
         232  6.4501178E-04
         233 -3.2139907E-04
         234  2.6689307E-04
         235  3.5086690E-04
         236 -1.2184952E-03
         237  1.6007823E-04
         238  4.6466273E-04
         239  1.5015929E-04
         240 -7.2096218E-04
         241 -1.5774963E-04
         242  3.2736249E-03
         243  2.3434423E-03
         244 -4.5609106E-03
         245  1.7080022E-04
         246 -1.1792290E-03
         247 -1.5087724E-03
         248  2.1876106E-03
         249  1.0401579E-03
         250 -5.8866455E-03
         251 -4.2309100E-03
         252  5.9568351E-03
         253  2.0491839E-06
         254  1.9741852E-03
         255  1.6108952E-03
         256 -1.4630093E-03
         257  6.8603023E-03
         258  8.2259858E-03
         259  1.5123282E-02
         260  1.8718833E-02
         261 -2.8883426E-03
         262 -2.5631736E-03
         263 -8.4396079E-03
         264 -8.4698377E-03
         265 -1.5998021E-02
         266 -1.6132392E-02
         267 -3.7393242E-02
         268 -3.2065660E-02
         269  1.3383878E-02
         270  1.1804615E-02
         271  5.1898379E-03
         272  9.8013412E-03
         273  2.1198129E-03
         274 -2.0523721E-03
         275 -9.5173288E-03
         276  0.2865201    
         277 -2.6894317E-03
         278  8.0010388E-04
         279  4.2499485E-03
         280 -7.8623511E-02
         281 -3.4358393E-04
         282  1.4674814E-05
         283  1.3703779E-02
         284 -0.4683990    
         285 -1.7693603E-03
         286  2.3393973E-03
         287 -3.7895606E-03
         288  0.1300212    
         289  1.1565788E-03
         290 -1.6630107E-03
         291 -3.3054983E-03
         292  0.1462139    
         293 -1.7630706E-03
         294  1.4108488E-03
         295  1.2317824E-03
         296 -4.0294714E-02
         297 -3.2889360E-04
         298  2.7727036E-04
         299 -6.1950448E-04
         300  1.1987364E-03
         301 -3.6299963E-02
         302  4.7539867E-04
         303 -4.8483576E-04
         304  3.5875686E-04
         305 -1.1256667E-03
         306  4.3816373E-02
         307  3.3008010E-04
         308 -7.1323075E-04
         309  8.7411470E-05
         310 -2.5040613E-04
         311  1.0210058E-02
         312 -4.2974654E-05
         313 -1.4479791E-03
         314  1.8836324E-03
         315  2.8739015E-03
         316 -6.1642308E-02
         317 -8.0209719E-03
         318 -2.4618681E-03
         319  7.5182277E-03
         320  5.9860753E-04
         321 -0.1147802    
         322 -2.9763742E-03
         323  5.2371854E-03
         324  1.6861977E-02
         325 -4.5837169E-03
         326 -4.3928213E-04
         327  8.2424507E-03
         328 -2.9462914E-03
         329 -7.4341573E-04
         330  2.0336194E-03
         331  5.4825027E-03
         332 -3.2608217E-04
         333  1.1861586E-04
         334 -8.8627357E-04
         335  4.1093378E-04
         336 -1.9349788E-04
         337  3.4433344E-04
         338  3.1324208E-04
         339  5.7623925E-04
         340  1.9806495E-04
         341 -7.2816937E-07
         342 -3.8908172E-04
         343  6.7961810E-04
         344  3.9428641E-04
         345 -1.6605684E-04
         346 -7.1476238E-06
         347 -1.3558670E-03
         348  7.4732088E-04
         349 -1.0700531E-03
         350  1.1361887E-03
         351 -7.4190670E-04
         352  8.4843161E-04
         353  1.5962583E-03
         354  2.3483667E-03
         355  1.0851846E-03
         356  6.3479459E-04
         357  4.7693460E-04
         358  1.3519484E-04
         359  6.8977114E-04
         360 -3.6187601E-04
         361 -5.6284367E-05
         362 -8.7933015E-04
         363 -2.0622999E-04
         364  6.6351815E-04
         365 -1.0418666E-04
         366  2.3429739E-04
         367  7.9886653E-05
         368 -3.4116965E-04
         369 -5.7896302E-04
         370  2.0831334E-04
         371  3.7823388E-04
         372  6.2608442E-06
         373  6.1082450E-04
         374  1.0165663E-03
         375 -7.1165839E-04
         376 -7.0669636E-04
         377 -1.3874066E-03
         378  1.7108029E-03
         379  1.3745484E-03
         380  1.0132964E-03
         381 -4.2513578E-04
         382 -4.1087740E-03
         383  3.0997249E-03
         384  2.5700280E-03
         385  2.9293851E-03
         386  4.0573264E-03
         387  4.5191138E-03
         388  7.4031134E-03
         389  1.7769236E-02
         390  4.3396055E-04
         391 -1.0879794E-04
         392 -4.1421615E-03
         393 -3.0468230E-04
         394 -5.5831030E-04
         395 -9.3828613E-04
         396  4.8209727E-02
         397  1.3341135E-03
         398 -2.3364248E-03
         399  2.1027129E-03
         400  2.7500992E-03
         401 -0.1065041    
