 [Molden Format]
 [Atoms] Angs
C       1      6      9.99233606     -2.82035329     -2.39013858
C       2      6      8.61778182     -2.70775168     -2.44512277
C       3      6      7.95814723     -1.77263491     -1.66151553
C       4      6      8.66340763     -0.93920078     -0.80165920
C       5      6     10.06090816     -1.04267075     -0.77501735
C       6      6     10.71386163     -1.97747549     -1.55643650
O       7      8     10.84744656     -0.22401548      0.00354349
C       8      6     10.20747426      0.71417186      0.78099650
C       9      6     11.00502391      1.52353796      1.56822634
C      10      6     10.43215980      2.47453933      2.40110200
C      11      6      9.05811529      2.59597736      2.44915889
C      12      6      8.25412261      1.78720142      1.65989389
C      13      6      8.81253052      0.84905479      0.80002656
N      14      7      8.03131017      0.01728037     -0.00444613
C      15      6      6.62374141      0.14288508     -0.01134034
C      16      6      6.02746177      1.30278981     -0.49758819
C      17      6      4.65290967      1.43225848     -0.49823383
C      18      6      3.84226352      0.40427924     -0.01640801
C      19      6      2.37780367      0.50271928     -0.00454865
C      20      6      1.71798183      1.75859445      0.02714463
C      21      6      0.35379481      1.80646089      0.03305522
C      22      6     -0.37491630      0.59549244      0.00913676
N      23      7     -1.71634307      0.61709480      0.00304687
C      24      6     -2.37934102     -0.52062549     -0.01055229
C      25      6     -3.84371959     -0.42040588     -0.02103342
C      26      6     -4.65676378     -1.44330503     -0.50958266
C      27      6     -6.03109192     -1.31058272     -0.50838056
C      28      6     -6.62463842     -0.15229787     -0.01515393
N      29      7     -8.03186870     -0.02226230     -0.00901574
C      30      6     -8.65924570      0.94461386     -0.79730186
C      31      6     -7.95039084      1.77830388     -1.65395511
C      32      6     -8.60534588      2.72404918     -2.42867284
C      33      6     -9.97875302      2.84719633     -2.36789112
C      34      6    -10.70402762      2.00427874     -1.53747315
C      35      6    -10.05578321      1.05876604     -0.76508213
O      36      8    -10.84595221      0.24057151      0.01028781
C      37      6    -10.21019909     -0.70428543      0.78316117
C      38      6    -11.01088307     -1.50914817      1.57179514
C      39      6    -10.44215034     -2.46670442      2.39998200
C      40      6     -9.06896638     -2.59953621      2.44165772
C      41      6     -8.26180916     -1.79516524      1.65110574
C      42      6     -8.81628752     -0.85007296      0.79635794
C      43      6     -5.82050974      0.87786806      0.46670502
C      44      6     -4.44840025      0.74361946      0.45835235
C      45      6     -1.71953653     -1.77679734      0.00420462
C      46      6     -0.35528513     -1.82481303      0.00874499
C      47      6      0.37369795     -0.61380537      0.00090360
N      48      7      1.71523032     -0.63526611     -0.00576843
C      49      6      4.44943173     -0.76171162      0.45475447
C      50      6      5.82195538     -0.89261513      0.46292190
H      51      1     10.51098184     -3.54809178     -2.99426283
H      52      1      8.04339818     -3.34454764     -3.10044386
H      53      1      6.88491083     -1.68559952     -1.72408737
H      54      1     11.79019449     -2.02690058     -1.50150812
H      55      1     12.07448177      1.39021395      1.51886965
H      56      1     11.06324062      3.10302521      3.00961087
H      57      1      8.59640895      3.31901421      3.10410104
H      58      1      7.18127661      1.88173235      1.71728986
H      59      1      6.64946900      2.09849045     -0.88068538
H      60      1      4.21351738      2.32871744     -0.90776386
H      61      1      2.29585920      2.66815927      0.07018860
H      62      1     -0.18823602      2.74003498      0.06077292
H      63      1     -4.21962932     -2.33822510     -0.92483167
H      64      1     -6.65488397     -2.10227105     -0.89685120
H      65      1     -6.87808418      1.68326084     -1.72086940
H      66      1     -8.02826345      3.36082026     -3.08165097
H      67      1    -10.49369959      3.58338719     -2.96489781
H      68      1    -11.77971806      2.06197486     -1.47823926
H      69      1    -12.07943993     -1.36718999      1.52725989
H      70      1    -11.07570481     -3.09147056      3.00975013
H      71      1     -8.61035706     -3.32806296      3.09267920
H      72      1     -7.18952338     -1.89858412      1.70348092
H      73      1     -6.28039668      1.77708980      0.84932532
H      74      1     -3.81706059      1.53419497      0.83222578
H      75      1     -2.29719846     -2.68697482      0.03526616
H      76      1      0.18656500     -2.75878807      0.02357241
H      77      1      3.81984046     -1.55646543      0.82271643
H      78      1      6.28385530     -1.79328314      0.83965811
 [GTO]
           1   0
s              4   1.000000
     34.91462161     -0.01198412
      6.01258675     -0.05472052
      0.48313700      0.58055871
      0.18413547      0.47700800
p              4   1.000000
      5.62740340      0.05713170
      1.45910167      0.28574555
      0.51437849      0.55178731
      0.20478294      0.26323149
s              7   1.000000
      0.38350848     -0.19625034
      0.04707223      0.94820954
      0.02222627      0.24901423
     34.91462161      0.00551867
      6.01258675      0.02519873
      0.48313700     -0.26734655
      0.18413547     -0.21966158
p              7   1.000000
      1.83062075     -0.01161262
      0.10124670      0.57066192
      0.03901771      0.59597162
      5.62740340     -0.02527987
      1.45910167     -0.12643787
      0.51437849     -0.24415712
      0.20478294     -0.11647575
 
           2   0
s              4   1.000000
     34.91902694     -0.01198412
      6.01334538     -0.05472052
      0.48319796      0.58055871
      0.18415870      0.47700800
p              4   1.000000
      5.62811344      0.05713170
      1.45928577      0.28574555
      0.51444339      0.55178731
      0.20480878      0.26323149
s              7   1.000000
      0.38350848     -0.19624621
      0.04707223      0.94818955
      0.02222627      0.24900897
     34.91902694      0.00551801
      6.01334538      0.02519570
      0.48319796     -0.26731435
      0.18415870     -0.21963512
p              7   1.000000
      1.83062075     -0.01161239
      0.10124670      0.57065062
      0.03901771      0.59595980
      5.62811344     -0.02527681
      1.45928577     -0.12642258
      0.51444339     -0.24412760
      0.20480878     -0.11646167
 
           3   0
s              4   1.000000
     35.02294049     -0.01198412
      6.03124015     -0.05472052
      0.48463588      0.58055871
      0.18470673      0.47700799
p              4   1.000000
      5.64486182      0.05713170
      1.46362838      0.28574555
      0.51597430      0.55178731
      0.20541826      0.26323149
s              7   1.000000
      0.38350848     -0.19614905
      0.04707223      0.94772013
      0.02222627      0.24888570
     35.02294049      0.00550237
      6.03124015      0.02512430
      0.48463588     -0.26655689
      0.18470673     -0.21901276
p              7   1.000000
      1.83062075     -0.01160699
      0.10124670      0.57038522
      0.03901771      0.59568264
      5.64486182     -0.02520491
      1.46362838     -0.12606297
      0.51597430     -0.24343318
      0.20541826     -0.11613040
 
           4   0
s              4   1.000000
     35.22372572     -0.01198412
      6.06581703     -0.05472052
      0.48741428      0.58055871
      0.18576565      0.47700799
p              4   1.000000
      5.67722361      0.05713170
      1.47201931      0.28574555
      0.51893236      0.55178731
      0.20659591      0.26323149
s              7   1.000000
      0.38350848     -0.19596348
      0.04707223      0.94682351
      0.02222627      0.24865022
     35.22372572      0.00547240
      6.06581703      0.02498747
      0.48741428     -0.26510516
      0.18576565     -0.21781997
p              7   1.000000
      1.83062075     -0.01159667
      0.10124670      0.56987830
      0.03901771      0.59515323
      5.67722361     -0.02506711
      1.47201931     -0.12537373
      0.51893236     -0.24210223
      0.20659591     -0.11549546
 
           5   0
s              4   1.000000
     35.21913489     -0.01198412
      6.06502645     -0.05472052
      0.48735075      0.58055871
      0.18574144      0.47700799
p              4   1.000000
      5.67648368      0.05713170
      1.47182745      0.28574555
      0.51886472      0.55178731
      0.20656899      0.26323149
s              7   1.000000
      0.38350848     -0.19596769
      0.04707223      0.94684385
      0.02222627      0.24865558
     35.21913489      0.00547308
      6.06502645      0.02499058
      0.48735075     -0.26513818
      0.18574144     -0.21784710
p              7   1.000000
      1.83062075     -0.01159691
      0.10124670      0.56988980
      0.03901771      0.59516525
      5.67648368     -0.02507024
      1.47182745     -0.12538941
      0.51886472     -0.24213250
      0.20656899     -0.11550991
 
           6   0
s              4   1.000000
     34.97193520     -0.01198412
      6.02245662     -0.05472053
      0.48393009      0.58055871
      0.18443773      0.47700799
p              4   1.000000
      5.63664099      0.05713170
      1.46149684      0.28574555
      0.51522286      0.55178731
      0.20511910      0.26323149
s              7   1.000000
      0.38350848     -0.19619664
      0.04707223      0.94795008
      0.02222627      0.24894608
     34.97193520      0.00551003
      6.02245662      0.02515930
      0.48393009     -0.26692815
      0.18443773     -0.21931781
p              7   1.000000
      1.83062075     -0.01160963
      0.10124670      0.57051523
      0.03901771      0.59581841
      5.63664099     -0.02524016
      1.46149684     -0.12623923
      0.51522286     -0.24377355
      0.20511910     -0.11629277
 
           7   0
s              4   1.000000
     78.06784775     -0.01198412
     13.44392937     -0.05472052
      1.08027709      0.58055871
      0.41172034      0.47700799
p              4   1.000000
      8.05057342      0.05713170
      2.08739347      0.28574555
      0.73587079      0.55178731
      0.29296284      0.26323149
s              7   1.000000
      0.57971233     -0.18685985
      0.07115450      0.90283812
      0.03359728      0.23709900
     78.06784775      0.00376769
     13.44392937      0.01720360
      1.08027709     -0.18252197
      0.41172034     -0.14996663
p              7   1.000000
      2.76717072     -0.01171773
      0.15304476      0.57582709
      0.05897927      0.60136585
      8.05057342     -0.02664671
      2.08739347     -0.13327414
      0.73587079     -0.25735827
      0.29296284     -0.12277340
 
           8   0
s              4   1.000000
     35.21894859     -0.01198412
      6.06499437     -0.05472052
      0.48734818      0.58055871
      0.18574045      0.47700799
p              4   1.000000
      5.67645365      0.05713170
      1.47181967      0.28574555
      0.51886198      0.55178731
      0.20656789      0.26323149
s              7   1.000000
      0.38350848     -0.19596786
      0.04707223      0.94684469
      0.02222627      0.24865580
     35.21894859      0.00547311
      6.06499437      0.02499071
      0.48734818     -0.26513952
      0.18574045     -0.21784820
p              7   1.000000
      1.83062075     -0.01159692
      0.10124670      0.56989027
      0.03901771      0.59516573
      5.67645365     -0.02507037
      1.47181967     -0.12539005
      0.51886198     -0.24213373
      0.20656789     -0.11551049
 
           9   0
s              4   1.000000
     34.97187952     -0.01198412
      6.02244703     -0.05472053
      0.48392932      0.58055871
      0.18443744      0.47700799
p              4   1.000000
      5.63663201      0.05713170
      1.46149451      0.28574555
      0.51522204      0.55178731
      0.20511877      0.26323149
s              7   1.000000
      0.38350848     -0.19619670
      0.04707223      0.94795033
      0.02222627      0.24894615
     34.97187952      0.00551004
      6.02244703      0.02515933
      0.48392932     -0.26692856
      0.18443744     -0.21931814
p              7   1.000000
      1.83062075     -0.01160964
      0.10124670      0.57051537
      0.03901771      0.59581857
      5.63663201     -0.02524019
      1.46149451     -0.12623943
      0.51522204     -0.24377392
      0.20511877     -0.11629295
 
          10   0
s              4   1.000000
     34.91464782     -0.01198412
      6.01259126     -0.05472052
      0.48313736      0.58055871
      0.18413561      0.47700800
p              4   1.000000
      5.62740763      0.05713170
      1.45910277      0.28574555
      0.51437888      0.55178731
      0.20478309      0.26323149
s              7   1.000000
      0.38350848     -0.19625032
      0.04707223      0.94820942
      0.02222627      0.24901418
     34.91464782      0.00551867
      6.01259126      0.02519871
      0.48313736     -0.26734636
      0.18413561     -0.21966142
p              7   1.000000
      1.83062075     -0.01161262
      0.10124670      0.57066185
      0.03901771      0.59597154
      5.62740763     -0.02527985
      1.45910277     -0.12643778
      0.51437888     -0.24415695
      0.20478309     -0.11647567
 
          11   0
s              4   1.000000
     34.91888759     -0.01198412
      6.01332139     -0.05472052
      0.48319603      0.58055871
      0.18415797      0.47700799
p              4   1.000000
      5.62809098      0.05713170
      1.45927995      0.28574555
      0.51444134      0.55178730
      0.20480796      0.26323149
s              7   1.000000
      0.38350848     -0.19624634
      0.04707223      0.94819019
      0.02222627      0.24900914
     34.91888759      0.00551803
      6.01332139      0.02519579
      0.48319603     -0.26731537
      0.18415797     -0.21963595
p              7   1.000000
      1.83062075     -0.01161240
      0.10124670      0.57065098
      0.03901771      0.59596017
      5.62809098     -0.02527691
      1.45927995     -0.12642306
      0.51444134     -0.24412853
      0.20480796     -0.11646212
 
          12   0
s              4   1.000000
     35.02370714     -0.01198412
      6.03137218     -0.05472052
      0.48464649      0.58055871
      0.18471077      0.47700799
p              4   1.000000
      5.64498539      0.05713170
      1.46366042      0.28574555
      0.51598559      0.55178731
      0.20542276      0.26323149
s              7   1.000000
      0.38350848     -0.19614834
      0.04707223      0.94771667
      0.02222627      0.24888478
     35.02370714      0.00550226
      6.03137218      0.02512378
      0.48464649     -0.26655131
      0.18471077     -0.21900818
p              7   1.000000
      1.83062075     -0.01160695
      0.10124670      0.57038326
      0.03901771      0.59568058
      5.64498539     -0.02520439
      1.46366042     -0.12606033
      0.51598559     -0.24342807
      0.20542276     -0.11612796
 
          13   0
s              4   1.000000
     35.22490901     -0.01198412
      6.06602080     -0.05472052
      0.48743065      0.58055871
      0.18577189      0.47700799
p              4   1.000000
      5.67741432      0.05713170
      1.47206876      0.28574555
      0.51894979      0.55178731
      0.20660285      0.26323149
s              7   1.000000
      0.38350848     -0.19596239
      0.04707223      0.94681826
      0.02222627      0.24864885
     35.22490901      0.00547223
      6.06602080      0.02498667
      0.48743065     -0.26509665
      0.18577189     -0.21781297
p              7   1.000000
      1.83062075     -0.01159661
      0.10124670      0.56987533
      0.03901771      0.59515012
      5.67741432     -0.02506630
      1.47206876     -0.12536969
      0.51894979     -0.24209443
      0.20660285     -0.11549174
 
          14   0
s              4   1.000000
     61.14907127     -0.01198412
     10.53037606     -0.05472052
      0.84616065      0.58055871
      0.32249277      0.47700799
p              4   1.000000
      7.20776186      0.05713170
      1.86886502      0.28574555
      0.65883275      0.55178731
      0.26229267      0.26323149
s              7   1.000000
      0.47894987     -0.18779873
      0.05878681      0.90737448
      0.02775758      0.23829031
     61.14907127      0.00397308
     10.53037606      0.01814142
      0.84616065     -0.19247186
      0.32249277     -0.15814183
p              7   1.000000
      2.28619608     -0.01156751
      0.12644335      0.56844524
      0.04872781      0.59365662
      7.20776186     -0.02467404
      1.86886502     -0.12340780
      0.65883275     -0.23830593
      0.26229267     -0.11368443
 
          15   0
s              4   1.000000
     35.19404483     -0.01198412
      6.06070574     -0.05472052
      0.48700357      0.58055871
      0.18560911      0.47700800
p              4   1.000000
      5.67243976      0.05713170
      1.47077893      0.28574555
      0.51849508      0.55178731
      0.20642183      0.26323149
s              7   1.000000
      0.38350848     -0.19599073
      0.04707223      0.94695519
      0.02222627      0.24868481
     35.19404483      0.00547681
      6.06070574      0.02500761
      0.48700357     -0.26531878
      0.18560911     -0.21799549
p              7   1.000000
      1.83062075     -0.01159819
      0.10124670      0.56995275
      0.03901771      0.59523099
      5.67243976     -0.02508739
      1.47077893     -0.12547516
      0.51849508     -0.24229808
      0.20642183     -0.11558889
 
          16   0
s              4   1.000000
     35.00608457     -0.01198412
      6.02833743     -0.05472052
      0.48440263      0.58055871
      0.18461783      0.47700799
p              4   1.000000
      5.64214505      0.05713170
      1.46292396      0.28574555
      0.51572597      0.55178731
      0.20531939      0.26323149
s              7   1.000000
      0.38350848     -0.19616476
      0.04707223      0.94779602
      0.02222627      0.24890562
     35.00608457      0.00550490
      6.02833743      0.02513586
      0.48440263     -0.26667947
      0.18461783     -0.21911348
p              7   1.000000
      1.83062075     -0.01160786
      0.10124670      0.57042813
      0.03901771      0.59572743
      5.64214505     -0.02521655
      1.46292396     -0.12612117
      0.51572597     -0.24354556
      0.20531939     -0.11618401
 
          17   0
s              4   1.000000
     35.00268204     -0.01198412
      6.02775148     -0.05472053
      0.48435555      0.58055871
      0.18459989      0.47700800
p              4   1.000000
      5.64159664      0.05713170
      1.46278177      0.28574555
      0.51567584      0.55178731
      0.20529944      0.26323149
s              7   1.000000
      0.38350848     -0.19616793
      0.04707223      0.94781135
      0.02222627      0.24890966
     35.00268204      0.00550541
      6.02775148      0.02513819
      0.48435555     -0.26670423
      0.18459989     -0.21913382
p              7   1.000000
      1.83062075     -0.01160804
      0.10124670      0.57043680
      0.03901771      0.59573649
      5.64159664     -0.02521890
      1.46278177     -0.12613292
      0.51567584     -0.24356826
      0.20529944     -0.11619484
 
          18   0
s              4   1.000000
     35.10577611     -0.01198412
      6.04550513     -0.05472052
      0.48578213      0.58055871
      0.18514359      0.47700799
p              4   1.000000
      5.65821295      0.05713170
      1.46709013      0.28574555
      0.51719467      0.55178731
      0.20590411      0.26323149
s              7   1.000000
      0.38350848     -0.19607215
      0.04707223      0.94734857
      0.02222627      0.24878811
     35.10577611      0.00548997
      6.04550513      0.02506767
      0.48578213     -0.26595608
      0.18514359     -0.21851912
p              7   1.000000
      1.83062075     -0.01160271
      0.10124670      0.57017515
      0.03901771      0.59546325
      5.65821295     -0.02514788
      1.46709013     -0.12577773
      0.51719467     -0.24288237
      0.20590411     -0.11586763
 
          19   0
s              4   1.000000
     35.20366211     -0.01198412
      6.06236191     -0.05472052
      0.48713665      0.58055871
      0.18565983      0.47700799
p              4   1.000000
      5.67398983      0.05713170
      1.47118084      0.28574555
      0.51863677      0.55178731
      0.20647824      0.26323149
s              7   1.000000
      0.38350848     -0.19598189
      0.04707223      0.94691250
      0.02222627      0.24867359
     35.20366211      0.00547538
      6.06236191      0.02500108
      0.48713665     -0.26524953
      0.18565983     -0.21793859
p              7   1.000000
      1.83062075     -0.01159770
      0.10124670      0.56992860
      0.03901771      0.59520579
      5.67398983     -0.02508081
      1.47118084     -0.12544228
      0.51863677     -0.24223459
      0.20647824     -0.11555861
 
          20   0
s              4   1.000000
     34.97262406     -0.01198412
      6.02257525     -0.05472053
      0.48393962      0.58055871
      0.18444137      0.47700799
p              4   1.000000
      5.63675201      0.05713170
      1.46152563      0.28574555
      0.51523301      0.55178731
      0.20512314      0.26323149
s              7   1.000000
      0.38350848     -0.19619600
      0.04707223      0.94794697
      0.02222627      0.24894527
     34.97262406      0.00550993
      6.02257525      0.02515882
      0.48393962     -0.26692313
      0.18444137     -0.21931368
p              7   1.000000
      1.83062075     -0.01160960
      0.10124670      0.57051346
      0.03901771      0.59581659
      5.63675201     -0.02523968
      1.46152563     -0.12623685
      0.51523301     -0.24376895
      0.20512314     -0.11629058
 
          21   0
s              4   1.000000
     34.99377967     -0.01198412
      6.02621842     -0.05472052
      0.48423236      0.58055871
      0.18455294      0.47700799
p              4   1.000000
      5.64016179      0.05713170
      1.46240973      0.28574555
      0.51554468      0.55178731
      0.20524722      0.26323149
s              7   1.000000
      0.38350848     -0.19617624
      0.04707223      0.94785149
      0.02222627      0.24892019
     34.99377967      0.00550675
      6.02621842      0.02514430
      0.48423236     -0.26676903
      0.18455294     -0.21918706
p              7   1.000000
      1.83062075     -0.01160850
      0.10124670      0.57045949
      0.03901771      0.59576019
      5.64016179     -0.02522505
      1.46240973     -0.12616369
      0.51554468     -0.24362767
      0.20524722     -0.11622317
 
          22   0
s              4   1.000000
     35.27708716     -0.01198412
      6.07500631     -0.05472053
      0.48815268      0.58055871
      0.18604707      0.47700799
p              4   1.000000
      5.68582420      0.05713170
      1.47424931      0.28574555
      0.51971850      0.55178731
      0.20690889      0.26323149
s              7   1.000000
      0.38350848     -0.19591463
      0.04707223      0.94658750
      0.02222627      0.24858826
     35.27708716      0.00546449
      6.07500631      0.02495135
      0.48815268     -0.26472195
      0.18604707     -0.21750511
p              7   1.000000
      1.83062075     -0.01159396
      0.10124670      0.56974487
      0.03901771      0.59501390
      5.68582420     -0.02503073
      1.47424931     -0.12519179
      0.51971850     -0.24175088
      0.20690889     -0.11532785
 
          23   0
s              4   1.000000
     57.32335628     -0.01198412
      9.87155628     -0.05472052
      0.79322167      0.58055871
      0.30231641      0.47700799
p              4   1.000000
      6.75681728      0.05713170
      1.75194182      0.28574555
      0.61761371      0.55178731
      0.24588266      0.26323149
s              7   1.000000
      0.47894987     -0.18905994
      0.05878681      0.91346813
      0.02775758      0.23989060
     57.32335628      0.00423480
      9.87155628      0.01933649
      0.79322167     -0.20515091
      0.30231641     -0.16855939
p              7   1.000000
      2.28619608     -0.01168669
      0.12644335      0.57430200
      0.04872781      0.59977313
      6.75681728     -0.02624927
      1.75194182     -0.13128634
      0.61761371     -0.25351973
      0.24588266     -0.12094221
 
          24   0
s              4   1.000000
     35.20332814     -0.01198412
      6.06230440     -0.05472052
      0.48713203      0.58055871
      0.18565807      0.47700800
p              4   1.000000
      5.67393600      0.05713170
      1.47116688      0.28574555
      0.51863185      0.55178731
      0.20647628      0.26323149
s              7   1.000000
      0.38350848     -0.19598220
      0.04707223      0.94691397
      0.02222627      0.24867398
     35.20332814      0.00547543
      6.06230440      0.02500130
      0.48713203     -0.26525193
      0.18565807     -0.21794056
p              7   1.000000
      1.83062075     -0.01159771
      0.10124670      0.56992944
      0.03901771      0.59520664
      5.67393600     -0.02508104
      1.47116688     -0.12544342
      0.51863185     -0.24223679
      0.20647628     -0.11555965
 
          25   0
s              4   1.000000
     35.10565298     -0.01198412
      6.04548393     -0.05472052
      0.48578043      0.58055871
      0.18514295      0.47700799
p              4   1.000000
      5.65819310      0.05713170
      1.46708498      0.28574555
      0.51719285      0.55178731
      0.20590339      0.26323149
s              7   1.000000
      0.38350848     -0.19607226
      0.04707223      0.94734912
      0.02222627      0.24878825
     35.10565298      0.00548999
      6.04548393      0.02506776
      0.48578043     -0.26595697
      0.18514295     -0.21851985
p              7   1.000000
      1.83062075     -0.01160272
      0.10124670      0.57017546
      0.03901771      0.59546357
      5.65819310     -0.02514797
      1.46708498     -0.12577815
      0.51719285     -0.24288319
      0.20590339     -0.11586802
 
          26   0
s              4   1.000000
     35.00240370     -0.01198412
      6.02770355     -0.05472052
      0.48435170      0.58055871
      0.18459842      0.47700800
p              4   1.000000
      5.64155178      0.05713170
      1.46277013      0.28574555
      0.51567174      0.55178731
      0.20529780      0.26323149
s              7   1.000000
      0.38350848     -0.19616819
      0.04707223      0.94781261
      0.02222627      0.24890998
     35.00240370      0.00550545
      6.02770355      0.02513838
      0.48435170     -0.26670625
      0.18459842     -0.21913549
p              7   1.000000
      1.83062075     -0.01160805
      0.10124670      0.57043750
      0.03901771      0.59573726
      5.64155178     -0.02521909
      1.46277013     -0.12613389
      0.51567174     -0.24357012
      0.20529780     -0.11619572
 
          27   0
s              4   1.000000
     35.00571734     -0.01198412
      6.02827419     -0.05472052
      0.48439755      0.58055871
      0.18461590      0.47700800
p              4   1.000000
      5.64208586      0.05713170
      1.46290861      0.28574555
      0.51572056      0.55178731
      0.20531724      0.26323149
s              7   1.000000
      0.38350848     -0.19616510
      0.04707223      0.94779767
      0.02222627      0.24890606
     35.00571734      0.00550496
      6.02827419      0.02513611
      0.48439755     -0.26668214
      0.18461590     -0.21911567
p              7   1.000000
      1.83062075     -0.01160788
      0.10124670      0.57042906
      0.03901771      0.59572844
      5.64208586     -0.02521680
      1.46290861     -0.12612244
      0.51572056     -0.24354801
      0.20531724     -0.11618518
 
          28   0
s              4   1.000000
     35.19412715     -0.01198412
      6.06071991     -0.05472052
      0.48700470      0.58055871
      0.18560955      0.47700799
p              4   1.000000
      5.67245302      0.05713170
      1.47078237      0.28574555
      0.51849630      0.55178731
      0.20642231      0.26323149
s              7   1.000000
      0.38350848     -0.19599066
      0.04707223      0.94695483
      0.02222627      0.24868471
     35.19412715      0.00547680
      6.06071991      0.02500755
      0.48700470     -0.26531819
      0.18560955     -0.21799500
p              7   1.000000
      1.83062075     -0.01159818
      0.10124670      0.56995254
      0.03901771      0.59523079
      5.67245302     -0.02508733
      1.47078237     -0.12547488
      0.51849630     -0.24229754
      0.20642231     -0.11558864
 
          29   0
s              4   1.000000
     61.14924417     -0.01198412
     10.53040584     -0.05472053
      0.84616304      0.58055871
      0.32249368      0.47700799
p              4   1.000000
      7.20778224      0.05713170
      1.86887030      0.28574555
      0.65883461      0.55178731
      0.26229341      0.26323149
s              7   1.000000
      0.47894987     -0.18779868
      0.05878681      0.90737422
      0.02775758      0.23829025
     61.14924417      0.00397307
     10.53040584      0.01814137
      0.84616304     -0.19247132
      0.32249368     -0.15814138
p              7   1.000000
      2.28619608     -0.01156751
      0.12644335      0.56844500
      0.04872781      0.59365634
      7.20778224     -0.02467398
      1.86887030     -0.12340747
      0.65883461     -0.23830528
      0.26229341     -0.11368412
 
          30   0
s              4   1.000000
     35.22401970     -0.01198412
      6.06586766     -0.05472052
      0.48741835      0.58055871
      0.18576720      0.47700800
p              4   1.000000
      5.67727099      0.05713170
      1.47203159      0.28574555
      0.51893669      0.55178731
      0.20659764      0.26323149
s              7   1.000000
      0.38350848     -0.19596321
      0.04707223      0.94682221
      0.02222627      0.24864988
     35.22401970      0.00547236
      6.06586766      0.02498727
      0.48741835     -0.26510305
      0.18576720     -0.21781823
p              7   1.000000
      1.83062075     -0.01159666
      0.10124670      0.56987756
      0.03901771      0.59515246
      5.67727099     -0.02506691
      1.47203159     -0.12537273
      0.51893669     -0.24210029
      0.20659764     -0.11549454
 
          31   0
s              4   1.000000
     35.02301258     -0.01198412
      6.03125257     -0.05472052
      0.48463688      0.58055871
      0.18470711      0.47700800
p              4   1.000000
      5.64487344      0.05713170
      1.46363139      0.28574555
      0.51597536      0.55178730
      0.20541868      0.26323149
s              7   1.000000
      0.38350848     -0.19614898
      0.04707223      0.94771980
      0.02222627      0.24888560
     35.02301258      0.00550236
      6.03125257      0.02512425
      0.48463688     -0.26655636
      0.18470711     -0.21901233
p              7   1.000000
      1.83062075     -0.01160699
      0.10124670      0.57038503
      0.03901771      0.59568244
      5.64487344     -0.02520487
      1.46363139     -0.12606272
      0.51597536     -0.24343270
      0.20541868     -0.11613017
 
          32   0
s              4   1.000000
     34.91902308     -0.01198412
      6.01334472     -0.05472052
      0.48319791      0.58055871
      0.18415868      0.47700799
p              4   1.000000
      5.62811282      0.05713170
      1.45928561      0.28574555
      0.51444334      0.55178730
      0.20480876      0.26323149
s              7   1.000000
      0.38350848     -0.19624621
      0.04707223      0.94818958
      0.02222627      0.24900897
     34.91902308      0.00551801
      6.01334472      0.02519570
      0.48319791     -0.26731438
      0.18415868     -0.21963514
p              7   1.000000
      1.83062075     -0.01161239
      0.10124670      0.57065063
      0.03901771      0.59595980
      5.62811282     -0.02527682
      1.45928561     -0.12642259
      0.51444334     -0.24412762
      0.20480876     -0.11646168
 
          33   0
s              4   1.000000
     34.91464325     -0.01198412
      6.01259047     -0.05472053
      0.48313730      0.58055871
      0.18413558      0.47700799
p              4   1.000000
      5.62740689      0.05713170
      1.45910258      0.28574555
      0.51437881      0.55178731
      0.20478307      0.26323149
s              7   1.000000
      0.38350848     -0.19625032
      0.04707223      0.94820945
      0.02222627      0.24901421
     34.91464325      0.00551867
      6.01259047      0.02519872
      0.48313730     -0.26734639
      0.18413558     -0.21966145
p              7   1.000000
      1.83062075     -0.01161262
      0.10124670      0.57066186
      0.03901771      0.59597154
      5.62740689     -0.02527986
      1.45910258     -0.12643779
      0.51437881     -0.24415698
      0.20478307     -0.11647568
 
          34   0
s              4   1.000000
     34.97190691     -0.01198412
      6.02245175     -0.05472053
      0.48392969      0.58055871
      0.18443758      0.47700799
p              4   1.000000
      5.63663643      0.05713170
      1.46149566      0.28574555
      0.51522245      0.55178731
      0.20511893      0.26323149
s              7   1.000000
      0.38350848     -0.19619667
      0.04707223      0.94795020
      0.02222627      0.24894613
     34.97190691      0.00551004
      6.02245175      0.02515932
      0.48392969     -0.26692836
      0.18443758     -0.21931798
p              7   1.000000
      1.83062075     -0.01160964
      0.10124670      0.57051529
      0.03901771      0.59581849
      5.63663643     -0.02524018
      1.46149566     -0.12623933
      0.51522245     -0.24377374
      0.20511893     -0.11629286
 
          35   0
s              4   1.000000
     35.21909650     -0.01198412
      6.06501984     -0.05472052
      0.48735022      0.58055871
      0.18574123      0.47700799
p              4   1.000000
      5.67647749      0.05713170
      1.47182585      0.28574555
      0.51886416      0.55178731
      0.20656876      0.26323149
s              7   1.000000
      0.38350848     -0.19596773
      0.04707223      0.94684402
      0.02222627      0.24865560
     35.21909650      0.00547309
      6.06501984      0.02499061
      0.48735022     -0.26513845
      0.18574123     -0.21784732
p              7   1.000000
      1.83062075     -0.01159691
      0.10124670      0.56988990
      0.03901771      0.59516533
      5.67647749     -0.02507027
      1.47182585     -0.12538954
      0.51886416     -0.24213275
      0.20656876     -0.11551003
 
          36   0
s              4   1.000000
     78.06778511     -0.01198412
     13.44391858     -0.05472053
      1.08027622      0.58055871
      0.41172001      0.47700799
p              4   1.000000
      8.05056696      0.05713170
      2.08739180      0.28574555
      0.73587020      0.55178731
      0.29296261      0.26323149
s              7   1.000000
      0.57971233     -0.18685986
      0.07115450      0.90283820
      0.03359728      0.23709901
     78.06778511      0.00376769
     13.44391858      0.01720361
      1.08027622     -0.18252211
      0.41172001     -0.14996675
p              7   1.000000
      2.76717072     -0.01171773
      0.15304476      0.57582717
      0.05897927      0.60136594
      8.05056696     -0.02664673
      2.08739180     -0.13327425
      0.73587020     -0.25735847
      0.29296261     -0.12277349
 
          37   0
s              4   1.000000
     35.21896588     -0.01198412
      6.06499735     -0.05472053
      0.48734841      0.58055871
      0.18574054      0.47700799
p              4   1.000000
      5.67645643      0.05713170
      1.47182039      0.28574555
      0.51886223      0.55178731
      0.20656800      0.26323149
s              7   1.000000
      0.38350848     -0.19596784
      0.04707223      0.94684460
      0.02222627      0.24865578
     35.21896588      0.00547311
      6.06499735      0.02499070
      0.48734841     -0.26513939
      0.18574054     -0.21784810
p              7   1.000000
      1.83062075     -0.01159692
      0.10124670      0.56989023
      0.03901771      0.59516569
      5.67645643     -0.02507036
      1.47182039     -0.12538999
      0.51886223     -0.24213362
      0.20656800     -0.11551044
 
          38   0
s              4   1.000000
     34.97189390     -0.01198412
      6.02244951     -0.05472052
      0.48392951      0.58055871
      0.18443752      0.47700799
p              4   1.000000
      5.63663433      0.05713170
      1.46149511      0.28574555
      0.51522225      0.55178731
      0.20511886      0.26323149
s              7   1.000000
      0.38350848     -0.19619668
      0.04707223      0.94795027
      0.02222627      0.24894613
     34.97189390      0.00551004
      6.02244951      0.02515932
      0.48392951     -0.26692846
      0.18443752     -0.21931805
p              7   1.000000
      1.83062075     -0.01160964
      0.10124670      0.57051533
      0.03901771      0.59581853
      5.63663433     -0.02524018
      1.46149511     -0.12623938
      0.51522225     -0.24377383
      0.20511886     -0.11629290
 
          39   0
s              4   1.000000
     34.91466663     -0.01198412
      6.01259450     -0.05472053
      0.48313762      0.58055871
      0.18413571      0.47700799
p              4   1.000000
      5.62741066      0.05713170
      1.45910355      0.28574555
      0.51437915      0.55178731
      0.20478320      0.26323149
s              7   1.000000
      0.38350848     -0.19625030
      0.04707223      0.94820934
      0.02222627      0.24901416
     34.91466663      0.00551866
      6.01259450      0.02519870
      0.48313762     -0.26734622
      0.18413571     -0.21966131
p              7   1.000000
      1.83062075     -0.01161262
      0.10124670      0.57066180
      0.03901771      0.59597150
      5.62741066     -0.02527984
      1.45910355     -0.12643771
      0.51437915     -0.24415682
      0.20478320     -0.11647561
 
          40   0
s              4   1.000000
     34.91890521     -0.01198412
      6.01332442     -0.05472052
      0.48319628      0.58055871
      0.18415806      0.47700799
p              4   1.000000
      5.62809382      0.05713170
      1.45928069      0.28574555
      0.51444160      0.55178731
      0.20480807      0.26323149
s              7   1.000000
      0.38350848     -0.19624632
      0.04707223      0.94819011
      0.02222627      0.24900911
     34.91890521      0.00551802
      6.01332442      0.02519578
      0.48319628     -0.26731524
      0.18415806     -0.21963585
p              7   1.000000
      1.83062075     -0.01161240
      0.10124670      0.57065093
      0.03901771      0.59596013
      5.62809382     -0.02527690
      1.45928069     -0.12642300
      0.51444160     -0.24412841
      0.20480807     -0.11646206
 
          41   0
s              4   1.000000
     35.02359844     -0.01198412
      6.03135346     -0.05472052
      0.48464498      0.58055871
      0.18471020      0.47700799
p              4   1.000000
      5.64496787      0.05713170
      1.46365587      0.28574555
      0.51598399      0.55178730
      0.20542212      0.26323149
s              7   1.000000
      0.38350848     -0.19614844
      0.04707223      0.94771717
      0.02222627      0.24888492
     35.02359844      0.00550227
      6.03135346      0.02512385
      0.48464498     -0.26655210
      0.18471020     -0.21900883
p              7   1.000000
      1.83062075     -0.01160695
      0.10124670      0.57038355
      0.03901771      0.59568090
      5.64496787     -0.02520446
      1.46365587     -0.12606070
      0.51598399     -0.24342880
      0.20542212     -0.11612831
 
          42   0
s              4   1.000000
     35.22477754     -0.01198412
      6.06599816     -0.05472052
      0.48742884      0.58055871
      0.18577119      0.47700799
p              4   1.000000
      5.67739313      0.05713170
      1.47206326      0.28574555
      0.51894785      0.55178731
      0.20660208      0.26323149
s              7   1.000000
      0.38350848     -0.19596251
      0.04707223      0.94681885
      0.02222627      0.24864900
     35.22477754      0.00547225
      6.06599816      0.02498676
      0.48742884     -0.26509759
      0.18577119     -0.21781375
p              7   1.000000
      1.83062075     -0.01159662
      0.10124670      0.56987566
      0.03901771      0.59515048
      5.67739313     -0.02506639
      1.47206326     -0.12537014
      0.51894785     -0.24209529
      0.20660208     -0.11549216
 
          43   0
s              4   1.000000
     35.00098860     -0.01198412
      6.02745986     -0.05472053
      0.48433212      0.58055871
      0.18459096      0.47700800
p              4   1.000000
      5.64132370      0.05713170
      1.46271100      0.28574555
      0.51565089      0.55178731
      0.20528951      0.26323149
s              7   1.000000
      0.38350848     -0.19616951
      0.04707223      0.94781899
      0.02222627      0.24891166
     35.00098860      0.00550567
      6.02745986      0.02513935
      0.48433212     -0.26671655
      0.18459096     -0.21914394
p              7   1.000000
      1.83062075     -0.01160813
      0.10124670      0.57044111
      0.03901771      0.59574102
      5.64132370     -0.02522007
      1.46271100     -0.12613877
      0.51565089     -0.24357956
      0.20528951     -0.11620023
 
          44   0
s              4   1.000000
     35.03031778     -0.01198412
      6.03251059     -0.05472053
      0.48473796      0.58055871
      0.18474564      0.47700800
p              4   1.000000
      5.64605087      0.05713170
      1.46393668      0.28574555
      0.51608298      0.55178731
      0.20546153      0.26323149
s              7   1.000000
      0.38350848     -0.19614218
      0.04707223      0.94768695
      0.02222627      0.24887698
     35.03031778      0.00550126
      6.03251059      0.02511925
      0.48473796     -0.26650327
      0.18474564     -0.21896871
p              7   1.000000
      1.83062075     -0.01160661
      0.10124670      0.57036645
      0.03901771      0.59566302
      5.64605087     -0.02519983
      1.46393668     -0.12603752
      0.51608298     -0.24338403
      0.20546153     -0.11610695
 
          45   0
s              4   1.000000
     34.97226683     -0.01198412
      6.02251373     -0.05472052
      0.48393467      0.58055871
      0.18443948      0.47700799
p              4   1.000000
      5.63669444      0.05713170
      1.46151070      0.28574555
      0.51522775      0.55178731
      0.20512104      0.26323149
s              7   1.000000
      0.38350848     -0.19619634
      0.04707223      0.94794858
      0.02222627      0.24894569
     34.97226683      0.00550998
      6.02251373      0.02515907
      0.48393467     -0.26692574
      0.18443948     -0.21931582
p              7   1.000000
      1.83062075     -0.01160962
      0.10124670      0.57051438
      0.03901771      0.59581752
      5.63669444     -0.02523993
      1.46151070     -0.12623809
      0.51522775     -0.24377134
      0.20512104     -0.11629171
 
          46   0
s              4   1.000000
     34.99371595     -0.01198412
      6.02620745     -0.05472053
      0.48423148      0.58055871
      0.18455260      0.47700799
p              4   1.000000
      5.64015152      0.05713170
      1.46240707      0.28574555
      0.51554375      0.55178731
      0.20524685      0.26323149
s              7   1.000000
      0.38350848     -0.19617630
      0.04707223      0.94785178
      0.02222627      0.24892027
     34.99371595      0.00550676
      6.02620745      0.02514434
      0.48423148     -0.26676949
      0.18455260     -0.21918744
p              7   1.000000
      1.83062075     -0.01160850
      0.10124670      0.57045965
      0.03901771      0.59576036
      5.64015152     -0.02522510
      1.46240707     -0.12616391
      0.51554375     -0.24362809
      0.20524685     -0.11622338
 
          47   0
s              4   1.000000
     35.27702983     -0.01198412
      6.07499644     -0.05472053
      0.48815189      0.58055871
      0.18604677      0.47700800
p              4   1.000000
      5.68581496      0.05713170
      1.47424691      0.28574555
      0.51971766      0.55178731
      0.20690855      0.26323149
s              7   1.000000
      0.38350848     -0.19591468
      0.04707223      0.94658775
      0.02222627      0.24858831
     35.27702983      0.00546450
      6.07499644      0.02495139
      0.48815189     -0.26472236
      0.18604677     -0.21750544
p              7   1.000000
      1.83062075     -0.01159396
      0.10124670      0.56974501
      0.03901771      0.59501402
      5.68581496     -0.02503077
      1.47424691     -0.12519198
      0.51971766     -0.24175126
      0.20690855     -0.11532803
 
          48   0
s              4   1.000000
     57.32189528     -0.01198412
      9.87130469     -0.05472052
      0.79320145      0.58055871
      0.30230871      0.47700799
p              4   1.000000
      6.75664506      0.05713170
      1.75189717      0.28574555
      0.61759797      0.55178731
      0.24587639      0.26323149
s              7   1.000000
      0.47894987     -0.18906046
      0.05878681      0.91347067
      0.02775758      0.23989128
     57.32189528      0.00423491
      9.87130469      0.01933697
      0.79320145     -0.20515605
      0.30230871     -0.16856362
p              7   1.000000
      2.28619608     -0.01168674
      0.12644335      0.57430443
      0.04872781      0.59977567
      6.75664506     -0.02624991
      1.75189717     -0.13128953
      0.61759797     -0.25352590
      0.24587639     -0.12094515
 
          49   0
s              4   1.000000
     35.02980514     -0.01198412
      6.03242230     -0.05472052
      0.48473087      0.58055871
      0.18474293      0.47700799
p              4   1.000000
      5.64596824      0.05713170
      1.46391526      0.28574555
      0.51607543      0.55178730
      0.20545852      0.26323149
s              7   1.000000
      0.38350848     -0.19614266
      0.04707223      0.94768925
      0.02222627      0.24887759
     35.02980514      0.00550134
      6.03242230      0.02511960
      0.48473087     -0.26650700
      0.18474293     -0.21897177
p              7   1.000000
      1.83062075     -0.01160663
      0.10124670      0.57036776
      0.03901771      0.59566439
      5.64596824     -0.02520018
      1.46391526     -0.12603929
      0.51607543     -0.24338744
      0.20545852     -0.11610858
 
          50   0
s              4   1.000000
     35.00080183     -0.01198412
      6.02742769     -0.05472052
      0.48432953      0.58055871
      0.18458997      0.47700799
p              4   1.000000
      5.64129360      0.05713170
      1.46270319      0.28574555
      0.51564814      0.55178731
      0.20528841      0.26323149
s              7   1.000000
      0.38350848     -0.19616969
      0.04707223      0.94781983
      0.02222627      0.24891188
     35.00080183      0.00550569
      6.02742769      0.02513948
      0.48432953     -0.26671791
      0.18458997     -0.21914506
p              7   1.000000
      1.83062075     -0.01160814
      0.10124670      0.57044159
      0.03901771      0.59574150
      5.64129360     -0.02522020
      1.46270319     -0.12613942
      0.51564814     -0.24358081
      0.20528841     -0.11620082
 
          51   0
s              4   1.000000
      8.30888313      0.05675242
      1.52042324      0.26014135
      0.42239023      0.53284611
      0.14018752      0.29162544
s              7   1.000000
      0.92936822     -0.06732851
      0.05643440      0.66945622
      0.02166600      0.51461527
      8.30888313     -0.02902288
      1.52042324     -0.13303490
      0.42239023     -0.27249465
      0.14018752     -0.14913569
p              4   1.000000
      0.64737396      0.05713170
      0.16785440      0.28574555
      0.05917387      0.55178731
      0.02355814      0.26323150
 
          52   0
s              4   1.000000
      8.30899702      0.05675242
      1.52044409      0.26014135
      0.42239602      0.53284611
      0.14018944      0.29162544
s              7   1.000000
      0.92936822     -0.06732836
      0.05643440      0.66945476
      0.02166600      0.51461415
      8.30899702     -0.02902258
      1.52044409     -0.13303350
      0.42239602     -0.27249179
      0.14018944     -0.14913412
p              4   1.000000
      0.64737396      0.05713170
      0.16785440      0.28574555
      0.05917387      0.55178731
      0.02355814      0.26323150
 
          53   0
s              4   1.000000
      8.31038000      0.05675242
      1.52069715      0.26014135
      0.42246632      0.53284611
      0.14021277      0.29162544
s              7   1.000000
      0.92936822     -0.06732658
      0.05643440      0.66943707
      0.02166600      0.51460056
      8.31038000     -0.02901888
      1.52069715     -0.13301654
      0.42246632     -0.27245706
      0.14021277     -0.14911511
p              4   1.000000
      0.64737396      0.05713170
      0.16785440      0.28574555
      0.05917387      0.55178731
      0.02355814      0.26323150
 
          54   0
s              4   1.000000
      8.30919710      0.05675242
      1.52048070      0.26014135
      0.42240619      0.53284611
      0.14019282      0.29162544
s              7   1.000000
      0.92936822     -0.06732810
      0.05643440      0.66945220
      0.02166600      0.51461219
      8.30919710     -0.02902204
      1.52048070     -0.13303105
      0.42240619     -0.27248676
      0.14019282     -0.14913137
p              4   1.000000
      0.64737396      0.05713170
      0.16785440      0.28574555
      0.05917387      0.55178731
      0.02355814      0.26323150
 
          55   0
s              4   1.000000
      8.30919619      0.05675242
      1.52048053      0.26014135
      0.42240614      0.53284611
      0.14019280      0.29162544
s              7   1.000000
      0.92936822     -0.06732810
      0.05643440      0.66945221
      0.02166600      0.51461219
      8.30919619     -0.02902205
      1.52048053     -0.13303106
      0.42240614     -0.27248678
      0.14019280     -0.14913139
p              4   1.000000
      0.64737396      0.05713170
      0.16785440      0.28574555
      0.05917387      0.55178731
      0.02355814      0.26323150
 
          56   0
s              4   1.000000
      8.30888278      0.05675242
      1.52042318      0.26014135
      0.42239021      0.53284611
      0.14018751      0.29162544
s              7   1.000000
      0.92936822     -0.06732851
      0.05643440      0.66945622
      0.02166600      0.51461527
      8.30888278     -0.02902288
      1.52042318     -0.13303490
      0.42239021     -0.27249466
      0.14018751     -0.14913569
p              4   1.000000
      0.64737396      0.05713170
      0.16785440      0.28574555
      0.05917387      0.55178731
      0.02355814      0.26323150
 
          57   0
s              4   1.000000
      8.30899443      0.05675242
      1.52044361      0.26014135
      0.42239588      0.53284611
      0.14018940      0.29162543
s              7   1.000000
      0.92936822     -0.06732836
      0.05643440      0.66945479
      0.02166600      0.51461417
      8.30899443     -0.02902259
      1.52044361     -0.13303353
      0.42239588     -0.27249185
      0.14018940     -0.14913416
p              4   1.000000
      0.64737396      0.05713170
      0.16785440      0.28574555
      0.05917387      0.55178731
      0.02355814      0.26323150
 
          58   0
s              4   1.000000
      8.31038885      0.05675242
      1.52069877      0.26014135
      0.42246677      0.53284611
      0.14021292      0.29162544
s              7   1.000000
      0.92936822     -0.06732657
      0.05643440      0.66943696
      0.02166600      0.51460046
      8.31038885     -0.02901886
      1.52069877     -0.13301643
      0.42246677     -0.27245683
      0.14021292     -0.14911499
p              4   1.000000
      0.64737396      0.05713170
      0.16785440      0.28574555
      0.05917387      0.55178731
      0.02355814      0.26323150
 
          59   0
s              4   1.000000
      8.30941680      0.05675242
      1.52052090      0.26014135
      0.42241735      0.53284611
      0.14019652      0.29162544
s              7   1.000000
      0.92936822     -0.06732782
      0.05643440      0.66944938
      0.02166600      0.51461002
      8.30941680     -0.02902146
      1.52052090     -0.13302835
      0.42241735     -0.27248124
      0.14019652     -0.14912835
p              4   1.000000
      0.64737396      0.05713170
      0.16785440      0.28574555
      0.05917387      0.55178731
      0.02355814      0.26323150
 
          60   0
s              4   1.000000
      8.30955350      0.05675242
      1.52054591      0.26014135
      0.42242430      0.53284611
      0.14019883      0.29162544
s              7   1.000000
      0.92936822     -0.06732765
      0.05643440      0.66944764
      0.02166600      0.51460868
      8.30955350     -0.02902109
      1.52054591     -0.13302668
      0.42242430     -0.27247781
      0.14019883     -0.14912647
p              4   1.000000
      0.64737396      0.05713170
      0.16785440      0.28574555
      0.05917387      0.55178731
      0.02355814      0.26323150
 
          61   0
s              4   1.000000
      8.30938130      0.05675242
      1.52051440      0.26014135
      0.42241555      0.53284611
      0.14019592      0.29162544
s              7   1.000000
      0.92936822     -0.06732787
      0.05643440      0.66944984
      0.02166600      0.51461037
      8.30938130     -0.02902155
      1.52051440     -0.13302879
      0.42241555     -0.27248213
      0.14019592     -0.14912884
p              4   1.000000
      0.64737396      0.05713170
      0.16785440      0.28574555
      0.05917387      0.55178731
      0.02355814      0.26323150
 
          62   0
s              4   1.000000
      8.30892689      0.05675242
      1.52043125      0.26014135
      0.42239245      0.53284611
      0.14018826      0.29162544
s              7   1.000000
      0.92936822     -0.06732845
      0.05643440      0.66945566
      0.02166600      0.51461484
      8.30892689     -0.02902277
      1.52043125     -0.13303436
      0.42239245     -0.27249355
      0.14018826     -0.14913509
p              4   1.000000
      0.64737396      0.05713170
      0.16785440      0.28574555
      0.05917387      0.55178731
      0.02355814      0.26323150
 
          63   0
s              4   1.000000
      8.30955270      0.05675242
      1.52054577      0.26014135
      0.42242426      0.53284611
      0.14019882      0.29162544
s              7   1.000000
      0.92936822     -0.06732765
      0.05643440      0.66944765
      0.02166600      0.51460868
      8.30955270     -0.02902109
      1.52054577     -0.13302668
      0.42242426     -0.27247783
      0.14019882     -0.14912648
p              4   1.000000
      0.64737396      0.05713170
      0.16785440      0.28574555
      0.05917387      0.55178731
      0.02355814      0.26323150
 
          64   0
s              4   1.000000
      8.30941083      0.05675242
      1.52051981      0.26014135
      0.42241705      0.53284611
      0.14019642      0.29162544
s              7   1.000000
      0.92936822     -0.06732783
      0.05643440      0.66944947
      0.02166600      0.51461007
      8.30941083     -0.02902147
      1.52051981     -0.13302843
      0.42241705     -0.27248140
      0.14019642     -0.14912844
p              4   1.000000
      0.64737396      0.05713170
      0.16785440      0.28574555
      0.05917387      0.55178731
      0.02355814      0.26323150
 
          65   0
s              4   1.000000
      8.31037647      0.05675242
      1.52069651      0.26014135
      0.42246614      0.53284611
      0.14021271      0.29162544
s              7   1.000000
      0.92936822     -0.06732659
      0.05643440      0.66943712
      0.02166600      0.51460058
      8.31037647     -0.02901889
      1.52069651     -0.13301658
      0.42246614     -0.27245714
      0.14021271     -0.14911516
p              4   1.000000
      0.64737396      0.05713170
      0.16785440      0.28574555
      0.05917387      0.55178731
      0.02355814      0.26323150
 
          66   0
s              4   1.000000
      8.30899662      0.05675242
      1.52044401      0.26014135
      0.42239600      0.53284611
      0.14018943      0.29162544
s              7   1.000000
      0.92936822     -0.06732836
      0.05643440      0.66945476
      0.02166600      0.51461415
      8.30899662     -0.02902258
      1.52044401     -0.13303350
      0.42239600     -0.27249180
      0.14018943     -0.14913413
p              4   1.000000
      0.64737396      0.05713170
      0.16785440      0.28574555
      0.05917387      0.55178731
      0.02355814      0.26323150
 
          67   0
s              4   1.000000
      8.30888322      0.05675242
      1.52042326      0.26014135
      0.42239023      0.53284611
      0.14018752      0.29162544
s              7   1.000000
      0.92936822     -0.06732851
      0.05643440      0.66945622
      0.02166600      0.51461527
      8.30888322     -0.02902288
      1.52042326     -0.13303489
      0.42239023     -0.27249465
      0.14018752     -0.14913569
p              4   1.000000
      0.64737396      0.05713170
      0.16785440      0.28574555
      0.05917387      0.55178731
      0.02355814      0.26323150
 
          68   0
s              4   1.000000
      8.30919699      0.05675242
      1.52048068      0.26014135
      0.42240618      0.53284611
      0.14019281      0.29162544
s              7   1.000000
      0.92936822     -0.06732810
      0.05643440      0.66945221
      0.02166600      0.51461219
      8.30919699     -0.02902204
      1.52048068     -0.13303105
      0.42240618     -0.27248676
      0.14019281     -0.14913138
p              4   1.000000
      0.64737396      0.05713170
      0.16785440      0.28574555
      0.05917387      0.55178731
      0.02355814      0.26323150
 
          69   0
s              4   1.000000
      8.30919638      0.05675242
      1.52048056      0.26014135
      0.42240615      0.53284611
      0.14019280      0.29162544
s              7   1.000000
      0.92936822     -0.06732810
      0.05643440      0.66945221
      0.02166600      0.51461219
      8.30919638     -0.02902205
      1.52048056     -0.13303105
      0.42240615     -0.27248678
      0.14019280     -0.14913138
p              4   1.000000
      0.64737396      0.05713170
      0.16785440      0.28574555
      0.05917387      0.55178731
      0.02355814      0.26323150
 
          70   0
s              4   1.000000
      8.30888307      0.05675242
      1.52042323      0.26014135
      0.42239022      0.53284611
      0.14018752      0.29162544
s              7   1.000000
      0.92936822     -0.06732851
      0.05643440      0.66945622
      0.02166600      0.51461527
      8.30888307     -0.02902288
      1.52042323     -0.13303490
      0.42239022     -0.27249465
      0.14018752     -0.14913569
p              4   1.000000
      0.64737396      0.05713170
      0.16785440      0.28574555
      0.05917387      0.55178731
      0.02355814      0.26323150
 
          71   0
s              4   1.000000
      8.30899453      0.05675242
      1.52044363      0.26014135
      0.42239589      0.53284611
      0.14018940      0.29162544
s              7   1.000000
      0.92936822     -0.06732836
      0.05643440      0.66945479
      0.02166600      0.51461417
      8.30899453     -0.02902259
      1.52044363     -0.13303353
      0.42239589     -0.27249185
      0.14018940     -0.14913416
p              4   1.000000
      0.64737396      0.05713170
      0.16785440      0.28574555
      0.05917387      0.55178731
      0.02355814      0.26323150
 
          72   0
s              4   1.000000
      8.31038589      0.05675242
      1.52069823      0.26014135
      0.42246662      0.53284611
      0.14021287      0.29162544
s              7   1.000000
      0.92936822     -0.06732658
      0.05643440      0.66943700
      0.02166600      0.51460051
      8.31038589     -0.02901886
      1.52069823     -0.13301647
      0.42246662     -0.27245691
      0.14021287     -0.14911503
p              4   1.000000
      0.64737396      0.05713170
      0.16785440      0.28574555
      0.05917387      0.55178731
      0.02355814      0.26323150
 
          73   0
s              4   1.000000
      8.30939982      0.05675242
      1.52051779      0.26014135
      0.42241649      0.53284611
      0.14019624      0.29162544
s              7   1.000000
      0.92936822     -0.06732784
      0.05643440      0.66944960
      0.02166600      0.51461020
      8.30939982     -0.02902150
      1.52051779     -0.13302856
      0.42241649     -0.27248167
      0.14019624     -0.14912858
p              4   1.000000
      0.64737396      0.05713170
      0.16785440      0.28574555
      0.05917387      0.55178731
      0.02355814      0.26323150
 
          74   0
s              4   1.000000
      8.30996018      0.05675242
      1.52062033      0.26014135
      0.42244498      0.53284611
      0.14020569      0.29162544
s              7   1.000000
      0.92936822     -0.06732712
      0.05643440      0.66944244
      0.02166600      0.51460468
      8.30996018     -0.02902000
      1.52062033     -0.13302169
      0.42244498     -0.27246760
      0.14020569     -0.14912088
p              4   1.000000
      0.64737396      0.05713170
      0.16785440      0.28574555
      0.05917387      0.55178731
      0.02355814      0.26323150
 
          75   0
s              4   1.000000
      8.30938029      0.05675242
      1.52051422      0.26014135
      0.42241550      0.53284611
      0.14019591      0.29162544
s              7   1.000000
      0.92936822     -0.06732787
      0.05643440      0.66944986
      0.02166600      0.51461037
      8.30938029     -0.02902155
      1.52051422     -0.13302880
      0.42241550     -0.27248216
      0.14019591     -0.14912885
p              4   1.000000
      0.64737396      0.05713170
      0.16785440      0.28574555
      0.05917387      0.55178731
      0.02355814      0.26323150
 
          76   0
s              4   1.000000
      8.30892698      0.05675242
      1.52043127      0.26014135
      0.42239245      0.53284611
      0.14018826      0.29162543
s              7   1.000000
      0.92936822     -0.06732845
      0.05643440      0.66945566
      0.02166600      0.51461484
      8.30892698     -0.02902277
      1.52043127     -0.13303436
      0.42239245     -0.27249355
      0.14018826     -0.14913508
p              4   1.000000
      0.64737396      0.05713170
      0.16785440      0.28574555
      0.05917387      0.55178731
      0.02355814      0.26323150
 
          77   0
s              4   1.000000
      8.30994798      0.05675242
      1.52061810      0.26014135
      0.42244436      0.53284611
      0.14020548      0.29162544
s              7   1.000000
      0.92936822     -0.06732714
      0.05643440      0.66944260
      0.02166600      0.51460481
      8.30994798     -0.02902004
      1.52061810     -0.13302184
      0.42244436     -0.27246790
      0.14020548     -0.14912105
p              4   1.000000
      0.64737396      0.05713170
      0.16785440      0.28574555
      0.05917387      0.55178731
      0.02355814      0.26323150
 
          78   0
s              4   1.000000
      8.30939646      0.05675242
      1.52051718      0.26014135
      0.42241632      0.53284611
      0.14019618      0.29162544
s              7   1.000000
      0.92936822     -0.06732785
      0.05643440      0.66944965
      0.02166600      0.51461022
      8.30939646     -0.02902151
      1.52051718     -0.13302860
      0.42241632     -0.27248175
      0.14019618     -0.14912863
p              4   1.000000
      0.64737396      0.05713170
      0.16785440      0.28574555
      0.05917387      0.55178731
      0.02355814      0.26323150
 
 [MO]
 Sym= Hole
 Ene= -0.7194698    
 Spin= Alpha
 Occup= 0
           1 -5.8462343E-04
           2 -1.2605307E-02
           3 -0.1125540    
           4  0.1242621    
           5  7.0113638E-05
           6  1.6500297E-03
           7  1.2962376E-02
           8 -1.4655847E-02
           9  3.9748524E-05
          10 -7.7280756E-03
          11 -5.2479934E-02
          12  5.7752118E-02
          13 -1.3902556E-04
          14  1.9304754E-03
          15  9.8981708E-03
          16 -1.1809304E-02
          17 -1.8227077E-03
          18  2.2255788E-02
          19  0.1248474    
          20 -0.1328006    
          21  1.2094874E-03
          22 -1.4522080E-03
          23 -8.0331117E-03
          24  6.3086711E-03
          25 -3.3496877E-03
          26  1.0553388E-02
          27  7.1271904E-02
          28 -8.3532393E-02
          29  2.1033795E-03
          30 -1.9367953E-03
          31 -1.6106112E-02
          32  2.0274650E-02
          33 -6.7327992E-04
          34  9.7442186E-03
          35  0.1120543    
          36 -0.1271605    
          37  1.3226463E-04
          38 -8.6514850E-04
          39 -2.1171637E-02
          40  2.4385920E-02
          41 -2.3255560E-04
          42  4.5465045E-03
          43  4.6400610E-02
          44 -5.1063184E-02
          45 -2.2104611E-04
          46 -5.5263972E-05
          47 -4.8692874E-03
          48  5.2410187E-03
          49 -4.8288879E-05
          50 -1.0401308E-02
          51 -0.1225401    
          52  0.1384676    
          53  1.6352815E-05
          54  2.0540315E-03
          55  2.4167407E-02
          56 -2.6702784E-02
          57  1.0781598E-03
          58  9.2803799E-03
          59  0.1116472    
          60 -0.1263239    
          61 -4.6677640E-04
          62 -2.5688421E-03
          63 -2.0955879E-02
          64  2.4433620E-02
          65 -1.5977813E-06
          66  3.8663228E-03
          67  4.7414079E-02
          68 -5.1422857E-02
          69  2.8311546E-04
          70 -7.8690815E-04
          71 -4.9151699E-03
          72  5.2377149E-03
          73  7.5298781E-04
          74 -7.3088193E-03
          75 -0.1127138    
          76  0.1233631    
          77 -1.2329590E-04
          78  6.9636694E-04
          79  1.3156653E-02
          80 -1.4756123E-02
          81 -5.1618717E-05
          82 -1.4633732E-03
          83 -5.2933246E-02
          84  5.7212956E-02
          85  8.9595851E-05
          86 -1.1091195E-04
          87  1.0207483E-02
          88 -1.1846350E-02
          89  1.5441319E-03
          90 -6.1110780E-04
          91  0.1274479    
          92 -0.1320911    
          93 -1.0992958E-03
          94  1.4727403E-04
          95 -8.4400661E-03
          96  6.4489343E-03
          97  3.4948690E-03
          98  2.4665608E-03
          99  7.0912614E-02
         100 -8.2035750E-02
         101 -2.3366797E-03
         102 -1.0132449E-03
         103 -1.6105929E-02
         104  2.0315774E-02
         105 -5.5619337E-05
         106 -2.3774881E-02
         107 -0.2506257    
         108  0.2823511    
         109 -3.0090221E-05
         110  3.4111934E-03
         111  3.5434667E-02
         112 -3.3653960E-02
         113 -2.5412472E-04
         114  1.1685208E-03
         115  7.8412257E-03
         116 -6.0555145E-02
         117  6.7933797E-05
         118 -4.7823740E-04
         119 -8.2663186E-03
         120  1.0407045E-02
         121  3.2540079E-02
         122  2.6583649E-02
         123 -8.3090082E-02
         124 -5.7282690E-02
         125 -1.9125225E-02
         126 -1.0302169E-02
         127  9.9496767E-03
         128  5.3837365E-03
         129 -1.2023755E-02
         130 -1.1103254E-02
         131  2.5075493E-02
         132  2.8262354E-02
         133  4.6540038E-03
         134  1.7194658E-03
         135 -2.0921724E-03
         136 -3.1372614E-04
         137  2.0007250E-05
         138  4.6174494E-03
         139  2.9979981E-02
         140  0.1077967    
         141  4.9178640E-04
         142 -1.2318761E-03
         143 -2.3032315E-03
         144 -8.7729516E-03
         145 -9.7847625E-04
         146 -8.4379542E-04
         147 -4.6102457E-05
         148 -5.7000194E-02
         149  3.3926152E-04
         150 -2.7178947E-04
         151 -1.2022646E-03
         152  3.5446368E-03
         153 -2.9464432E-03
         154 -2.4543947E-03
         155  3.9950283E-03
         156 -6.9489971E-02
         157  2.4236178E-03
         158 -5.8069860E-04
         159 -1.2452077E-03
         160  2.3740137E-03
         161  1.2814795E-03
         162  1.4865334E-03
         163 -1.3874557E-03
         164  1.7694768E-02
         165 -1.0496440E-04
         166 -9.8915689E-04
         167 -4.2818696E-04
         168 -2.3018948E-03
         169 -1.6279120E-03
         170  4.0484988E-03
         171 -1.6593582E-03
         172  7.9595335E-02
         173  1.0092867E-03
         174 -1.3459182E-03
         175 -2.8960165E-04
         176 -4.9757557E-03
         177  7.0846374E-03
         178 -6.1094011E-03
         179  1.8201097E-03
         180 -4.2608634E-02
         181 -2.5569717E-03
         182 -1.9516795E-03
         183  1.6984543E-03
         184  4.0538548E-03
         185 -9.9393888E-04
         186  7.7788136E-04
         187  7.7591086E-04
         188 -5.5032998E-02
         189  3.3514883E-04
         190  2.8215698E-04
         191  1.2159190E-03
         192  3.3635574E-03
         193  6.0665152E-05
         194 -4.7768657E-03
         195 -3.2009941E-02
         196  0.1124123    
         197  4.8687789E-04
         198  1.2058995E-03
         199  2.4678423E-03
         200 -9.1807656E-03
         201 -1.2507873E-02
         202  1.1962001E-02
         203 -2.5610778E-02
         204  2.7574183E-02
         205  4.7726682E-03
         206 -1.9430779E-03
         207  2.1914684E-03
         208 -2.0490438E-04
         209  3.4634925E-02
         210 -2.8232111E-02
         211  8.8406473E-02
         212 -5.9625383E-02
         213 -2.0533791E-02
         214  1.1035047E-02
         215 -1.0597563E-02
         216  5.6417095E-03
         217  2.2318010E-04
         218 -2.3750595E-03
         219 -9.1755455E-03
         220 -6.1766285E-02
         221 -5.0413614E-04
         222  1.0418268E-03
         223  8.7018004E-03
         224  1.0919651E-02
         225 -1.9156428E-03
         226  2.7339164E-02
         227  0.2655378    
         228  0.3017720    
         229  7.9413428E-04
         230 -3.7986890E-03
         231 -3.7444003E-02
         232 -3.6003646E-02
         233 -2.9239252E-03
         234 -1.1590565E-02
         235 -7.6084174E-02
         236 -8.8792913E-02
         237  1.6044774E-03
         238  2.1086668E-03
         239  1.7395081E-02
         240  2.1366529E-02
         241 -1.8457604E-03
         242 -2.5023751E-02
         243 -0.1317672    
         244 -0.1423049    
         245  1.1006270E-03
         246  1.6173519E-03
         247  8.4944414E-03
         248  6.7342427E-03
         249  1.2380700E-04
         250  8.9209862E-03
         251  5.5163641E-02
         252  6.1737966E-02
         253 -1.3708482E-04
         254 -2.1639622E-03
         255 -1.0540982E-02
         256 -1.2527823E-02
         257 -5.5523432E-04
         258  1.4822797E-02
         259  0.1185997    
         260  0.1329868    
         261  7.7252946E-05
         262 -1.8755831E-03
         263 -1.3708888E-02
         264 -1.5635058E-02
         265 -1.9628972E-04
         266 -5.3656138E-03
         267 -4.8979528E-02
         268 -5.4587603E-02
         269 -2.1944591E-04
         270  1.8281989E-04
         271  5.0654584E-03
         272  5.6549627E-03
         273 -7.2118070E-04
         274 -1.2230005E-02
         275 -0.1183231    
         276 -0.1359925    
         277 -3.4354736E-05
         278  1.2084082E-03
         279  2.2462770E-02
         280  2.5939690E-02
         281 -3.3121128E-04
         282  1.2052337E-02
         283  0.1295779    
         284  0.1479537    
         285  2.5235320E-04
         286 -2.2288512E-03
         287 -2.5564404E-02
         288 -2.8522376E-02
         289  1.2299422E-03
         290 -1.1546485E-02
         291 -0.1181602    
         292 -0.1348582    
         293 -7.1855634E-04
         294  2.9496190E-03
         295  2.2041146E-02
         296  2.6149923E-02
         297 -4.7025849E-05
         298 -4.7771558E-03
         299 -5.0365500E-02
         300 -5.4773979E-02
         301  3.3917220E-04
         302  9.4694371E-04
         303  5.2613877E-03
         304  5.5248761E-03
         305  8.4709795E-04
         306  9.2409654E-03
         307  0.1195225    
         308  0.1313225    
         309 -1.1874037E-04
         310 -8.7074033E-04
         311 -1.3903005E-02
         312 -1.5752321E-02
         313  3.0281592E-05
         314  2.3809762E-03
         315  5.6123950E-02
         316  6.0865469E-02
         317  8.8775661E-05
         318 -2.0728223E-06
         319 -1.0762261E-02
         320 -1.2703461E-02
         321  1.5968889E-03
         322 -1.2205229E-03
         323 -0.1352211    
         324 -0.1410340    
         325 -1.2496114E-03
         326 -3.7968810E-05
         327  8.8716522E-03
         328  6.9051418E-03
         329  3.9248341E-03
         330 -3.4122113E-03
         331 -7.4977636E-02
         332 -8.7764539E-02
         333 -2.8365741E-03
         334  1.1423662E-03
         335  1.6795268E-02
         336  2.1928770E-02
         337 -3.5028633E-02
         338  4.3482985E-02
         339  8.0660500E-02
         340 -5.7854019E-02
         341  2.0254392E-02
         342 -1.2844838E-02
         343 -8.1659546E-03
         344  5.7867728E-03
         345  1.2530793E-02
         346 -1.6747098E-02
         347 -2.3357993E-02
         348  2.8205514E-02
         349 -4.4079558E-03
         350  1.7123746E-03
         351  1.1804363E-03
         352 -1.0980063E-03
         353 -3.0062848E-03
         354  2.5001664E-03
         355 -3.0816339E-03
         356 -7.0946775E-02
         357  2.4920180E-03
         358  6.0303789E-04
         359  1.2611365E-03
         360  2.4754521E-03
         361  1.3304398E-03
         362 -1.5229793E-03
         363  1.1450698E-03
         364  1.5465663E-02
         365 -1.1813032E-04
         366  9.6214144E-04
         367  4.3917706E-04
         368 -2.1027629E-03
         369 -1.5117745E-03
         370 -3.9044616E-03
         371  6.2760321E-04
         372  8.0635794E-02
         373  9.7413146E-04
         374  1.2273475E-03
         375  3.4553077E-04
         376 -5.0331219E-03
         377  6.7717475E-03
         378  5.9129721E-03
         379 -1.0982702E-03
         380 -4.0127769E-02
         381 -2.4529875E-03
         382  1.8153037E-03
         383 -1.6765692E-03
         384  3.7726588E-03
         385  1.1850570E-02
         386  1.5290439E-02
         387  2.3163971E-02
         388  2.9014168E-02
         389 -4.2160521E-03
         390 -1.7128874E-03
         391 -1.2177671E-03
         392 -1.1076467E-03
         393 -3.2899342E-02
         394 -4.0292367E-02
         395 -7.5640112E-02
         396 -5.5800125E-02
         397  1.9214295E-02
         398  1.2130613E-02
         399  7.6950067E-03
         400  5.5587892E-03
         401  6.4824458E-04
         402 -1.9441036E-04
         403 -1.2141797E-03
         404 -1.0479620E-02
         405  1.1576273E-02
         406  2.3280196E-03
         407 -6.6271349E-04
         408 -8.4608956E-04
         409 -6.9966014E-03
         410  7.5588119E-03
         411 -6.9039415E-05
         412  1.0049633E-03
         413 -1.2253618E-03
         414  9.9717509E-03
         415 -1.0739123E-02
         416  9.7873469E-04
         417 -5.6988542E-04
         418  5.5132690E-04
         419  1.9786621E-03
         420 -1.8991383E-03
         421 -8.1672438E-04
         422  5.6086481E-04
         423 -2.0414284E-04
         424  2.0101850E-03
         425 -2.0376206E-03
         426 -7.1239210E-04
         427  2.1568613E-04
         428 -6.4557651E-04
         429 -1.0642074E-02
         430  1.1635164E-02
         431 -2.5704592E-03
         432  6.2515045E-04
         433 -3.5014428E-04
         434 -7.0824740E-03
         435  7.6496424E-03
         436  3.8938160E-04
         437 -1.1414042E-03
         438  3.0407822E-03
         439  9.7029414E-03
         440 -1.0669018E-02
         441 -1.6886756E-02
         442 -3.1368071E-03
         443 -1.0255929E-02
         444  5.1839589E-03
         445 -5.4264762E-03
         446  2.2383530E-02
         447 -9.2256611E-04
         448  1.5038479E-03
         449 -1.2909021E-04
         450  1.8777490E-04
         451  3.6459514E-06
         452  1.7302050E-04
         453 -3.4142054E-06
         454  4.6329122E-04
         455 -8.7397103E-04
         456 -8.4386067E-04
         457  1.4299293E-04
         458  6.8064510E-05
         459 -2.7510567E-04
         460  1.2844172E-03
         461  2.3627937E-02
         462 -9.4698992E-04
         463 -1.6847486E-03
         464  2.2736864E-04
         465  1.5386654E-04
         466 -1.8040359E-02
         467 -3.3379211E-03
         468  1.1015650E-02
         469 -5.5117994E-03
         470 -5.7512899E-03
         471 -2.0489731E-04
         472  1.1227176E-03
         473  1.0752912E-03
         474 -1.0495571E-02
         475 -1.1471218E-02
         476  2.3572792E-03
         477 -6.2728376E-04
         478  9.7462285E-04
         479  7.3692529E-03
         480  8.1338547E-03
         481  6.5562874E-04
         482 -1.7859698E-04
         483  1.4160301E-03
         484  1.1061714E-02
         485  1.2383629E-02
         486  8.4575999E-04
         487 -5.0492259E-04
         488 -5.8981113E-04
         489 -2.1316581E-03
         490 -1.9699300E-03
         491 -9.5876015E-04
         492  6.9382787E-04
         493  2.1984561E-04
         494 -2.0465152E-03
         495 -2.2274782E-03
         496 -8.0607570E-04
         497  2.6053630E-04
         498  8.3082344E-04
         499  1.1275812E-02
         500  1.2411601E-02
         501 -2.7084246E-03
         502  7.0654618E-04
         503  4.5783073E-04
         504  7.5452044E-03
         505  8.1492150E-03
         506  2.5523285E-04
         507 -1.1302300E-03
         508 -3.3662836E-03
         509 -1.0208491E-02
         510 -1.1410479E-02
         511  1.8326029E-02
         512  3.1398565E-03
         513 -1.1759443E-02
         514 -3.3392753E-03
         515 -5.2408110E-03
         516 -2.4418285E-02
         517  3.5122936E-04
         518  6.1896589E-04
         519  4.5481257E-04
         520 -1.0828503E-03
         521 -5.6031582E-05
         522  1.7483608E-04
         523  3.0191981E-05
         524 -4.4938724E-04
         525 -9.0530061E-04
         526 -9.0286531E-04
         527  1.4441807E-04
         528 -9.9372388E-05
         529  2.6525769E-04
         530  1.2120639E-03
         531 -2.2787508E-02
         532  2.6209152E-04
         533 -5.3951715E-04
         534 -3.9511008E-04
         535 -9.2401431E-04
         536  1.7440436E-02
         537  2.9204725E-03
         538  1.1069804E-02
         539  3.1152172E-03
         540 -4.9057119E-03
 Sym= Particle
 Ene= -0.7194698    
 Spin= Alpha
 Occup= 2
           1 -5.2513334E-04
           2 -2.6678522E-03
           3 -3.1987030E-02
           4  3.4724481E-02
           5  1.9671698E-03
           6 -1.6153350E-03
           7  6.7431903E-03
           8 -6.4406535E-03
           9 -8.1233586E-05
          10 -1.5009675E-03
          11 -1.4628004E-02
          12  1.4023899E-02
          13  7.8408731E-05
          14 -2.1565286E-03
          15  3.0263811E-03
          16 -4.4755302E-03
          17  3.4545540E-04
          18  1.0601447E-02
          19  4.6052866E-02
          20 -4.4621438E-02
          21  1.3345507E-03
          22 -8.6797765E-03
          23 -7.9675009E-03
          24  1.0550724E-02
          25 -2.4427630E-02
          26  1.7111335E-02
          27 -5.3013183E-02
          28  6.8882005E-03
          29  2.0858118E-02
          30 -1.6358022E-02
          31  1.7139016E-02
          32 -2.3341672E-03
          33  7.4837548E-03
          34 -1.0791127E-02
          35  7.8423051E-03
          36 -6.7805615E-03
          37 -4.6468964E-03
          38  5.1331972E-03
          39 -6.0896012E-03
          40  1.0689058E-03
          41 -4.3533058E-03
          42  5.6871823E-03
          43  2.8569875E-02
          44 -4.0205881E-02
          45  2.8996281E-03
          46 -9.1191067E-04
          47 -8.5511729E-03
          48  9.1594802E-03
          49 -2.9883135E-05
          50 -7.9934375E-04
          51 -1.4377726E-02
          52  6.3326708E-03
          53  2.5147459E-04
          54 -8.8034736E-05
          55  2.8101590E-03
          56 -2.6138111E-03
          57 -6.9553042E-03
          58  1.2319126E-02
          59  1.0497129E-02
          60 -1.2716504E-02
          61  3.8598673E-03
          62 -6.1975452E-03
          63 -7.0850966E-03
          64  3.3226048E-03
          65  4.7984542E-03
          66 -8.0280915E-05
          67  2.7341787E-02
          68 -3.8077079E-02
          69 -3.5245698E-03
          70 -1.0876692E-03
          71 -8.1134392E-03
          72  8.2772169E-03
          73  1.0098621E-03
          74 -2.8465041E-03
          75 -3.4362320E-02
          76  3.7928339E-02
          77 -2.6907595E-03
          78  2.4018218E-03
          79  6.6056247E-03
          80 -7.4264985E-03
          81  3.9319435E-04
          82 -1.0886572E-03
          83 -1.0178288E-02
          84  1.0399599E-02
          85 -9.0487144E-04
          86  2.3558384E-03
          87  1.1725113E-03
          88 -3.8727946E-03
          89  5.7498808E-04
          90 -3.9356789E-03
          91  4.6628516E-02
          92 -4.3610189E-02
          93 -2.4144840E-03
          94  6.9039711E-03
          95 -9.2952857E-03
          96  9.2908498E-03
          97  2.4665320E-02
          98 -2.6068479E-02
          99 -5.3553645E-02
         100  1.0364911E-02
         101 -2.1425337E-02
         102  1.7940477E-02
         103  1.5812557E-02
         104 -3.8683084E-03
         105 -8.5855107E-05
         106 -2.8933289E-03
         107 -2.6420252E-02
         108  3.0250758E-02
         109  6.7104690E-04
         110 -1.3321023E-03
         111 -3.3568151E-03
         112 -1.3643694E-02
         113 -6.1733264E-04
         114 -8.9392373E-03
         115 -0.1272087    
         116 -0.3016967    
         117  2.8047926E-04
         118  1.5642660E-03
         119  3.6462307E-02
         120  9.5511533E-02
         121  6.6456101E-03
         122  3.5354379E-03
         123  4.5741074E-02
         124  0.1142037    
         125 -3.3820944E-03
         126 -3.9912309E-03
         127 -1.5198886E-02
         128 -3.5847276E-02
         129 -7.9951724E-03
         130  1.3809619E-02
         131  8.4382124E-02
         132  0.1592363    
         133  5.8209165E-03
         134 -5.1531228E-03
         135 -1.8109931E-02
         136 -3.9491273E-02
         137 -1.5362486E-03
         138 -7.4988119E-03
         139 -9.4727643E-02
         140 -0.2071513    
         141  3.9745879E-04
         142  4.8213694E-03
         143  2.5506949E-02
         144  4.7663298E-02
         145  2.3910226E-03
         146 -2.7471757E-03
         147  2.7361065E-03
         148 -0.2720731    
         149 -6.0940400E-04
         150 -9.2717563E-04
         151 -9.0028886E-03
         152  5.4822166E-02
         153  5.6039686E-03
         154  6.3780583E-03
         155 -1.0768518E-02
         156 -1.1537476E-02
         157 -5.6046876E-03
         158 -6.6473829E-03
         159  2.0481313E-03
         160 -1.1512388E-03
         161 -1.1491823E-03
         162 -3.5430428E-03
         163 -7.9549188E-03
         164  0.2323357    
         165  2.7464630E-04
         166  4.5734621E-04
         167  1.4748263E-04
         168 -4.3236837E-02
         169 -1.1926282E-03
         170  3.7936573E-03
         171 -1.4541082E-03
         172 -8.1703909E-02
         173  1.6983312E-04
         174 -5.9276528E-04
         175 -2.3440082E-04
         176  7.9274699E-03
         177  6.9254679E-03
         178 -2.2035223E-03
         179 -1.1607778E-02
         180 -0.2412223    
         181 -5.5065146E-03
         182  4.1523026E-03
         183  1.8579133E-03
         184  4.4130985E-02
         185 -2.4654344E-03
         186 -2.6508677E-03
         187 -8.9053687E-04
         188  0.2757788    
         189  5.6645804E-04
         190 -1.0536634E-03
         191 -8.7724235E-03
         192 -5.5165485E-02
         193  1.6239958E-03
         194 -8.2639474E-03
         195 -0.1032643    
         196  0.2227071    
         197 -4.5728614E-04
         198  5.1385798E-03
         199  2.7731685E-02
         200 -5.1963855E-02
         201  7.8738928E-03
         202  1.4156668E-02
         203  8.9082621E-02
         204 -0.1663884    
         205 -5.7524070E-03
         206 -5.2112872E-03
         207 -1.9350564E-02
         208  4.1524477E-02
         209 -6.6974778E-03
         210  4.2644092E-03
         211  5.0758619E-02
         212 -0.1237256    
         213  3.3628303E-03
         214 -4.4123926E-03
         215 -1.6924858E-02
         216  3.9105788E-02
         217  7.0618995E-04
         218 -1.0391643E-02
         219 -0.1378676    
         220  0.3206416    
         221 -3.6424509E-04
         222  1.9506688E-03
         223  4.0044397E-02
         224 -0.1024575    
         225  2.6613765E-04
         226 -3.1904266E-03
         227 -2.6863957E-02
         228 -3.0753249E-02
         229 -7.6244917E-04
         230 -1.4738058E-03
         231 -4.1429726E-03
         232  1.4268831E-02
         233  2.6008368E-02
         234  1.7465111E-02
         235 -5.8040399E-02
         236 -9.5538264E-03
         237 -2.2282301E-02
         238 -1.7251706E-02
         239  1.8964095E-02
         240  3.3699919E-03
         241 -3.7229049E-04
         242  1.1843446E-02
         243  4.8805863E-02
         244  4.8010044E-02
         245 -1.4391701E-03
         246 -9.4316714E-03
         247 -8.4987339E-03
         248 -1.1393649E-02
         249  1.1519902E-04
         250 -1.6374111E-03
         251 -1.4717693E-02
         252 -1.4336316E-02
         253 -2.1487485E-04
         254 -2.3567057E-03
         255  3.0493818E-03
         256  4.6800915E-03
         257  5.7747471E-04
         258 -3.3321125E-03
         259 -3.4264810E-02
         260 -3.7856113E-02
         261 -2.2444539E-03
         262 -1.6553393E-03
         263  7.2614113E-03
         264  7.1133636E-03
         265  4.7047972E-03
         266  6.3643213E-03
         267  3.0125244E-02
         268  4.3037489E-02
         269 -3.2592125E-03
         270 -1.0424216E-03
         271 -9.0622390E-03
         272 -9.8083103E-03
         273 -7.9994416E-03
         274 -1.1303123E-02
         275  8.7508336E-03
         276  7.7460366E-03
         277  4.9395906E-03
         278  5.3593726E-03
         279 -6.7647654E-03
         280 -1.3666253E-03
         281  8.1515500E-05
         282 -9.4895263E-04
         283 -1.4588128E-02
         284 -6.1004735E-03
         285 -3.0437455E-04
         286 -5.9005943E-05
         287  2.6848046E-03
         288  2.6075144E-03
         289  7.5468081E-03
         290  1.3153981E-02
         291  9.1504352E-03
         292  1.1416248E-02
         293 -4.3067718E-03
         294 -6.6612284E-03
         295 -6.8271016E-03
         296 -2.8035615E-03
         297 -5.1016146E-03
         298  3.2086234E-04
         299  2.9484665E-02
         300  4.1170467E-02
         301  3.7135608E-03
         302 -1.2607665E-03
         303 -8.8174324E-03
         304 -9.0706134E-03
         305 -1.0193333E-03
         306 -3.4512305E-03
         307 -3.5443317E-02
         308 -3.9258800E-02
         309  2.8014616E-03
         310  2.6765291E-03
         311  6.7918473E-03
         312  7.6641068E-03
         313 -3.7844214E-04
         314 -1.3597376E-03
         315 -1.1780956E-02
         316 -1.2067867E-02
         317  8.9276762E-04
         318  2.6019167E-03
         319  1.4669271E-03
         320  4.3706163E-03
         321 -5.0384452E-04
         322 -3.4162181E-03
         323  4.9401760E-02
         324  4.6453662E-02
         325  2.4522240E-03
         326  7.2806352E-03
         327 -9.9516734E-03
         328 -1.0048619E-02
         329 -2.6413105E-02
         330 -2.8273040E-02
         331 -5.6379016E-02
         332 -1.0436420E-02
         333  2.2887241E-02
         334  1.9459506E-02
         335  1.6606225E-02
         336  3.8051859E-03
         337  4.1152220E-03
         338  3.1985391E-03
         339  4.8501819E-02
         340 -0.1230040    
         341 -1.2030632E-03
         342  1.0697402E-03
         343 -1.6944874E-02
         344  3.8929127E-02
         345 -8.1266575E-03
         346  3.4656522E-03
         347  9.1924727E-02
         348 -0.1661731    
         349  6.4792316E-03
         350  2.2533568E-04
         351 -2.3281401E-02
         352  3.1415138E-02
         353 -6.0368739E-03
         354  6.6416920E-03
         355 -1.1650817E-02
         356  5.8803312E-03
         357  6.0016057E-03
         358 -7.0137619E-03
         359  2.2733205E-03
         360  3.0551080E-03
         361  1.4356276E-03
         362 -3.6779791E-03
         363 -4.6635508E-03
         364 -0.2316894    
         365 -4.4211521E-04
         366  4.8089164E-04
         367 -4.6904839E-04
         368  4.2760417E-02
         369  1.0611920E-03
         370  3.6629988E-03
         371 -2.7517979E-03
         372  8.7530077E-02
         373 -1.7485330E-04
         374 -6.0339150E-04
         375  5.1982593E-06
         376 -1.0015684E-02
         377 -6.4969887E-03
         378 -1.9380407E-03
         379 -1.4024706E-02
         380  0.2323693    
         381  5.1706708E-03
         382  3.7766038E-03
         383  2.1872488E-03
         384 -4.1410778E-02
         385  8.2186526E-03
         386  2.7337761E-03
         387  8.7219574E-02
         388  0.1591579    
         389 -6.5579987E-03
         390  4.0984742E-04
         391 -2.2082437E-02
         392 -2.9891998E-02
         393 -4.1205594E-03
         394  2.7494850E-03
         395  4.3469414E-02
         396  0.1135555    
         397  1.2240759E-03
         398  1.1813270E-03
         399 -1.5094610E-02
         400 -3.5755675E-02
         401 -3.1381584E-04
         402  3.7065565E-03
         403 -2.8359524E-03
         404 -5.0656646E-03
         405  8.8963704E-03
         406  3.9761765E-03
         407  1.8423658E-03
         408 -9.6306780E-05
         409 -2.4862322E-03
         410  4.7831624E-03
         411  4.4659441E-03
         412 -1.1703297E-03
         413  7.5263865E-03
         414  2.3903405E-02
         415 -9.5995497E-03
         416  5.4189372E-03
         417  1.3851376E-03
         418  2.1719401E-05
         419  6.6479873E-03
         420 -8.0417898E-03
         421 -5.9657791E-03
         422 -5.1980960E-04
         423 -3.1460968E-05
         424  5.8599324E-03
         425 -7.7290372E-03
         426 -2.9971794E-04
         427 -3.1969091E-03
         428  1.2856621E-03
         429 -6.7425980E-03
         430  9.0109436E-03
         431 -4.4217198E-03
         432 -1.7155873E-03
         433  3.3292422E-04
         434 -2.1638435E-03
         435  3.2019506E-03
         436 -5.1316367E-03
         437  1.6948434E-03
         438 -1.3909263E-03
         439  2.4402188E-02
         440 -1.2091592E-02
         441 -7.4383738E-03
         442  1.4759036E-03
         443 -3.3976648E-03
         444  1.1401609E-02
         445  3.1013161E-02
         446  2.9731488E-03
         447  1.5152686E-03
         448 -4.4567976E-03
         449  8.9659542E-03
         450  2.2507299E-02
         451 -3.8146166E-04
         452 -1.9778309E-03
         453 -8.1145053E-04
         454  5.0099177E-04
         455 -6.0739471E-03
         456  4.9145678E-03
         457 -2.4499767E-03
         458 -3.4503391E-04
         459 -2.9036386E-07
         460  2.4681069E-02
         461 -2.9748378E-03
         462 -1.4506642E-03
         463 -4.2337547E-03
         464  9.7236596E-03
         465 -2.3897650E-02
         466  7.5781904E-03
         467 -1.5573794E-03
         468 -3.3889404E-03
         469  1.2697354E-02
         470 -3.3525974E-02
         471 -4.8227496E-03
         472  1.2663655E-03
         473  8.1894174E-03
         474  2.5554406E-02
         475  1.0618734E-02
         476 -4.2542177E-03
         477 -2.0677075E-03
         478 -1.8140569E-04
         479 -2.5397334E-03
         480 -4.9016085E-03
         481  3.1556937E-04
         482 -4.0673679E-03
         483 -3.0731470E-03
         484 -5.5907960E-03
         485 -9.7054932E-03
         486 -5.8066603E-03
         487 -1.5107329E-03
         488  2.7885844E-04
         489  6.9981171E-03
         490  8.7416871E-03
         491  6.3530235E-03
         492  6.2396936E-04
         493  8.1195380E-05
         494  6.3393982E-03
         495  8.4770294E-03
         496  2.5825930E-04
         497  3.5466019E-03
         498  1.3192940E-03
         499 -6.9539426E-03
         500 -9.4728135E-03
         501  4.6408721E-03
         502  1.9711570E-03
         503  2.9576966E-04
         504 -2.5105542E-03
         505 -3.7109663E-03
         506  5.4839184E-03
         507 -1.8021268E-03
         508 -1.4141748E-03
         509  2.6085971E-02
         510  1.3047192E-02
         511 -7.3217098E-03
         512  6.1766867E-04
         513  2.1579261E-03
         514  1.4005578E-02
         515 -3.0726897E-02
         516  3.1127494E-03
         517 -2.0080681E-03
         518 -9.1762729E-03
         519  1.3072696E-02
         520 -3.3450987E-02
         521  5.1266531E-04
         522  2.0757769E-03
         523 -9.4003306E-04
         524  3.7959332E-04
         525  5.4921438E-03
         526 -5.1436308E-03
         527  2.5090971E-03
         528 -4.6274796E-04
         529  3.3686718E-04
         530 -2.4866616E-02
         531 -3.2121376E-03
         532  1.9213248E-03
         533 -8.8871885E-03
         534  1.2118693E-02
         535  3.1603601E-02
         536  7.0858309E-03
         537 -5.9988059E-04
         538  1.8968340E-03
         539  1.2823048E-02
         540  2.8295599E-02
 Sym= Hole
 Ene= -0.2626190    
 Spin= Alpha
 Occup= 0
           1  3.9611297E-04
           2  1.3765484E-02
           3  0.1185770    
           4 -0.1308744    
           5  4.9166065E-05
           6 -1.7608874E-03
           7 -1.3924408E-02
           8  1.5680321E-02
           9 -3.4415061E-05
          10  7.5754412E-03
          11  5.1749323E-02
          12 -5.6924127E-02
          13  6.5370027E-06
          14 -2.1948034E-03
          15 -1.1065450E-02
          16  1.2637263E-02
          17  1.2004740E-03
          18 -2.2022698E-02
          19 -0.1378700    
          20  0.1475430    
          21 -6.1253447E-04
          22  1.2081412E-03
          23  8.2572037E-03
          24 -6.7724083E-03
          25  2.4380027E-04
          26 -7.6324372E-03
          27 -8.0119409E-02
          28  8.5206591E-02
          29 -3.1804582E-05
          30  1.5648953E-03
          31  1.8716952E-02
          32 -2.1982508E-02
          33  1.6010278E-03
          34 -1.2338734E-02
          35 -0.1196630    
          36  0.1371351    
          37 -6.1269494E-04
          38  1.2832448E-03
          39  2.2311511E-02
          40 -2.5731238E-02
          41 -5.2629097E-04
          42 -4.0370529E-03
          43 -5.0433919E-02
          44  5.3507112E-02
          45  3.7905769E-04
          46  2.8804358E-04
          47  5.0422680E-03
          48 -5.4636314E-03
          49  4.2914911E-05
          50  1.0901185E-02
          51  0.1288810    
          52 -0.1473706    
          53 -2.1724478E-05
          54 -2.2231189E-03
          55 -2.5901053E-02
          56  2.8782070E-02
          57 -2.1165933E-03
          58 -8.0533121E-03
          59 -0.1198004    
          60  0.1363744    
          61  9.4955554E-04
          62  2.2640880E-03
          63  2.2107299E-02
          64 -2.5820233E-02
          65  7.8640739E-04
          66 -4.7380673E-03
          67 -5.1502693E-02
          68  5.3990852E-02
          69 -4.8871740E-04
          70  6.5988925E-04
          71  5.1111579E-03
          72 -5.4735471E-03
          73 -6.0683652E-04
          74  7.3946323E-03
          75  0.1190386    
          76 -0.1298199    
          77 -2.2029290E-05
          78 -7.6904875E-04
          79 -1.4070527E-02
          80  1.5833061E-02
          81  5.7816193E-05
          82  1.3779454E-03
          83  5.2280020E-02
          84 -5.6561850E-02
          85  5.5859160E-05
          86  3.4595676E-05
          87 -1.1445297E-02
          88  1.2623235E-02
          89 -8.9791574E-04
          90 -1.4753332E-03
          91 -0.1402901    
          92  0.1466653    
          93  5.3322408E-04
          94  2.0418402E-04
          95  8.6306855E-03
          96 -6.9538048E-03
          97 -3.0382007E-04
          98 -6.8555227E-03
          99 -7.8994788E-02
         100  8.3804235E-02
         101  3.2582335E-04
         102  1.7947875E-03
         103  1.8689590E-02
         104 -2.1955824E-02
         105  8.0134450E-05
         106  2.6660359E-02
         107  0.2825834    
         108 -0.3132984    
         109  2.8571247E-05
         110 -3.6882835E-03
         111 -3.7502121E-02
         112  3.6799099E-02
         113  2.0780214E-04
         114 -2.8709392E-03
         115 -2.9388338E-02
         116  2.5763124E-02
         117  2.4648345E-05
         118  5.3430878E-04
         119  8.8204825E-03
         120 -8.0122119E-03
         121 -3.6076017E-02
         122 -3.2808360E-02
         123  9.0216964E-02
         124  5.5475157E-02
         125  2.0530719E-02
         126  1.0921173E-02
         127 -9.9695353E-03
         128 -5.6502051E-03
         129  1.0523748E-02
         130  1.8494815E-02
         131 -6.5897666E-03
         132  7.7473866E-03
         133 -2.9472217E-03
         134 -2.0677138E-03
         135  8.8562607E-04
         136 -1.2633034E-03
         137 -5.6528044E-04
         138 -3.0015328E-03
         139 -2.5565334E-02
         140 -9.3723841E-02
         141  1.1334308E-04
         142  7.7800907E-04
         143  1.7925700E-03
         144  7.8726998E-03
         145  7.8978075E-04
         146 -3.2305386E-04
         147  1.7767876E-03
         148 -3.0641265E-02
         149  5.5859917E-05
         150  6.4838692E-05
         151  4.7597382E-04
         152  3.2446780E-03
         153  2.4913298E-03
         154  3.5289682E-03
         155 -3.2252753E-03
         156  2.7830888E-02
         157 -2.0215537E-03
         158  3.5905273E-04
         159  1.0020285E-03
         160 -1.5759246E-03
         161 -8.0225605E-04
         162 -2.1870597E-03
         163 -9.3610282E-04
         164  3.8586698E-02
         165  1.9896525E-04
         166  3.6548058E-04
         167 -5.0970892E-05
         168 -3.2384594E-03
         169 -1.5943057E-03
         170  2.2036410E-03
         171  5.4039096E-04
         172 -2.1266928E-02
         173  4.4378551E-04
         174 -1.1320401E-03
         175  6.0623392E-05
         176  1.0913205E-03
         177  4.1994373E-03
         178 -2.6982664E-03
         179 -9.9342316E-04
         180 -4.2843353E-02
         181 -1.6430644E-03
         182 -1.8255516E-03
         183  1.3870769E-03
         184  4.3234173E-03
         185 -6.8837666E-04
         186 -4.2674443E-04
         187  1.2080645E-03
         188  3.6048550E-02
         189 -7.6809294E-05
         190  5.4297438E-05
         191  4.7543115E-04
         192 -3.4385680E-03
         193  5.8287376E-04
         194 -2.6279551E-03
         195 -2.3583235E-02
         196  8.5146882E-02
         197 -1.4470726E-04
         198  6.2994997E-04
         199  1.6579530E-03
         200 -7.2823986E-03
         201 -9.6868966E-03
         202  1.7761935E-02
         203 -4.4494285E-03
         204 -1.0727541E-02
         205  2.6077006E-03
         206 -2.0341724E-03
         207  7.9072214E-04
         208  1.2975351E-03
         209  3.4165315E-02
         210 -3.1050211E-02
         211  8.5169181E-02
         212 -5.0728012E-02
         213 -1.9575844E-02
         214  1.0359663E-02
         215 -9.4016567E-03
         216  5.2633001E-03
         217  2.7997824E-04
         218 -3.9643017E-03
         219 -2.9514376E-02
         220 -2.0749738E-02
         221 -5.7791505E-04
         222  1.0231178E-03
         223  8.2159173E-03
         224  7.3862355E-03
         225 -1.9062548E-03
         226  2.7259087E-02
         227  0.2663073    
         228  0.2976519    
         229  7.7258365E-04
         230 -3.6473905E-03
         231 -3.5135802E-02
         232 -3.4985773E-02
         233  4.9739558E-04
         234 -7.4003763E-03
         235 -7.5874150E-02
         236 -8.0032341E-02
         237 -6.3170434E-04
         238  1.5403697E-03
         239  1.7959204E-02
         240  2.0580664E-02
         241 -1.0184423E-03
         242 -2.2075620E-02
         243 -0.1293529    
         244 -0.1405662    
         245  3.8383465E-04
         246  1.2094092E-03
         247  7.7342917E-03
         248  6.4199544E-03
         249  1.1353209E-04
         250  7.7161766E-03
         251  4.7853060E-02
         252  5.3546216E-02
         253  1.2977814E-05
         254 -2.1764576E-03
         255 -1.0471235E-02
         256 -1.1891951E-02
         257 -3.0612323E-04
         258  1.4296563E-02
         259  0.1106657    
         260  0.1240652    
         261 -4.6019457E-05
         262 -1.7769166E-03
         263 -1.3067279E-02
         264 -1.4837703E-02
         265  5.7931471E-04
         266 -4.2763581E-03
         267 -4.7182839E-02
         268 -5.0620969E-02
         269 -3.4408653E-04
         270  3.9815035E-04
         271  4.6414984E-03
         272  5.2195406E-03
         273 -1.5578673E-03
         274 -1.3477939E-02
         275 -0.1119450    
         276 -0.1300018    
         277  4.2429540E-04
         278  1.4862187E-03
         279  2.0977564E-02
         280  2.4246849E-02
         281 -2.9683657E-04
         282  1.1169369E-02
         283  0.1205961    
         284  0.1394006    
         285  2.3917141E-04
         286 -2.1430177E-03
         287 -2.4297439E-02
         288 -2.7271073E-02
         289  2.0970914E-03
         290 -9.1178687E-03
         291 -0.1124004    
         292 -0.1290929    
         293 -1.1248928E-03
         294  2.3258072E-03
         295  2.0607136E-02
         296  2.4489010E-02
         297 -8.0107671E-04
         298 -5.1200381E-03
         299 -4.8365429E-02
         300 -5.0754886E-02
         301  5.0063804E-04
         302  7.1896671E-04
         303  4.8453882E-03
         304  5.1145880E-03
         305  6.0363504E-04
         306  8.3277700E-03
         307  0.1119456    
         308  0.1225243    
         309  3.5057175E-05
         310 -8.5302431E-04
         311 -1.3185693E-02
         312 -1.4997032E-02
         313  3.3527183E-05
         314  2.0163262E-03
         315  4.8755139E-02
         316  5.2948378E-02
         317 -6.7205990E-05
         318 -8.7503140E-05
         319 -1.0725951E-02
         320 -1.2008218E-02
         321  7.6989603E-04
         322 -3.3112427E-03
         323 -0.1323798    
         324 -0.1393346    
         325 -5.6524621E-04
         326  3.0436966E-04
         327  8.0298949E-03
         328  6.6092857E-03
         329  3.8313551E-04
         330 -7.3590972E-03
         331 -7.4106507E-02
         332 -7.9324514E-02
         333 -5.7684991E-04
         334  1.7718428E-03
         335  1.7360263E-02
         336  2.1037180E-02
         337 -3.4269366E-02
         338  4.5876078E-02
         339  7.7489048E-02
         340 -4.9634948E-02
         341  1.9210201E-02
         342 -1.1730093E-02
         343 -7.3008826E-03
         344  5.4470580E-03
         345  9.6220691E-03
         346 -1.8587256E-02
         347 -1.5040352E-03
         348 -9.2563052E-03
         349 -2.6683786E-03
         350  1.4650776E-03
         351 -2.4096220E-04
         352  3.3129516E-04
         353 -2.1926074E-03
         354  3.2590430E-03
         355 -2.4852280E-03
         356 -2.1957349E-02
         357  1.8159198E-03
         358  3.1343053E-04
         359  8.9152291E-04
         360  1.4675366E-03
         361  6.5888109E-04
         362 -2.1007142E-03
         363 -5.6614535E-04
         364 -4.0180869E-02
         365 -1.5263737E-04
         366  2.9453091E-04
         367 -1.1721560E-04
         368  3.3816504E-03
         369  1.7207435E-03
         370  2.5038500E-03
         371  2.7813684E-04
         372  1.4210923E-02
         373 -4.8824147E-04
         374 -1.1874641E-03
         375  3.6956000E-05
         376 -7.6974247E-04
         377 -4.6813390E-03
         378 -3.1295519E-03
         379 -1.7015806E-03
         380  4.6101343E-02
         381  1.8369587E-03
         382 -1.9386053E-03
         383  1.5818471E-03
         384 -4.5143650E-03
         385 -1.0252927E-02
         386 -1.9226847E-02
         387 -3.6954922E-03
         388  6.0635768E-03
         389  2.9067609E-03
         390  1.6850429E-03
         391 -1.3813781E-04
         392 -2.8565846E-04
         393  3.6169201E-02
         394  4.7811914E-02
         395  8.1925288E-02
         396  5.4475576E-02
         397 -2.0526912E-02
         398 -1.2524061E-02
         399 -7.7718538E-03
         400 -5.8838706E-03
         401 -6.1547838E-04
         402  2.9902332E-04
         403  1.2415430E-03
         404  1.1490514E-02
         405 -1.2739312E-02
         406 -1.7391209E-03
         407  4.8048553E-04
         408  9.6157624E-04
         409  7.8524854E-03
         410 -8.5349930E-03
         411 -1.5500029E-04
         412 -1.0527857E-03
         413  8.8726979E-04
         414 -9.8631857E-03
         415  1.1687305E-02
         416 -1.2897006E-04
         417  6.1927555E-04
         418 -5.4933666E-04
         419 -1.6281708E-03
         420  1.8247332E-03
         421  2.5365665E-04
         422 -5.2548060E-04
         423  2.1843438E-04
         424 -1.6733605E-03
         425  1.9515422E-03
         426  9.1649027E-04
         427 -2.6516963E-04
         428  7.5281918E-04
         429  1.1658299E-02
         430 -1.2789665E-02
         431  1.9962185E-03
         432 -4.5154616E-04
         433  3.5757871E-04
         434  7.9354588E-03
         435 -8.6371601E-03
         436 -5.9125840E-04
         437  1.0314181E-03
         438 -2.6614550E-03
         439 -9.6580712E-03
         440  1.1622099E-02
         441  1.7593278E-02
         442  3.3603041E-03
         443  1.1292212E-02
         444 -6.1543733E-03
         445  5.4378649E-03
         446 -2.4396133E-02
         447  1.3111461E-03
         448 -2.9206139E-03
         449  1.2314642E-03
         450  1.1315035E-03
         451  4.5993045E-04
         452 -2.7199855E-04
         453  4.4478653E-05
         454 -2.1807358E-04
         455  1.9173654E-04
         456  1.8753438E-03
         457 -8.7430220E-05
         458  3.3286949E-05
         459  1.8815891E-04
         460  1.2150903E-03
         461  2.2896361E-02
         462 -1.2016953E-03
         463 -2.8419788E-03
         464  1.2709098E-03
         465 -1.1097960E-03
         466 -1.6739627E-02
         467 -3.1691527E-03
         468  1.0776572E-02
         469 -5.8331694E-03
         470 -5.0959829E-03
         471  2.4002142E-05
         472  1.0437865E-03
         473  6.0657837E-04
         474 -9.1856709E-03
         475 -1.1070324E-02
         476  1.5137498E-03
         477 -3.6469297E-04
         478  9.8344556E-04
         479  7.3524611E-03
         480  8.1666512E-03
         481  5.4670678E-04
         482 -2.5670422E-04
         483  1.2965142E-03
         484  1.0778558E-02
         485  1.2110956E-02
         486 -9.0699847E-05
         487 -4.8375892E-04
         488 -5.1291927E-04
         489 -1.5444218E-03
         490 -1.6607310E-03
         491 -2.9050902E-04
         492  5.8971951E-04
         493  2.1531033E-04
         494 -1.4729874E-03
         495 -1.8920862E-03
         496 -9.2636410E-04
         497  2.7651235E-04
         498  8.5181824E-04
         499  1.0972438E-02
         500  1.2126376E-02
         501 -1.8097637E-03
         502  4.6287075E-04
         503  4.1998911E-04
         504  7.5148386E-03
         505  8.1795715E-03
         506  4.0209314E-04
         507 -8.8838482E-04
         508 -2.6066806E-03
         509 -8.9991428E-03
         510 -1.1028958E-02
         511  1.7049108E-02
         512  3.1056688E-03
         513 -1.1641494E-02
         514 -3.6578288E-03
         515 -4.7922609E-03
         516 -2.3576163E-02
         517  4.3559202E-04
         518  1.2007898E-03
         519  1.2947200E-03
         520 -2.0774489E-03
         521 -5.0496560E-04
         522  2.6413793E-04
         523  6.7148474E-05
         524 -1.6318288E-04
         525 -1.7438504E-04
         526 -1.7448437E-03
         527  1.0202418E-04
         528  3.9680941E-05
         529  1.9160885E-04
         530 -1.3079108E-03
         531  2.4734573E-02
         532 -3.8356223E-04
         533  1.1884399E-03
         534  1.3276098E-03
         535  2.1125362E-03
         536 -1.8250694E-02
         537 -3.2568316E-03
         538 -1.2329378E-02
         539 -3.8336848E-03
         540  5.0658863E-03
 Sym= Particle
 Ene= -0.2626190    
 Spin= Alpha
 Occup= 2
           1  3.1162865E-04
           2  3.4765888E-03
           3  3.8552176E-02
           4 -4.1487064E-02
           5 -2.6855979E-03
           6  2.4323852E-03
           7 -9.0960385E-03
           8  8.2919067E-03
           9  2.1781403E-04
          10  1.7685792E-03
          11  2.0093948E-02
          12 -1.8939439E-02
          13 -4.1278545E-05
          14  3.4418053E-03
          15 -4.5013335E-03
          16  5.6966962E-03
          17 -2.3482817E-03
          18 -1.0337804E-02
          19 -6.0353085E-02
          20  5.8541898E-02
          21  8.1705954E-04
          22  1.0388220E-02
          23  1.2483509E-02
          24 -1.5448133E-02
          25  3.0788116E-02
          26 -1.8790226E-02
          27  7.8735605E-02
          28 -2.3501772E-02
          29 -2.6503010E-02
          30  2.1407198E-02
          31 -2.7516235E-02
          32  8.7343212E-03
          33 -9.9089080E-03
          34  1.4731709E-02
          35  3.4888010E-03
          36 -5.7942430E-03
          37  6.4850133E-03
          38 -7.2774398E-03
          39  4.9845572E-03
          40  2.7989922E-03
          41  5.2461280E-03
          42 -7.4183173E-03
          43 -4.3386344E-02
          44  5.8322981E-02
          45 -3.8699675E-03
          46  1.8701848E-03
          47  1.3807937E-02
          48 -1.4732694E-02
          49  8.1313847E-05
          50  6.0433267E-05
          51  7.2747022E-03
          52  3.7614810E-03
          53 -3.2152099E-04
          54  3.4103647E-04
          55  5.0344541E-05
          56 -1.3359364E-04
          57  9.2759896E-03
          58 -1.4400891E-02
          59 -2.2323560E-03
          60  4.5954930E-03
          61 -5.3850282E-03
          62  7.7071758E-03
          63  6.6802148E-03
          64 -7.7160477E-04
          65 -6.0294024E-03
          66 -9.0736890E-04
          67 -4.0854890E-02
          68  5.4735057E-02
          69  5.0172368E-03
          70  1.1649310E-03
          71  1.2775246E-02
          72 -1.3079470E-02
          73 -7.3883537E-04
          74  3.2083262E-03
          75  4.2904958E-02
          76 -4.7080610E-02
          77  3.5459395E-03
          78 -3.6860288E-03
          79 -9.1749318E-03
          80  9.9005513E-03
          81 -5.6194211E-04
          82  1.4856866E-03
          83  1.2652094E-02
          84 -1.2215315E-02
          85  1.2254941E-03
          86 -3.7318429E-03
          87 -1.9788605E-03
          88  4.7498904E-03
          89  7.4882945E-04
          90  1.4185300E-03
          91 -5.9980538E-02
          92  5.7439849E-02
          93  1.4531706E-03
          94 -8.4584262E-03
          95  1.3525890E-02
          96 -1.4484365E-02
          97 -3.0714815E-02
          98  3.2371324E-02
          99  8.1795320E-02
         100 -2.9828627E-02
         101  2.7178910E-02
         102 -2.5055543E-02
         103 -2.6749142E-02
         104  1.1505849E-02
         105  1.4081092E-04
         106  9.0917177E-04
         107  1.1844374E-02
         108 -7.1994839E-03
         109 -3.3246714E-04
         110  2.1233272E-03
         111  1.3639017E-02
         112  1.1521719E-02
         113  3.6977301E-04
         114  1.1443743E-02
         115  0.1608486    
         116  0.3726135    
         117  4.3070988E-05
         118 -3.4574391E-03
         119 -5.4525394E-02
         120 -0.1358487    
         121 -2.0467367E-03
         122 -8.3785886E-03
         123 -8.0148794E-02
         124 -0.1853727    
         125  3.0622428E-04
         126  5.5698934E-03
         127  2.8957371E-02
         128  6.3400030E-02
         129 -4.3228030E-04
         130 -5.7026092E-03
         131 -6.9028117E-02
         132 -0.1399934    
         133  1.4579635E-04
         134  1.9573958E-03
         135  1.7601116E-02
         136  3.9176267E-02
         137  1.4250344E-03
         138  1.2492352E-02
         139  0.1322037    
         140  0.3040086    
         141 -8.7574159E-04
         142 -5.5123484E-03
         143 -3.6402084E-02
         144 -8.4191106E-02
         145 -1.6973296E-03
         146  7.0185395E-04
         147 -4.8097689E-04
         148  7.5680666E-02
         149 -7.9407287E-04
         150  1.4511822E-03
         151  1.2037823E-02
         152 -6.9262017E-03
         153 -9.9666724E-03
         154 -6.2104431E-03
         155  1.7936599E-02
         156 -9.5567144E-02
         157  8.9115696E-03
         158  8.3684297E-03
         159 -5.7407860E-03
         160  3.3191890E-02
         161  6.0800780E-03
         162  8.8387995E-04
         163 -3.0656499E-03
         164  3.9677820E-03
         165 -3.3962533E-03
         166  3.6305963E-04
         167  1.1516865E-03
         168 -6.6662543E-03
         169 -2.6606035E-03
         170  3.6870977E-03
         171  2.4182608E-03
         172  0.1064735    
         173  1.0310582E-04
         174 -4.7352387E-05
         175 -1.9690932E-03
         176 -3.8434621E-02
         177  9.5874760E-03
         178 -5.2290615E-03
         179 -1.4118096E-02
         180 -0.1493263    
         181 -7.6610865E-03
         182  8.1128720E-03
         183  4.4159321E-03
         184  4.7279671E-02
         185 -1.5329138E-03
         186 -4.7847131E-04
         187 -5.0885812E-04
         188  5.9980895E-02
         189 -8.1399479E-04
         190 -1.4267068E-03
         191 -1.1291051E-02
         192 -3.6052440E-03
         193  1.3550214E-03
         194 -1.2248903E-02
         195 -0.1292114    
         196  0.2922065    
         197 -7.8734785E-04
         198  5.2900556E-03
         199  3.5656948E-02
         200 -8.1508026E-02
         201 -9.5477991E-04
         202  4.9241562E-03
         203  6.5437816E-02
         204 -0.1310176    
         205  6.8264484E-04
         206 -1.6226271E-03
         207 -1.6942652E-02
         208  3.6910754E-02
         209 -1.6873989E-03
         210  8.5621318E-03
         211  7.8941345E-02
         212 -0.1789822    
         213  1.8064266E-04
         214 -5.5623078E-03
         215 -2.8477252E-02
         216  6.1418716E-02
         217  4.8942276E-04
         218 -1.2083361E-02
         219 -0.1564425    
         220  0.3557488    
         221 -1.3683568E-04
         222  3.6961820E-03
         223  5.3519573E-02
         224 -0.1305928    
         225  1.0851290E-04
         226 -8.8246015E-04
         227 -1.0484053E-02
         228 -5.7073138E-03
         229 -2.5440060E-04
         230 -2.1736685E-03
         231 -1.3422125E-02
         232  1.0835228E-02
         233  2.9549958E-02
         234  1.7022027E-02
         235 -7.7242672E-02
         236 -2.5171760E-02
         237 -2.5684077E-02
         238 -2.0197187E-02
         239  2.7228370E-02
         240  9.4539076E-03
         241 -2.1116184E-03
         242  1.0747179E-02
         243  5.7429336E-02
         244  5.6536127E-02
         245  4.2298989E-04
         246 -1.0282762E-02
         247 -1.1860903E-02
         248 -1.4913744E-02
         249  3.6577482E-04
         250 -1.5914959E-03
         251 -1.7818199E-02
         252 -1.7204309E-02
         253 -5.3830404E-04
         254 -3.4265204E-03
         255  3.9874082E-03
         256  5.3969268E-03
         257  4.3554450E-04
         258 -3.9605820E-03
         259 -3.7238184E-02
         260 -4.1063268E-02
         261 -3.0621574E-03
         262 -2.1819747E-03
         263  8.7240646E-03
         264  8.3619375E-03
         265  5.2285520E-03
         266  7.3395343E-03
         267  4.0850047E-02
         268  5.5797759E-02
         269 -4.1918852E-03
         270 -1.7358667E-03
         271 -1.3002347E-02
         272 -1.4036851E-02
         273 -9.4549069E-03
         274 -1.3969242E-02
         275 -2.1538809E-03
         276 -4.2437925E-03
         277  5.9749139E-03
         278  6.7966469E-03
         279 -5.2843657E-03
         280  2.1758170E-03
         281  1.4882936E-04
         282 -1.8606667E-04
         283 -6.3586524E-03
         284  4.2152754E-03
         285 -3.6287645E-04
         286 -2.7661826E-04
         287 -3.3870878E-04
         288 -3.4028999E-04
         289  9.0297265E-03
         290  1.3631789E-02
         291 -4.2988043E-04
         292  1.5431636E-03
         293 -5.4493183E-03
         294 -7.4368147E-03
         295 -5.4523842E-03
         296  2.4387821E-04
         297 -5.7003647E-03
         298  1.3473679E-03
         299  3.9431665E-02
         300  5.3006008E-02
         301  4.6838783E-03
         302 -1.2310288E-03
         303 -1.2376315E-02
         304 -1.2845743E-02
         305 -6.3157978E-04
         306 -3.5067983E-03
         307 -3.9358735E-02
         308 -4.3309227E-02
         309  3.3082608E-03
         310  3.6213864E-03
         311  8.4153721E-03
         312  9.0562683E-03
         313 -4.5777069E-04
         314 -1.6372596E-03
         315 -1.3579050E-02
         316 -1.3272871E-02
         317  1.0919919E-03
         318  3.6631457E-03
         319  2.2294698E-03
         320  4.9014878E-03
         321  8.2493742E-04
         322 -4.9827271E-04
         323  5.6990821E-02
         324  5.4882120E-02
         325  1.2699058E-03
         326  7.9806773E-03
         327 -1.2920674E-02
         328 -1.4011275E-02
         329 -2.9429387E-02
         330 -3.1595942E-02
         331 -7.6565243E-02
         332 -2.7071802E-02
         333  2.5888013E-02
         334  2.4352396E-02
         335  2.4893064E-02
         336  1.0300191E-02
         337 -5.3914747E-04
         338  5.4872697E-03
         339  7.6178700E-02
         340 -0.1775780    
         341  1.7996036E-03
         342 -3.6419620E-04
         343 -2.7825186E-02
         344  5.9543524E-02
         345 -9.0905686E-04
         346  6.3651605E-03
         347  6.5578513E-02
         348 -0.1337464    
         349  9.4742602E-04
         350 -1.7009993E-03
         351 -1.9330341E-02
         352  3.1069715E-02
         353 -9.6231038E-03
         354  5.7661338E-03
         355 -1.5779860E-02
         356 -9.7188100E-02
         357  8.7588700E-03
         358 -7.9162214E-03
         359  5.0610700E-03
         360  3.3359479E-02
         361  5.9103826E-03
         362 -7.2826381E-04
         363  3.4010643E-03
         364  1.7728005E-02
         365 -3.1408919E-03
         366 -3.0486798E-04
         367 -1.1192745E-03
         368 -9.4131427E-03
         369 -2.6852754E-03
         370 -3.9444193E-03
         371 -3.6582605E-03
         372  0.1018191    
         373  1.0001893E-04
         374  1.3515164E-04
         375  2.4838315E-03
         376 -3.7853651E-02
         377  1.0025162E-02
         378  5.3232135E-03
         379  1.7085833E-02
         380 -0.1626340    
         381 -8.0015557E-03
         382 -8.4095225E-03
         383 -5.1058508E-03
         384  4.9698420E-02
         385 -1.4386405E-03
         386 -6.3083377E-03
         387 -6.9476388E-02
         388 -0.1430468    
         389  1.4542760E-03
         390  1.6021332E-03
         391  2.0404270E-02
         392  3.2989338E-02
         393 -4.1755388E-04
         394 -5.3612594E-03
         395 -7.6923750E-02
         396 -0.1837909    
         397  1.9747717E-03
         398  1.4658760E-04
         399  2.7936962E-02
         400  6.1460920E-02
         401  6.6388474E-04
         402 -5.3709601E-03
         403  3.5914166E-03
         404  7.0631225E-03
         405 -1.2261242E-02
         406 -4.3895878E-03
         407 -3.0400488E-03
         408  4.9305783E-04
         409  4.1662841E-03
         410 -7.4318270E-03
         411 -5.9450152E-03
         412  2.7445073E-03
         413 -1.2637742E-02
         414 -3.3571821E-02
         415  1.6892169E-02
         416 -6.3614971E-03
         417 -2.0395375E-03
         418 -1.2559970E-04
         419 -1.0508263E-02
         420  1.3470895E-02
         421  7.4748816E-03
         422  1.0571339E-03
         423  1.8078422E-04
         424 -9.2004444E-03
         425  1.2627181E-02
         426 -3.7727910E-05
         427  4.9755848E-03
         428 -1.9585649E-03
         429  9.8366104E-03
         430 -1.3575993E-02
         431  4.8602591E-03
         432  3.1668888E-03
         433 -3.1969746E-04
         434  3.0123966E-03
         435 -4.7516571E-03
         436  7.0811510E-03
         437 -3.1328530E-03
         438  3.9430526E-03
         439 -3.4476373E-02
         440  1.8331822E-02
         441  5.5526621E-03
         442 -2.3104756E-03
         443  2.0444274E-03
         444 -1.9250927E-02
         445 -4.9156297E-02
         446  8.4220717E-04
         447  1.7956103E-04
         448 -1.5801201E-03
         449 -1.0840598E-02
         450 -2.7289459E-02
         451  2.4782787E-03
         452  2.0831025E-03
         453  2.4907470E-03
         454 -2.1046406E-04
         455 -9.5007252E-03
         456 -5.0501651E-03
         457  1.1112791E-03
         458  2.2154632E-03
         459 -3.5410858E-04
         460 -4.4782478E-03
         461  1.0228221E-03
         462  3.5203909E-04
         463  1.9607975E-03
         464  1.0383491E-02
         465 -2.6033957E-02
         466  5.0566234E-03
         467 -2.1903396E-03
         468 -1.6796021E-03
         469  1.9052999E-02
         470 -4.7446929E-02
         471 -5.8679078E-03
         472  2.6156693E-03
         473  1.2092082E-02
         474  3.2064836E-02
         475  1.6583283E-02
         476 -4.3489998E-03
         477 -3.1004241E-03
         478 -6.5408909E-04
         479 -3.9150901E-03
         480 -6.6528693E-03
         481  4.8742857E-04
         482 -5.3424849E-03
         483 -3.4150786E-03
         484 -7.2345212E-03
         485 -1.1949413E-02
         486 -6.2827254E-03
         487 -1.9759636E-03
         488  6.7221897E-04
         489  9.7875996E-03
         490  1.3014833E-02
         491  7.0796725E-03
         492  1.1829404E-03
         493  7.6418451E-05
         494  8.9310529E-03
         495  1.2321407E-02
         496 -1.0186971E-04
         497  4.9603651E-03
         498  1.8175861E-03
         499 -8.9731850E-03
         500 -1.2644111E-02
         501  4.5629991E-03
         502  3.2828411E-03
         503  2.7647009E-04
         504 -3.2396321E-03
         505 -5.0139539E-03
         506  6.7659612E-03
         507 -2.8805241E-03
         508 -3.6125681E-03
         509  3.2999262E-02
         510  1.7715445E-02
         511 -2.9963467E-03
         512  4.6935724E-04
         513  2.3996306E-03
         514  2.0386029E-02
         515 -4.6301819E-02
         516  2.5623402E-04
         517 -1.9924277E-03
         518 -6.5373620E-03
         519  1.2201226E-02
         520 -3.0541260E-02
         521  2.5148371E-03
         522  2.1828536E-03
         523 -2.5116287E-03
         524  3.9897754E-05
         525 -9.8444978E-03
         526 -4.6144067E-03
         527  1.0632101E-03
         528 -2.1943804E-03
         529  1.8168404E-04
         530 -3.0291087E-03
         531  5.6531443E-04
         532 -2.0842256E-03
         533  7.1613644E-03
         534 -1.2722129E-02
         535 -3.2180563E-02
         536 -3.2194529E-03
         537  6.1331375E-04
         538 -2.2476313E-03
         539 -2.1074157E-02
         540 -4.7861010E-02
