 [Molden Format]
 [Atoms] Angs
C       1      6     -7.51979681     -2.52286740      0.02168204
O       2      8     -6.19876333     -3.00100892      0.04425888
C       3      6     -5.18005502     -2.09022818      0.03358402
C       4      6     -3.89100568     -2.64492355      0.06606636
C       5      6     -2.76019679     -1.85884267      0.05183283
C       6      6     -2.92458583     -0.48143341     -0.00766862
C       7      6     -4.21377917      0.08767480     -0.00906749
C       8      6     -5.34893726     -0.71571523      0.00636969
C       9      6     -4.03403710      1.51260281     -0.01120419
C      10      6     -4.91630280      2.58481929     -0.03607443
C      11      6     -4.40161918      3.86533657     -0.06170337
C      12      6     -3.02587182      4.08271154     -0.08213428
C      13      6     -2.12803625      3.03250130     -0.05806691
C      14      6     -2.63912897      1.74362671     -0.00115072
N      15      7     -1.97639024      0.53018341      0.00038464
C      16      6     -0.59473060      0.35197625      0.00268398
C      17      6      0.00109992     -0.54885457     -0.87962539
C      18      6      1.36706392     -0.73064039     -0.87045015
C      19      6      2.17316144     -0.00392156      0.00485309
C      20      6      3.62575026     -0.18994673      0.00461079
C      21      6      4.50353973      0.90386334     -0.00953169
C      22      6      4.02505601      2.22968879     -0.07564295
N      23      7      3.68556597      3.32301618     -0.14984585
C      24      6      5.89178094      0.67676690     -0.01091854
C      25      6      6.85870306      1.81185498     -0.03131452
N      26      7      6.39545519     -0.54489128      0.00109620
C      27      6      5.60001610     -1.60008705      0.01510483
C      28      6      6.24929206     -2.94239867      0.03263242
C      29      6      4.19940271     -1.46970795      0.01747424
C      30      6      3.40221518     -2.63205296      0.08607589
N      31      7      2.79848942     -3.60447028      0.16307577
C      32      6      1.57582829      0.90245509      0.87980716
C      33      6      0.20819229      1.07184345      0.88706296
H      34      1     -8.15459439     -3.40760136      0.02934113
H      35      1     -7.74228310     -1.91164300      0.90289903
H      36      1     -7.72235909     -1.94098674     -0.88386541
H      37      1     -3.81126997     -3.71931657      0.10814463
H      38      1     -1.78149202     -2.31035009      0.10085581
H      39      1     -6.32407763     -0.25649222      0.00394132
H      40      1     -5.98252932      2.41543773     -0.04121235
H      41      1     -5.07045866      4.71287232     -0.07820720
H      42      1     -2.65124477      5.09469443     -0.12233550
H      43      1     -1.06500322      3.21535323     -0.09803029
H      44      1     -0.61147991     -1.08824318     -1.58519268
H      45      1      1.81745733     -1.41555850     -1.57364672
H      46      1      6.70153014      2.42699225     -0.91663167
H      47      1      6.71398819      2.44956282      0.84000437
H      48      1      7.87274460      1.42314168     -0.03313344
H      49      1      7.32859908     -2.82217161      0.03666938
H      50      1      5.94012764     -3.50110093      0.91529442
H      51      1      5.95006954     -3.51989157     -0.84135013
H      52      1      2.18376495      1.45091107      1.58414730
H      53      1     -0.24883790      1.74780704      1.59297547
 [GTO]
           1   0
s              4   1.000000
     36.91492742     -0.01198412
      6.35705596     -0.05472052
      0.51081657      0.58055871
      0.19468484      0.47700799
p              4   1.000000
      5.94980494      0.05713170
      1.54269558      0.28574555
      0.54384793      0.55178731
      0.21651523      0.26323149
s              7   1.000000
      0.38350848     -0.19450603
      0.04707223      0.93978163
      0.02222627      0.24680093
     36.91492742      0.00523212
      6.35705596      0.02389030
      0.51081657     -0.25346472
      0.19468484     -0.20825577
p              7   1.000000
      1.83062075     -0.01151567
      0.10124670      0.56589746
      0.03901771      0.59099586
      5.94980494     -0.02396184
      1.54269558     -0.11984572
      0.54384793     -0.23142739
      0.21651523     -0.11040301
 
           2   0
s              4   1.000000
     77.83648024     -0.01198412
     13.40408597     -0.05472052
      1.07707550      0.58055871
      0.41050013      0.47700799
p              4   1.000000
      8.02671416      0.05713170
      2.08120712      0.28574555
      0.73368991      0.55178731
      0.29209460      0.26323149
s              7   1.000000
      0.57971233     -0.18690982
      0.07115450      0.90307957
      0.03359728      0.23716240
     77.83648024      0.00377888
     13.40408597      0.01725467
      1.07707550     -0.18306387
      0.41050013     -0.15041188
p              7   1.000000
      2.76717072     -0.01172367
      0.15304476      0.57611907
      0.05897927      0.60167079
      8.02671416     -0.02672224
      2.08120712     -0.13365193
      0.73368991     -0.25808780
      0.29209460     -0.12312142
 
           3   0
s              4   1.000000
     35.07562383     -0.01198412
      6.04031266     -0.05472053
      0.48536490      0.58055871
      0.18498458      0.47700799
p              4   1.000000
      5.65335312      0.05713170
      1.46583004      0.28574555
      0.51675045      0.55178731
      0.20572726      0.26323149
s              7   1.000000
      0.38350848     -0.19610008
      0.04707223      0.94748355
      0.02222627      0.24882357
     35.07562383      0.00549448
      6.04031266      0.02508826
      0.48536490     -0.26617447
      0.18498458     -0.21869855
p              7   1.000000
      1.83062075     -0.01160427
      0.10124670      0.57025146
      0.03901771      0.59554295
      5.65335312     -0.02516861
      1.46583004     -0.12588141
      0.51675045     -0.24308259
      0.20572726     -0.11596314
 
           4   0
s              4   1.000000
     34.99582242     -0.01198412
      6.02657020     -0.05472053
      0.48426063      0.58055871
      0.18456371      0.47700799
p              4   1.000000
      5.64049104      0.05713170
      1.46249510      0.28574555
      0.51557478      0.55178731
      0.20525920      0.26323149
s              7   1.000000
      0.38350848     -0.19617433
      0.04707223      0.94784227
      0.02222627      0.24891778
     34.99582242      0.00550644
      6.02657020      0.02514290
      0.48426063     -0.26675415
      0.18456371     -0.21917484
p              7   1.000000
      1.83062075     -0.01160839
      0.10124670      0.57045428
      0.03901771      0.59575477
      5.64049104     -0.02522364
      1.46249510     -0.12615663
      0.51557478     -0.24361403
      0.20525920     -0.11621667
 
           5   0
s              4   1.000000
     34.93898891     -0.01198412
      6.01678300     -0.05472052
      0.48347419      0.58055871
      0.18426398      0.47700799
p              4   1.000000
      5.63133083      0.05713170
      1.46011999      0.28574555
      0.51473748      0.55178731
      0.20492586      0.26323149
s              7   1.000000
      0.38350848     -0.19622748
      0.04707223      0.94809910
      0.02222627      0.24898522
     34.93898891      0.00551500
      6.01678300      0.02518195
      0.48347419     -0.26716851
      0.18426398     -0.21951529
p              7   1.000000
      1.83062075     -0.01161135
      0.10124670      0.57059947
      0.03901771      0.59590640
      5.63133083     -0.02526297
      1.46011999     -0.12635334
      0.51473748     -0.24399390
      0.20492586     -0.11639789
 
           6   0
s              4   1.000000
     35.61871495     -0.01198412
      6.13383745     -0.05472052
      0.49288001      0.58055871
      0.18784877      0.47700800
p              4   1.000000
      5.74088644      0.05713170
      1.48852613      0.28574555
      0.52475152      0.55178731
      0.20891262      0.26323149
s              7   1.000000
      0.38350848     -0.19560652
      0.04707223      0.94509882
      0.02222627      0.24819729
     35.61871495      0.00541437
      6.13383745      0.02472251
      0.49288001     -0.26229403
      0.18784877     -0.21551024
p              7   1.000000
      1.83062075     -0.01157683
      0.10124670      0.56890325
      0.03901771      0.59413496
      5.74088644     -0.02480024
      1.48852613     -0.12403897
      0.52475152     -0.23952474
      0.20891262     -0.11426587
 
           7   0
s              4   1.000000
     35.42238606     -0.01198412
      6.10002799     -0.05472053
      0.49016328      0.58055871
      0.18681336      0.47700799
p              4   1.000000
      5.70924291      0.05713170
      1.48032143      0.28574555
      0.52185911      0.55178731
      0.20776111      0.26323149
s              7   1.000000
      0.38350848     -0.19578262
      0.04707223      0.94594966
      0.02222627      0.24842075
     35.42238606      0.00544307
      6.10002799      0.02485352
      0.49016328     -0.26368396
      0.18681336     -0.21665226
p              7   1.000000
      1.83062075     -0.01158662
      0.10124670      0.56938427
      0.03901771      0.59463730
      5.70924291     -0.02493219
      1.48032143     -0.12469895
      0.52185911     -0.24079919
      0.20776111     -0.11487385
 
           8   0
s              4   1.000000
     34.98331726     -0.01198412
      6.02441671     -0.05472052
      0.48408759      0.58055871
      0.18449776      0.47700799
p              4   1.000000
      5.63847550      0.05713170
      1.46197250      0.28574555
      0.51539055      0.55178731
      0.20518586      0.26323149
s              7   1.000000
      0.38350848     -0.19618601
      0.04707223      0.94789869
      0.02222627      0.24893258
     34.98331726      0.00550832
      6.02441671      0.02515148
      0.48408759     -0.26684522
      0.18449776     -0.21924966
p              7   1.000000
      1.83062075     -0.01160904
      0.10124670      0.57048617
      0.03901771      0.59578807
      5.63847550     -0.02523228
      1.46197250     -0.12619986
      0.51539055     -0.24369752
      0.20518586     -0.11625650
 
           9   0
s              4   1.000000
     35.42283897     -0.01198412
      6.10010598     -0.05472052
      0.49016954      0.58055871
      0.18681575      0.47700799
p              4   1.000000
      5.70931591      0.05713170
      1.48034036      0.28574555
      0.52186579      0.55178731
      0.20776376      0.26323149
s              7   1.000000
      0.38350848     -0.19578221
      0.04707223      0.94594769
      0.02222627      0.24842022
     35.42283897      0.00544300
      6.10010598      0.02485321
      0.49016954     -0.26368074
      0.18681575     -0.21664962
p              7   1.000000
      1.83062075     -0.01158660
      0.10124670      0.56938315
      0.03901771      0.59463613
      5.70931591     -0.02493189
      1.48034036     -0.12469742
      0.52186579     -0.24079623
      0.20776376     -0.11487243
 
          10   0
s              4   1.000000
     34.93832854     -0.01198412
      6.01666928     -0.05472053
      0.48346505      0.58055871
      0.18426050      0.47700799
p              4   1.000000
      5.63122440      0.05713170
      1.46009240      0.28574555
      0.51472775      0.55178731
      0.20492199      0.26323149
s              7   1.000000
      0.38350848     -0.19622810
      0.04707223      0.94810208
      0.02222627      0.24898600
     34.93832854      0.00551510
      6.01666928      0.02518241
      0.48346505     -0.26717333
      0.18426050     -0.21951925
p              7   1.000000
      1.83062075     -0.01161138
      0.10124670      0.57060117
      0.03901771      0.59590814
      5.63122440     -0.02526343
      1.46009240     -0.12635563
      0.51472775     -0.24399832
      0.20492199     -0.11640000
 
          11   0
s              4   1.000000
     34.92149017     -0.01198412
      6.01376957     -0.05472053
      0.48323204      0.58055871
      0.18417169      0.47700799
p              4   1.000000
      5.62851045      0.05713170
      1.45938871      0.28574555
      0.51447968      0.55178731
      0.20482323      0.26323149
s              7   1.000000
      0.38350848     -0.19624390
      0.04707223      0.94817839
      0.02222627      0.24900604
     34.92149017      0.00551763
      6.01376957      0.02519400
      0.48323204     -0.26729634
      0.18417169     -0.21962032
p              7   1.000000
      1.83062075     -0.01161226
      0.10124670      0.57064431
      0.03901771      0.59595321
      5.62851045     -0.02527511
      1.45938871     -0.12641403
      0.51447968     -0.24411109
      0.20482323     -0.11645379
 
          12   0
s              4   1.000000
     34.93555231     -0.01198412
      6.01619119     -0.05472053
      0.48342663      0.58055871
      0.18424585      0.47700800
p              4   1.000000
      5.63077693      0.05713170
      1.45997638      0.28574555
      0.51468685      0.55178731
      0.20490570      0.26323149
s              7   1.000000
      0.38350848     -0.19623071
      0.04707223      0.94811466
      0.02222627      0.24898930
     34.93555231      0.00551551
      6.01619119      0.02518432
      0.48342663     -0.26719361
      0.18424585     -0.21953591
p              7   1.000000
      1.83062075     -0.01161153
      0.10124670      0.57060827
      0.03901771      0.59591559
      5.63077693     -0.02526535
      1.45997638     -0.12636526
      0.51468685     -0.24401691
      0.20490570     -0.11640887
 
          13   0
s              4   1.000000
     34.94230506     -0.01198412
      6.01735407     -0.05472052
      0.48352007      0.58055871
      0.18428147      0.47700799
p              4   1.000000
      5.63186532      0.05713170
      1.46025858      0.28574555
      0.51478634      0.55178731
      0.20494531      0.26323149
s              7   1.000000
      0.38350848     -0.19622438
      0.04707223      0.94808407
      0.02222627      0.24898128
     34.94230506      0.00551450
      6.01735407      0.02517967
      0.48352007     -0.26714430
      0.18428147     -0.21949540
p              7   1.000000
      1.83062075     -0.01161118
      0.10124670      0.57059098
      0.03901771      0.59589754
      5.63186532     -0.02526067
      1.46025858     -0.12634185
      0.51478634     -0.24397170
      0.20494531     -0.11638730
 
          14   0
s              4   1.000000
     35.61923129     -0.01198412
      6.13392636     -0.05472053
      0.49288716      0.58055871
      0.18785150      0.47700799
p              4   1.000000
      5.74096966      0.05713170
      1.48854771      0.28574555
      0.52475913      0.55178730
      0.20891565      0.26323149
s              7   1.000000
      0.38350848     -0.19560606
      0.04707223      0.94509660
      0.02222627      0.24819673
     35.61923129      0.00541430
      6.13392636      0.02472216
      0.49288716     -0.26229039
      0.18785150     -0.21550725
p              7   1.000000
      1.83062075     -0.01157681
      0.10124670      0.56890199
      0.03901771      0.59413362
      5.74096966     -0.02479989
      1.48854771     -0.12403724
      0.52475913     -0.23952141
      0.20891565     -0.11426428
 
          15   0
s              4   1.000000
     61.42119577     -0.01198412
     10.57723815     -0.05472052
      0.84992622      0.58055871
      0.32392792      0.47700799
p              4   1.000000
      7.23983771      0.05713170
      1.87718181      0.28574555
      0.66176468      0.55178731
      0.26345992      0.26323149
s              7   1.000000
      0.47894987     -0.18771716
      0.05878681      0.90698034
      0.02775758      0.23818680
     61.42119577      0.00395562
     10.57723815      0.01806169
      0.84992622     -0.19162592
      0.32392792     -0.15744677
p              7   1.000000
      2.28619608     -0.01155978
      0.12644335      0.56806539
      0.04872781      0.59325990
      7.23983771     -0.02456897
      1.87718181     -0.12288228
      0.66176468     -0.23729112
      0.26345992     -0.11320031
 
          16   0
s              4   1.000000
     35.13319330     -0.01198412
      6.05022660     -0.05472052
      0.48616152      0.58055871
      0.18528819      0.47700800
p              4   1.000000
      5.66263194      0.05713170
      1.46823591      0.28574555
      0.51759859      0.55178731
      0.20606492      0.26323149
s              7   1.000000
      0.38350848     -0.19604680
      0.04707223      0.94722609
      0.02222627      0.24875596
     35.13319330      0.00548588
      6.05022660      0.02504899
      0.48616152     -0.26575781
      0.18528819     -0.21835621
p              7   1.000000
      1.83062075     -0.01160131
      0.10124670      0.57010591
      0.03901771      0.59539095
      5.66263194     -0.02512906
      1.46823591     -0.12568360
      0.51759859     -0.24270059
      0.20606492     -0.11578091
 
          17   0
s              4   1.000000
     35.01216081     -0.01198412
      6.02938380     -0.05472053
      0.48448672      0.58055871
      0.18464988      0.47700800
p              4   1.000000
      5.64312439      0.05713170
      1.46317789      0.28574555
      0.51581548      0.55178731
      0.20535503      0.26323149
s              7   1.000000
      0.38350848     -0.19615909
      0.04707223      0.94776866
      0.02222627      0.24889843
     35.01216081      0.00550399
      6.02938380      0.02513169
      0.48448672     -0.26663527
      0.18464988     -0.21907716
p              7   1.000000
      1.83062075     -0.01160755
      0.10124670      0.57041265
      0.03901771      0.59571128
      5.64312439     -0.02521236
      1.46317789     -0.12610019
      0.51581548     -0.24350504
      0.20535503     -0.11616468
 
          18   0
s              4   1.000000
     35.02507987     -0.01198412
      6.03160857     -0.05472053
      0.48466549      0.58055871
      0.18471801      0.47700799
p              4   1.000000
      5.64520664      0.05713170
      1.46371779      0.28574555
      0.51600581      0.55178731
      0.20543081      0.26323149
s              7   1.000000
      0.38350848     -0.19614706
      0.04707223      0.94771050
      0.02222627      0.24888317
     35.02507987      0.00550205
      6.03160857      0.02512284
      0.48466549     -0.26654134
      0.18471801     -0.21899998
p              7   1.000000
      1.83062075     -0.01160688
      0.10124670      0.57037978
      0.03901771      0.59567694
      5.64520664     -0.02520344
      1.46371779     -0.12605559
      0.51600581     -0.24341893
      0.20543081     -0.11612360
 
          19   0
s              4   1.000000
     35.11611472     -0.01198412
      6.04728553     -0.05472052
      0.48592519      0.58055871
      0.18519812      0.47700800
p              4   1.000000
      5.65987928      0.05713170
      1.46752218      0.28574555
      0.51734698      0.55178731
      0.20596475      0.26323149
s              7   1.000000
      0.38350848     -0.19606258
      0.04707223      0.94730236
      0.02222627      0.24877599
     35.11611472      0.00548842
      6.04728553      0.02506062
      0.48592519     -0.26588128
      0.18519812     -0.21845766
p              7   1.000000
      1.83062075     -0.01160218
      0.10124670      0.57014902
      0.03901771      0.59543598
      5.65987928     -0.02514078
      1.46752218     -0.12574222
      0.51734698     -0.24281379
      0.20596475     -0.11583491
 
          20   0
s              4   1.000000
     35.27009418     -0.01198412
      6.07380207     -0.05472052
      0.48805591      0.58055871
      0.18601019      0.47700800
p              4   1.000000
      5.68469710      0.05713170
      1.47395707      0.28574555
      0.51961548      0.55178731
      0.20686788      0.26323149
s              7   1.000000
      0.38350848     -0.19592102
      0.04707223      0.94661838
      0.02222627      0.24859635
     35.27009418      0.00546553
      6.07380207      0.02495608
      0.48805591     -0.26477210
      0.18601019     -0.21754632
p              7   1.000000
      1.83062075     -0.01159431
      0.10124670      0.56976233
      0.03901771      0.59503211
      5.68469710     -0.02503549
      1.47395707     -0.12521560
      0.51961548     -0.24179687
      0.20686788     -0.11534979
 
          21   0
s              4   1.000000
     35.10624487     -0.01198412
      6.04558586     -0.05472052
      0.48578862      0.58055871
      0.18514607      0.47700799
p              4   1.000000
      5.65828850      0.05713170
      1.46710972      0.28574555
      0.51720157      0.55178731
      0.20590686      0.26323149
s              7   1.000000
      0.38350848     -0.19607172
      0.04707223      0.94734647
      0.02222627      0.24878757
     35.10624487      0.00548990
      6.04558586      0.02506735
      0.48578862     -0.26595269
      0.18514607     -0.21851633
p              7   1.000000
      1.83062075     -0.01160269
      0.10124670      0.57017396
      0.03901771      0.59546199
      5.65828850     -0.02514756
      1.46710972     -0.12577612
      0.51720157     -0.24287926
      0.20590686     -0.11586614
 
          22   0
s              4   1.000000
     32.75810773     -0.01198412
      5.64121721     -0.05472053
      0.45329587      0.58055871
      0.17276228      0.47700799
p              4   1.000000
      5.27982486      0.05713170
      1.36897974      0.28574555
      0.48260772      0.55178731
      0.19213445      0.26323149
s              7   1.000000
      0.38350848     -0.19845503
      0.04707223      0.95886178
      0.02222627      0.25181167
     32.75810773      0.00586420
      5.64121721      0.02677644
      0.45329587     -0.28408531
      0.17276228     -0.23341474
p              7   1.000000
      1.83062075     -0.01173519
      0.10124670      0.57668504
      0.03901771      0.60226187
      5.27982486     -0.02686816
      1.36897974     -0.13438175
      0.48260772     -0.25949711
      0.19213445     -0.12379373
 
          23   0
s              4   1.000000
     53.07208708     -0.01198412
      9.13945255     -0.05472053
      0.73439401      0.58055871
      0.27989573      0.47700799
p              4   1.000000
      6.25571177      0.05713170
      1.62201265      0.28574555
      0.57180965      0.55178731
      0.22764728      0.26323149
s              7   1.000000
      0.47894987     -0.19076037
      0.05878681      0.92168400
      0.02775758      0.24204821
     53.07208708      0.00456647
      9.13945255      0.02085092
      0.73439401     -0.22121835
      0.27989573     -0.18176098
p              7   1.000000
      2.28619608     -0.01184658
      0.12644335      0.58215910
      0.04872781      0.60797870
      6.25571177     -0.02824763
      1.62201265     -0.14128118
      0.57180965     -0.27282022
      0.22764728     -0.13014955
 
          24   0
s              4   1.000000
     35.15240137     -0.01198412
      6.05353439     -0.05472052
      0.48642732      0.58055871
      0.18538949      0.47700799
p              4   1.000000
      5.66572783      0.05713170
      1.46903862      0.28574555
      0.51788157      0.55178730
      0.20617758      0.26323149
s              7   1.000000
      0.38350848     -0.19602908
      0.04707223      0.94714044
      0.02222627      0.24873346
     35.15240137      0.00548301
      6.05353439      0.02503591
      0.48642732     -0.26561907
      0.18538949     -0.21824222
p              7   1.000000
      1.83062075     -0.01160032
      0.10124670      0.57005749
      0.03901771      0.59534038
      5.66572783     -0.02511589
      1.46903862     -0.12561773
      0.51788157     -0.24257340
      0.20617758     -0.11572023
 
          25   0
s              4   1.000000
     36.94227741     -0.01198412
      6.36176585     -0.05472052
      0.51119503      0.58055871
      0.19482908      0.47700800
p              4   1.000000
      5.95421311      0.05713170
      1.54383855      0.28574555
      0.54425086      0.55178731
      0.21667565      0.26323149
s              7   1.000000
      0.38350848     -0.19448391
      0.04707223      0.93967479
      0.02222627      0.24677288
     36.94227741      0.00522840
      6.36176585      0.02387333
      0.51119503     -0.25328466
      0.19482908     -0.20810782
p              7   1.000000
      1.83062075     -0.01151444
      0.10124670      0.56583707
      0.03901771      0.59093275
      5.95421311     -0.02394474
      1.54383855     -0.11976019
      0.54425086     -0.23126223
      0.21667565     -0.11032422
 
          26   0
s              4   1.000000
     57.29293571     -0.01198412
      9.86631761     -0.05472052
      0.79280072      0.58055871
      0.30215598      0.47700799
p              4   1.000000
      6.75323154      0.05713170
      1.75101210      0.28574555
      0.61728595      0.55178731
      0.24575217      0.26323149
s              7   1.000000
      0.47894987     -0.18907089
      0.05878681      0.91352108
      0.02775758      0.23990450
     57.29293571      0.00423702
      9.86631761      0.01934658
      0.79280072     -0.20525802
      0.30215598     -0.16864739
p              7   1.000000
      2.28619608     -0.01168773
      0.12644335      0.57435277
      0.04872781      0.59982614
      6.75323154     -0.02626258
      1.75101210     -0.13135291
      0.61728595     -0.25364829
      0.24575217     -0.12100354
 
          27   0
s              4   1.000000
     35.15241994     -0.01198412
      6.05353759     -0.05472052
      0.48642758      0.58055871
      0.18538959      0.47700799
p              4   1.000000
      5.66573082      0.05713170
      1.46903940      0.28574555
      0.51788185      0.55178731
      0.20617769      0.26323149
s              7   1.000000
      0.38350848     -0.19602906
      0.04707223      0.94714036
      0.02222627      0.24873343
     35.15241994      0.00548301
      6.05353759      0.02503590
      0.48642758     -0.26561894
      0.18538959     -0.21824211
p              7   1.000000
      1.83062075     -0.01160032
      0.10124670      0.57005744
      0.03901771      0.59534030
      5.66573082     -0.02511588
      1.46903940     -0.12561767
      0.51788185     -0.24257327
      0.20617769     -0.11572018
 
          28   0
s              4   1.000000
     36.94229073     -0.01198412
      6.36176815     -0.05472052
      0.51119521      0.58055871
      0.19482915      0.47700799
p              4   1.000000
      5.95421526      0.05713170
      1.54383910      0.28574555
      0.54425106      0.55178731
      0.21667573      0.26323149
s              7   1.000000
      0.38350848     -0.19448390
      0.04707223      0.93967474
      0.02222627      0.24677285
     36.94229073      0.00522840
      6.36176815      0.02387332
      0.51119521     -0.25328458
      0.19482915     -0.20810775
p              7   1.000000
      1.83062075     -0.01151444
      0.10124670      0.56583703
      0.03901771      0.59093275
      5.95421526     -0.02394473
      1.54383910     -0.11976015
      0.54425106     -0.23126215
      0.21667573     -0.11032418
 
          29   0
s              4   1.000000
     35.10640091     -0.01198412
      6.04561273     -0.05472052
      0.48579078      0.58055871
      0.18514689      0.47700799
p              4   1.000000
      5.65831365      0.05713170
      1.46711624      0.28574555
      0.51720387      0.55178731
      0.20590777      0.26323149
s              7   1.000000
      0.38350848     -0.19607157
      0.04707223      0.94734577
      0.02222627      0.24878737
     35.10640091      0.00548987
      6.04561273      0.02506725
      0.48579078     -0.26595156
      0.18514689     -0.21851540
p              7   1.000000
      1.83062075     -0.01160268
      0.10124670      0.57017357
      0.03901771      0.59546159
      5.65831365     -0.02514745
      1.46711624     -0.12577559
      0.51720387     -0.24287822
      0.20590777     -0.11586565
 
          30   0
s              4   1.000000
     32.75815951     -0.01198412
      5.64122613     -0.05472052
      0.45329659      0.58055871
      0.17276255      0.47700799
p              4   1.000000
      5.27983320      0.05713170
      1.36898191      0.28574555
      0.48260849      0.55178730
      0.19213475      0.26323149
s              7   1.000000
      0.38350848     -0.19845497
      0.04707223      0.95886149
      0.02222627      0.25181160
     32.75815951      0.00586419
      5.64122613      0.02677640
      0.45329659     -0.28408488
      0.17276255     -0.23341439
p              7   1.000000
      1.83062075     -0.01173518
      0.10124670      0.57668488
      0.03901771      0.60226171
      5.27983320     -0.02686812
      1.36898191     -0.13438155
      0.48260849     -0.25949672
      0.19213475     -0.12379355
 
          31   0
s              4   1.000000
     53.07209545     -0.01198412
      9.13945399     -0.05472052
      0.73439413      0.58055871
      0.27989578      0.47700799
p              4   1.000000
      6.25571276      0.05713170
      1.62201291      0.28574555
      0.57180974      0.55178731
      0.22764731      0.26323149
s              7   1.000000
      0.47894987     -0.19076036
      0.05878681      0.92168397
      0.02775758      0.24204821
     53.07209545      0.00456647
      9.13945399      0.02085092
      0.73439413     -0.22121831
      0.27989578     -0.18176095
p              7   1.000000
      2.28619608     -0.01184658
      0.12644335      0.58215908
      0.04872781      0.60797867
      6.25571276     -0.02824763
      1.62201291     -0.14128116
      0.57180974     -0.27282017
      0.22764731     -0.13014954
 
          32   0
s              4   1.000000
     35.02477447     -0.01198412
      6.03155598     -0.05472052
      0.48466126      0.58055871
      0.18471640      0.47700800
p              4   1.000000
      5.64515741      0.05713170
      1.46370502      0.28574555
      0.51600131      0.55178731
      0.20542901      0.26323149
s              7   1.000000
      0.38350848     -0.19614734
      0.04707223      0.94771187
      0.02222627      0.24888353
     35.02477447      0.00550210
      6.03155598      0.02512305
      0.48466126     -0.26654356
      0.18471640     -0.21900181
p              7   1.000000
      1.83062075     -0.01160689
      0.10124670      0.57038055
      0.03901771      0.59567775
      5.64515741     -0.02520365
      1.46370502     -0.12605664
      0.51600131     -0.24342096
      0.20542901     -0.11612457
 
          33   0
s              4   1.000000
     35.01187257     -0.01198412
      6.02933417     -0.05472052
      0.48448273      0.58055871
      0.18464836      0.47700799
p              4   1.000000
      5.64307794      0.05713170
      1.46316584      0.28574555
      0.51581124      0.55178731
      0.20535334      0.26323149
s              7   1.000000
      0.38350848     -0.19615936
      0.04707223      0.94776995
      0.02222627      0.24889877
     35.01187257      0.00550403
      6.02933417      0.02513189
      0.48448273     -0.26663736
      0.18464836     -0.21907888
p              7   1.000000
      1.83062075     -0.01160756
      0.10124670      0.57041338
      0.03901771      0.59571205
      5.64307794     -0.02521255
      1.46316584     -0.12610118
      0.51581124     -0.24350696
      0.20535334     -0.11616559
 
          34   0
s              4   1.000000
      8.30469933      0.05675242
      1.51965766      0.26014135
      0.42217754      0.53284611
      0.14011693      0.29162544
s              7   1.000000
      0.92936822     -0.06733389
      0.05643440      0.66950977
      0.02166600      0.51465644
      8.30469933     -0.02903408
      1.51965766     -0.13308622
      0.42217754     -0.27259979
      0.14011693     -0.14919323
p              4   1.000000
      0.64737396      0.05713170
      0.16785440      0.28574555
      0.05917387      0.55178731
      0.02355814      0.26323150
 
          35   0
s              4   1.000000
      8.30415231      0.05675242
      1.51955756      0.26014135
      0.42214973      0.53284611
      0.14010770      0.29162544
s              7   1.000000
      0.92936822     -0.06733460
      0.05643440      0.66951678
      0.02166600      0.51466183
      8.30415231     -0.02903555
      1.51955756     -0.13309294
      0.42214973     -0.27261354
      0.14010770     -0.14920076
p              4   1.000000
      0.64737396      0.05713170
      0.16785440      0.28574555
      0.05917387      0.55178731
      0.02355814      0.26323150
 
          36   0
s              4   1.000000
      8.30416039      0.05675242
      1.51955904      0.26014135
      0.42215014      0.53284611
      0.14010784      0.29162544
s              7   1.000000
      0.92936822     -0.06733459
      0.05643440      0.66951668
      0.02166600      0.51466175
      8.30416039     -0.02903552
      1.51955904     -0.13309284
      0.42215014     -0.27261334
      0.14010784     -0.14920065
p              4   1.000000
      0.64737396      0.05713170
      0.16785440      0.28574555
      0.05917387      0.55178731
      0.02355814      0.26323150
 
          37   0
s              4   1.000000
      8.30935499      0.05675242
      1.52050959      0.26014135
      0.42241421      0.53284611
      0.14019548      0.29162544
s              7   1.000000
      0.92936822     -0.06732790
      0.05643440      0.66945018
      0.02166600      0.51461062
      8.30935499     -0.02902162
      1.52050959     -0.13302911
      0.42241421     -0.27248280
      0.14019548     -0.14912920
p              4   1.000000
      0.64737396      0.05713170
      0.16785440      0.28574555
      0.05917387      0.55178731
      0.02355814      0.26323150
 
          38   0
s              4   1.000000
      8.30939443      0.05675242
      1.52051681      0.26014135
      0.42241622      0.53284611
      0.14019614      0.29162544
s              7   1.000000
      0.92936822     -0.06732785
      0.05643440      0.66944968
      0.02166600      0.51461025
      8.30939443     -0.02902152
      1.52051681     -0.13302863
      0.42241622     -0.27248181
      0.14019614     -0.14912866
p              4   1.000000
      0.64737396      0.05713170
      0.16785440      0.28574555
      0.05917387      0.55178731
      0.02355814      0.26323150
 
          39   0
s              4   1.000000
      8.30955436      0.05675242
      1.52054607      0.26014135
      0.42242435      0.53284611
      0.14019884      0.29162544
s              7   1.000000
      0.92936822     -0.06732764
      0.05643440      0.66944763
      0.02166600      0.51460868
      8.30955436     -0.02902109
      1.52054607     -0.13302666
      0.42242435     -0.27247779
      0.14019884     -0.14912646
p              4   1.000000
      0.64737396      0.05713170
      0.16785440      0.28574555
      0.05917387      0.55178731
      0.02355814      0.26323150
 
          40   0
s              4   1.000000
      8.30893188      0.05675242
      1.52043216      0.26014135
      0.42239270      0.53284611
      0.14018834      0.29162544
s              7   1.000000
      0.92936822     -0.06732844
      0.05643440      0.66945559
      0.02166600      0.51461479
      8.30893188     -0.02902275
      1.52043216     -0.13303430
      0.42239270     -0.27249342
      0.14018834     -0.14913502
p              4   1.000000
      0.64737396      0.05713170
      0.16785440      0.28574555
      0.05917387      0.55178731
      0.02355814      0.26323150
 
          41   0
s              4   1.000000
      8.30893158      0.05675242
      1.52043211      0.26014135
      0.42239269      0.53284611
      0.14018834      0.29162544
s              7   1.000000
      0.92936822     -0.06732845
      0.05643440      0.66945560
      0.02166600      0.51461479
      8.30893158     -0.02902275
      1.52043211     -0.13303430
      0.42239269     -0.27249343
      0.14018834     -0.14913502
p              4   1.000000
      0.64737396      0.05713170
      0.16785440      0.28574555
      0.05917387      0.55178731
      0.02355814      0.26323150
 
          42   0
s              4   1.000000
      8.30901376      0.05675242
      1.52044715      0.26014135
      0.42239687      0.53284611
      0.14018972      0.29162543
s              7   1.000000
      0.92936822     -0.06732834
      0.05643440      0.66945455
      0.02166600      0.51461400
      8.30901376     -0.02902253
      1.52044715     -0.13303329
      0.42239687     -0.27249137
      0.14018972     -0.14913389
p              4   1.000000
      0.64737396      0.05713170
      0.16785440      0.28574555
      0.05917387      0.55178731
      0.02355814      0.26323150
 
          43   0
s              4   1.000000
      8.30930496      0.05675242
      1.52050043      0.26014135
      0.42241167      0.53284611
      0.14019464      0.29162544
s              7   1.000000
      0.92936822     -0.06732797
      0.05643440      0.66945083
      0.02166600      0.51461112
      8.30930496     -0.02902176
      1.52050043     -0.13302972
      0.42241167     -0.27248405
      0.14019464     -0.14912989
p              4   1.000000
      0.64737396      0.05713170
      0.16785440      0.28574555
      0.05917387      0.55178731
      0.02355814      0.26323150
 
          44   0
s              4   1.000000
      8.30968261      0.05675242
      1.52056954      0.26014135
      0.42243087      0.53284611
      0.14020101      0.29162544
s              7   1.000000
      0.92936822     -0.06732748
      0.05643440      0.66944599
      0.02166600      0.51460741
      8.30968261     -0.02902075
      1.52056954     -0.13302509
      0.42243087     -0.27247457
      0.14020101     -0.14912470
p              4   1.000000
      0.64737396      0.05713170
      0.16785440      0.28574555
      0.05917387      0.55178731
      0.02355814      0.26323150
 
          45   0
s              4   1.000000
      8.30993162      0.05675242
      1.52061510      0.26014135
      0.42244353      0.53284611
      0.14020521      0.29162544
s              7   1.000000
      0.92936822     -0.06732716
      0.05643440      0.66944280
      0.02166600      0.51460496
      8.30993162     -0.02902008
      1.52061510     -0.13302204
      0.42244353     -0.27246831
      0.14020521     -0.14912127
p              4   1.000000
      0.64737396      0.05713170
      0.16785440      0.28574555
      0.05917387      0.55178731
      0.02355814      0.26323150
 
          46   0
s              4   1.000000
      8.30634557      0.05675242
      1.51995890      0.26014135
      0.42226123      0.53284611
      0.14014471      0.29162544
s              7   1.000000
      0.92936822     -0.06733177
      0.05643440      0.66948870
      0.02166600      0.51464024
      8.30634557     -0.02902967
      1.51995890     -0.13306602
      0.42226123     -0.27255841
      0.14014471     -0.14917058
p              4   1.000000
      0.64737396      0.05713170
      0.16785440      0.28574555
      0.05917387      0.55178731
      0.02355814      0.26323150
 
          47   0
s              4   1.000000
      8.30630731      0.05675242
      1.51995190      0.26014135
      0.42225928      0.53284611
      0.14014406      0.29162544
s              7   1.000000
      0.92936822     -0.06733182
      0.05643440      0.66948918
      0.02166600      0.51464061
      8.30630731     -0.02902978
      1.51995190     -0.13306649
      0.42225928     -0.27255937
      0.14014406     -0.14917111
p              4   1.000000
      0.64737396      0.05713170
      0.16785440      0.28574555
      0.05917387      0.55178731
      0.02355814      0.26323150
 
          48   0
s              4   1.000000
      8.30679392      0.05675242
      1.52004094      0.26014135
      0.42228402      0.53284611
      0.14015227      0.29162544
s              7   1.000000
      0.92936822     -0.06733120
      0.05643440      0.66948295
      0.02166600      0.51463581
      8.30679392     -0.02902847
      1.52004094     -0.13306052
      0.42228402     -0.27254714
      0.14015227     -0.14916442
p              4   1.000000
      0.64737396      0.05713170
      0.16785440      0.28574555
      0.05917387      0.55178731
      0.02355814      0.26323150
 
          49   0
s              4   1.000000
      8.30679314      0.05675242
      1.52004080      0.26014135
      0.42228398      0.53284611
      0.14015226      0.29162544
s              7   1.000000
      0.92936822     -0.06733120
      0.05643440      0.66948296
      0.02166600      0.51463584
      8.30679314     -0.02902848
      1.52004080     -0.13306053
      0.42228398     -0.27254716
      0.14015226     -0.14916443
p              4   1.000000
      0.64737396      0.05713170
      0.16785440      0.28574555
      0.05917387      0.55178731
      0.02355814      0.26323150
 
          50   0
s              4   1.000000
      8.30635008      0.05675242
      1.51995973      0.26014135
      0.42226146      0.53284611
      0.14014478      0.29162544
s              7   1.000000
      0.92936822     -0.06733177
      0.05643440      0.66948863
      0.02166600      0.51464019
      8.30635008     -0.02902966
      1.51995973     -0.13306597
      0.42226146     -0.27255829
      0.14014478     -0.14917052
p              4   1.000000
      0.64737396      0.05713170
      0.16785440      0.28574555
      0.05917387      0.55178731
      0.02355814      0.26323150
 
          51   0
s              4   1.000000
      8.30630608      0.05675242
      1.51995168      0.26014135
      0.42225922      0.53284611
      0.14014404      0.29162544
s              7   1.000000
      0.92936822     -0.06733182
      0.05643440      0.66948919
      0.02166600      0.51464063
      8.30630608     -0.02902978
      1.51995168     -0.13306651
      0.42225922     -0.27255940
      0.14014404     -0.14917112
p              4   1.000000
      0.64737396      0.05713170
      0.16785440      0.28574555
      0.05917387      0.55178731
      0.02355814      0.26323150
 
          52   0
s              4   1.000000
      8.30992553      0.05675242
      1.52061399      0.26014135
      0.42244322      0.53284611
      0.14020511      0.29162544
s              7   1.000000
      0.92936822     -0.06732717
      0.05643440      0.66944289
      0.02166600      0.51460503
      8.30992553     -0.02902010
      1.52061399     -0.13302211
      0.42244322     -0.27246847
      0.14020511     -0.14912136
p              4   1.000000
      0.64737396      0.05713170
      0.16785440      0.28574555
      0.05917387      0.55178731
      0.02355814      0.26323150
 
          53   0
s              4   1.000000
      8.30966969      0.05675242
      1.52056717      0.26014135
      0.42243021      0.53284611
      0.14020079      0.29162544
s              7   1.000000
      0.92936822     -0.06732750
      0.05643440      0.66944616
      0.02166600      0.51460754
      8.30966969     -0.02902078
      1.52056717     -0.13302525
      0.42243021     -0.27247489
      0.14020079     -0.14912488
p              4   1.000000
      0.64737396      0.05713170
      0.16785440      0.28574555
      0.05917387      0.55178731
      0.02355814      0.26323150
 
 [MO]
 Sym= Hole
 Ene= -0.6667389    
 Spin= Alpha
 Occup= 0
           1  2.2655427E-04
           2  2.8206507E-04
           3  2.7804266E-04
           4  5.9469021E-04
           5  8.1871032E-05
           6  4.3659515E-04
           7 -3.0807348E-04
           8 -8.6422460E-03
           9 -4.9160772E-05
          10  7.4810156E-04
          11 -3.2806401E-03
          12 -0.1337505    
          13  3.7303445E-04
          14  1.6267768E-04
          15  5.2135211E-04
          16  2.2646112E-02
          17  2.2127691E-03
          18  1.2459143E-04
          19  4.6528652E-03
          20  0.2135306    
          21 -5.5051950E-04
          22  7.7901944E-04
          23 -3.3312384E-04
          24 -2.4567612E-02
          25  6.1643193E-04
          26  2.0134861E-04
          27  1.7837877E-03
          28  1.1014979E-02
          29  6.5834372E-04
          30  1.8439648E-03
          31  7.9765212E-04
          32 -1.0052911E-02
          33  2.9643551E-03
          34  1.3302405E-02
          35 -2.1323882E-02
          36 -0.2210373    
          37 -1.5680090E-03
          38  2.9602260E-03
          39  4.0861517E-03
          40  1.5553462E-02
          41  1.3416918E-02
          42  2.2760833E-02
          43  1.5439605E-02
          44 -7.1968205E-02
          45 -7.2358907E-03
          46  4.1405307E-05
          47 -4.1535227E-03
          48  2.5555644E-02
          49  1.5203631E-03
          50 -6.4012427E-03
          51  3.7338904E-03
          52 -0.2075746    
          53 -9.1321254E-04
          54  1.6983260E-03
          55 -2.7134537E-03
          56  1.4375861E-02
          57  1.5818460E-03
          58  3.7073239E-03
          59  4.2133410E-03
          60  0.1528503    
          61  1.4216021E-05
          62  7.8311318E-04
          63 -8.7209314E-04
          64 -1.6685171E-02
          65 -1.5587755E-03
          66  8.2146330E-03
          67  1.6568797E-03
          68 -0.1836448    
          69  1.3047258E-03
          70 -1.9104955E-03
          71 -2.5276807E-03
          72  1.1252403E-02
          73 -2.2829454E-03
          74 -3.4511418E-03
          75  4.3263966E-03
          76  9.4860591E-02
          77  3.6781299E-04
          78 -7.4241875E-04
          79 -5.9928669E-04
          80 -1.3352046E-02
          81 -1.8544153E-03
          82 -7.7642710E-04
          83  4.3037375E-03
          84  0.1796308    
          85  3.6500677E-04
          86 -5.3975760E-04
          87 -1.3876599E-04
          88 -1.2725801E-02
          89 -8.5471087E-04
          90 -9.5409458E-04
          91 -1.1793290E-03
          92 -7.5276673E-02
          93 -6.0166803E-04
          94 -1.4508086E-03
          95  1.4396951E-03
          96 -2.6560309E-03
          97 -3.6009341E-03
          98 -1.5651543E-02
          99 -1.6193938E-02
         100 -0.2121926    
         101  1.9060305E-03
         102 -2.0428654E-03
         103  4.3827924E-03
         104  1.4006411E-02
         105 -1.1320624E-02
         106 -1.7226759E-02
         107  2.3097210E-02
         108  3.3344969E-02
         109  6.7563769E-03
         110 -1.0994680E-03
         111 -4.9380548E-03
         112  1.6138699E-02
         113  6.6339626E-04
         114 -3.2296276E-03
         115 -1.7674970E-02
         116  0.4461230    
         117 -2.3335518E-04
         118 -1.6492159E-03
         119 -1.2539844E-02
         120 -3.9349519E-02
         121 -2.8433293E-04
         122  2.0478750E-02
         123  0.1516267    
         124 -0.2033993    
         125  3.4026269E-04
         126 -4.4252837E-04
         127 -9.0649392E-04
         128  1.5411990E-02
         129  3.0069407E-02
         130 -2.6454180E-03
         131  0.2201381    
         132 -0.1134285    
         133 -1.7043227E-02
         134  8.7241884E-03
         135 -9.7859660E-03
         136  3.4843120E-03
         137 -9.5261252E-03
         138 -3.1948551E-03
         139 -0.1140641    
         140  8.0809437E-02
         141  2.2422438E-03
         142 -1.7771790E-03
         143  3.7864372E-04
         144 -4.0041210E-04
         145 -2.5634875E-04
         146 -3.2395847E-02
         147 -0.2550445    
         148  0.2766666    
         149  5.7913032E-05
         150  9.7130018E-04
         151  7.0542125E-03
         152 -6.9960449E-03
         153  1.1921143E-04
         154  2.8831095E-03
         155  2.5241090E-02
         156 -5.6426853E-02
         157  7.3683318E-06
         158  1.0815878E-04
         159  1.4901320E-03
         160 -2.3848391E-03
         161  2.4402868E-02
         162 -3.1416878E-02
         163 -3.2954115E-02
         164 -0.1410307    
         165 -1.4577323E-02
         166  1.9178517E-03
         167  2.7758349E-03
         168  5.3579118E-03
         169 -4.3347618E-03
         170 -5.3253095E-03
         171  3.2707760E-03
         172 -8.8473251E-03
         173 -3.6057055E-03
         174  1.9142978E-03
         175 -2.3567285E-03
         176  2.5955420E-03
         177  8.4642344E-04
         178 -4.9455147E-03
         179 -2.5601326E-03
         180  7.0277482E-02
         181  1.5656115E-03
         182 -1.8274178E-03
         183 -3.9020597E-03
         184 -2.3144514E-04
         185 -7.1520694E-03
         186  1.2139311E-02
         187  2.4494864E-03
         188  4.0032072E-03
         189  1.8392878E-03
         190 -1.6906596E-03
         191 -2.0305897E-04
         192  4.2129345E-03
         193  5.6915465E-03
         194 -7.4878568E-03
         195 -6.7399084E-03
         196 -1.6365737E-03
         197 -1.6465051E-03
         198 -9.9564646E-04
         199  8.2160824E-04
         200  4.5440800E-04
         201  4.8762682E-04
         202  4.7671213E-04
         203 -4.2012515E-03
         204  0.1308148    
         205 -1.4215490E-04
         206  3.3755068E-04
         207  2.8065781E-03
         208 -4.7862758E-03
         209  6.9315983E-03
         210 -1.1627315E-02
         211  5.3766626E-03
         212  1.1832662E-03
         213 -1.6989625E-03
         214  1.6613470E-03
         215 -4.5790980E-04
         216  4.1883332E-03
         217 -5.8306246E-03
         218  5.7069785E-03
         219 -8.9419326E-03
         220 -1.0404300E-03
         221  1.7722353E-03
         222  1.1963631E-03
         223  5.4933195E-04
         224  5.2972481E-04
         225 -2.4152232E-02
         226  2.2146987E-02
         227 -4.0059116E-02
         228 -0.1441389    
         229  1.4643228E-02
         230 -1.2421239E-03
         231  3.3021728E-03
         232  5.3134197E-03
         233  4.1928515E-03
         234  5.8537149E-03
         235  1.6977298E-03
         236 -8.7925931E-03
         237  3.6832315E-03
         238 -2.4842205E-03
         239 -1.6393417E-03
         240  2.6072592E-03
         241 -8.4446627E-04
         242  4.1554696E-03
         243 -3.2772077E-03
         244  7.1686089E-02
         245 -1.5429739E-03
         246  7.6410890E-04
         247 -4.1960683E-03
         248 -3.0010866E-04
         249  9.7668814E-03
         250 -2.7044088E-02
         251 -0.1135564    
         252  8.3298847E-02
         253 -2.3008147E-03
         254  2.0168268E-03
         255  1.0311050E-04
         256 -1.6550627E-04
         257 -3.0831689E-02
         258  5.9341997E-02
         259  0.2091231    
         260 -0.1125872    
         261  1.7428109E-02
         262 -1.0807649E-02
         263 -6.6703809E-03
         264  4.1104686E-03
         265 -8.3217816E-04
         266  4.5384825E-04
         267  5.2627851E-04
         268  1.7395150E-04
         269 -6.2127109E-03
         270  3.3152971E-02
         271 -7.6795616E-03
         272 -8.1558526E-03
         273  9.9414401E-03
         274  4.1016159E-03
         275 -3.2702968E-02
         276  7.8707030E-03
         277  7.9955142E-03
         278 -1.0131741E-02
         279  5.2812342E-03
         280 -6.2588253E-03
         281  1.6700712E-03
         282  2.7404435E-04
         283  2.9147993E-04
         284  6.2995934E-04
         285 -8.4153371E-04
         286 -7.0078997E-05
         287 -3.5170119E-03
         288  1.6361166E-03
         289 -1.3283921E-02
         290 -4.1903974E-03
         291  9.6334150E-04
         292  6.8629114E-04
         293 -4.2129343E-04
         294  1.2253068E-02
         295  4.2367103E-03
         296 -1.1583900E-03
         297 -1.1769611E-03
         298 -4.2720925E-04
         299  5.4511754E-03
         300  5.1756308E-04
         301 -4.4080219E-04
         302 -3.6883875E-04
         303  5.6016067E-04
         304  1.7452329E-02
         305  5.9048212E-03
         306 -1.9516425E-03
         307  6.2846368E-05
         308  3.3061090E-04
         309 -3.7991595E-03
         310  1.3598549E-03
         311 -2.8591518E-05
         312  3.7954105E-03
         313  6.4887572E-04
         314 -1.5094726E-02
         315 -2.5669236E-02
         316 -4.6658251E-03
         317  1.0838978E-02
         318 -2.5849610E-03
         319 -7.7379928E-03
         320  2.9896282E-02
         321 -1.2002557E-03
         322 -1.9721650E-03
         323  5.4176580E-03
         324 -3.1121511E-03
         325  2.3062536E-03
         326  4.3681957E-04
         327 -5.3957925E-04
         328 -2.5948914E-04
         329 -2.0989275E-04
         330 -2.6515427E-03
         331  1.6762768E-05
         332 -1.8973179E-04
         333 -1.3241642E-04
         334 -2.2064995E-03
         335 -4.5904103E-03
         336  7.9531723E-04
         337 -4.7188104E-04
         338  1.0762889E-03
         339  1.8904600E-03
         340  4.7585540E-03
         341 -7.7682978E-04
         342  7.1123597E-04
         343  1.0619486E-03
         344  1.8925482E-03
         345 -1.3314346E-03
         346 -4.2617874E-04
         347  3.8345251E-04
         348 -3.8248434E-04
         349 -1.9207163E-04
         350  1.9711396E-03
         351  3.0045838E-05
         352  1.6265843E-04
         353 -2.2787198E-04
         354 -2.2024736E-03
         355 -2.9620018E-02
         356  1.2464561E-03
         357  2.9882244E-03
         358  4.7918954E-03
         359 -3.1422768E-03
         360  2.4876734E-02
         361  4.3734633E-03
         362 -1.2011744E-02
         363  6.4150785E-04
         364 -7.9171713E-03
 Sym= Particle
 Ene= -0.6667389    
 Spin= Alpha
 Occup= 2
           1 -1.2904297E-03
           2 -9.2400948E-04
           3  2.4380306E-04
           4  7.8107798E-05
           5  2.1178417E-03
           6  2.5021913E-04
           7  2.5644593E-04
           8 -4.6454315E-04
           9  5.5809616E-04
          10  5.6895358E-04
          11  2.0870976E-03
          12 -1.2722997E-03
          13  4.3078975E-04
          14  1.3892431E-03
          15 -5.0764863E-04
          16  6.3870754E-04
          17 -2.1030121E-03
          18 -1.5761255E-03
          19  1.7287657E-03
          20  1.2848264E-03
          21  3.2495828E-03
          22  2.2859045E-03
          23 -4.5024056E-04
          24  1.5501262E-03
          25  2.7102460E-03
          26  4.1775825E-03
          27  5.4776422E-03
          28  1.2693345E-02
          29  2.3019137E-03
          30 -3.1989538E-03
          31 -1.8389999E-03
          32 -2.1662507E-03
          33 -1.1147426E-02
          34 -1.7891852E-02
          35  6.7649405E-03
          36 -1.4664525E-02
          37  1.5732063E-02
          38  1.5765730E-02
          39 -1.2387534E-03
          40  4.3074926E-03
          41  6.0408493E-04
          42  1.0226135E-03
          43  3.7581773E-05
          44  1.4137267E-02
          45 -1.1019317E-03
          46 -1.9111321E-03
          47 -6.6936333E-03
          48 -5.4789004E-03
          49 -1.8403168E-04
          50 -8.9976547E-04
          51  1.1955121E-03
          52  7.6923775E-03
          53 -9.6058607E-04
          54 -1.5299042E-03
          55  2.5073771E-04
          56 -3.4524279E-03
          57 -6.1797438E-04
          58  5.6843873E-04
          59  1.9934650E-04
          60 -9.5113115E-03
          61  2.0247819E-03
          62  1.5608385E-03
          63  1.5125381E-04
          64  3.0618305E-03
          65 -1.3248035E-04
          66 -1.0019406E-03
          67 -9.4077177E-04
          68 -1.3883382E-02
          69 -1.0875911E-03
          70 -1.5913980E-03
          71  4.1066145E-04
          72  4.7675236E-03
          73 -5.3435395E-04
          74  3.7589960E-04
          75 -5.2455202E-05
          76  1.7526627E-02
          77  2.0009328E-03
          78  1.2564987E-03
          79 -4.2669231E-04
          80 -5.0072200E-03
          81 -2.0315542E-03
          82 -1.7623706E-03
          83 -1.2223367E-03
          84 -2.0295600E-03
          85  3.1780277E-03
          86  1.3764257E-03
          87  1.4685658E-04
          88 -1.2368608E-03
          89  2.6379337E-03
          90  3.1623007E-03
          91 -6.2358011E-03
          92 -1.8900948E-02
          93  1.8297114E-03
          94 -2.8745052E-03
          95  2.3717482E-03
          96  3.8285186E-03
          97 -1.0743827E-02
          98 -1.8458914E-02
          99 -1.5351715E-03
         100  2.0272139E-02
         101  1.4540089E-02
         102  1.4973484E-02
         103 -3.0239152E-03
         104 -5.6106350E-03
         105  6.3851301E-04
         106  1.1193588E-03
         107 -1.5304670E-04
         108 -1.1538771E-02
         109 -1.4635656E-03
         110 -1.2291902E-04
         111  7.1828482E-03
         112  3.9808908E-03
         113  8.2696625E-04
         114 -1.8533714E-03
         115  2.7268112E-04
         116 -1.3664168E-03
         117 -6.2937955E-03
         118 -6.8510612E-03
         119  1.2138882E-03
         120  1.9288422E-04
         121 -1.9613686E-03
         122 -7.4884790E-04
         123  7.9715718E-04
         124 -3.2755182E-04
         125 -4.8174183E-03
         126  3.4108106E-04
         127 -9.2747906E-04
         128  6.6590775E-04
         129  2.1154799E-03
         130 -4.5045502E-02
         131 -0.3011907    
         132  0.2788724    
         133 -2.0342516E-03
         134  2.0387603E-02
         135  8.9082815E-02
         136 -8.3604269E-02
         137 -6.7726439E-03
         138  3.9004348E-02
         139  0.3022877    
         140 -0.2772196    
         141  8.0673955E-03
         142 -4.2067040E-03
         143 -9.6287698E-02
         144  8.7837957E-02
         145  3.8981938E-03
         146 -7.4940855E-03
         147  1.3335051E-03
         148 -3.2912754E-04
         149  1.3220027E-03
         150  1.2051709E-02
         151 -1.5042668E-03
         152  1.6101057E-04
         153  4.4395411E-03
         154  2.0165322E-03
         155 -1.2235658E-04
         156  8.6521013E-03
         157  1.5140248E-03
         158 -4.9387915E-03
         159  6.5097504E-04
         160 -3.2265175E-03
         161  1.2669298E-03
         162 -1.2384520E-03
         163  3.1791287E-03
         164 -0.2135982    
         165 -9.5752545E-04
         166  1.3486181E-03
         167 -1.0291798E-02
         168  5.5790018E-02
         169 -7.9897558E-04
         170  1.4093054E-02
         171 -2.3933349E-03
         172 -8.9712113E-02
         173 -1.0623343E-02
         174  1.2815887E-02
         175  3.6728585E-03
         176  1.8823447E-02
         177  7.0532765E-03
         178 -2.6687279E-02
         179  7.8393862E-04
         180  0.1475520    
         181 -1.0851864E-02
         182  1.3517982E-02
         183  9.3722660E-03
         184 -2.4528779E-02
         185 -2.3064569E-03
         186  5.2519473E-03
         187  2.6572268E-03
         188  0.2624743    
         189  5.5016851E-04
         190 -4.7193952E-03
         191  1.1857715E-04
         192 -8.1244446E-02
         193  9.2666701E-04
         194  3.8965122E-04
         195  8.9073670E-04
         196  5.8315895E-03
         197 -3.0387312E-03
         198  1.0505773E-03
         199  2.9100827E-04
         200  7.6598339E-03
         201  6.5731938E-04
         202 -3.6086838E-03
         203  4.6970823E-04
         204  4.4634445E-03
         205 -1.7664045E-03
         206  3.2420254E-03
         207 -4.1897103E-04
         208 -9.2597678E-04
         209 -2.4808396E-03
         210  3.6610260E-03
         211 -3.7274617E-03
         212 -0.2673111    
         213  6.0586160E-04
         214 -4.3966980E-03
         215  9.6220471E-04
         216  8.2897879E-02
         217  1.0169601E-03
         218  1.2273961E-04
         219 -7.9047756E-04
         220 -5.9419558E-03
         221 -3.2320283E-03
         222  9.1162394E-04
         223 -6.9579354E-04
         224 -7.7799419E-03
         225  1.5312709E-03
         226 -1.5795190E-03
         227 -3.0126811E-03
         228  0.2057538    
         229 -1.3030841E-03
         230  3.8423983E-03
         231  9.6259965E-03
         232 -5.3232875E-02
         233 -8.4213720E-04
         234  1.4465168E-02
         235 -1.5228438E-03
         236  8.5295260E-02
         237 -1.0809352E-02
         238  1.1541353E-02
         239 -6.7644278E-03
         240 -1.7267231E-02
         241  7.1746851E-03
         242 -2.6459120E-02
         243  6.3297893E-03
         244 -0.1416759    
         245 -1.0965125E-02
         246  1.0967454E-02
         247 -1.2573094E-02
         248  2.3330165E-02
         249 -7.7356384E-03
         250 -3.9397940E-02
         251 -0.2985406    
         252  0.2753071    
         253  8.8042747E-03
         254  2.0617917E-02
         255  9.3239278E-02
         256 -8.7367274E-02
         257  2.5214162E-03
         258  3.3033982E-02
         259  0.3005073    
         260 -0.2762130    
         261 -2.3437168E-03
         262 -2.8605347E-03
         263 -9.0341337E-02
         264  8.2806714E-02
         265  1.1934401E-03
         266  1.8667840E-04
         267 -8.7116042E-04
         268 -9.0933558E-05
         269 -4.6667573E-04
         270  7.0823956E-04
         271  3.1518939E-04
         272 -2.3939391E-04
         273  2.0459721E-04
         274  1.0651507E-04
         275 -9.8917466E-05
         276  1.2200283E-03
         277  6.0667092E-04
         278  3.2586927E-04
         279 -7.0752326E-04
         280  4.5734188E-03
         281 -4.3354800E-04
         282 -2.6708806E-04
         283 -9.8368258E-04
         284  4.4462914E-03
         285  4.9508293E-03
         286  1.1888486E-02
         287  2.8881859E-02
         288  8.5780947E-03
         289 -1.2297800E-02
         290 -2.9344609E-04
         291  1.5690291E-03
         292  7.3688227E-04
         293  2.5927942E-04
         294 -2.2009769E-03
         295 -1.3665311E-04
         296  1.5715651E-03
         297  4.9629580E-04
         298  2.9387111E-05
         299  4.4744681E-03
         300  2.5755630E-03
         301  1.2475421E-03
         302  1.2508053E-03
         303  3.1702561E-04
         304 -4.0774918E-04
         305  4.3967133E-03
         306 -5.6761922E-04
         307 -5.8003893E-04
         308  5.6045695E-04
         309 -5.5918628E-03
         310  4.6419268E-03
         311  1.1225550E-02
         312  2.4648769E-02
         313 -1.5955057E-02
         314  1.3692657E-02
         315 -5.8373953E-03
         316 -3.4407238E-04
         317 -5.0813067E-03
         318 -7.3177181E-02
         319  6.1720286E-02
         320  9.3220016E-03
         321  1.4695502E-03
         322  6.3768090E-03
         323  5.6201030E-02
         324 -6.3975662E-02
         325  5.4010116E-02
         326 -2.4306832E-02
         327  6.3763568E-03
         328  1.3256693E-02
         329 -7.0106951E-03
         330 -5.4301437E-02
         331  2.0184763E-02
         332 -3.8383421E-03
         333 -1.6143275E-02
         334 -6.2240874E-03
         335 -1.9585076E-04
         336 -1.4333330E-03
         337  1.5623654E-03
         338  9.4101619E-04
         339  5.2191140E-03
         340  1.2336558E-04
         341 -1.6741514E-03
         342  1.3364737E-03
         343 -1.2940214E-03
         344 -5.1200371E-03
         345  5.4852765E-02
         346 -2.4820000E-02
         347  2.8570022E-03
         348 -1.4648799E-02
         349  6.7583532E-03
         350 -5.5457629E-02
         351  2.0522945E-02
         352  2.3180134E-04
         353  1.6978048E-02
         354  6.2347143E-03
         355  9.4120875E-03
         356  1.8922194E-03
         357 -8.1079351E-03
         358 -5.5314433E-02
         359  6.3788876E-02
         360 -6.2751067E-03
         361 -2.3151805E-04
         362  1.3834298E-02
         363  7.1358159E-02
         364 -6.0710307E-02
 Sym= Hole
 Ene= -0.2782708    
 Spin= Alpha
 Occup= 0
           1 -4.3243272E-04
           2 -1.1061683E-03
           3  2.5138957E-04
           4  1.3703637E-05
           5 -6.4899473E-06
           6  1.7565892E-04
           7 -1.1798324E-04
           8  8.6101245E-05
           9  9.2316477E-04
          10  9.3512470E-04
          11  4.2344534E-04
          12  5.6743168E-04
          13 -8.9840178E-04
          14 -5.0794962E-04
          15 -2.0377997E-04
          16  6.0990304E-05
          17 -1.7318529E-03
          18 -3.0503066E-03
          19  2.2134068E-03
          20 -9.5599098E-04
          21 -3.9163591E-05
          22 -7.1181729E-04
          23 -1.6771517E-04
          24  2.7649879E-05
          25  3.1979345E-03
          26  5.7386402E-03
          27  1.8833911E-03
          28  1.2582385E-04
          29 -7.0325198E-04
          30 -3.7319848E-04
          31 -3.1579798E-04
          32 -3.1998029E-04
          33 -7.1176831E-03
          34 -1.3752423E-02
          35  4.2175390E-03
          36  1.0453558E-03
          37  2.6147079E-03
          38 -4.8237033E-03
          39 -1.2233916E-04
          40 -6.7840381E-05
          41  7.2733563E-04
          42  2.3845318E-03
          43 -3.6789809E-04
          44  5.0849933E-03
          45 -6.3898385E-04
          46  3.4700838E-04
          47  2.3005281E-03
          48 -6.1069033E-05
          49 -5.4512708E-04
          50 -2.1984996E-03
          51  2.0440801E-03
          52  5.2102998E-05
          53 -6.2591844E-04
          54  4.5750182E-04
          55  7.5266359E-04
          56  5.1278625E-05
          57 -7.2731680E-05
          58  3.1113075E-04
          59 -8.8864216E-04
          60 -1.0967109E-03
          61 -5.6960015E-04
          62 -6.4728997E-04
          63 -1.4629746E-04
          64 -1.7067579E-05
          65 -2.9248843E-04
          66 -3.3712578E-03
          67 -1.2665812E-03
          68 -4.0011569E-03
          69 -6.6440791E-04
          70  1.7677603E-04
          71 -8.6638890E-04
          72  4.1288109E-05
          73 -1.9149063E-04
          74  5.4710917E-04
          75 -1.4151624E-04
          76  2.2965155E-03
          77 -5.0343183E-04
          78 -4.0452232E-04
          79 -2.1549524E-04
          80 -1.1973151E-04
          81 -1.4408792E-03
          82 -4.0981765E-03
          83 -2.2840888E-04
          84  4.8365123E-03
          85 -1.5854181E-04
          86 -6.3051761E-04
          87  1.0820505E-04
          88 -1.1916579E-04
          89  3.0899670E-03
          90  5.5516209E-03
          91 -3.6080191E-03
          92  3.4590682E-04
          93 -8.2659064E-04
          94  5.7095916E-05
          95  2.0513499E-04
          96  3.1786750E-04
          97 -7.1012713E-03
          98 -1.4969428E-02
          99 -4.5064106E-04
         100 -3.8032541E-03
         101  2.6879797E-03
         102 -4.7466471E-03
         103  1.3315697E-03
         104  1.8568894E-04
         105  5.6172058E-04
         106  2.8569868E-03
         107 -3.6740725E-04
         108 -5.5241813E-03
         109 -6.5724563E-04
         110 -1.9628882E-04
         111 -2.3381801E-03
         112  3.7397118E-04
         113 -1.9392512E-03
         114 -4.7988598E-03
         115  8.5058378E-04
         116  3.4270200E-03
         117  1.1543243E-03
         118  2.5218048E-03
         119 -4.0916639E-04
         120 -2.4948927E-04
         121  4.3841271E-04
         122  1.5144020E-03
         123 -3.1578258E-04
         124 -8.3000713E-04
         125  1.9686564E-03
         126  2.1641809E-03
         127 -4.3411509E-04
         128  9.7074313E-05
         129  3.0410155E-03
         130 -5.0394077E-02
         131 -0.3037487    
         132  0.2785538    
         133  1.0225223E-03
         134 -6.8577391E-04
         135 -9.6478472E-03
         136  9.2918715E-03
         137  4.4648396E-03
         138 -3.4531888E-02
         139 -0.3105235    
         140  0.2825392    
         141  6.2211219E-04
         142 -8.3942671E-04
         143 -9.8341918E-03
         144  8.2836654E-03
         145  4.8837280E-03
         146  6.1171846E-03
         147 -1.0557690E-03
         148  7.5684109E-04
         149 -5.6150719E-04
         150 -2.7426674E-03
         151  4.2432858E-04
         152 -4.7131703E-05
         153 -1.7626744E-03
         154 -2.9133118E-04
         155 -1.6913397E-04
         156 -4.0705016E-04
         157  7.6185324E-04
         158 -4.7831512E-03
         159  5.0260441E-04
         160 -1.6380200E-05
         161  5.1129470E-04
         162  1.8052440E-02
         163 -1.1501794E-02
         164 -0.2019237    
         165  7.6784100E-04
         166  1.6403040E-03
         167 -2.4142799E-03
         168 -1.8844620E-03
         169 -5.3515360E-03
         170  4.6765832E-03
         171  6.4388127E-03
         172  1.6329507E-03
         173  3.7106762E-03
         174 -1.3019706E-04
         175  1.3225988E-03
         176  6.2837531E-03
         177 -6.8199681E-04
         178  1.1991825E-02
         179  1.1925299E-02
         180  9.4529875E-02
         181 -1.9569264E-03
         182  6.8684914E-03
         183  5.3265193E-03
         184 -1.5148969E-04
         185 -3.0604776E-03
         186 -1.4655462E-02
         187  5.1206327E-03
         188 -0.1854018    
         189  2.5674654E-03
         190  1.8903154E-03
         191 -3.7369570E-03
         192 -2.4744784E-03
         193 -4.1045723E-03
         194  6.4550461E-03
         195  7.4053649E-03
         196  3.8899813E-02
         197  2.3303230E-03
         198  7.7763415E-04
         199 -1.8291208E-03
         200  4.2769648E-03
         201  2.2503583E-02
         202  4.7457181E-02
         203 -6.0075885E-03
         204  9.0660068E-04
         205 -8.8506881E-03
         206 -9.8708959E-04
         207  1.2416596E-04
         208 -4.2344229E-05
         209 -2.9613411E-03
         210 -1.5036729E-02
         211 -1.3739640E-03
         212  0.1857994    
         213  2.5518807E-03
         214  2.7767252E-03
         215  3.1189497E-03
         216  2.5573473E-03
         217 -4.1016741E-03
         218  4.2289025E-03
         219 -8.7259747E-03
         220 -3.9121412E-02
         221  2.3396676E-03
         222  1.1896434E-03
         223  1.5653000E-03
         224 -4.3076202E-03
         225  5.6846812E-04
         226  2.0930985E-02
         227  6.8580746E-03
         228  0.2004504    
         229  8.4658398E-04
         230  2.1783558E-03
         231  2.0936381E-03
         232  1.9427462E-03
         233 -5.5019003E-03
         234  2.7188030E-03
         235 -7.5587975E-03
         236 -1.8564484E-03
         237  3.7333877E-03
         238 -5.2235904E-04
         239 -1.2226559E-03
         240 -6.2674736E-03
         241 -6.9729157E-04
         242  8.3944332E-03
         243 -1.4538610E-02
         244 -9.3889043E-02
         245 -1.9210413E-03
         246  5.3455741E-03
         247 -6.8655345E-03
         248  1.6769218E-04
         249  4.6344199E-03
         250  4.5296464E-02
         251  0.3093553    
         252 -0.2829239    
         253  6.1692297E-04
         254  1.7863358E-03
         255  9.7263204E-03
         256 -8.3271619E-03
         257  2.3701303E-03
         258  2.9502934E-02
         259  0.3097889    
         260 -0.2786922    
         261  1.2867891E-03
         262  1.7082999E-03
         263  9.3614347E-03
         264 -9.1033438E-03
         265  4.2535417E-04
         266 -1.6435912E-04
         267 -1.3136072E-04
         268 -6.6012995E-05
         269  1.3374570E-05
         270 -9.3184048E-05
         271 -1.3910439E-04
         272 -1.0739455E-04
         273 -7.8033408E-05
         274  1.9268246E-04
         275  1.3078502E-04
         276 -2.4718689E-04
         277 -2.4548106E-04
         278  3.4227460E-06
         279 -2.3178653E-04
         280  1.9062763E-03
         281 -3.5405174E-04
         282  2.0127857E-04
         283 -2.8323746E-04
         284 -5.3430512E-04
         285 -7.9587195E-03
         286 -3.5517820E-04
         287 -3.3481854E-03
         288 -4.5361291E-03
         289 -8.4409525E-04
         290 -1.6500001E-03
         291 -5.6077569E-04
         292 -6.5143587E-04
         293  7.4715121E-05
         294 -3.4344466E-05
         295 -1.8120368E-03
         296 -4.7108601E-04
         297 -6.4271776E-04
         298 -6.9003516E-05
         299  9.0692381E-05
         300  2.6403079E-03
         301 -6.2605884E-04
         302 -3.5692254E-04
         303  5.2772550E-04
         304  1.6642280E-05
         305  1.6809950E-03
         306 -4.2773518E-04
         307  4.8730185E-04
         308  2.8332978E-04
         309  4.3172744E-04
         310 -8.1414999E-03
         311 -2.7923594E-04
         312 -2.1016032E-03
         313  5.1651853E-03
         314  5.6412618E-04
         315 -3.1708891E-04
         316  8.8924315E-04
         317  4.3660072E-03
         318  1.5546983E-02
         319 -1.2376616E-02
         320 -1.1225272E-03
         321  1.8716594E-03
         322  1.2538437E-03
         323  1.2846296E-02
         324 -8.7283626E-03
         325 -5.2667208E-02
         326  1.3533722E-04
         327  3.6431865E-03
         328  1.9443296E-03
         329  4.7702513E-05
         330  5.4114990E-02
         331 -2.7268289E-03
         332 -1.9691971E-03
         333 -9.8698295E-04
         334  1.5161672E-03
         335  4.2041638E-03
         336 -2.7522835E-04
         337 -6.0409965E-04
         338 -2.7851658E-03
         339  7.7044102E-04
         340  3.8491127E-03
         341 -2.5353293E-04
         342  1.0520893E-04
         343  2.8378221E-03
         344 -7.4599078E-04
         345 -5.2686233E-02
         346  1.1110807E-04
         347  3.0476530E-03
         348 -2.8053767E-03
         349 -8.9821428E-05
         350  5.4476157E-02
         351 -2.6784448E-03
         352 -1.6824182E-03
         353  1.5077310E-03
         354 -1.4894356E-03
         355 -1.8734689E-03
         356  1.8808615E-03
         357 -1.9534284E-03
         358 -1.2740678E-02
         359  8.7219384E-03
         360  5.7502353E-04
         361  9.2895341E-04
         362  1.1796613E-04
         363 -1.6119501E-02
         364  1.2257134E-02
 Sym= Particle
 Ene= -0.2782708    
 Spin= Alpha
 Occup= 2
           1  1.0468595E-04
           2 -4.3223254E-04
           3  6.4724335E-04
           4 -1.4607351E-03
           5 -9.1050070E-04
           6 -7.9530978E-04
           7 -5.4840022E-04
           8 -5.4574700E-04
           9  6.4766296E-04
          10 -9.3064551E-07
          11 -7.0552027E-04
          12 -2.3036534E-02
          13 -1.4481560E-03
          14 -1.7934880E-03
          15 -9.8204915E-04
          16  7.9581123E-03
          17  7.9650834E-04
          18 -3.1591835E-04
          19  2.2537715E-03
          20  4.8673019E-02
          21 -1.0149053E-03
          22 -9.0339693E-04
          23 -1.5523426E-04
          24 -9.7153019E-03
          25  3.7188311E-03
          26  5.8175353E-03
          27  1.6518026E-03
          28 -2.1977194E-02
          29 -2.9188243E-03
          30 -3.2224129E-03
          31  1.0068752E-03
          32  2.1977525E-03
          33 -3.6066764E-03
          34  1.1437704E-03
          35 -9.0988530E-03
          36 -4.3874204E-02
          37 -2.3723212E-03
          38 -7.2963354E-03
          39  2.7778607E-03
          40  8.4126256E-03
          41  2.6816631E-02
          42  3.9243393E-02
          43  2.9962100E-02
          44  5.7975955E-02
          45 -2.4688730E-02
          46 -2.5056310E-02
          47 -7.7046212E-03
          48 -9.8532485E-03
          49 -1.8098124E-03
          50 -9.9870954E-03
          51  1.1754606E-02
          52 -6.1653662E-02
          53 -8.5882109E-04
          54  3.3156076E-03
          55 -4.2737857E-03
          56  1.5828745E-02
          57  3.2425430E-03
          58  3.0897097E-03
          59  3.9633978E-03
          60  2.3876879E-02
          61 -6.7675812E-04
          62  7.6496205E-04
          63  9.6582639E-04
          64 -6.1784084E-03
          65  1.2821811E-03
          66  1.3035377E-02
          67  8.5901218E-03
          68 -6.7470916E-02
          69  1.9002265E-03
          70 -4.8090816E-03
          71 -3.0043030E-03
          72  1.6628668E-02
          73 -3.2904495E-03
          74 -1.9707624E-03
          75  4.2860797E-03
          76  3.4913849E-03
          77  1.2577745E-03
          78 -9.2037604E-04
          79  1.8014895E-03
          80 -2.4439532E-03
          81 -1.2587729E-03
          82  7.3785405E-04
          83  2.1837985E-03
          84  6.5404944E-02
          85  1.8359425E-03
          86  3.4628151E-04
          87  1.1237896E-04
          88 -1.0632208E-02
          89 -3.6319445E-03
          90 -4.9129520E-03
          91  2.4670295E-03
          92 -3.3767506E-02
          93  3.3997633E-03
          94  2.4372058E-03
          95  4.9222074E-04
          96  5.0487332E-03
          97  2.7330157E-03
          98 -3.6133048E-03
          99 -8.7603517E-03
         100 -5.7480846E-02
         101  3.4575434E-03
         102  7.8859758E-03
         103  7.6807081E-04
         104  1.1169798E-02
         105 -2.6101476E-02
         106 -3.0444615E-02
         107  3.9279535E-02
         108  8.1041858E-02
         109  2.5078500E-02
         110  2.2317575E-02
         111 -1.3856446E-02
         112 -1.7958116E-02
         113 -3.0429306E-04
         114 -3.0967756E-04
         115 -5.9410697E-04
         116  8.4883727E-02
         117  3.3397088E-04
         118  1.5911346E-03
         119  1.2934884E-02
         120 -3.9755609E-02
         121 -8.1975595E-05
         122  4.0976688E-02
         123  0.3137373    
         124 -0.2997884    
         125  3.9176052E-04
         126 -1.2208613E-02
         127 -9.3931057E-02
         128  9.9624768E-02
         129  1.4791317E-02
         130 -1.3312604E-02
         131 -0.1140655    
         132  0.1113858    
         133 -1.1575561E-02
         134  1.0187468E-02
         135  3.3339757E-02
         136 -3.5103146E-02
         137 -2.3250001E-02
         138 -4.6096012E-02
         139 -0.2106401    
         140  0.1505919    
         141  1.6527947E-02
         142  1.6838126E-02
         143  5.6886524E-02
         144 -4.1790023E-02
         145  1.7853092E-05
         146  3.3642780E-02
         147  0.2626830    
         148 -0.2406726    
         149  3.3871762E-05
         150 -9.8334150E-03
         151 -7.7665828E-02
         152  5.7978667E-02
         153  9.9369909E-06
         154 -4.5272880E-04
         155 -9.0249319E-04
         156 -0.4112790    
         157  5.1415996E-06
         158  3.2157444E-03
         159  2.3185600E-02
         160  0.1102773    
         161 -1.9463619E-02
         162  2.0634104E-02
         163  3.4965359E-02
         164  0.2436906    
         165  2.0193160E-02
         166 -1.9484676E-02
         167 -7.0967604E-03
         168 -7.0064791E-02
         169  1.6255548E-03
         170  1.6902043E-03
         171  5.5631236E-03
         172  8.8398129E-02
         173  1.9162586E-03
         174 -5.2069384E-03
         175 -6.3828235E-03
         176 -2.7605271E-02
         177  3.4694348E-03
         178 -9.6634245E-03
         179 -1.1254221E-02
         180 -0.1413207    
         181 -3.1843709E-04
         182  1.1961745E-03
         183  2.2049067E-03
         184  2.0841019E-02
         185  6.1345771E-03
         186 -6.3694241E-03
         187  2.9681916E-03
         188  0.1245739    
         189 -1.7781298E-03
         190  1.9060365E-03
         191  2.4112586E-03
         192 -2.7966378E-02
         193 -4.6719429E-03
         194  5.2900147E-03
         195  6.6262754E-03
         196 -1.5990856E-03
         197  3.8474388E-03
         198 -1.8101238E-03
         199 -1.3211102E-03
         200  3.9565214E-03
         201 -1.0415932E-04
         202 -9.8683609E-05
         203  2.6688215E-03
         204 -0.2503685    
         205  1.0234878E-04
         206 -2.9224455E-07
         207 -9.7800617E-04
         208  5.4324359E-02
         209 -6.1642891E-03
         210  7.4367579E-03
         211  1.0362972E-03
         212  0.1189082    
         213  1.9270576E-03
         214 -1.4676750E-03
         215  2.9819263E-03
         216 -2.6122717E-02
         217  4.6060611E-03
         218 -3.3631129E-03
         219  7.6687653E-03
         220 -1.8083919E-03
         221 -3.8243334E-03
         222  1.3892896E-03
         223 -1.7204030E-03
         224  3.8040401E-03
         225  1.9471070E-02
         226 -1.0734945E-02
         227  3.8948759E-02
         228  0.2484415    
         229 -2.0177379E-02
         230  1.7273922E-02
         231 -1.1507972E-02
         232 -7.1221471E-02
         233 -1.7292146E-03
         234  3.6813639E-04
         235  5.7848110E-03
         236  9.0099715E-02
         237 -1.9284034E-03
         238  3.5021952E-03
         239 -7.6993480E-03
         240 -2.7822157E-02
         241 -3.3811373E-03
         242  5.6019071E-03
         243 -1.3289464E-02
         244 -0.1443844    
         245  1.5231081E-04
         246 -4.1879155E-04
         247  1.9733610E-03
         248  2.1278642E-02
         249  2.2974366E-02
         250 -9.3429023E-03
         251 -0.2200611    
         252  0.1546541    
         253 -1.6173672E-02
         254 -1.5337765E-03
         255  6.1017714E-02
         256 -4.3061148E-02
         257 -1.4909216E-02
         258 -1.5617794E-02
         259 -0.1087920    
         260  0.1069787    
         261  1.1920580E-02
         262 -1.1043545E-03
         263  3.3611804E-02
         264 -3.3659600E-02
         265 -3.9876631E-04
         266 -5.4393505E-04
         267  2.8381930E-04
         268 -2.9599471E-05
         269 -2.1851219E-03
         270  6.2153591E-03
         271 -3.1390188E-03
         272 -1.9791734E-03
         273  2.6252742E-03
         274  1.3802933E-03
         275 -5.1700412E-03
         276  6.3650135E-04
         277 -2.5486361E-04
         278 -2.5022393E-03
         279  1.0296360E-03
         280 -5.2614370E-03
         281 -1.1817077E-03
         282 -1.6003201E-03
         283 -6.3485850E-04
         284 -2.5393316E-03
         285 -8.7264627E-03
         286  1.6087242E-03
         287  3.4631363E-03
         288 -6.1374935E-03
         289 -1.8043980E-02
         290 -7.1597560E-03
         291  2.0019759E-03
         292  3.7076155E-04
         293  1.7021479E-03
         294  7.1010203E-04
         295  7.3377853E-03
         296 -1.7847978E-03
         297 -4.7855166E-05
         298  2.0446808E-03
         299 -3.5348230E-03
         300  3.2307408E-04
         301  2.1542343E-03
         302  1.9897064E-03
         303 -8.5562788E-04
         304  1.2208118E-02
         305  5.0848005E-03
         306  1.2989448E-03
         307  5.8276817E-04
         308 -8.2926324E-04
         309 -3.3033087E-03
         310  8.7722121E-03
         311 -1.4935111E-03
         312 -4.1047540E-03
         313 -5.7674437E-03
         314 -2.1242814E-02
         315 -1.5134335E-02
         316 -5.4675492E-04
         317  4.0438920E-03
         318 -2.6623704E-02
         319  2.7087156E-02
         320  6.3029695E-03
         321  2.0720989E-03
         322 -3.5140826E-03
         323 -3.5847872E-02
         324  2.9594896E-02
         325  2.4005020E-02
         326 -4.5982278E-03
         327  1.1077238E-02
         328  7.1627772E-03
         329  2.6973451E-03
         330 -2.2820730E-02
         331  1.0239267E-02
         332 -1.3844681E-02
         333 -6.0224878E-03
         334  2.9634375E-03
         335  3.9667408E-03
         336  5.9142179E-04
         337  3.4519550E-04
         338  1.5565466E-04
         339 -1.5818091E-02
         340 -4.1685719E-03
         341 -6.7846908E-04
         342 -3.3887476E-04
         343  1.4192572E-04
         344 -1.6098710E-02
         345 -2.2662042E-02
         346  3.8927738E-03
         347 -8.9309979E-03
         348  9.4064176E-03
         349  3.1117587E-03
         350  2.1733737E-02
         351 -9.8343045E-03
         352  1.2035287E-02
         353 -8.9531941E-03
         354  2.8335901E-03
         355 -5.9980443E-03
         356 -2.2121540E-03
         357 -6.0076066E-03
         358 -3.6164887E-02
         359  3.0745415E-02
         360  1.4887427E-02
         361  3.9591707E-04
         362 -1.0698940E-02
         363 -2.4034055E-02
         364  2.6256170E-02
