 [Molden Format]
 [Atoms] Angs
O       1      8      2.86484609      1.67879329     -2.12395654
S       2     16      3.10651142      1.51477128     -0.71623442
O       3      8      4.16449914      2.27011079     -0.10534112
C       4      6      3.34601300     -0.23877821     -0.38914082
C       5      6      3.13617078     -1.17211621     -1.38783657
C       6      6      3.24246438     -2.51512458     -1.06104444
C       7      6      3.54614360     -2.84385266      0.25323342
N       8      7      3.74636573     -1.94780820      1.20611000
C       9      6      3.64974009     -0.66902054      0.89152948
C      10      6      1.58379073      1.78606030      0.19781980
C      11      6      1.52942706      2.67060526      1.25593813
C      12      6      0.35600194      2.76116553      1.99011298
C      13      6     -0.72280686      1.94967113      1.68598570
C      14      6     -0.65618524      1.05517560      0.61753055
N      15      7     -1.72656731      0.19381689      0.32493803
C      16      6     -2.98229670      0.69732069     -0.03704042
C      17      6     -3.23806281      2.05886041     -0.13209266
C      18      6     -4.49606095      2.52174676     -0.48747259
C      19      6     -5.51441488      1.63258885     -0.76498911
C      20      6     -5.26458130      0.26973642     -0.71079631
C      21      6     -4.01099351     -0.19664437     -0.35994359
O      22      8     -3.83117898     -1.55737276     -0.36591577
C      23      6     -2.58773808     -2.03487209     -0.04243969
C      24      6     -2.42080330     -3.40763638     -0.06412359
C      25      6     -1.20487230     -3.97214015      0.29080779
C      26      6     -0.16717644     -3.15406212      0.68847187
C      27      6     -0.32818445     -1.77689877      0.70728351
C      28      6     -1.52683647     -1.19239954      0.31666628
C      29      6      0.50904410      0.99344193     -0.14249397
H      30      1      2.90318407     -0.83214495     -2.38582811
H      31      1      3.08951789     -3.28371176     -1.80184837
H      32      1      3.63753750     -3.87621427      0.56408603
H      33      1      3.82391348      0.04497728      1.68472086
H      34      1      2.39898809      3.26466925      1.48638513
H      35      1      0.29038839      3.44929545      2.81887476
H      36      1     -1.62145574      1.99170452      2.28321060
H      37      1     -2.44646482      2.76567494      0.06032738
H      38      1     -4.66756015      3.58520934     -0.54842555
H      39      1     -6.49595792      1.98745825     -1.03604199
H      40      1     -6.03014171     -0.45239347     -0.94500502
H      41      1     -3.26040970     -4.01793503     -0.35571092
H      42      1     -1.08395519     -5.04344717      0.26832607
H      43      1      0.77853522     -3.57318636      0.99567864
H      44      1      0.48906310     -1.15772908      1.04383765
H      45      1      0.57966181      0.32877492     -0.98987238
 [GTO]
           1   0
s              4   1.000000
     72.81617642     -0.01198412
     12.53954811     -0.05472052
      1.00760619      0.58055871
      0.38402366      0.47700799
p              4   1.000000
      7.50900647      0.05713170
      1.94697325      0.28574555
      0.68636832      0.55178731
      0.27325506      0.26323149
s              7   1.000000
      0.57971233     -0.18810392
      0.07115450      0.90884900
      0.03359728      0.23867755
     72.81617642      0.00403780
     12.53954811      0.01843696
      1.00760619     -0.19560739
      0.38402366     -0.16071809
p              7   1.000000
      2.76717072     -0.01186511
      0.15304476      0.58306960
      0.05897927      0.60892958
      7.50900647     -0.02847182
      1.94697325     -0.14240246
      0.68636832     -0.27498545
      0.27325506     -0.13118248
 
           2   0
s              4   1.000000
     13.73124629     -0.03295496
      3.86775484     -0.17245169
      0.69354859      0.75185111
      0.34122874      0.35896273
p              4   1.000000
      7.92891789     -0.01434249
      0.81937406      0.27551776
      0.37032908      0.58467508
      0.17902525      0.21449865
s              7   1.000000
      0.16124732     -0.33689849
      0.03162593      1.06303535
      0.01560824      0.12641425
     13.73124629      0.00360119
      3.86775484      0.01884483
      0.69354859     -0.08215927
      0.34122874     -0.03922601
p              7   1.000000
      0.34551743     -0.06392082
      0.05282782      0.68665623
      0.02597475      0.40888873
      7.92891789      0.00408297
      0.81937406     -0.07843333
      0.37032908     -0.16644304
      0.17902525     -0.06106264
 
           3   0
s              4   1.000000
     72.81229037     -0.01198412
     12.53887890     -0.05472052
      1.00755242      0.58055871
      0.38400317      0.47700799
p              4   1.000000
      7.50860573      0.05713170
      1.94686935      0.28574555
      0.68633169      0.55178731
      0.27324047      0.26323149
s              7   1.000000
      0.57971233     -0.18810493
      0.07115450      0.90885389
      0.03359728      0.23867883
     72.81229037      0.00403802
     12.53887890      0.01843794
      1.00755242     -0.19561772
      0.38400317     -0.16072658
p              7   1.000000
      2.76717072     -0.01186523
      0.15304476      0.58307547
      0.05897927      0.60893571
      7.50860573     -0.02847326
      1.94686935     -0.14240967
      0.68633169     -0.27499938
      0.27324047     -0.13118913
 
           4   0
s              4   1.000000
     34.99385241     -0.01198412
      6.02623095     -0.05472052
      0.48423337      0.58055871
      0.18455332      0.47700799
p              4   1.000000
      5.64017352      0.05713170
      1.46241277      0.28574555
      0.51554576      0.55178731
      0.20524765      0.26323149
s              7   1.000000
      0.38350848     -0.19617617
      0.04707223      0.94785115
      0.02222627      0.24892010
     34.99385241      0.00550674
      6.02623095      0.02514425
      0.48423337     -0.26676850
      0.18455332     -0.21918662
p              7   1.000000
      1.83062075     -0.01160850
      0.10124670      0.57045930
      0.03901771      0.59575999
      5.64017352     -0.02522500
      1.46241277     -0.12616344
      0.51554576     -0.24362718
      0.20524765     -0.11622294
 
           5   0
s              4   1.000000
     35.12240408     -0.01198412
      6.04836861     -0.05472052
      0.48601223      0.58055871
      0.18523129      0.47700799
p              4   1.000000
      5.66089298      0.05713170
      1.46778502      0.28574555
      0.51743964      0.55178731
      0.20600164      0.26323149
s              7   1.000000
      0.38350848     -0.19605677
      0.04707223      0.94727426
      0.02222627      0.24876861
     35.12240408      0.00548749
      6.04836861      0.02505634
      0.48601223     -0.26583580
      0.18523129     -0.21842029
p              7   1.000000
      1.83062075     -0.01160186
      0.10124670      0.57013314
      0.03901771      0.59541939
      5.66089298     -0.02513647
      1.46778502     -0.12572062
      0.51743964     -0.24277209
      0.20600164     -0.11581502
 
           6   0
s              4   1.000000
     34.91280661     -0.01198412
      6.01227419     -0.05472053
      0.48311189      0.58055871
      0.18412590      0.47700799
p              4   1.000000
      5.62711087      0.05713170
      1.45902582      0.28574555
      0.51435175      0.55178731
      0.20477229      0.26323149
s              7   1.000000
      0.38350848     -0.19625205
      0.04707223      0.94821778
      0.02222627      0.24901638
     34.91280661      0.00551894
      6.01227419      0.02519998
      0.48311189     -0.26735982
      0.18412590     -0.21967248
p              7   1.000000
      1.83062075     -0.01161271
      0.10124670      0.57066658
      0.03901771      0.59597647
      5.62711087     -0.02528113
      1.45902582     -0.12644417
      0.51435175     -0.24416929
      0.20477229     -0.11648156
 
           7   0
s              4   1.000000
     35.08165555     -0.01198412
      6.04135137     -0.05472052
      0.48544836      0.58055871
      0.18501639      0.47700799
p              4   1.000000
      5.65432529      0.05713170
      1.46608211      0.28574555
      0.51683931      0.55178731
      0.20576264      0.26323149
s              7   1.000000
      0.38350848     -0.19609449
      0.04707223      0.94745651
      0.02222627      0.24881645
     35.08165555      0.00549357
      6.04135137      0.02508414
      0.48544836     -0.26613075
      0.18501639     -0.21866263
p              7   1.000000
      1.83062075     -0.01160396
      0.10124670      0.57023618
      0.03901771      0.59552697
      5.65432529     -0.02516446
      1.46608211     -0.12586066
      0.51683931     -0.24304251
      0.20576264     -0.11594403
 
           8   0
s              4   1.000000
     56.99647189     -0.01198412
      9.81526409     -0.05472052
      0.78869835      0.58055871
      0.30059246      0.47700799
p              4   1.000000
      6.71828677      0.05713170
      1.74195144      0.28574555
      0.61409179      0.55178731
      0.24448052      0.26323149
s              7   1.000000
      0.47894987     -0.18917853
      0.05878681      0.91404116
      0.02775758      0.24004109
     56.99647189      0.00425868
      9.81526409      0.01944548
      0.78869835     -0.20630734
      0.30059246     -0.16950955
p              7   1.000000
      2.28619608     -0.01169787
      0.12644335      0.57485135
      0.04872781      0.60034683
      6.71828677     -0.02639300
      1.74195144     -0.13200520
      0.61409179     -0.25490788
      0.24448052     -0.12160443
 
           9   0
s              4   1.000000
     35.25536011     -0.01198412
      6.07126474     -0.05472052
      0.48785203      0.58055871
      0.18593248      0.47700799
p              4   1.000000
      5.68232231      0.05713170
      1.47334133      0.28574555
      0.51939841      0.55178730
      0.20678146      0.26323149
s              7   1.000000
      0.38350848     -0.19593450
      0.04707223      0.94668348
      0.02222627      0.24861346
     35.25536011      0.00546771
      6.07126474      0.02496604
      0.48785203     -0.26487785
      0.18593248     -0.21763320
p              7   1.000000
      1.83062075     -0.01159506
      0.10124670      0.56979913
      0.03901771      0.59507054
      5.68232231     -0.02504553
      1.47334133     -0.12526581
      0.51939841     -0.24189382
      0.20678146     -0.11539604
 
          10   0
s              4   1.000000
     35.01022786     -0.01198412
      6.02905093     -0.05472052
      0.48445997      0.58055871
      0.18463968      0.47700799
p              4   1.000000
      5.64281285      0.05713170
      1.46309711      0.28574555
      0.51578701      0.55178731
      0.20534369      0.26323149
s              7   1.000000
      0.38350848     -0.19616090
      0.04707223      0.94777736
      0.02222627      0.24890072
     35.01022786      0.00550428
      6.02905093      0.02513302
      0.48445997     -0.26664933
      0.18463968     -0.21908871
p              7   1.000000
      1.83062075     -0.01160765
      0.10124670      0.57041757
      0.03901771      0.59571642
      5.64281285     -0.02521369
      1.46309711     -0.12610686
      0.51578701     -0.24351793
      0.20534369     -0.11617083
 
          11   0
s              4   1.000000
     35.08529577     -0.01198412
      6.04197825     -0.05472052
      0.48549873      0.58055871
      0.18503558      0.47700799
p              4   1.000000
      5.65491200      0.05713170
      1.46623424      0.28574555
      0.51689294      0.55178731
      0.20578399      0.26323149
s              7   1.000000
      0.38350848     -0.19609112
      0.04707223      0.94744021
      0.02222627      0.24881219
     35.08529577      0.00549303
      6.04197825      0.02508165
      0.48549873     -0.26610438
      0.18503558     -0.21864096
p              7   1.000000
      1.83062075     -0.01160377
      0.10124670      0.57022697
      0.03901771      0.59551738
      5.65491200     -0.02516196
      1.46623424     -0.12584814
      0.51689294     -0.24301833
      0.20578399     -0.11593249
 
          12   0
s              4   1.000000
     34.92927090     -0.01198412
      6.01510948     -0.05472052
      0.48333971      0.58055871
      0.18421273      0.47700799
p              4   1.000000
      5.62976452      0.05713170
      1.45971387      0.28574555
      0.51459431      0.55178731
      0.20486886      0.26323149
s              7   1.000000
      0.38350848     -0.19623660
      0.04707223      0.94814311
      0.02222627      0.24899678
     34.92927090      0.00551646
      6.01510948      0.02518864
      0.48333971     -0.26723949
      0.18421273     -0.21957361
p              7   1.000000
      1.83062075     -0.01161186
      0.10124670      0.57062436
      0.03901771      0.59593238
      5.62976452     -0.02526971
      1.45971387     -0.12638704
      0.51459431     -0.24405897
      0.20486886     -0.11642893
 
          13   0
s              4   1.000000
     35.01155554     -0.01198412
      6.02927957     -0.05472052
      0.48447834      0.58055871
      0.18464669      0.47700799
p              4   1.000000
      5.64302684      0.05713170
      1.46315259      0.28574555
      0.51580657      0.55178731
      0.20535148      0.26323149
s              7   1.000000
      0.38350848     -0.19615966
      0.04707223      0.94777138
      0.02222627      0.24889916
     35.01155554      0.00550408
      6.02927957      0.02513211
      0.48447834     -0.26663967
      0.18464669     -0.21908078
p              7   1.000000
      1.83062075     -0.01160758
      0.10124670      0.57041420
      0.03901771      0.59571290
      5.64302684     -0.02521277
      1.46315259     -0.12610228
      0.51580657     -0.24350908
      0.20535148     -0.11616660
 
          14   0
s              4   1.000000
     35.20166091     -0.01198412
      6.06201729     -0.05472052
      0.48710896      0.58055871
      0.18564928      0.47700799
p              4   1.000000
      5.67366729      0.05713170
      1.47109721      0.28574555
      0.51860729      0.55178731
      0.20646650      0.26323149
s              7   1.000000
      0.38350848     -0.19598373
      0.04707223      0.94692137
      0.02222627      0.24867593
     35.20166091      0.00547568
      6.06201729      0.02500244
      0.48710896     -0.26526393
      0.18564928     -0.21795042
p              7   1.000000
      1.83062075     -0.01159780
      0.10124670      0.56993363
      0.03901771      0.59521100
      5.67366729     -0.02508218
      1.47109721     -0.12544912
      0.51860729     -0.24224780
      0.20646650     -0.11556491
 
          15   0
s              4   1.000000
     61.14795485     -0.01198412
     10.53018380     -0.05472052
      0.84614520      0.58055871
      0.32248688      0.47700799
p              4   1.000000
      7.20763027      0.05713170
      1.86883090      0.28574555
      0.65882072      0.55178731
      0.26228788      0.26323149
s              7   1.000000
      0.47894987     -0.18779907
      0.05878681      0.90737610
      0.02775758      0.23829074
     61.14795485      0.00397315
     10.53018380      0.01814175
      0.84614520     -0.19247534
      0.32248688     -0.15814469
p              7   1.000000
      2.28619608     -0.01156754
      0.12644335      0.56844680
      0.04872781      0.59365824
      7.20763027     -0.02467448
      1.86883090     -0.12340997
      0.65882072     -0.23831011
      0.26228788     -0.11368642
 
          16   0
s              4   1.000000
     35.22092152     -0.01198412
      6.06533413     -0.05472053
      0.48737548      0.58055871
      0.18575086      0.47700799
p              4   1.000000
      5.67677164      0.05713170
      1.47190212      0.28574555
      0.51889104      0.55178731
      0.20657947      0.26323149
s              7   1.000000
      0.38350848     -0.19596605
      0.04707223      0.94683594
      0.02222627      0.24865348
     35.22092152      0.00547282
      6.06533413      0.02498937
      0.48737548     -0.26512533
      0.18575086     -0.21783654
p              7   1.000000
      1.83062075     -0.01159682
      0.10124670      0.56988533
      0.03901771      0.59516056
      5.67677164     -0.02506902
      1.47190212     -0.12538331
      0.51889104     -0.24212072
      0.20657947     -0.11550428
 
          17   0
s              4   1.000000
     35.02259976     -0.01198412
      6.03118148     -0.05472052
      0.48463117      0.58055871
      0.18470493      0.47700799
p              4   1.000000
      5.64480690      0.05713170
      1.46361414      0.28574555
      0.51596928      0.55178731
      0.20541626      0.26323149
s              7   1.000000
      0.38350848     -0.19614937
      0.04707223      0.94772166
      0.02222627      0.24888609
     35.02259976      0.00550242
      6.03118148      0.02512454
      0.48463117     -0.26655936
      0.18470493     -0.21901479
p              7   1.000000
      1.83062075     -0.01160701
      0.10124670      0.57038608
      0.03901771      0.59568353
      5.64480690     -0.02520515
      1.46361414     -0.12606415
      0.51596928     -0.24343545
      0.20541626     -0.11613148
 
          18   0
s              4   1.000000
     34.92115479     -0.01198412
      6.01371181     -0.05472053
      0.48322740      0.58055871
      0.18416992      0.47700800
p              4   1.000000
      5.62845640      0.05713170
      1.45937470      0.28574555
      0.51447474      0.55178731
      0.20482126      0.26323149
s              7   1.000000
      0.38350848     -0.19624421
      0.04707223      0.94817990
      0.02222627      0.24900643
     34.92115479      0.00551769
      6.01371181      0.02519423
      0.48322740     -0.26729880
      0.18416992     -0.21962234
p              7   1.000000
      1.83062075     -0.01161228
      0.10124670      0.57064517
      0.03901771      0.59595410
      5.62845640     -0.02527534
      1.45937470     -0.12641520
      0.51447474     -0.24411334
      0.20482126     -0.11645487
 
          19   0
s              4   1.000000
     34.91583162     -0.01198412
      6.01279512     -0.05472052
      0.48315374      0.58055871
      0.18414185      0.47700799
p              4   1.000000
      5.62759843      0.05713170
      1.45915224      0.28574555
      0.51439632      0.55178731
      0.20479004      0.26323149
s              7   1.000000
      0.38350848     -0.19624921
      0.04707223      0.94820405
      0.02222627      0.24901277
     34.91583162      0.00551849
      6.01279512      0.02519790
      0.48315374     -0.26733771
      0.18414185     -0.21965431
p              7   1.000000
      1.83062075     -0.01161256
      0.10124670      0.57065882
      0.03901771      0.59596838
      5.62759843     -0.02527903
      1.45915224     -0.12643367
      0.51439632     -0.24414901
      0.20479004     -0.11647189
 
          20   0
s              4   1.000000
     34.97490189     -0.01198412
      6.02296751     -0.05472053
      0.48397114      0.58055871
      0.18445338      0.47700799
p              4   1.000000
      5.63711915      0.05713170
      1.46162082      0.28574555
      0.51526657      0.55178731
      0.20513650      0.26323149
s              7   1.000000
      0.38350848     -0.19619387
      0.04707223      0.94793668
      0.02222627      0.24894257
     34.97490189      0.00550959
      6.02296751      0.02515726
      0.48397114     -0.26690653
      0.18445338     -0.21930004
p              7   1.000000
      1.83062075     -0.01160948
      0.10124670      0.57050765
      0.03901771      0.59581048
      5.63711915     -0.02523810
      1.46162082     -0.12622897
      0.51526657     -0.24375373
      0.20513650     -0.11628332
 
          21   0
s              4   1.000000
     35.22549440     -0.01198412
      6.06612162     -0.05472052
      0.48743876      0.58055871
      0.18577498      0.47700799
p              4   1.000000
      5.67750868      0.05713170
      1.47209322      0.28574555
      0.51895841      0.55178731
      0.20660629      0.26323149
s              7   1.000000
      0.38350848     -0.19596185
      0.04707223      0.94681567
      0.02222627      0.24864817
     35.22549440      0.00547214
      6.06612162      0.02498627
      0.48743876     -0.26509244
      0.18577498     -0.21780951
p              7   1.000000
      1.83062075     -0.01159658
      0.10124670      0.56987387
      0.03901771      0.59514862
      5.67750868     -0.02506590
      1.47209322     -0.12536769
      0.51895841     -0.24209057
      0.20660629     -0.11548990
 
          22   0
s              4   1.000000
     78.08124652     -0.01198412
     13.44623675     -0.05472052
      1.08046250      0.58055871
      0.41179100      0.47700799
p              4   1.000000
      8.05195513      0.05713170
      2.08775173      0.28574555
      0.73599709      0.55178731
      0.29301312      0.26323149
s              7   1.000000
      0.57971233     -0.18685697
      0.07115450      0.90282420
      0.03359728      0.23709535
     78.08124652      0.00376704
     13.44623675      0.01720065
      1.08046250     -0.18249067
      0.41179100     -0.14994092
p              7   1.000000
      2.76717072     -0.01171739
      0.15304476      0.57581025
      0.05897927      0.60134827
      8.05195513     -0.02664235
      2.08775173     -0.13325233
      0.73599709     -0.25731615
      0.29301312     -0.12275330
 
          23   0
s              4   1.000000
     35.22508872     -0.01198412
      6.06605175     -0.05472052
      0.48743314      0.58055871
      0.18577283      0.47700799
p              4   1.000000
      5.67744329      0.05713170
      1.47207627      0.28574555
      0.51895244      0.55178731
      0.20660391      0.26323149
s              7   1.000000
      0.38350848     -0.19596223
      0.04707223      0.94681746
      0.02222627      0.24864863
     35.22508872      0.00547220
      6.06605175      0.02498655
      0.48743314     -0.26509536
      0.18577283     -0.21781191
p              7   1.000000
      1.83062075     -0.01159660
      0.10124670      0.56987489
      0.03901771      0.59514967
      5.67744329     -0.02506618
      1.47207627     -0.12536908
      0.51895244     -0.24209324
      0.20660391     -0.11549118
 
          24   0
s              4   1.000000
     34.97552056     -0.01198412
      6.02307405     -0.05472052
      0.48397970      0.58055871
      0.18445664      0.47700799
p              4   1.000000
      5.63721886      0.05713170
      1.46164667      0.28574555
      0.51527568      0.55178731
      0.20514013      0.26323149
s              7   1.000000
      0.38350848     -0.19619329
      0.04707223      0.94793389
      0.02222627      0.24894184
     34.97552056      0.00550949
      6.02307405      0.02515683
      0.48397970     -0.26690203
      0.18445664     -0.21929634
p              7   1.000000
      1.83062075     -0.01160945
      0.10124670      0.57050607
      0.03901771      0.59580886
      5.63721886     -0.02523768
      1.46164667     -0.12622683
      0.51527568     -0.24374960
      0.20514013     -0.11628135
 
          25   0
s              4   1.000000
     34.91569401     -0.01198412
      6.01277142     -0.05472053
      0.48315184      0.58055871
      0.18414112      0.47700799
p              4   1.000000
      5.62757625      0.05713170
      1.45914649      0.28574555
      0.51439429      0.55178731
      0.20478923      0.26323149
s              7   1.000000
      0.38350848     -0.19624934
      0.04707223      0.94820467
      0.02222627      0.24901294
     34.91569401      0.00551851
      6.01277142      0.02519799
      0.48315184     -0.26733871
      0.18414112     -0.21965513
p              7   1.000000
      1.83062075     -0.01161256
      0.10124670      0.57065917
      0.03901771      0.59596875
      5.62757625     -0.02527913
      1.45914649     -0.12643415
      0.51439429     -0.24414993
      0.20478923     -0.11647233
 
          26   0
s              4   1.000000
     34.92382704     -0.01198412
      6.01417200     -0.05472052
      0.48326438      0.58055871
      0.18418402      0.47700799
p              4   1.000000
      5.62888710      0.05713170
      1.45948637      0.28574555
      0.51451411      0.55178731
      0.20483693      0.26323149
s              7   1.000000
      0.38350848     -0.19624170
      0.04707223      0.94816779
      0.02222627      0.24900326
     34.92382704      0.00551728
      6.01417200      0.02519239
      0.48326438     -0.26727927
      0.18418402     -0.21960629
p              7   1.000000
      1.83062075     -0.01161214
      0.10124670      0.57063831
      0.03901771      0.59594694
      5.62888710     -0.02527348
      1.45948637     -0.12640592
      0.51451411     -0.24409544
      0.20483693     -0.11644633
 
          27   0
s              4   1.000000
     35.03055666     -0.01198412
      6.03255172     -0.05472052
      0.48474127      0.58055871
      0.18474690      0.47700800
p              4   1.000000
      5.64608937      0.05713170
      1.46394666      0.28574555
      0.51608650      0.55178731
      0.20546293      0.26323149
s              7   1.000000
      0.38350848     -0.19614196
      0.04707223      0.94768586
      0.02222627      0.24887671
     35.03055666      0.00550123
      6.03255172      0.02511909
      0.48474127     -0.26650154
      0.18474690     -0.21896728
p              7   1.000000
      1.83062075     -0.01160659
      0.10124670      0.57036585
      0.03901771      0.59566241
      5.64608937     -0.02519966
      1.46394666     -0.12603670
      0.51608650     -0.24338244
      0.20546293     -0.11610619
 
          28   0
s              4   1.000000
     35.22951171     -0.01198412
      6.06681343     -0.05472053
      0.48749434      0.58055871
      0.18579616      0.47700799
p              4   1.000000
      5.67815617      0.05713170
      1.47226111      0.28574555
      0.51901760      0.55178731
      0.20662985      0.26323149
s              7   1.000000
      0.38350848     -0.19595817
      0.04707223      0.94679787
      0.02222627      0.24864349
     35.22951171      0.00547154
      6.06681343      0.02498355
      0.48749434     -0.26506355
      0.18579616     -0.21778579
p              7   1.000000
      1.83062075     -0.01159638
      0.10124670      0.56986381
      0.03901771      0.59513810
      5.67815617     -0.02506316
      1.47226111     -0.12535398
      0.51901760     -0.24206408
      0.20662985     -0.11547726
 
          29   0
s              4   1.000000
     35.26346218     -0.01198412
      6.07265998     -0.05472052
      0.48796414      0.58055871
      0.18597521      0.47700800
p              4   1.000000
      5.68362818      0.05713170
      1.47367991      0.28574555
      0.51951777      0.55178731
      0.20682898      0.26323149
s              7   1.000000
      0.38350848     -0.19592708
      0.04707223      0.94664767
      0.02222627      0.24860405
     35.26346218      0.00546651
      6.07265998      0.02496056
      0.48796414     -0.26481969
      0.18597521     -0.21758541
p              7   1.000000
      1.83062075     -0.01159465
      0.10124670      0.56977889
      0.03901771      0.59504942
      5.68362818     -0.02504001
      1.47367991     -0.12523819
      0.51951777     -0.24184050
      0.20682898     -0.11537060
 
          30   0
s              4   1.000000
      8.31012695      0.05675242
      1.52065085      0.26014135
      0.42245346      0.53284611
      0.14020850      0.29162544
s              7   1.000000
      0.92936822     -0.06732691
      0.05643440      0.66944031
      0.02166600      0.51460304
      8.31012695     -0.02901956
      1.52065085     -0.13301964
      0.42245346     -0.27246341
      0.14020850     -0.14911859
p              4   1.000000
      0.64737396      0.05713170
      0.16785440      0.28574555
      0.05917387      0.55178731
      0.02355814      0.26323150
 
          31   0
s              4   1.000000
      8.30868337      0.05675242
      1.52038669      0.26014135
      0.42238007      0.53284611
      0.14018415      0.29162544
s              7   1.000000
      0.92936822     -0.06732876
      0.05643440      0.66945878
      0.02166600      0.51461723
      8.30868337     -0.02902342
      1.52038669     -0.13303734
      0.42238007     -0.27249967
      0.14018415     -0.14913844
p              4   1.000000
      0.64737396      0.05713170
      0.16785440      0.28574555
      0.05917387      0.55178731
      0.02355814      0.26323150
 
          32   0
s              4   1.000000
      8.30891506      0.05675242
      1.52042909      0.26014135
      0.42239185      0.53284611
      0.14018806      0.29162544
s              7   1.000000
      0.92936822     -0.06732847
      0.05643440      0.66945581
      0.02166600      0.51461497
      8.30891506     -0.02902280
      1.52042909     -0.13303450
      0.42239185     -0.27249385
      0.14018806     -0.14913525
p              4   1.000000
      0.64737396      0.05713170
      0.16785440      0.28574555
      0.05917387      0.55178731
      0.02355814      0.26323150
 
          33   0
s              4   1.000000
      8.31017667      0.05675242
      1.52065995      0.26014135
      0.42245598      0.53284611
      0.14020934      0.29162544
s              7   1.000000
      0.92936822     -0.06732684
      0.05643440      0.66943968
      0.02166600      0.51460254
      8.31017667     -0.02901942
      1.52065995     -0.13301903
      0.42245598     -0.27246216
      0.14020934     -0.14911791
p              4   1.000000
      0.64737396      0.05713170
      0.16785440      0.28574555
      0.05917387      0.55178731
      0.02355814      0.26323150
 
          34   0
s              4   1.000000
      8.31024806      0.05675242
      1.52067301      0.26014135
      0.42245961      0.53284611
      0.14021055      0.29162544
s              7   1.000000
      0.92936822     -0.06732675
      0.05643440      0.66943876
      0.02166600      0.51460185
      8.31024806     -0.02901923
      1.52067301     -0.13301816
      0.42245961     -0.27246037
      0.14021055     -0.14911693
p              4   1.000000
      0.64737396      0.05713170
      0.16785440      0.28574555
      0.05917387      0.55178731
      0.02355814      0.26323150
 
          35   0
s              4   1.000000
      8.30897088      0.05675242
      1.52043930      0.26014135
      0.42239469      0.53284611
      0.14018900      0.29162544
s              7   1.000000
      0.92936822     -0.06732839
      0.05643440      0.66945509
      0.02166600      0.51461440
      8.30897088     -0.02902265
      1.52043930     -0.13303382
      0.42239469     -0.27249244
      0.14018900     -0.14913448
p              4   1.000000
      0.64737396      0.05713170
      0.16785440      0.28574555
      0.05917387      0.55178731
      0.02355814      0.26323150
 
          36   0
s              4   1.000000
      8.30942388      0.05675242
      1.52052219      0.26014135
      0.42241772      0.53284611
      0.14019664      0.29162544
s              7   1.000000
      0.92936822     -0.06732781
      0.05643440      0.66944930
      0.02166600      0.51460995
      8.30942388     -0.02902144
      1.52052219     -0.13302826
      0.42241772     -0.27248107
      0.14019664     -0.14912825
p              4   1.000000
      0.64737396      0.05713170
      0.16785440      0.28574555
      0.05917387      0.55178731
      0.02355814      0.26323150
 
          37   0
s              4   1.000000
      8.31043074      0.05675242
      1.52070644      0.26014135
      0.42246890      0.53284611
      0.14021363      0.29162544
s              7   1.000000
      0.92936822     -0.06732652
      0.05643440      0.66943642
      0.02166600      0.51460006
      8.31043074     -0.02901874
      1.52070644     -0.13301592
      0.42246890     -0.27245578
      0.14021363     -0.14911442
p              4   1.000000
      0.64737396      0.05713170
      0.16785440      0.28574555
      0.05917387      0.55178731
      0.02355814      0.26323150
 
          38   0
s              4   1.000000
      8.30902270      0.05675242
      1.52044878      0.26014135
      0.42239732      0.53284611
      0.14018987      0.29162544
s              7   1.000000
      0.92936822     -0.06732833
      0.05643440      0.66945444
      0.02166600      0.51461390
      8.30902270     -0.02902251
      1.52044878     -0.13303318
      0.42239732     -0.27249114
      0.14018987     -0.14913377
p              4   1.000000
      0.64737396      0.05713170
      0.16785440      0.28574555
      0.05917387      0.55178731
      0.02355814      0.26323150
 
          39   0
s              4   1.000000
      8.30892566      0.05675242
      1.52043103      0.26014135
      0.42239239      0.53284611
      0.14018824      0.29162544
s              7   1.000000
      0.92936822     -0.06732845
      0.05643440      0.66945567
      0.02166600      0.51461484
      8.30892566     -0.02902277
      1.52043103     -0.13303437
      0.42239239     -0.27249358
      0.14018824     -0.14913510
p              4   1.000000
      0.64737396      0.05713170
      0.16785440      0.28574555
      0.05917387      0.55178731
      0.02355814      0.26323150
 
          40   0
s              4   1.000000
      8.30926452      0.05675242
      1.52049303      0.26014135
      0.42240961      0.53284611
      0.14019395      0.29162544
s              7   1.000000
      0.92936822     -0.06732802
      0.05643440      0.66945134
      0.02166600      0.51461151
      8.30926452     -0.02902186
      1.52049303     -0.13303022
      0.42240961     -0.27248507
      0.14019395     -0.14913045
p              4   1.000000
      0.64737396      0.05713170
      0.16785440      0.28574555
      0.05917387      0.55178731
      0.02355814      0.26323150
 
          41   0
s              4   1.000000
      8.30927766      0.05675242
      1.52049544      0.26014135
      0.42241028      0.53284611
      0.14019418      0.29162544
s              7   1.000000
      0.92936822     -0.06732800
      0.05643440      0.66945117
      0.02166600      0.51461139
      8.30927766     -0.02902183
      1.52049544     -0.13303006
      0.42241028     -0.27248474
      0.14019418     -0.14913027
p              4   1.000000
      0.64737396      0.05713170
      0.16785440      0.28574555
      0.05917387      0.55178731
      0.02355814      0.26323150
 
          42   0
s              4   1.000000
      8.30894098      0.05675242
      1.52043383      0.26014135
      0.42239317      0.53284611
      0.14018849      0.29162544
s              7   1.000000
      0.92936822     -0.06732843
      0.05643440      0.66945548
      0.02166600      0.51461469
      8.30894098     -0.02902273
      1.52043383     -0.13303419
      0.42239317     -0.27249319
      0.14018849     -0.14913490
p              4   1.000000
      0.64737396      0.05713170
      0.16785440      0.28574555
      0.05917387      0.55178731
      0.02355814      0.26323150
 
          43   0
s              4   1.000000
      8.30930400      0.05675242
      1.52050026      0.26014135
      0.42241162      0.53284611
      0.14019462      0.29162544
s              7   1.000000
      0.92936822     -0.06732797
      0.05643440      0.66945084
      0.02166600      0.51461114
      8.30930400     -0.02902176
      1.52050026     -0.13302973
      0.42241162     -0.27248408
      0.14019462     -0.14912990
p              4   1.000000
      0.64737396      0.05713170
      0.16785440      0.28574555
      0.05917387      0.55178731
      0.02355814      0.26323150
 
          44   0
s              4   1.000000
      8.31088204      0.05675242
      1.52078902      0.26014135
      0.42249184      0.53284611
      0.14022124      0.29162544
s              7   1.000000
      0.92936822     -0.06732594
      0.05643440      0.66943065
      0.02166600      0.51459561
      8.31088204     -0.02901754
      1.52078902     -0.13301039
      0.42249184     -0.27244445
      0.14022124     -0.14910821
p              4   1.000000
      0.64737396      0.05713170
      0.16785440      0.28574555
      0.05917387      0.55178731
      0.02355814      0.26323150
 
          45   0
s              4   1.000000
      8.31156426      0.05675242
      1.52091386      0.26014135
      0.42252652      0.53284611
      0.14023275      0.29162544
s              7   1.000000
      0.92936822     -0.06732506
      0.05643440      0.66942192
      0.02166600      0.51458890
      8.31156426     -0.02901571
      1.52091386     -0.13300203
      0.42252652     -0.27242732
      0.14023275     -0.14909884
p              4   1.000000
      0.64737396      0.05713170
      0.16785440      0.28574555
      0.05917387      0.55178731
      0.02355814      0.26323150
 
 [MO]
 Sym= Hole
 Ene=  -1.055488    
 Spin= Alpha
 Occup= 0
           1  1.8673369E-03
           2 -1.3764999E-02
           3  1.8724226E-03
           4  9.9996096E-03
           5 -5.0931127E-04
           6  1.1837126E-03
           7 -1.6274603E-06
           8 -1.9040138E-03
           9 -2.0689841E-02
          10  1.5747163E-02
          11 -1.2031143E-03
          12 -9.9872304E-03
          13  1.0068200E-03
          14 -4.1485522E-03
          15 -2.7959919E-04
          16  3.0166372E-03
          17  3.1674770E-04
          18 -1.8248338E-02
          19 -3.2012172E-03
          20  6.2723798E-03
          21 -4.5205429E-04
          22  9.7331608E-04
          23 -5.1292125E-04
          24 -5.4330041E-04
          25  2.6358408E-03
          26  5.8304548E-04
          27  6.1930502E-03
          28 -1.9042669E-03
          29 -2.8648316E-03
          30 -1.1142819E-03
          31 -1.4492355E-03
          32 -1.6271841E-04
          33 -8.0147618E-04
          34 -1.1406946E-03
          35 -1.2856226E-03
          36 -1.1903387E-03
          37  8.3594532E-05
          38  1.7060778E-03
          39  2.5430149E-03
          40  6.5534940E-04
          41  4.0380377E-04
          42  4.2004680E-04
          43  1.3878650E-03
          44 -7.1285036E-04
          45  7.3777576E-04
          46  6.0089200E-04
          47  2.6867795E-04
          48 -4.8004381E-06
          49  1.5798655E-04
          50  1.4997841E-03
          51 -1.3208246E-05
          52 -3.1089451E-04
          53  1.0683585E-03
          54 -8.2700170E-04
          55  7.9287653E-05
          56 -5.3971104E-04
          57 -1.5850624E-04
          58 -2.5191228E-04
          59  1.1322681E-03
          60 -7.3607318E-04
          61  3.2740741E-04
          62  4.7848898E-04
          63  1.1057373E-03
          64 -2.0265470E-04
          65 -2.6879544E-04
          66 -6.1050273E-04
          67 -8.9426183E-05
          68  1.6469468E-03
          69 -3.6345181E-04
          70 -6.3906162E-04
          71  8.1284821E-04
          72 -1.4533448E-03
          73  1.0651736E-02
          74 -1.3772491E-02
          75 -1.5507070E-02
          76  5.9511196E-03
          77 -2.8318549E-03
          78  5.8496068E-03
          79  5.5372954E-04
          80  1.4937726E-04
          81 -6.9408637E-04
          82 -2.7198218E-02
          83  6.5507129E-02
          84 -6.8884872E-02
          85  9.9633378E-04
          86  2.4977776E-03
          87 -6.7223189E-03
          88  1.0514065E-02
          89 -1.1465372E-02
          90  1.1365457E-02
          91  3.7724450E-03
          92  9.3822461E-03
          93  4.5345877E-03
          94 -1.0181445E-03
          95 -5.8046412E-03
          96 -6.9856818E-04
          97  4.0364269E-02
          98  3.5899911E-02
          99 -0.1168521    
         100  1.5132649E-02
         101 -2.7476734E-02
         102  2.9944677E-03
         103  2.7449273E-02
         104  5.1866281E-03
         105  3.5223041E-03
         106 -2.2992373E-02
         107  1.3086814E-02
         108  6.3280733E-03
         109 -4.4156136E-03
         110  1.0727630E-02
         111 -9.4684650E-04
         112 -1.9471649E-02
         113 -1.2820595E-02
         114  0.1380225    
         115  7.1743825E-03
         116 -0.4792004    
         117  5.7586450E-03
         118 -2.0300416E-02
         119  2.1695124E-03
         120  6.5027013E-02
         121  1.7511164E-03
         122 -5.6342732E-02
         123 -1.2877049E-04
         124  0.1907161    
         125 -2.8186843E-03
         126  7.6508122E-03
         127  2.8899997E-03
         128 -3.6286712E-02
         129  2.7466088E-03
         130 -5.6101680E-02
         131  7.8044743E-03
         132  0.2172982    
         133 -2.4543430E-03
         134  3.5759399E-03
         135 -1.5912968E-03
         136 -1.2901353E-02
         137  7.6069249E-05
         138  4.4943109E-02
         139 -2.7649633E-03
         140 -0.1663777    
         141 -7.7202290E-05
         142 -4.3524555E-03
         143  1.1127658E-05
         144  2.2254016E-02
         145  1.0664365E-03
         146  6.6099823E-02
         147  9.0571918E-04
         148 -0.2371430    
         149  2.5999331E-04
         150 -6.8251882E-03
         151 -6.1301916E-04
         152  2.8162755E-02
         153 -1.5043428E-03
         154 -4.3419018E-02
         155 -1.0079138E-03
         156  0.1412865    
         157  9.9977944E-04
         158  4.8127226E-03
         159  1.0469029E-04
         160 -1.1389927E-02
         161  3.4999861E-03
         162 -7.3354289E-02
         163 -1.1891107E-02
         164  0.2638302    
         165 -2.9354393E-03
         166  1.3361606E-02
         167  3.8570520E-03
         168 -5.0543454E-02
         169 -1.4844266E-03
         170  8.9079238E-02
         171  1.6047822E-02
         172 -0.3248094    
         173  1.2627523E-03
         174 -1.4317734E-02
         175 -1.3281439E-03
         176  5.3342916E-02
         177 -3.6118007E-03
         178 -8.2593031E-02
         179 -1.8936055E-02
         180  0.2725928    
         181  5.8222754E-04
         182  1.3720830E-02
         183  2.4868278E-03
         184 -5.0187666E-02
         185  1.9472846E-03
         186 -4.4226244E-02
         187 -3.6147097E-03
         188  0.1405808    
         189 -9.1199053E-04
         190  3.5602064E-03
         191  3.6120537E-04
         192 -1.1962817E-02
         193 -5.6436664E-04
         194  7.8565791E-02
         195  1.3785372E-02
         196 -0.2446315    
         197 -4.0975359E-05
         198 -8.7021552E-03
         199 -1.5933960E-03
         200  2.7514061E-02
         201  1.0812420E-03
         202  6.0104690E-02
         203  1.2115053E-02
         204 -0.1688367    
         205  3.2990603E-05
         206 -7.9570301E-03
         207 -1.2383220E-03
         208  2.0462656E-02
         209 -2.2319595E-03
         210 -8.1844985E-02
         211 -1.4371886E-02
         212  0.2129715    
         213  4.9669703E-04
         214  6.7291283E-03
         215 -4.7080801E-04
         216 -1.1972317E-02
         217  3.2636884E-03
         218 -6.7174561E-02
         219  1.8016980E-03
         220  0.2033758    
         221 -3.5268958E-03
         222  1.0930522E-02
         223 -1.5772321E-03
         224 -3.5353683E-02
         225 -4.0364433E-02
         226  9.8303303E-02
         227 -7.8968681E-02
         228  3.3522151E-02
         229  2.4051955E-02
         230 -2.7443431E-02
         231  4.5141433E-03
         232 -4.3384936E-03
         233 -1.0554382E-03
         234 -5.5740110E-04
         235  1.9095105E-03
         236  1.3750112E-03
         237  1.5950149E-03
         238 -8.6773949E-04
         239  3.2049636E-04
         240 -3.4291396E-04
         241 -1.5395947E-04
         242  5.8535469E-04
         243  5.6578696E-04
         244  5.3557835E-04
         245 -6.8707473E-04
         246  8.4456624E-05
         247 -2.7744283E-04
         248 -1.1270754E-03
         249  3.7120888E-04
         250 -7.6277865E-05
         251 -7.0885726E-04
         252 -1.2917711E-03
         253  1.0635295E-03
         254  1.7413389E-04
         255 -1.3602633E-03
         256  8.3943466E-03
         257 -1.0722195E-02
         258  1.7291825E-02
         259 -2.5131353E-03
         260 -6.0263359E-05
         261 -1.6978567E-03
         262 -2.7976901E-04
         263 -1.3570556E-02
         264 -1.8205253E-03
         265  8.2588028E-03
         266  5.0052581E-03
         267  1.0769186E-02
         268 -5.3117465E-04
         269 -1.6824207E-03
         270 -8.3204685E-03
         271 -3.2726740E-03
         272  1.8188011E-02
         273 -3.4350101E-03
         274  9.2015794E-04
         275  4.2233560E-03
         276 -1.8298872E-04
         277 -1.4292793E-02
         278 -1.0721458E-03
         279  5.5127498E-04
         280  5.2976045E-03
         281  2.3303909E-04
         282 -2.0043572E-02
         283 -2.2129677E-03
         284  1.2561699E-03
         285 -6.2543980E-04
         286  3.7894726E-05
         287  4.5717382E-03
         288 -4.2076940E-06
         289 -5.4865595E-05
         290 -1.8506719E-03
         291  7.3408111E-05
         292  4.1327057E-03
         293  1.0441920E-03
         294 -9.7165786E-05
         295  6.3770753E-03
         296  1.2810414E-03
         297 -1.9696716E-02
         298  3.1552026E-03
         299 -1.1117265E-04
         300  4.1101100E-03
         301  9.6388871E-04
         302 -1.3923404E-02
         303 -2.0806752E-03
         304  2.2572330E-03
         305 -3.1103210E-03
         306  1.1466556E-03
         307  1.9043982E-02
         308  1.2607832E-02
         309  1.9821238E-03
         310 -9.7877765E-03
         311 -8.1900330E-03
         312  5.6897872E-03
 Sym= Particle
 Ene=  -1.055488    
 Spin= Alpha
 Occup= 2
           1  1.3402551E-04
           2  6.1206240E-04
           3 -1.1194890E-03
           4  9.5634867E-04
           5  5.5524684E-04
           6  9.7707147E-04
           7 -3.1997489E-03
           8  5.2425609E-04
           9 -4.9492191E-03
          10  2.2469449E-03
          11  1.5979536E-05
          12 -2.0211455E-03
          13  1.6551840E-04
          14 -1.2053292E-03
          15 -5.5401563E-04
          16  2.6688338E-04
          17  6.2905363E-04
          18 -2.6722068E-03
          19 -6.2015583E-04
          20 -9.7450429E-05
          21 -9.3672704E-04
          22  5.0051830E-04
          23  2.5085465E-04
          24 -2.3818210E-04
          25  2.9114145E-03
          26 -8.6908173E-03
          27  3.2262695E-03
          28  1.0162068E-03
          29 -6.3787806E-03
          30  5.4757604E-03
          31 -1.3799204E-03
          32 -8.9380250E-04
          33  8.1128534E-04
          34 -3.5796021E-04
          35  3.6771092E-04
          36 -1.1604024E-03
          37 -5.5306247E-03
          38  3.6924952E-03
          39  1.3400665E-03
          40 -1.3034418E-03
          41  3.0146309E-04
          42  3.4669803E-03
          43  1.4682814E-03
          44 -1.5271911E-03
          45 -1.1343885E-04
          46 -2.5157428E-03
          47 -3.1811628E-04
          48 -8.1662503E-05
          49 -5.0694216E-04
          50 -3.3816174E-03
          51  1.1702861E-03
          52  4.3831454E-04
          53  2.1495298E-03
          54  1.5541638E-04
          55  1.3919211E-04
          56 -1.9295576E-04
          57  7.1190781E-04
          58  3.8725301E-03
          59  7.9011801E-04
          60 -1.0902261E-03
          61 -2.7557940E-05
          62 -3.2728422E-04
          63  1.8298519E-03
          64 -7.4902253E-04
          65  3.9623879E-04
          66 -7.3884334E-04
          67  4.5676835E-04
          68 -4.1297163E-04
          69 -1.4527648E-03
          70  4.3608149E-04
          71 -3.2622687E-05
          72 -3.7234853E-04
          73 -1.4405094E-04
          74  7.9180405E-04
          75  9.1760261E-03
          76 -7.7820737E-03
          77  6.8857032E-04
          78  2.7083354E-03
          79 -7.8074555E-03
          80  2.0087804E-03
          81  1.3965662E-03
          82  1.1908351E-02
          83 -2.5823249E-02
          84  2.3044750E-02
          85 -5.2766339E-04
          86 -1.5011143E-03
          87  5.8804029E-03
          88 -6.6010687E-03
          89 -2.3564088E-04
          90 -4.8533883E-03
          91  1.5494644E-02
          92 -1.0311308E-02
          93 -6.1728433E-04
          94 -1.3113372E-03
          95 -6.6191278E-04
          96  1.1834388E-03
          97  3.0457361E-03
          98 -1.9623727E-02
          99  2.5347330E-02
         100 -1.4922048E-02
         101 -2.9657886E-03
         102  1.3905525E-02
         103 -1.3535775E-02
         104  6.2058568E-03
         105  2.6134006E-04
         106  1.8453812E-02
         107 -3.3035021E-02
         108  2.9284956E-02
         109  5.6226044E-03
         110 -8.7356195E-03
         111  1.0726908E-02
         112 -1.2134426E-02
         113 -6.1611487E-03
         114 -2.1834993E-03
         115 -1.0256051E-03
         116  4.0677497E-03
         117  6.8880143E-03
         118  1.3453368E-03
         119 -1.9893979E-03
         120 -2.6701146E-03
         121  6.6478862E-03
         122 -3.3717204E-02
         123 -1.7373674E-03
         124  0.1370613    
         125 -1.0956865E-03
         126  1.4925973E-02
         127  4.6692824E-04
         128 -6.2379930E-02
         129 -2.8543619E-03
         130  9.5847547E-02
         131 -1.0125425E-02
         132 -0.3581859    
         133  4.4578104E-03
         134 -2.9422855E-02
         135  4.9366816E-03
         136  0.1133340    
         137 -1.0468683E-03
         138 -6.2268168E-02
         139  2.2803356E-03
         140  0.2312405    
         141  2.9324400E-03
         142  1.7714242E-02
         143 -1.1372051E-03
         144 -6.3595772E-02
         145  7.0086838E-04
         146 -3.6823109E-02
         147 -3.6297438E-03
         148  0.1332415    
         149  3.0623632E-04
         150  9.7645186E-03
         151  2.1770261E-03
         152 -3.5337660E-02
         153 -6.5744959E-04
         154  0.1032562    
         155  5.6864144E-03
         156 -0.3579594    
         157  1.2328156E-03
         158 -3.1287391E-02
         159 -1.1900081E-03
         160  0.1088911    
         161 -2.4192624E-03
         162 -7.2515130E-02
         163 -1.3958730E-02
         164  0.2340931    
         165  4.6169087E-03
         166  3.2549988E-02
         167  7.5590713E-03
         168 -0.1012335    
         169 -2.8579731E-03
         170  5.1681930E-04
         171 -3.6670128E-04
         172  3.1336311E-03
         173  3.3513429E-03
         174 -1.1857821E-03
         175 -6.6183996E-04
         176 -2.5682340E-03
         177 -9.4126088E-05
         178  6.5674298E-02
         179  1.1362671E-02
         180 -0.2453208    
         181  3.2800748E-03
         182 -2.5634276E-02
         183 -4.6129008E-03
         184  0.1060542    
         185 -2.6651123E-03
         186 -0.1205640    
         187 -2.2300901E-02
         188  0.3887350    
         189  3.0592559E-03
         190  3.7495062E-02
         191  7.0767226E-03
         192 -0.1181582    
         193  1.0196412E-03
         194  4.8808888E-02
         195  1.0143899E-02
         196 -0.1598543    
         197  6.2331418E-04
         198 -1.1961982E-02
         199 -2.7171089E-03
         200  4.2976134E-02
         201 -1.4448497E-03
         202  8.0485441E-02
         203  1.4211698E-02
         204 -0.2327334    
         205  3.7698140E-03
         206 -2.2970263E-02
         207 -2.1799703E-03
         208  6.4573050E-02
         209 -3.2587685E-03
         210 -0.1406426    
         211 -2.3336997E-02
         212  0.3827322    
         213  6.3944906E-03
         214  4.6201948E-02
         215  1.0449571E-02
         216 -0.1193598    
         217  1.0704985E-03
         218  5.5634938E-02
         219  2.6328613E-03
         220 -0.1663729    
         221  4.7053420E-03
         222 -2.2132801E-02
         223 -6.4069999E-04
         224  7.3842518E-02
         225  3.9969282E-03
         226 -5.3052944E-03
         227  6.9052172E-03
         228 -1.6781991E-02
         229 -3.3579110E-03
         230  1.5283775E-03
         231  6.6077481E-03
         232  3.8348234E-03
         233  3.8916143E-04
         234 -6.4564688E-04
         235  5.0713780E-04
         236 -2.0473411E-04
         237  8.5726817E-04
         238 -6.5885601E-04
         239  3.1089275E-03
         240 -4.1356278E-03
         241  1.8891184E-04
         242  7.8671979E-04
         243 -4.1359867E-04
         244  2.0111541E-03
         245 -3.0729603E-03
         246  8.9279283E-04
         247 -3.2405287E-04
         248 -3.8340793E-04
         249  7.6119753E-04
         250 -1.4015209E-03
         251 -1.2628231E-03
         252 -2.4570692E-03
         253 -3.1132875E-03
         254 -7.5818505E-04
         255  3.8168011E-03
         256 -5.3264727E-03
         257  4.4969833E-03
         258 -2.8128412E-03
         259 -6.7257794E-04
         260 -2.3545183E-03
         261  3.9053573E-03
         262 -1.8851607E-03
         263 -1.8670361E-03
         264 -8.2133720E-03
         265  1.2322121E-02
         266 -1.7224983E-03
         267  4.2784251E-03
         268  2.5848045E-03
         269  1.0994473E-03
         270  2.4789570E-02
         271  1.4647138E-03
         272 -7.6267526E-02
         273  2.3311372E-03
         274 -5.9346575E-04
         275 -1.5268333E-02
         276  2.2759335E-03
         277  5.7035949E-02
         278 -4.0961287E-04
         279 -3.7085125E-04
         280 -9.1747250E-03
         281  6.8241148E-04
         282  3.2125406E-02
         283 -2.1435088E-03
         284  1.7615122E-04
         285  2.3553004E-02
         286  8.2696369E-04
         287 -8.3764359E-02
         288 -5.4737140E-04
         289 -6.0973780E-05
         290 -2.9354760E-02
         291 -5.5686454E-03
         292  9.2158586E-02
         293 -7.3345646E-04
         294  4.0137573E-04
         295  1.3228808E-02
         296  2.0462784E-03
         297 -3.8435832E-02
         298  3.4788810E-03
         299 -1.3034722E-03
         300  2.0066300E-02
         301  4.5083337E-03
         302 -5.5759221E-02
         303  4.6728528E-03
         304  1.3280106E-03
         305 -2.8690265E-02
         306  1.0153803E-04
         307  8.4835291E-02
         308 -6.6273264E-04
         309 -7.1353717E-03
         310  1.5499470E-04
         311  2.0290501E-02
         312 -9.2236716E-03
