 [Molden Format]
 [Atoms] Angs
C       1      6     -3.30803630     -0.37111154      2.31008093
C       2      6     -3.76802000     -0.10430195      0.86117397
C       3      6     -5.28382353      0.08734473      0.86876160
C       4      6     -3.32904174     -1.27210486      0.00114639
C       5      6     -4.18144234     -2.26321020     -0.45887655
C       6      6     -3.70589785     -3.32471991     -1.20964402
C       7      6     -2.36265785     -3.39416679     -1.53416437
C       8      6     -1.49874519     -2.40688464     -1.10478960
C       9      6     -1.96908629     -1.35749358     -0.31887970
N      10      7     -1.12220019     -0.31692507      0.07385468
C      11      6      0.24590355     -0.48386419      0.21742525
C      12      6      0.68498206     -1.71270983      0.76591684
C      13      6      2.00703338     -1.96842142      0.92729422
C      14      6      2.96750905     -1.02347317      0.50617008
C      15      6      4.33377724     -1.32999649      0.59825244
C      16      6      5.28975163     -0.43860944      0.16465594
C      17      6      6.66306457     -0.74885974      0.25550159
N      18      7      7.78121212     -0.99573524      0.32727887
C      19      6      4.87965860      0.79201536     -0.38985649
C      20      6      3.55550632      1.11064963     -0.46690630
C      21      6      2.53697700      0.23466537     -0.01005300
C      22      6      1.14500875      0.52683488     -0.08521057
C      23      6      0.63305219      1.89634614     -0.51486802
C      24      6      0.80558813      2.04072642     -2.04158916
C      25      6      1.36104341      3.01500397      0.27454913
C      26      6     -0.85742848      2.04999106     -0.25275309
C      27      6     -1.45789627      3.29702017     -0.37007100
C      28      6     -2.81290508      3.45485345     -0.15622156
C      29      6     -3.59100008      2.37416916      0.22361802
C      30      6     -3.02651359      1.11822349      0.35413435
C      31      6     -1.66537368      0.96485128      0.06215821
H      32      1     -3.57541422      0.47056226      2.94557526
H      33      1     -2.23112042     -0.51029664      2.36182304
H      34      1     -3.79036862     -1.26803879      2.69332941
H      35      1     -5.55223400      0.92296153      1.51008456
H      36      1     -5.65862689      0.27483006     -0.13499673
H      37      1     -5.77243991     -0.79642537      1.27116373
H      38      1     -5.23385645     -2.22198212     -0.23020866
H      39      1     -4.38672253     -4.09167594     -1.54637374
H      40      1     -1.98744773     -4.20819666     -2.13595881
H      41      1     -0.45725146     -2.43845786     -1.38870122
H      42      1     -0.05870251     -2.43137580      1.07611234
H      43      1      2.34151706     -2.89607111      1.36715047
H      44      1      4.62909371     -2.28598060      1.00728938
H      45      1      5.62983750      1.47826140     -0.75490853
H      46      1      3.29712496      2.05582009     -0.90952393
H      47      1      1.83391806      1.88927029     -2.35513361
H      48      1      0.18902920      1.29751406     -2.54556834
H      49      1      0.47989705      3.02636110     -2.36584368
H      50      1      0.66153171      3.52483373      0.93316414
H      51      1      2.14701556      2.61088873      0.90546151
H      52      1      1.79542475      3.75641575     -0.39204900
H      53      1     -0.86471749      4.15479053     -0.64764813
H      54      1     -3.26542062      4.42837485     -0.26963074
H      55      1     -4.63939376      2.52851205      0.41786252
 [GTO]
           1   0
s              4   1.000000
     37.04945910     -0.01198412
      6.38022343     -0.05472053
      0.51267818      0.58055871
      0.19539434      0.47700799
p              4   1.000000
      5.97148824      0.05713170
      1.54831773      0.28574555
      0.54582991      0.55178731
      0.21730429      0.26323149
s              7   1.000000
      0.38350848     -0.19439767
      0.04707223      0.93925809
      0.02222627      0.24666343
     37.04945910      0.00521388
      6.38022343      0.02380705
      0.51267818     -0.25258142
      0.19539434     -0.20753002
p              7   1.000000
      1.83062075     -0.01150964
      0.10124670      0.56560153
      0.03901771      0.59068677
      5.97148824     -0.02387795
      1.54831773     -0.11942614
      0.54582991     -0.23061716
      0.21730429     -0.11001648
 
           2   0
s              4   1.000000
     37.12655214     -0.01198412
      6.39349949     -0.05472052
      0.51374496      0.58055871
      0.19580092      0.47700800
p              4   1.000000
      5.98391380      0.05713170
      1.55153949      0.28574555
      0.54696568      0.55178731
      0.21775646      0.26323149
s              7   1.000000
      0.38350848     -0.19433605
      0.04707223      0.93896035
      0.02222627      0.24658524
     37.12655214      0.00520349
      6.39349949      0.02375959
      0.51374496     -0.25207794
      0.19580092     -0.20711634
p              7   1.000000
      1.83062075     -0.01150622
      0.10124670      0.56543324
      0.03901771      0.59051103
      5.98391380     -0.02383013
      1.55153949     -0.11918697
      0.54696568     -0.23015532
      0.21775646     -0.10979616
 
           3   0
s              4   1.000000
     37.01312690     -0.01198412
      6.37396672     -0.05472052
      0.51217542      0.58055871
      0.19520273      0.47700799
p              4   1.000000
      5.96563235      0.05713170
      1.54679939      0.28574555
      0.54529465      0.55178731
      0.21709120      0.26323149
s              7   1.000000
      0.38350848     -0.19442683
      0.04707223      0.93939897
      0.02222627      0.24670043
     37.01312690      0.00521880
      6.37396672      0.02382947
      0.51217542     -0.25281938
      0.19520273     -0.20772553
p              7   1.000000
      1.83062075     -0.01151126
      0.10124670      0.56568116
      0.03901771      0.59076995
      5.96563235     -0.02390055
      1.54679939     -0.11953917
      0.54529465     -0.23083544
      0.21709120     -0.11012061
 
           4   0
s              4   1.000000
     35.29660873     -0.01198412
      6.07836809     -0.05472052
      0.48842281      0.58055871
      0.18615002      0.47700799
p              4   1.000000
      5.68897061      0.05713170
      1.47506513      0.28574555
      0.52000610      0.55178731
      0.20702339      0.26323149
s              7   1.000000
      0.38350848     -0.19589681
      0.04707223      0.94650140
      0.02222627      0.24856564
     35.29660873      0.00546160
      6.07836809      0.02493816
      0.48842281     -0.26458202
      0.18615002     -0.21739014
p              7   1.000000
      1.83062075     -0.01159297
      0.10124670      0.56969619
      0.03901771      0.59496305
      5.68897061     -0.02501745
      1.47506513     -0.12512535
      0.52000610     -0.24162259
      0.20702339     -0.11526665
 
           5   0
s              4   1.000000
     35.00127586     -0.01198412
      6.02750933     -0.05472052
      0.48433609      0.58055871
      0.18459247      0.47700799
p              4   1.000000
      5.64137000      0.05713170
      1.46272300      0.28574555
      0.51565512      0.55178731
      0.20529119      0.26323149
s              7   1.000000
      0.38350848     -0.19616924
      0.04707223      0.94781769
      0.02222627      0.24891132
     35.00127586      0.00550562
      6.02750933      0.02513915
      0.48433609     -0.26671446
      0.18459247     -0.21914223
p              7   1.000000
      1.83062075     -0.01160811
      0.10124670      0.57044037
      0.03901771      0.59574025
      5.64137000     -0.02521987
      1.46272300     -0.12613778
      0.51565512     -0.24357764
      0.20529119     -0.11619931
 
           6   0
s              4   1.000000
     34.91932067     -0.01198412
      6.01339596     -0.05472052
      0.48320202      0.58055871
      0.18416025      0.47700799
p              4   1.000000
      5.62816078      0.05713170
      1.45929805      0.28574555
      0.51444772      0.55178731
      0.20481050      0.26323149
s              7   1.000000
      0.38350848     -0.19624593
      0.04707223      0.94818823
      0.02222627      0.24900862
     34.91932067      0.00551796
      6.01339596      0.02519549
      0.48320202     -0.26731220
      0.18416025     -0.21963335
p              7   1.000000
      1.83062075     -0.01161237
      0.10124670      0.57064986
      0.03901771      0.59595904
      5.62816078     -0.02527661
      1.45929805     -0.12642156
      0.51444772     -0.24412563
      0.20481050     -0.11646073
 
           7   0
s              4   1.000000
     34.92049365     -0.01198412
      6.01359796     -0.05472052
      0.48321825      0.58055871
      0.18416644      0.47700800
p              4   1.000000
      5.62834984      0.05713170
      1.45934707      0.28574555
      0.51446500      0.55178731
      0.20481738      0.26323149
s              7   1.000000
      0.38350848     -0.19624483
      0.04707223      0.94818290
      0.02222627      0.24900723
     34.92049365      0.00551778
      6.01359796      0.02519469
      0.48321825     -0.26730363
      0.18416644     -0.21962631
p              7   1.000000
      1.83062075     -0.01161231
      0.10124670      0.57064686
      0.03901771      0.59595588
      5.62834984     -0.02527580
      1.45934707     -0.12641749
      0.51446500     -0.24411777
      0.20481738     -0.11645698
 
           8   0
s              4   1.000000
     35.02191709     -0.01198412
      6.03106392     -0.05472053
      0.48462172      0.58055871
      0.18470133      0.47700800
p              4   1.000000
      5.64469687      0.05713170
      1.46358561      0.28574555
      0.51595922      0.55178731
      0.20541226      0.26323149
s              7   1.000000
      0.38350848     -0.19615000
      0.04707223      0.94772473
      0.02222627      0.24888690
     35.02191709      0.00550252
      6.03106392      0.02512500
      0.48462172     -0.26656433
      0.18470133     -0.21901887
p              7   1.000000
      1.83062075     -0.01160704
      0.10124670      0.57038782
      0.03901771      0.59568535
      5.64469687     -0.02520562
      1.46358561     -0.12606651
      0.51595922     -0.24344000
      0.20541226     -0.11613365
 
           9   0
s              4   1.000000
     35.34055651     -0.01198412
      6.08593626     -0.05472052
      0.48903095      0.58055871
      0.18638180      0.47700800
p              4   1.000000
      5.69605394      0.05713170
      1.47690173      0.28574555
      0.52065356      0.55178731
      0.20728115      0.26323149
s              7   1.000000
      0.38350848     -0.19585679
      0.04707223      0.94630803
      0.02222627      0.24851487
     35.34055651      0.00545511
      6.08593626      0.02490852
      0.48903095     -0.26426755
      0.18638180     -0.21713176
p              7   1.000000
      1.83062075     -0.01159074
      0.10124670      0.56958687
      0.03901771      0.59484888
      5.69605394     -0.02498759
      1.47690173     -0.12497604
      0.52065356     -0.24133427
      0.20728115     -0.11512911
 
          10   0
s              4   1.000000
     61.31484856     -0.01198412
     10.55892428     -0.05472052
      0.84845462      0.58055871
      0.32336706      0.47700799
p              4   1.000000
      7.22730236      0.05713170
      1.87393158      0.28574555
      0.66061887      0.55178731
      0.26300376      0.26323149
s              7   1.000000
      0.47894987     -0.18774892
      0.05878681      0.90713379
      0.02775758      0.23822711
     61.31484856      0.00396242
     10.55892428      0.01809277
      0.84845462     -0.19195569
      0.32336706     -0.15771772
p              7   1.000000
      2.28619608     -0.01156279
      0.12644335      0.56821330
      0.04872781      0.59341438
      7.22730236     -0.02460993
      1.87393158     -0.12308714
      0.66061887     -0.23768672
      0.26300376     -0.11338903
 
          11   0
s              4   1.000000
     35.27882254     -0.01198412
      6.07530516     -0.05472052
      0.48817669      0.58055871
      0.18605622      0.47700799
p              4   1.000000
      5.68610390      0.05713170
      1.47432183      0.28574555
      0.51974407      0.55178731
      0.20691907      0.26323149
s              7   1.000000
      0.38350848     -0.19591305
      0.04707223      0.94657985
      0.02222627      0.24858623
     35.27882254      0.00546424
      6.07530516      0.02495018
      0.48817669     -0.26470950
      0.18605622     -0.21749488
p              7   1.000000
      1.83062075     -0.01159387
      0.10124670      0.56974054
      0.03901771      0.59500937
      5.68610390     -0.02502955
      1.47432183     -0.12518588
      0.51974407     -0.24173947
      0.20691907     -0.11532241
 
          12   0
s              4   1.000000
     35.02759061     -0.01198412
      6.03204094     -0.05472052
      0.48470023      0.58055871
      0.18473125      0.47700799
p              4   1.000000
      5.64561131      0.05713170
      1.46382271      0.28574555
      0.51604280      0.55178731
      0.20544553      0.26323149
s              7   1.000000
      0.38350848     -0.19614472
      0.04707223      0.94769921
      0.02222627      0.24888019
     35.02759061      0.00550167
      6.03204094      0.02512112
      0.48470023     -0.26652309
      0.18473125     -0.21898499
p              7   1.000000
      1.83062075     -0.01160675
      0.10124670      0.57037339
      0.03901771      0.59567026
      5.64561131     -0.02520171
      1.46382271     -0.12604693
      0.51604280     -0.24340220
      0.20544553     -0.11611562
 
          13   0
s              4   1.000000
     34.98972888     -0.01198412
      6.02552084     -0.05472053
      0.48417631      0.58055871
      0.18453158      0.47700799
p              4   1.000000
      5.63950890      0.05713170
      1.46224045      0.28574555
      0.51548501      0.55178730
      0.20522346      0.26323149
s              7   1.000000
      0.38350848     -0.19618002
      0.04707223      0.94786976
      0.02222627      0.24892499
     34.98972888      0.00550736
      6.02552084      0.02514708
      0.48417631     -0.26679852
      0.18453158     -0.21921129
p              7   1.000000
      1.83062075     -0.01160871
      0.10124670      0.57046982
      0.03901771      0.59577100
      5.63950890     -0.02522785
      1.46224045     -0.12617769
      0.51548501     -0.24365471
      0.20522346     -0.11623608
 
          14   0
s              4   1.000000
     35.16917255     -0.01198412
      6.05642253     -0.05472053
      0.48665939      0.58055871
      0.18547794      0.47700800
p              4   1.000000
      5.66843094      0.05713170
      1.46973950      0.28574555
      0.51812865      0.55178731
      0.20627594      0.26323149
s              7   1.000000
      0.38350848     -0.19601362
      0.04707223      0.94706578
      0.02222627      0.24871386
     35.16917255      0.00548051
      6.05642253      0.02502450
      0.48665939     -0.26549806
      0.18547794     -0.21814279
p              7   1.000000
      1.83062075     -0.01159946
      0.10124670      0.57001527
      0.03901771      0.59529629
      5.66843094     -0.02510441
      1.46973950     -0.12556027
      0.51812865     -0.24246245
      0.20627594     -0.11566731
 
          15   0
s              4   1.000000
     35.10588284     -0.01198412
      6.04552351     -0.05472052
      0.48578361      0.58055871
      0.18514416      0.47700799
p              4   1.000000
      5.65823015      0.05713170
      1.46709459      0.28574555
      0.51719624      0.55178731
      0.20590474      0.26323149
s              7   1.000000
      0.38350848     -0.19607205
      0.04707223      0.94734808
      0.02222627      0.24878798
     35.10588284      0.00548995
      6.04552351      0.02506760
      0.48578361     -0.26595531
      0.18514416     -0.21851848
p              7   1.000000
      1.83062075     -0.01160271
      0.10124670      0.57017488
      0.03901771      0.59546296
      5.65823015     -0.02514781
      1.46709459     -0.12577737
      0.51719624     -0.24288166
      0.20590474     -0.11586729
 
          16   0
s              4   1.000000
     34.95036530     -0.01198412
      6.01874211     -0.05472052
      0.48363161      0.58055871
      0.18432398      0.47700799
p              4   1.000000
      5.63316443      0.05713170
      1.46059542      0.28574555
      0.51490508      0.55178731
      0.20499259      0.26323149
s              7   1.000000
      0.38350848     -0.19621683
      0.04707223      0.94804760
      0.02222627      0.24897170
     34.95036530      0.00551328
      6.01874211      0.02517412
      0.48363161     -0.26708547
      0.18432398     -0.21944706
p              7   1.000000
      1.83062075     -0.01161076
      0.10124670      0.57057036
      0.03901771      0.59587598
      5.63316443     -0.02525509
      1.46059542     -0.12631392
      0.51490508     -0.24391777
      0.20499259     -0.11636157
 
          17   0
s              4   1.000000
     32.72072447     -0.01198412
      5.63477951     -0.05472053
      0.45277858      0.58055871
      0.17256512      0.47700799
p              4   1.000000
      5.27379956      0.05713170
      1.36741748      0.28574555
      0.48205697      0.55178731
      0.19191519      0.26323149
s              7   1.000000
      0.38350848     -0.19849667
      0.04707223      0.95906299
      0.02222627      0.25186449
     32.72072447      0.00587057
      5.63477951      0.02680551
      0.45277858     -0.28439375
      0.17256512     -0.23366817
p              7   1.000000
      1.83062075     -0.01173750
      0.10124670      0.57679881
      0.03901771      0.60238069
      5.27379956     -0.02689742
      1.36741748     -0.13452808
      0.48205697     -0.25977967
      0.19191519     -0.12392853
 
          18   0
s              4   1.000000
     53.06082139     -0.01198412
      9.13751250     -0.05472052
      0.73423812      0.58055871
      0.27983632      0.47700799
p              4   1.000000
      6.25438387      0.05713170
      1.62166834      0.28574555
      0.57168827      0.55178731
      0.22759895      0.26323149
s              7   1.000000
      0.47894987     -0.19076537
      0.05878681      0.92170816
      0.02775758      0.24205456
     53.06082139      0.00456742
      9.13751250      0.02085523
      0.73423812     -0.22126409
      0.27983632     -0.18179856
p              7   1.000000
      2.28619608     -0.01184705
      0.12644335      0.58218215
      0.04872781      0.60800278
      6.25438387     -0.02825332
      1.62166834     -0.14130966
      0.57168827     -0.27287521
      0.22759895     -0.13017579
 
          19   0
s              4   1.000000
     34.99977231     -0.01198412
      6.02725040     -0.05472053
      0.48431529      0.58055871
      0.18458454      0.47700799
p              4   1.000000
      5.64112766      0.05713170
      1.46266017      0.28574555
      0.51563297      0.55178731
      0.20528237      0.26323149
s              7   1.000000
      0.38350848     -0.19617065
      0.04707223      0.94782447
      0.02222627      0.24891310
     34.99977231      0.00550585
      6.02725040      0.02514019
      0.48431529     -0.26672540
      0.18458454     -0.21915122
p              7   1.000000
      1.83062075     -0.01160819
      0.10124670      0.57044421
      0.03901771      0.59574425
      5.64112766     -0.02522091
      1.46266017     -0.12614298
      0.51563297     -0.24358767
      0.20528237     -0.11620410
 
          20   0
s              4   1.000000
     35.00395556     -0.01198412
      6.02797079     -0.05472053
      0.48437317      0.58055871
      0.18460661      0.47700799
p              4   1.000000
      5.64180190      0.05713170
      1.46283499      0.28574555
      0.51569460      0.55178731
      0.20530691      0.26323149
s              7   1.000000
      0.38350848     -0.19616674
      0.04707223      0.94780561
      0.02222627      0.24890815
     35.00395556      0.00550522
      6.02797079      0.02513732
      0.48437317     -0.26669496
      0.18460661     -0.21912621
p              7   1.000000
      1.83062075     -0.01160797
      0.10124670      0.57043354
      0.03901771      0.59573309
      5.64180190     -0.02521802
      1.46283499     -0.12612852
      0.51569460     -0.24355976
      0.20530691     -0.11619079
 
          21   0
s              4   1.000000
     35.18798534     -0.01198412
      6.05966224     -0.05472053
      0.48691972      0.58055871
      0.18557716      0.47700799
p              4   1.000000
      5.67146311      0.05713170
      1.47052570      0.28574555
      0.51840581      0.55178731
      0.20638629      0.26323149
s              7   1.000000
      0.38350848     -0.19599630
      0.04707223      0.94698211
      0.02222627      0.24869187
     35.18798534      0.00547771
      6.05966224      0.02501172
      0.48691972     -0.26536244
      0.18557716     -0.21803135
p              7   1.000000
      1.83062075     -0.01159850
      0.10124670      0.56996797
      0.03901771      0.59524689
      5.67146311     -0.02509153
      1.47052570     -0.12549588
      0.51840581     -0.24233811
      0.20638629     -0.11560799
 
          22   0
s              4   1.000000
     35.26406936     -0.01198412
      6.07276454     -0.05472052
      0.48797254      0.58055871
      0.18597841      0.47700799
p              4   1.000000
      5.68372604      0.05713170
      1.47370529      0.28574555
      0.51952672      0.55178731
      0.20683254      0.26323149
s              7   1.000000
      0.38350848     -0.19592653
      0.04707223      0.94664499
      0.02222627      0.24860335
     35.26406936      0.00546642
      6.07276454      0.02496015
      0.48797254     -0.26481533
      0.18597841     -0.21758184
p              7   1.000000
      1.83062075     -0.01159462
      0.10124670      0.56977738
      0.03901771      0.59504785
      5.68372604     -0.02503960
      1.47370529     -0.12523613
      0.51952672     -0.24183650
      0.20683254     -0.11536870
 
          23   0
s              4   1.000000
     37.09513530     -0.01198412
      6.38808925     -0.05472052
      0.51331023      0.58055871
      0.19563523      0.47700800
p              4   1.000000
      5.97885015      0.05713170
      1.55022657      0.28574555
      0.54650284      0.55178731
      0.21757220      0.26323149
s              7   1.000000
      0.38350848     -0.19436112
      0.04707223      0.93908149
      0.02222627      0.24661705
     37.09513530      0.00520772
      6.38808925      0.02377891
      0.51331023     -0.25228288
      0.19563523     -0.20728473
p              7   1.000000
      1.83062075     -0.01150761
      0.10124670      0.56550171
      0.03901771      0.59058252
      5.97885015     -0.02384960
      1.55022657     -0.11928432
      0.54650284     -0.23034331
      0.21757220     -0.10988585
 
          24   0
s              4   1.000000
     37.02640460     -0.01198412
      6.37625325     -0.05472053
      0.51235915      0.58055871
      0.19527276      0.47700799
p              4   1.000000
      5.96777240      0.05713170
      1.54735427      0.28574555
      0.54549026      0.55178731
      0.21716907      0.26323149
s              7   1.000000
      0.38350848     -0.19441616
      0.04707223      0.93934745
      0.02222627      0.24668691
     37.02640460      0.00521700
      6.37625325      0.02382127
      0.51235915     -0.25273237
      0.19527276     -0.20765403
p              7   1.000000
      1.83062075     -0.01151067
      0.10124670      0.56565204
      0.03901771      0.59073953
      5.96777240     -0.02389229
      1.54735427     -0.11949784
      0.54549026     -0.23075562
      0.21716907     -0.11008254
 
          25   0
s              4   1.000000
     37.01286091     -0.01198412
      6.37392092     -0.05472053
      0.51217174      0.58055871
      0.19520133      0.47700799
p              4   1.000000
      5.96558948      0.05713170
      1.54678827      0.28574555
      0.54529073      0.55178731
      0.21708964      0.26323149
s              7   1.000000
      0.38350848     -0.19442704
      0.04707223      0.93940001
      0.02222627      0.24670070
     37.01286091      0.00521883
      6.37392092      0.02382964
      0.51217174     -0.25282112
      0.19520133     -0.20772696
p              7   1.000000
      1.83062075     -0.01151128
      0.10124670      0.56568175
      0.03901771      0.59077056
      5.96558948     -0.02390072
      1.54678827     -0.11954000
      0.54529073     -0.23083704
      0.21708964     -0.11012138
 
          26   0
s              4   1.000000
     35.29193366     -0.01198412
      6.07756301     -0.05472053
      0.48835812      0.58055871
      0.18612537      0.47700799
p              4   1.000000
      5.68821710      0.05713170
      1.47486976      0.28574555
      0.51993723      0.55178731
      0.20699597      0.26323149
s              7   1.000000
      0.38350848     -0.19590108
      0.04707223      0.94652201
      0.02222627      0.24857105
     35.29193366      0.00546230
      6.07756301      0.02494132
      0.48835812     -0.26461552
      0.18612537     -0.21741766
p              7   1.000000
      1.83062075     -0.01159320
      0.10124670      0.56970784
      0.03901771      0.59497523
      5.68821710     -0.02502063
      1.47486976     -0.12514126
      0.51993723     -0.24165330
      0.20699597     -0.11528130
 
          27   0
s              4   1.000000
     35.03061076     -0.01198412
      6.03256104     -0.05472052
      0.48474202      0.58055871
      0.18474718      0.47700799
p              4   1.000000
      5.64609809      0.05713170
      1.46394892      0.28574555
      0.51608730      0.55178731
      0.20546325      0.26323149
s              7   1.000000
      0.38350848     -0.19614191
      0.04707223      0.94768563
      0.02222627      0.24887663
     35.03061076      0.00550122
      6.03256104      0.02511905
      0.48474202     -0.26650114
      0.18474718     -0.21896696
p              7   1.000000
      1.83062075     -0.01160659
      0.10124670      0.57036571
      0.03901771      0.59566225
      5.64609809     -0.02519962
      1.46394892     -0.12603651
      0.51608730     -0.24338208
      0.20546325     -0.11610602
 
          28   0
s              4   1.000000
     34.92003500     -0.01198412
      6.01351898     -0.05472052
      0.48321191      0.58055871
      0.18416402      0.47700799
p              4   1.000000
      5.62827591      0.05713170
      1.45932790      0.28574555
      0.51445824      0.55178730
      0.20481469      0.26323149
s              7   1.000000
      0.38350848     -0.19624526
      0.04707223      0.94818498
      0.02222627      0.24900777
     34.92003500      0.00551785
      6.01351898      0.02519500
      0.48321191     -0.26730698
      0.18416402     -0.21962906
p              7   1.000000
      1.83062075     -0.01161234
      0.10124670      0.57064803
      0.03901771      0.59595709
      5.62827591     -0.02527611
      1.45932790     -0.12641908
      0.51445824     -0.24412084
      0.20481469     -0.11645845
 
          29   0
s              4   1.000000
     34.99926726     -0.01198412
      6.02716343     -0.05472052
      0.48430830      0.58055871
      0.18458188      0.47700799
p              4   1.000000
      5.64104626      0.05713170
      1.46263906      0.28574555
      0.51562553      0.55178731
      0.20527941      0.26323149
s              7   1.000000
      0.38350848     -0.19617112
      0.04707223      0.94782675
      0.02222627      0.24891368
     34.99926726      0.00550592
      6.02716343      0.02514053
      0.48430830     -0.26672908
      0.18458188     -0.21915424
p              7   1.000000
      1.83062075     -0.01160822
      0.10124670      0.57044549
      0.03901771      0.59574559
      5.64104626     -0.02522126
      1.46263906     -0.12614472
      0.51562553     -0.24359104
      0.20527941     -0.11620571
 
          30   0
s              4   1.000000
     35.30189072     -0.01198412
      6.07927769     -0.05472053
      0.48849590      0.58055871
      0.18617788      0.47700799
p              4   1.000000
      5.68982194      0.05713170
      1.47528587      0.28574555
      0.52008392      0.55178731
      0.20705437      0.26323149
s              7   1.000000
      0.38350848     -0.19589199
      0.04707223      0.94647812
      0.02222627      0.24855952
     35.30189072      0.00546082
      6.07927769      0.02493460
      0.48849590     -0.26454419
      0.18617788     -0.21735905
p              7   1.000000
      1.83062075     -0.01159270
      0.10124670      0.56968304
      0.03901771      0.59494929
      5.68982194     -0.02501386
      1.47528587     -0.12510739
      0.52008392     -0.24158790
      0.20705437     -0.11525011
 
          31   0
s              4   1.000000
     35.45000414     -0.01198412
      6.10478405     -0.05472052
      0.49054545      0.58055871
      0.18695901      0.47700799
p              4   1.000000
      5.71369429      0.05713170
      1.48147561      0.28574555
      0.52226600      0.55178731
      0.20792309      0.26323149
s              7   1.000000
      0.38350848     -0.19575769
      0.04707223      0.94582922
      0.02222627      0.24838912
     35.45000414      0.00543901
      6.10478405      0.02483500
      0.49054545     -0.26348757
      0.18695901     -0.21649090
p              7   1.000000
      1.83062075     -0.01158523
      0.10124670      0.56931618
      0.03901771      0.59456618
      5.71369429     -0.02491355
      1.48147561     -0.12460570
      0.52226600     -0.24061912
      0.20792309     -0.11478794
 
          32   0
s              4   1.000000
      8.30619629      0.05675242
      1.51993158      0.26014135
      0.42225364      0.53284611
      0.14014219      0.29162544
s              7   1.000000
      0.92936822     -0.06733197
      0.05643440      0.66949060
      0.02166600      0.51464170
      8.30619629     -0.02903007
      1.51993158     -0.13306785
      0.42225364     -0.27256216
      0.14014219     -0.14917264
p              4   1.000000
      0.64737396      0.05713170
      0.16785440      0.28574555
      0.05917387      0.55178731
      0.02355814      0.26323150
 
          33   0
s              4   1.000000
      8.30692661      0.05675242
      1.52006522      0.26014135
      0.42229076      0.53284611
      0.14015451      0.29162544
s              7   1.000000
      0.92936822     -0.06733103
      0.05643440      0.66948125
      0.02166600      0.51463452
      8.30692661     -0.02902812
      1.52006522     -0.13305889
      0.42229076     -0.27254380
      0.14015451     -0.14916259
p              4   1.000000
      0.64737396      0.05713170
      0.16785440      0.28574555
      0.05917387      0.55178731
      0.02355814      0.26323150
 
          34   0
s              4   1.000000
      8.30617727      0.05675242
      1.51992810      0.26014135
      0.42225267      0.53284611
      0.14014187      0.29162544
s              7   1.000000
      0.92936822     -0.06733199
      0.05643440      0.66949085
      0.02166600      0.51464190
      8.30617727     -0.02903013
      1.51992810     -0.13306809
      0.42225267     -0.27256264
      0.14014187     -0.14917289
p              4   1.000000
      0.64737396      0.05713170
      0.16785440      0.28574555
      0.05917387      0.55178731
      0.02355814      0.26323150
 
          35   0
s              4   1.000000
      8.30652947      0.05675242
      1.51999255      0.26014135
      0.42227057      0.53284611
      0.14014781      0.29162544
s              7   1.000000
      0.92936822     -0.06733154
      0.05643440      0.66948633
      0.02166600      0.51463842
      8.30652947     -0.02902918
      1.51999255     -0.13306377
      0.42227057     -0.27255378
      0.14014781     -0.14916805
p              4   1.000000
      0.64737396      0.05713170
      0.16785440      0.28574555
      0.05917387      0.55178731
      0.02355814      0.26323150
 
          36   0
s              4   1.000000
      8.30626305      0.05675242
      1.51994380      0.26014135
      0.42225703      0.53284611
      0.14014331      0.29162544
s              7   1.000000
      0.92936822     -0.06733188
      0.05643440      0.66948975
      0.02166600      0.51464106
      8.30626305     -0.02902990
      1.51994380     -0.13306703
      0.42225703     -0.27256048
      0.14014331     -0.14917171
p              4   1.000000
      0.64737396      0.05713170
      0.16785440      0.28574555
      0.05917387      0.55178731
      0.02355814      0.26323150
 
          37   0
s              4   1.000000
      8.30649750      0.05675242
      1.51998670      0.26014135
      0.42226895      0.53284611
      0.14014727      0.29162544
s              7   1.000000
      0.92936822     -0.06733158
      0.05643440      0.66948674
      0.02166600      0.51463875
      8.30649750     -0.02902927
      1.51998670     -0.13306416
      0.42226895     -0.27255459
      0.14014727     -0.14916850
p              4   1.000000
      0.64737396      0.05713170
      0.16785440      0.28574555
      0.05917387      0.55178731
      0.02355814      0.26323150
 
          38   0
s              4   1.000000
      8.30996241      0.05675242
      1.52062074      0.26014135
      0.42244509      0.53284611
      0.14020573      0.29162544
s              7   1.000000
      0.92936822     -0.06732712
      0.05643440      0.66944242
      0.02166600      0.51460466
      8.30996241     -0.02902000
      1.52062074     -0.13302166
      0.42244509     -0.27246754
      0.14020573     -0.14912085
p              4   1.000000
      0.64737396      0.05713170
      0.16785440      0.28574555
      0.05917387      0.55178731
      0.02355814      0.26323150
 
          39   0
s              4   1.000000
      8.30890515      0.05675242
      1.52042727      0.26014135
      0.42239134      0.53284611
      0.14018789      0.29162544
s              7   1.000000
      0.92936822     -0.06732848
      0.05643440      0.66945594
      0.02166600      0.51461504
      8.30890515     -0.02902283
      1.52042727     -0.13303463
      0.42239134     -0.27249410
      0.14018789     -0.14913538
p              4   1.000000
      0.64737396      0.05713170
      0.16785440      0.28574555
      0.05917387      0.55178731
      0.02355814      0.26323150
 
          40   0
s              4   1.000000
      8.30894711      0.05675242
      1.52043495      0.26014135
      0.42239348      0.53284611
      0.14018860      0.29162544
s              7   1.000000
      0.92936822     -0.06732842
      0.05643440      0.66945539
      0.02166600      0.51461464
      8.30894711     -0.02902271
      1.52043495     -0.13303411
      0.42239348     -0.27249304
      0.14018860     -0.14913481
p              4   1.000000
      0.64737396      0.05713170
      0.16785440      0.28574555
      0.05917387      0.55178731
      0.02355814      0.26323150
 
          41   0
s              4   1.000000
      8.31009475      0.05675242
      1.52064496      0.26014135
      0.42245182      0.53284611
      0.14020796      0.29162544
s              7   1.000000
      0.92936822     -0.06732695
      0.05643440      0.66944072
      0.02166600      0.51460336
      8.31009475     -0.02901964
      1.52064496     -0.13302004
      0.42245182     -0.27246422
      0.14020796     -0.14911904
p              4   1.000000
      0.64737396      0.05713170
      0.16785440      0.28574555
      0.05917387      0.55178731
      0.02355814      0.26323150
 
          42   0
s              4   1.000000
      8.31024842      0.05675242
      1.52067307      0.26014135
      0.42245963      0.53284611
      0.14021055      0.29162544
s              7   1.000000
      0.92936822     -0.06732675
      0.05643440      0.66943876
      0.02166600      0.51460185
      8.31024842     -0.02901923
      1.52067307     -0.13301815
      0.42245963     -0.27246036
      0.14021055     -0.14911692
p              4   1.000000
      0.64737396      0.05713170
      0.16785440      0.28574555
      0.05917387      0.55178731
      0.02355814      0.26323150
 
          43   0
s              4   1.000000
      8.30931163      0.05675242
      1.52050165      0.26014135
      0.42241201      0.53284611
      0.14019475      0.29162544
s              7   1.000000
      0.92936822     -0.06732796
      0.05643440      0.66945074
      0.02166600      0.51461107
      8.30931163     -0.02902174
      1.52050165     -0.13302964
      0.42241201     -0.27248389
      0.14019475     -0.14912980
p              4   1.000000
      0.64737396      0.05713170
      0.16785440      0.28574555
      0.05917387      0.55178731
      0.02355814      0.26323150
 
          44   0
s              4   1.000000
      8.30947636      0.05675242
      1.52053180      0.26014135
      0.42242038      0.53284611
      0.14019753      0.29162544
s              7   1.000000
      0.92936822     -0.06732774
      0.05643440      0.66944863
      0.02166600      0.51460943
      8.30947636     -0.02902130
      1.52053180     -0.13302762
      0.42242038     -0.27247975
      0.14019753     -0.14912754
p              4   1.000000
      0.64737396      0.05713170
      0.16785440      0.28574555
      0.05917387      0.55178731
      0.02355814      0.26323150
 
          45   0
s              4   1.000000
      8.30921031      0.05675242
      1.52048311      0.26014135
      0.42240686      0.53284611
      0.14019304      0.29162544
s              7   1.000000
      0.92936822     -0.06732809
      0.05643440      0.66945203
      0.02166600      0.51461206
      8.30921031     -0.02902201
      1.52048311     -0.13303088
      0.42240686     -0.27248643
      0.14019304     -0.14913119
p              4   1.000000
      0.64737396      0.05713170
      0.16785440      0.28574555
      0.05917387      0.55178731
      0.02355814      0.26323150
 
          46   0
s              4   1.000000
      8.31110997      0.05675242
      1.52083073      0.26014135
      0.42250343      0.53284611
      0.14022509      0.29162544
s              7   1.000000
      0.92936822     -0.06732564
      0.05643440      0.66942774
      0.02166600      0.51459338
      8.31110997     -0.02901693
      1.52083073     -0.13300759
      0.42250343     -0.27243873
      0.14022509     -0.14910508
p              4   1.000000
      0.64737396      0.05713170
      0.16785440      0.28574555
      0.05917387      0.55178731
      0.02355814      0.26323150
 
          47   0
s              4   1.000000
      8.30640510      0.05675242
      1.51996979      0.26014135
      0.42226425      0.53284611
      0.14014571      0.29162544
s              7   1.000000
      0.92936822     -0.06733170
      0.05643440      0.66948793
      0.02166600      0.51463964
      8.30640510     -0.02902952
      1.51996979     -0.13306529
      0.42226425     -0.27255691
      0.14014571     -0.14916976
p              4   1.000000
      0.64737396      0.05713170
      0.16785440      0.28574555
      0.05917387      0.55178731
      0.02355814      0.26323150
 
          48   0
s              4   1.000000
      8.30643432      0.05675242
      1.51997514      0.26014135
      0.42226574      0.53284611
      0.14014620      0.29162544
s              7   1.000000
      0.92936822     -0.06733166
      0.05643440      0.66948756
      0.02166600      0.51463937
      8.30643432     -0.02902944
      1.51997514     -0.13306493
      0.42226574     -0.27255618
      0.14014620     -0.14916936
p              4   1.000000
      0.64737396      0.05713170
      0.16785440      0.28574555
      0.05917387      0.55178731
      0.02355814      0.26323150
 
          49   0
s              4   1.000000
      8.30634083      0.05675242
      1.51995803      0.26014135
      0.42226099      0.53284611
      0.14014462      0.29162544
s              7   1.000000
      0.92936822     -0.06733178
      0.05643440      0.66948876
      0.02166600      0.51464029
      8.30634083     -0.02902969
      1.51995803     -0.13306608
      0.42226099     -0.27255852
      0.14014462     -0.14917065
p              4   1.000000
      0.64737396      0.05713170
      0.16785440      0.28574555
      0.05917387      0.55178731
      0.02355814      0.26323150
 
          50   0
s              4   1.000000
      8.30700971      0.05675242
      1.52008043      0.26014135
      0.42229499      0.53284611
      0.14015591      0.29162544
s              7   1.000000
      0.92936822     -0.06733092
      0.05643440      0.66948019
      0.02166600      0.51463370
      8.30700971     -0.02902790
      1.52008043     -0.13305787
      0.42229499     -0.27254172
      0.14015591     -0.14916145
p              4   1.000000
      0.64737396      0.05713170
      0.16785440      0.28574555
      0.05917387      0.55178731
      0.02355814      0.26323150
 
          51   0
s              4   1.000000
      8.30726048      0.05675242
      1.52012632      0.26014135
      0.42230774      0.53284611
      0.14016014      0.29162544
s              7   1.000000
      0.92936822     -0.06733060
      0.05643440      0.66947698
      0.02166600      0.51463124
      8.30726048     -0.02902723
      1.52012632     -0.13305480
      0.42230774     -0.27253541
      0.14016014     -0.14915800
p              4   1.000000
      0.64737396      0.05713170
      0.16785440      0.28574555
      0.05917387      0.55178731
      0.02355814      0.26323150
 
          52   0
s              4   1.000000
      8.30603593      0.05675242
      1.51990224      0.26014135
      0.42224549      0.53284611
      0.14013948      0.29162544
s              7   1.000000
      0.92936822     -0.06733217
      0.05643440      0.66949266
      0.02166600      0.51464329
      8.30603593     -0.02903050
      1.51990224     -0.13306982
      0.42224549     -0.27256619
      0.14013948     -0.14917484
p              4   1.000000
      0.64737396      0.05713170
      0.16785440      0.28574555
      0.05917387      0.55178731
      0.02355814      0.26323150
 
          53   0
s              4   1.000000
      8.30982465      0.05675242
      1.52059553      0.26014135
      0.42243809      0.53284611
      0.14020340      0.29162544
s              7   1.000000
      0.92936822     -0.06732730
      0.05643440      0.66944417
      0.02166600      0.51460602
      8.30982465     -0.02902037
      1.52059553     -0.13302335
      0.42243809     -0.27247100
      0.14020340     -0.14912274
p              4   1.000000
      0.64737396      0.05713170
      0.16785440      0.28574555
      0.05917387      0.55178731
      0.02355814      0.26323150
 
          54   0
s              4   1.000000
      8.30900023      0.05675242
      1.52044467      0.26014135
      0.42239618      0.53284611
      0.14018949      0.29162544
s              7   1.000000
      0.92936822     -0.06732836
      0.05643440      0.66945472
      0.02166600      0.51461412
      8.30900023     -0.02902257
      1.52044467     -0.13303346
      0.42239618     -0.27249171
      0.14018949     -0.14913408
p              4   1.000000
      0.64737396      0.05713170
      0.16785440      0.28574555
      0.05917387      0.55178731
      0.02355814      0.26323150
 
          55   0
s              4   1.000000
      8.30989585      0.05675242
      1.52060856      0.26014135
      0.42244171      0.53284611
      0.14020461      0.29162544
s              7   1.000000
      0.92936822     -0.06732721
      0.05643440      0.66944326
      0.02166600      0.51460530
      8.30989585     -0.02902018
      1.52060856     -0.13302248
      0.42244171     -0.27246921
      0.14020461     -0.14912177
p              4   1.000000
      0.64737396      0.05713170
      0.16785440      0.28574555
      0.05917387      0.55178731
      0.02355814      0.26323150
 
 [MO]
 Sym= Hole
 Ene= -0.8412902    
 Spin= Alpha
 Occup= 0
           1  2.6929766E-02
           2 -3.9566472E-02
           3  1.5304814E-02
           4 -6.8459384E-02
           5 -1.3030166E-02
           6  1.0676566E-02
           7 -2.4519626E-03
           8  7.9766680E-03
           9  8.1336033E-03
          10  1.4219017E-02
          11 -9.6460264E-03
          12  1.9560609E-02
          13  2.3087976E-03
          14  5.1943026E-03
          15  1.2591511E-03
          16 -2.0786538E-03
          17 -1.7150309E-02
          18 -3.3787422E-02
          19  4.3090307E-03
          20  3.4986711E-03
          21  7.9967137E-03
          22  1.5192563E-03
          23 -2.1007104E-04
          24  7.7871402E-04
          25 -3.1998955E-02
          26 -6.5448135E-02
          27  8.8911943E-02
          28 -0.1651987    
          29  2.2663448E-02
          30  9.9818269E-03
          31 -6.2519085E-04
          32  1.7983597E-02
          33  7.5641745E-03
          34  1.0609003E-02
          35  1.1830227E-03
          36  1.0850025E-02
          37 -3.2448268E-03
          38 -5.9737810E-03
          39  2.6129305E-04
          40 -6.3658380E-03
          41 -3.7363933E-03
          42  2.5120853E-02
          43 -9.5094055E-02
          44  0.1578085    
          45  6.9774827E-04
          46 -2.1118624E-03
          47  5.8076298E-03
          48 -1.4720855E-02
          49 -9.7637726E-03
          50 -3.5047953E-03
          51 -1.3132800E-02
          52 -1.9888033E-03
          53  1.9696490E-03
          54 -1.1829205E-03
          55  1.8243020E-03
          56 -6.3394415E-03
          57  2.3713263E-02
          58 -5.9837908E-02
          59  0.1458104    
          60 -0.1364569    
          61 -1.2209043E-02
          62  3.8744609E-03
          63 -2.0970758E-02
          64  5.6090313E-03
          65 -1.5610519E-02
          66 -9.8787630E-03
          67 -4.9598473E-03
          68 -6.2657639E-02
          69  1.5572553E-02
          70  2.0707382E-03
          71  5.1001711E-03
          72  2.3461832E-02
          73  3.0623637E-02
          74 -9.4293244E-02
          75 -6.6421814E-02
          76  0.4826319    
          77 -1.4088920E-02
          78  1.7820874E-02
          79  1.2007282E-02
          80 -5.1711395E-02
          81 -1.3192071E-03
          82  3.0868944E-02
          83 -4.6993334E-02
          84 -0.1774918    
          85  2.1893266E-03
          86 -7.1863793E-03
          87 -1.6756888E-03
          88  1.7442431E-02
          89 -1.6871145E-02
          90  1.3661356E-02
          91 -6.4931534E-02
          92 -4.8424367E-02
          93  1.0836933E-02
          94 -7.1007363E-03
          95  9.9412594E-03
          96  8.0310926E-03
          97  4.9068802E-03
          98 -1.1142774E-02
          99  7.3719688E-02
         100  0.1445561    
         101 -2.3197867E-03
         102  2.4943198E-03
         103 -3.5740505E-03
         104 -5.3170258E-03
         105  7.7372561E-03
         106 -2.7036094E-03
         107  7.3173150E-02
         108  0.1639241    
         109 -4.2264452E-03
         110  7.6460821E-04
         111 -5.6304974E-03
         112 -1.4604271E-02
         113 -9.7386824E-04
         114  6.7908730E-04
         115 -4.0681478E-02
         116 -9.0535693E-02
         117 -3.0507299E-04
         118 -1.3829898E-03
         119 -7.7475735E-04
         120  1.7072145E-03
         121 -4.5017281E-04
         122 -7.0686862E-03
         123 -8.9919075E-02
         124 -0.1960866    
         125  2.5509752E-04
         126  3.5103437E-04
         127  5.3004641E-03
         128  1.3445385E-02
         129 -5.6231156E-04
         130 -3.5197698E-04
         131 -1.2300586E-02
         132 -2.6277103E-02
         133 -1.9379086E-05
         134  2.4469980E-04
         135  9.8047755E-04
         136  2.0190072E-03
         137 -1.6245560E-05
         138  3.1117634E-03
         139  4.4839382E-02
         140  9.8053925E-02
         141  1.2190786E-06
         142 -1.1890849E-04
         143 -1.3815420E-03
         144 -2.7716481E-03
         145 -1.4473479E-03
         146  7.6621687E-03
         147  4.1710135E-02
         148  9.1016136E-02
         149 -8.6669323E-05
         150  9.8669995E-04
         151 -1.1385403E-03
         152 -2.8196017E-03
         153  3.1240974E-03
         154  9.0897018E-03
         155  0.1040387    
         156  0.2243046    
         157  8.8753481E-04
         158 -3.3143042E-03
         159 -4.5598969E-03
         160 -6.6793682E-03
         161 -1.2550317E-02
         162  1.8951271E-02
         163 -8.5273087E-03
         164 -9.0245558E-03
         165  4.0967544E-03
         166  6.9758022E-04
         167 -9.9329662E-04
         168 -3.2762822E-03
         169  2.3067433E-02
         170 -3.9490283E-02
         171 -0.1463821    
         172 -0.3999192    
         173 -1.3735051E-02
         174  9.0458309E-03
         175  8.6857677E-03
         176  2.3601629E-02
         177 -2.4893945E-03
         178  8.9490963E-03
         179  1.2945177E-02
         180  5.4863177E-02
         181 -3.8574045E-03
         182  4.8585767E-03
         183  5.1076631E-03
         184 -3.7334899E-03
         185 -5.4407671E-02
         186  1.9567059E-02
         187  1.7119125E-02
         188 -0.1166981    
         189  2.8140405E-02
         190  3.7707403E-04
         191  1.5183250E-04
         192  1.2697914E-02
         193  4.7543041E-02
         194 -5.4584127E-02
         195 -7.0693620E-02
         196 -4.7460914E-02
         197 -2.4018915E-02
         198  3.0445503E-03
         199  5.7114591E-03
         200  5.9950165E-03
         201  2.7977403E-02
         202 -4.8475169E-02
         203 -7.3690459E-02
         204 -0.2061042    
         205 -1.7819574E-02
         206  5.1037814E-03
         207  1.5772728E-02
         208  1.9612562E-02
         209 -1.1003722E-02
         210 -8.5448008E-03
         211  9.8825097E-03
         212 -2.0741487E-02
         213  2.9819887E-03
         214  9.0341101E-04
         215 -5.7011866E-04
         216 -3.4065743E-03
         217 -9.9592749E-04
         218  3.2799091E-02
         219  3.7560232E-02
         220  0.1832957    
         221 -6.5991403E-06
         222 -1.7056334E-03
         223 -1.4123869E-03
         224 -1.6465472E-02
         225  8.5722953E-03
         226  1.4863858E-02
         227 -3.0437682E-03
         228  3.4532867E-02
         229 -2.9965518E-03
         230 -4.3160571E-03
         231  2.5476003E-03
         232 -8.0150915E-03
         233 -2.8545342E-02
         234 -7.1036823E-02
         235 -1.7191511E-02
         236 -0.1803918    
         237  2.0231014E-02
         238  1.0360758E-02
         239 -5.7046576E-03
         240  1.5976019E-02
         241 -1.7354815E-03
         242 -4.6902505E-04
         243  6.4245625E-03
         244 -8.1450924E-02
         245  4.3907883E-03
         246 -2.3502149E-03
         247 -7.6274467E-03
         248  2.1241114E-02
         249 -1.2819988E-02
         250 -1.2522504E-03
         251 -3.3615548E-03
         252 -9.6354717E-03
         253 -5.0757709E-04
         254 -1.1220171E-02
         255  3.8705801E-03
         256  9.1166757E-03
         257  1.1551967E-03
         258 -2.5994996E-02
         259 -1.5198811E-02
         260 -7.3092862E-04
         261 -3.5738415E-04
         262  1.0009294E-02
         263  2.1268961E-03
         264  6.4799106E-03
         265 -5.2562659E-04
         266 -3.5818315E-03
         267  1.6038585E-03
         268  3.0277015E-03
         269  1.0018675E-02
         270 -1.9262143E-04
         271 -7.5388519E-04
         272  1.4218368E-03
         273 -9.2927907E-03
         274  3.8557809E-03
         275 -3.0064260E-04
         276 -4.0050005E-03
         277 -1.0026303E-03
         278  2.6799780E-03
         279 -7.1159638E-03
         280 -1.7390343E-03
         281 -1.8011874E-03
         282 -2.1611867E-03
         283  6.8413699E-04
         284  2.6333467E-03
         285 -9.0207375E-04
         286  2.5273485E-03
         287 -9.4406186E-03
         288  1.6598212E-02
         289  1.8901229E-02
         290 -3.3660228E-03
         291  1.2387607E-03
         292 -3.8701616E-04
         293  1.7031112E-03
         294 -7.6394388E-03
         295 -4.4055749E-03
         296  1.8669498E-04
         297 -1.7627972E-03
         298 -1.3084603E-02
         299  1.2521571E-02
         300  1.5325616E-03
         301 -4.0195109E-03
         302  7.3962216E-03
         303 -6.2010046E-03
         304 -1.4371286E-02
         305  8.9785521E-04
         306  1.7409865E-03
         307  1.8549387E-03
         308  4.5144199E-03
         309  6.4186304E-04
         310  5.1095459E-04
         311 -1.4939008E-03
         312 -4.7796272E-04
         313 -2.6308782E-03
         314  4.7712727E-04
         315 -4.6992677E-04
         316  8.9910784E-04
         317  5.7988398E-04
         318  1.4423660E-04
         319  6.7185686E-04
         320  1.0768491E-04
         321 -3.0961673E-04
         322  4.6386383E-03
         323  1.2030073E-02
         324  2.6615757E-02
         325  6.8494218E-04
         326  9.3257464E-03
         327 -4.6731015E-03
         328 -5.0943098E-03
         329  9.0648476E-03
         330  2.3226188E-03
         331 -7.0164241E-03
         332 -5.7755029E-03
         333 -9.5349159E-03
         334  3.3651952E-02
         335 -1.0426795E-04
         336 -6.7016045E-03
         337  9.1957310E-03
         338 -4.7352836E-03
         339 -1.5498075E-02
         340 -3.5902953E-03
         341  8.2280487E-03
         342 -2.7283630E-03
         343 -1.0421583E-02
         344 -2.0731438E-02
         345 -1.9011655E-03
         346 -2.9197582E-03
         347  4.4132080E-03
         348 -1.0307633E-02
         349 -2.7650280E-02
         350  7.3975034E-04
         351 -5.0560352E-03
         352 -9.3382271E-03
         353  6.4697540E-03
         354  9.5914155E-03
         355 -3.4125158E-05
         356  2.1180192E-03
         357 -1.8173188E-03
         358  3.1698307E-03
         359  1.0911943E-03
         360 -3.0552861E-04
         361  3.0137456E-03
         362  3.2994831E-03
         363  1.9227084E-02
         364 -9.9055199E-03
         365 -1.6982689E-04
         366  2.7830416E-04
         367  2.4103408E-03
         368  2.8092803E-03
 Sym= Particle
 Ene= -0.8412902    
 Spin= Alpha
 Occup= 2
           1 -3.0381046E-03
           2  2.0235721E-02
           3 -5.0651664E-03
           4  1.6081855E-02
           5  1.6167486E-04
           6 -9.3386341E-03
           7  2.0850014E-03
           8 -4.7504664E-03
           9  3.2875258E-03
          10  3.2316002E-03
          11  9.2932498E-03
          12 -4.0913300E-04
          13 -6.1117918E-03
          14 -9.5317501E-04
          15 -3.5430759E-03
          16  1.6858223E-03
          17  4.4273473E-03
          18  3.4158314E-03
          19  1.6520104E-04
          20 -5.8892788E-03
          21 -4.5912419E-03
          22  1.3044177E-03
          23  1.1910991E-04
          24  4.2610457E-03
          25  3.3913776E-03
          26  6.0291989E-03
          27 -1.8627996E-02
          28  3.8340814E-02
          29 -7.6115904E-03
          30  1.1034536E-05
          31  7.1699503E-03
          32 -1.5108499E-02
          33  1.5628338E-03
          34  1.6338747E-02
          35 -5.4228149E-02
          36  9.0073600E-02
          37 -2.7274834E-03
          38 -2.4236760E-03
          39  1.6365286E-02
          40 -2.2056920E-02
          41  4.1896029E-04
          42 -2.2699436E-02
          43  6.4787723E-02
          44 -0.1052956    
          45 -1.8035900E-03
          46  3.6977569E-03
          47 -1.1192679E-02
          48  2.3099493E-02
          49  1.9670676E-03
          50 -1.5637027E-03
          51  1.0622690E-02
          52 -1.1870057E-02
          53 -1.7605996E-04
          54 -1.1667099E-03
          55 -1.1074030E-04
          56  5.2939830E-03
          57 -4.6330155E-03
          58  2.1604067E-02
          59 -7.7124692E-02
          60  0.1198972    
          61  4.4393116E-03
          62 -3.0395009E-03
          63  2.1741940E-02
          64 -2.6904706E-02
          65  7.7042454E-03
          66 -1.6350593E-02
          67  9.3454696E-02
          68 -0.1204616    
          69 -1.4273763E-02
          70 -2.5294963E-04
          71 -3.1823531E-02
          72  3.9817587E-02
          73  6.3929651E-03
          74  1.2016501E-02
          75  6.0657328E-03
          76 -4.4877108E-02
          77 -8.1396261E-03
          78 -1.0515562E-02
          79  9.9395523E-03
          80  1.6777193E-02
          81 -4.6573887E-03
          82 -4.8056971E-02
          83  0.1353149    
          84  0.3459286    
          85 -8.1717782E-03
          86  2.2081878E-02
          87 -4.3637883E-02
          88 -0.1226975    
          89  9.5725833E-03
          90  9.0980669E-03
          91 -0.1477152    
          92 -0.3344097    
          93 -1.2328680E-02
          94 -1.1631027E-03
          95  4.7816165E-02
          96  0.1047327    
          97  7.8135508E-04
          98 -3.6858530E-03
          99  1.8742060E-02
         100  4.5720633E-02
         101 -3.1510473E-03
         102  2.4100887E-03
         103 -3.5585284E-03
         104 -1.3337025E-02
         105 -1.0891749E-03
         106  9.4200727E-03
         107  0.1297957    
         108  0.3072816    
         109 -2.0391727E-03
         110 -3.8534808E-03
         111 -3.8322847E-02
         112 -9.1736771E-02
         113  5.1970822E-03
         114 -4.1506326E-04
         115  2.4790475E-02
         116  5.5163201E-02
         117 -5.6762747E-03
         118  7.9372397E-04
         119 -3.0267208E-03
         120 -6.4987256E-03
         121 -6.1135378E-04
         122 -9.5125595E-03
         123 -0.1342643    
         124 -0.2919689    
         125 -1.1883215E-03
         126  2.5878833E-03
         127  3.5426125E-02
         128  7.4796237E-02
         129 -1.6020320E-04
         130 -3.8804116E-03
         131 -5.2506272E-02
         132 -0.1149049    
         133 -8.5971807E-04
         134  8.4989209E-04
         135  1.1751193E-02
         136  2.4704281E-02
         137  9.6147729E-04
         138  6.6164546E-03
         139  8.2239062E-02
         140  0.1806603    
         141 -2.9843977E-05
         142 -1.5286678E-03
         143 -1.4094247E-02
         144 -3.1353094E-02
         145  2.0627216E-03
         146  1.5875533E-02
         147  0.1369922    
         148  0.2892800    
         149 -2.5810506E-03
         150 -5.7628481E-03
         151 -3.7072629E-02
         152 -8.0458760E-02
         153  4.7566071E-03
         154 -4.3661284E-04
         155  1.7228989E-02
         156  3.5695389E-02
         157 -6.2748576E-03
         158 -1.2115700E-04
         159 -7.0829093E-03
         160 -1.7751770E-02
         161  2.4224936E-03
         162 -3.2171737E-02
         163 -0.1747025    
         164 -0.4016227    
         165 -5.9414925E-03
         166  1.1284370E-02
         167  5.7253003E-02
         168  0.1287858    
         169 -5.4265704E-04
         170  9.1592292E-04
         171  2.2600973E-03
         172  4.2464331E-02
         173 -4.3508993E-03
         174 -5.6047351E-03
         175  1.0665015E-03
         176 -1.3548467E-02
         177  3.3861606E-03
         178 -4.9277153E-03
         179  3.1844340E-03
         180  8.5408082E-03
         181 -5.5281031E-03
         182 -2.1671583E-03
         183 -3.8263691E-03
         184  3.7231571E-03
         185  2.0235209E-02
         186 -2.0353275E-03
         187 -4.7432310E-03
         188  2.3229528E-02
         189 -1.8759122E-02
         190  9.2005432E-03
         191 -1.3795596E-03
         192 -8.0802944E-03
         193 -8.9713717E-03
         194  1.8840874E-02
         195  9.7290063E-03
         196  1.4055498E-02
         197  8.1064124E-03
         198 -1.6869713E-02
         199 -3.0625414E-03
         200 -7.2471038E-03
         201  1.3026041E-03
         202  1.6404230E-02
         203  1.7931512E-02
         204  0.1198526    
         205  2.6941256E-04
         206 -6.0534994E-03
         207 -1.3255686E-02
         208 -3.2656729E-02
         209 -2.3198817E-03
         210  6.6924986E-04
         211  7.4452627E-03
         212  1.4513940E-02
         213  1.7465886E-03
         214 -1.4074240E-03
         215 -6.1086346E-03
         216 -3.2249931E-03
         217  4.2424278E-04
         218 -2.2251504E-02
         219 -2.2455921E-02
         220 -0.1139719    
         221  4.7306970E-04
         222  5.5696764E-03
         223  2.0804964E-03
         224  2.6075758E-02
         225 -4.3935981E-03
         226  1.2964971E-02
         227  2.1966796E-02
         228  7.1924783E-02
         229  2.2562093E-03
         230 -6.3527108E-04
         231 -7.9409210E-03
         232 -1.9638037E-02
         233  7.4650459E-03
         234  2.3062272E-02
         235  9.0051228E-03
         236  5.3359050E-02
         237 -5.9110378E-03
         238 -2.6535271E-03
         239 -2.3753967E-03
         240 -2.1506179E-02
         241 -1.9253425E-02
         242 -4.5931470E-02
         243  1.5662553E-02
         244 -0.1366944    
         245  1.1337169E-02
         246  2.1317095E-02
         247 -7.1771285E-03
         248  5.2358020E-02
         249 -1.2148264E-03
         250  5.4076756E-03
         251  2.5125956E-03
         252  4.7632121E-03
         253 -1.3304795E-03
         254 -1.7023827E-03
         255 -2.7384392E-03
         256 -1.1471115E-02
         257  5.7265596E-03
         258  1.2073583E-02
         259  4.2329510E-03
         260  1.6576307E-03
         261 -4.1883512E-04
         262 -6.0183099E-03
         263 -3.1618634E-04
         264 -3.0864070E-03
         265  3.4190104E-03
         266  5.7687098E-03
         267  2.9209761E-03
         268 -1.6487543E-03
         269 -1.1710301E-03
         270 -3.5792827E-03
         271 -5.0819055E-03
         272  1.2001757E-03
         273  9.4125895E-03
         274  2.3504424E-04
         275  1.4928017E-03
         276  3.9824536E-03
         277 -3.0161703E-03
         278 -1.0566154E-03
         279 -2.2681484E-03
         280  1.4162231E-03
         281  5.9853136E-03
         282 -1.0176244E-02
         283  1.9351991E-02
         284 -8.7516361E-05
         285 -8.6411397E-04
         286 -4.7677979E-03
         287  1.6333347E-02
         288 -2.4389707E-02
         289 -1.9527086E-03
         290 -3.2201569E-04
         291 -2.5808697E-03
         292  3.8690260E-03
         293 -4.6621962E-03
         294 -3.7191834E-03
         295  6.8310257E-03
         296  1.6160661E-02
         297 -3.3201925E-02
         298  4.6771981E-02
         299 -1.4576147E-02
         300  3.7385284E-03
         301  1.1453798E-02
         302 -3.6986791E-02
         303 -8.4399037E-02
         304 -3.7955518E-03
         305  1.9945938E-03
         306  1.2899422E-03
         307  1.2409244E-02
         308  1.9457171E-02
         309 -4.6473220E-03
         310  1.2606110E-03
         311  1.6053861E-04
         312  6.1392980E-03
         313  5.2586538E-03
         314 -2.7701803E-03
         315  1.8543808E-03
         316  8.8229030E-04
         317  2.5084192E-02
         318  5.7695493E-02
         319 -5.9393207E-03
         320  2.8624306E-03
         321  1.0679100E-03
         322  1.6397077E-03
         323  1.7383244E-02
         324 -1.4572240E-02
         325  4.5813541E-03
         326 -8.8912807E-03
         327 -9.4569530E-03
         328  1.3774729E-02
         329 -3.1693473E-03
         330 -3.1762412E-03
         331  9.9316975E-03
         332  8.7522026E-03
         333 -1.5987264E-03
         334 -5.2261124E-03
         335 -1.2519392E-03
         336  5.6177638E-03
         337 -3.8832400E-03
         338  3.0005306E-03
         339 -3.6264320E-03
         340  5.6330250E-03
         341 -1.1135183E-02
         342 -5.4215938E-03
         343  1.5432582E-03
         344  5.5751409E-03
         345 -2.0984207E-04
         346  2.8381797E-03
         347  2.3472521E-02
         348  9.1857481E-04
         349  3.9625773E-03
         350  1.9068678E-03
         351  3.4795653E-03
         352  3.0685957E-03
         353 -1.7669883E-03
         354  5.7068313E-03
         355 -8.0743560E-04
         356 -3.1340444E-03
         357  1.0507326E-03
         358 -1.1651956E-03
         359 -8.5037109E-04
         360  2.9634656E-03
         361 -4.0536313E-03
         362 -7.1206149E-03
         363 -2.6537269E-02
         364  6.6481535E-03
         365  2.4843100E-04
         366  4.1421205E-03
         367  3.8691913E-03
         368  1.4891927E-02
 Sym= Hole
 Ene= -0.1397548    
 Spin= Alpha
 Occup= 0
           1 -9.5544402E-03
           2  1.0880570E-02
           3 -5.0697303E-03
           4  2.2084638E-02
           5  5.2647493E-03
           6 -3.7232635E-03
           7  9.7961794E-04
           8 -2.8810175E-03
           9 -3.6740184E-03
          10 -5.6847851E-03
          11  1.0911393E-03
          12 -5.8073807E-03
          13  3.0046847E-04
          14 -1.2434685E-03
          15 -2.8453002E-04
          16  3.7366667E-04
          17  5.8905920E-03
          18  1.1837945E-02
          19 -1.5702286E-03
          20 -1.7009445E-03
          21 -2.3158451E-03
          22 -6.3087011E-04
          23 -1.1578727E-04
          24 -8.0791203E-04
          25  1.1640468E-02
          26  2.2152917E-02
          27 -2.4460528E-02
          28  4.8581205E-02
          29 -6.7972308E-03
          30 -3.3199454E-03
          31 -1.7652713E-03
          32 -5.4274802E-03
          33 -2.3473359E-03
          34 -5.4459167E-03
          35  5.1165647E-03
          36 -1.4615973E-02
          37  1.4893522E-03
          38  2.6516917E-03
          39 -5.3599034E-04
          40  1.7733744E-03
          41  3.9750976E-03
          42 -2.1851389E-03
          43  3.0532053E-02
          44 -4.9867641E-02
          45 -4.7215598E-04
          46  1.1894566E-03
          47 -1.0010720E-03
          48  4.1298592E-03
          49 -1.4224433E-03
          50 -5.0421590E-03
          51 -7.9166265E-03
          52  9.0317251E-03
          53  1.0030158E-03
          54  1.3181458E-03
          55  4.7051089E-04
          56  2.7643780E-03
          57  3.7443270E-03
          58  4.3752871E-02
          59 -4.7556382E-02
          60  4.6391256E-02
          61 -6.3331216E-04
          62  5.7606362E-03
          63  4.9050455E-03
          64 -6.7826762E-04
          65  2.2338058E-03
          66  1.5933788E-03
          67 -7.2980332E-03
          68  3.1541832E-02
          69 -2.5833666E-03
          70  1.2124734E-03
          71 -2.0137003E-03
          72 -9.4344681E-03
          73 -1.2673653E-02
          74  2.9783493E-02
          75  2.0349551E-02
          76 -0.1462776    
          77  5.8278316E-03
          78 -7.2998824E-03
          79 -5.4439642E-03
          80  9.8612113E-03
          81 -3.7151803E-03
          82 -1.6650867E-02
          83 -6.3074701E-03
          84  4.6647649E-02
          85  1.7960073E-03
          86  8.1081281E-04
          87  2.1331864E-03
          88 -1.5259208E-03
          89  3.9502415E-03
          90 -1.8242484E-02
          91  0.2111831    
          92  0.4047340    
          93 -2.6282929E-03
          94  2.7882336E-03
          95 -4.7965568E-05
          96  4.7696712E-03
          97 -1.6954896E-03
          98 -9.9311806E-03
          99  0.1124136    
         100  0.2645667    
         101  7.2984556E-05
         102  1.7089115E-03
         103  2.5961834E-03
         104  5.4847668E-03
         105  4.0186471E-03
         106 -5.3132884E-03
         107 -0.1081302    
         108 -0.2959182    
         109 -2.5357823E-03
         110  7.3998811E-04
         111 -1.9747722E-03
         112 -1.5782564E-03
         113  2.1025923E-03
         114 -1.1864419E-02
         115 -0.1009097    
         116 -0.2255802    
         117 -1.0252425E-03
         118 -3.2688308E-04
         119 -2.4622195E-06
         120  1.9300602E-05
         121 -1.3062649E-03
         122  6.7791315E-03
         123  6.1258115E-02
         124  0.1250847    
         125  1.5448562E-04
         126 -1.6594886E-04
         127 -6.3795835E-04
         128  1.0056983E-03
         129  4.3513425E-04
         130 -2.0576568E-04
         131  2.9900204E-03
         132  5.4057371E-03
         133 -8.3088591E-05
         134 -1.1210829E-04
         135 -2.1892544E-03
         136 -3.8334720E-03
         137  6.8400432E-06
         138 -2.0371061E-03
         139 -2.6497718E-02
         140 -5.3558052E-02
         141 -1.9151729E-04
         142  1.7778848E-04
         143 -7.0384814E-04
         144 -1.5129424E-03
         145  1.9576468E-03
         146  1.6254967E-02
         147  0.1734852    
         148  0.3667936    
         149 -1.0144603E-03
         150  1.3355125E-03
         151  1.2858184E-03
         152  4.3323943E-03
         153 -7.0779324E-03
         154  1.8240854E-02
         155  8.1371531E-02
         156  0.1522272    
         157  2.2998760E-03
         158  9.6051494E-04
         159  1.3049307E-03
         160  4.2593954E-03
         161  6.2084923E-06
         162 -2.5977440E-02
         163 -0.1435828    
         164 -0.3120797    
         165 -5.4956025E-05
         166  1.3108294E-04
         167 -3.9550951E-03
         168 -5.4872404E-03
         169 -1.0119673E-02
         170  1.9150246E-02
         171 -4.4947341E-02
         172 -0.2333973    
         173  4.6041380E-03
         174 -1.7243994E-03
         175  1.3130391E-04
         176 -6.0710264E-03
         177  6.5683210E-03
         178 -1.5856337E-03
         179 -6.0981261E-03
         180  5.1904697E-02
         181 -2.2410462E-03
         182 -1.7261546E-03
         183  3.0525005E-03
         184  1.2567182E-02
         185 -2.3406843E-02
         186  4.2723231E-03
         187  1.5163430E-02
         188 -6.1801851E-02
         189  5.4057301E-03
         190 -4.1876407E-04
         191  5.5289785E-03
         192 -3.7657944E-03
         193  1.2853939E-02
         194 -5.4403981E-03
         195 -2.7843935E-02
         196 -1.5348715E-02
         197 -2.5809270E-03
         198 -2.1280469E-03
         199 -6.0170004E-03
         200  3.2042025E-03
         201  7.3658145E-04
         202  3.1554963E-02
         203  1.4045900E-02
         204  3.2123409E-02
         205  9.0180351E-05
         206 -6.1401277E-04
         207 -3.8347105E-03
         208 -1.2882843E-03
         209  1.0745957E-03
         210 -8.3178682E-03
         211 -5.2553075E-03
         212 -2.7919900E-02
         213 -1.9559982E-04
         214 -1.1121370E-04
         215 -1.8644195E-04
         216  2.7025249E-03
         217  2.3092306E-03
         218 -4.0006451E-03
         219 -1.1081100E-02
         220 -5.1991839E-02
         221 -1.6797139E-04
         222  7.0887292E-04
         223 -3.2313174E-04
         224  4.2236517E-03
         225 -2.3867241E-03
         226  1.5735968E-03
         227  6.8810554E-03
         228  2.0146603E-02
         229  9.6558256E-04
         230  1.7397751E-03
         231 -8.4564841E-04
         232  2.2094112E-03
         233  9.7236624E-03
         234  2.8839748E-02
         235  7.5626140E-03
         236  6.5184526E-02
         237 -5.9456420E-03
         238 -2.6494958E-03
         239  2.2784565E-03
         240 -4.5410520E-03
         241  1.2766903E-03
         242 -8.4223645E-03
         243 -1.0387409E-02
         244  1.7785871E-03
         245 -2.8997688E-03
         246 -7.5246545E-04
         247  5.4226359E-03
         248 -8.2922643E-03
         249  4.3068430E-03
         250  5.5297691E-04
         251  1.1510340E-03
         252  2.7760661E-03
         253  1.7131951E-04
         254  3.5624811E-03
         255 -2.8170110E-03
         256 -4.8887893E-03
         257 -2.9652848E-04
         258  7.8631174E-03
         259  5.3429324E-03
         260  4.8187614E-04
         261  4.1698522E-04
         262 -3.1980432E-03
         263 -6.0309860E-04
         264 -1.9180741E-03
         265  2.9789639E-04
         266  1.0294826E-03
         267 -5.2359945E-04
         268 -1.3018065E-03
         269 -2.7271020E-03
         270  2.7804403E-04
         271  6.4495031E-04
         272 -7.4020546E-04
         273  3.2188497E-03
         274 -2.1747351E-03
         275  4.8005927E-04
         276  1.3384143E-03
         277  2.5684646E-04
         278 -1.2905238E-03
         279  3.3016370E-03
         280  8.2377979E-04
         281  1.2478563E-03
         282  6.7771767E-04
         283 -1.2971011E-03
         284 -5.2895052E-03
         285  9.7595080E-04
         286 -5.7931762E-04
         287  3.4522368E-03
         288 -4.8957355E-03
         289 -8.2426341E-03
         290  2.4269524E-03
         291 -6.5883884E-04
         292  1.1396400E-03
         293 -9.0330897E-04
         294  1.9454291E-02
         295  9.6980383E-04
         296  9.5156551E-04
         297  2.3220486E-03
         298  6.3928463E-03
         299 -1.2626090E-02
         300 -1.9995168E-04
         301  5.8598554E-04
         302 -5.5597587E-03
         303 -4.4342037E-03
         304  1.5311435E-02
         305 -6.5730454E-04
         306  4.2352415E-04
         307  1.7180231E-03
         308  1.8365338E-03
         309  4.7149197E-03
         310 -2.7354137E-04
         311 -1.9226444E-04
         312 -4.4499585E-04
         313 -2.5680454E-03
         314 -3.5769348E-03
         315 -2.4179509E-04
         316  1.3935205E-04
         317 -2.8279580E-03
         318 -5.4382216E-03
         319  7.7374245E-04
         320 -2.1807034E-04
         321  1.5484499E-04
         322  5.5104825E-03
         323  3.4541681E-03
         324  4.6589044E-03
         325  1.2438849E-04
         326  5.1822523E-03
         327  2.2307406E-03
         328 -2.3770584E-03
         329  6.5680519E-03
         330 -9.2733913E-04
         331 -4.4342065E-03
         332 -5.1561934E-03
         333  4.7371988E-04
         334  2.9611522E-02
         335 -1.1225027E-03
         336 -9.3726843E-04
         337  4.6065459E-03
         338  2.4597517E-03
         339 -1.8031547E-02
         340  2.2167033E-03
         341  4.3282579E-03
         342 -1.1102657E-03
         343 -2.6579478E-03
         344 -2.0182626E-03
         345  1.9402622E-04
         346 -2.2340692E-03
         347 -3.1673207E-03
         348 -1.4398374E-03
         349 -2.9601210E-03
         350 -1.1944557E-03
         351  2.5122662E-04
         352  3.2592652E-04
         353  3.8278589E-03
         354 -6.5263635E-03
         355  1.6724770E-03
         356  1.7270955E-04
         357 -6.1276159E-04
         358 -2.4132435E-06
         359 -3.2501963E-03
         360  1.0133268E-04
         361 -1.3994590E-03
         362 -8.0968620E-04
         363 -4.9508684E-03
         364  4.5982427E-03
         365 -5.9281738E-06
         366  2.0214812E-04
         367 -5.0692027E-04
         368 -1.4771828E-04
 Sym= Particle
 Ene= -0.1397548    
 Spin= Alpha
 Occup= 2
           1 -8.4428154E-03
           2  5.8754003E-03
           3 -3.3809964E-03
           4  1.5938783E-02
           5  5.9424732E-03
           6 -2.4205013E-03
           7  7.4605789E-04
           8 -1.3669288E-03
           9 -2.3915723E-03
          10 -1.3969564E-03
          11  4.6163318E-03
          12  2.4551440E-03
          13  1.1502700E-03
          14 -3.2409301E-03
          15 -1.1690031E-03
          16  1.0348626E-03
          17  3.5301028E-03
          18  8.8148797E-03
          19 -2.4942681E-03
          20  7.4043300E-04
          21 -1.5577410E-03
          22 -2.9056633E-03
          23  1.4946625E-03
          24  3.3148855E-04
          25  4.6110726E-03
          26  1.1767264E-02
          27 -2.6734106E-02
          28  4.9404502E-02
          29 -3.0750635E-03
          30 -2.1132226E-03
          31  1.9949258E-03
          32 -1.0533683E-02
          33  5.8233072E-05
          34 -7.5893714E-03
          35  2.7019646E-02
          36 -4.3271065E-02
          37  1.2482944E-03
          38  3.8457606E-03
          39 -7.8360969E-03
          40  1.6115282E-02
          41  2.9940933E-03
          42  3.2999464E-03
          43  2.3459441E-03
          44 -5.7049105E-03
          45 -1.9179785E-03
          46 -1.2082688E-03
          47  5.8963004E-04
          48  4.9967115E-04
          49  2.5174199E-04
          50  5.0781937E-03
          51 -1.7195079E-02
          52  2.2850486E-02
          53 -2.3496887E-03
          54  4.6479612E-04
          55  3.8172114E-03
          56 -2.3270226E-03
          57  4.0228730E-03
          58  2.5977643E-02
          59 -7.7667930E-03
          60 -1.8088434E-02
          61 -1.0273444E-02
          62 -2.0068049E-02
          63  2.8149318E-03
          64  7.6357811E-03
          65  1.8299699E-02
          66  2.6891755E-02
          67 -1.2732969E-03
          68  4.1991152E-02
          69 -1.4818641E-02
          70 -1.5707180E-02
          71  6.4067063E-03
          72 -2.3660550E-02
          73 -2.2541093E-02
          74  2.6877472E-02
          75  1.8109361E-02
          76 -0.1362194    
          77  1.8679231E-02
          78 -4.2879418E-03
          79 -8.3569484E-03
          80  5.4028746E-02
          81  2.9441906E-04
          82 -2.1317091E-02
          83  8.3675973E-02
          84  0.2177046    
          85  2.7341654E-03
          86  4.7578090E-03
          87 -2.3263205E-02
          88 -6.2935196E-02
          89  1.0189576E-02
          90 -1.6753636E-02
          91  0.1512002    
          92  0.2959622    
          93 -9.3440134E-03
          94  5.1590367E-03
          95 -4.5988705E-02
          96 -7.5967818E-02
          97 -1.9956927E-03
          98  9.3461033E-03
          99 -0.1871033    
         100 -0.3990175    
         101 -1.2838350E-03
         102 -5.7464936E-03
         103  4.4246484E-02
         104  9.8229036E-02
         105  5.7849963E-03
         106 -4.0936386E-03
         107 -3.8377924E-03
         108 -3.4385115E-02
         109 -6.4853337E-03
         110  2.5607389E-03
         111 -6.7634517E-03
         112  1.4860803E-03
         113 -1.7817223E-03
         114  1.8487843E-02
         115  0.1752131    
         116  0.4000122    
         117  1.1509131E-03
         118 -6.6861580E-03
         119 -4.1770637E-02
         120 -9.5779344E-02
         121  4.3617788E-04
         122 -6.7461380E-03
         123 -0.1021714    
         124 -0.2270340    
         125 -1.2254228E-03
         126  8.5189275E-04
         127  2.7412765E-02
         128  6.3678153E-02
         129 -1.9907103E-04
         130 -2.1651818E-03
         131 -2.9786848E-02
         132 -6.4748541E-02
         133 -5.6285074E-04
         134  1.1696072E-03
         135  3.0982089E-03
         136  8.6170342E-03
         137  8.9778210E-04
         138  4.0352475E-03
         139  5.5568539E-02
         140  0.1208761    
         141  5.6624803E-04
         142  4.4854672E-04
         143 -6.8188701E-03
         144 -1.3930168E-02
         145  4.0332442E-03
         146 -1.2263308E-02
         147 -9.2749782E-02
         148 -0.1964735    
         149 -3.8931782E-03
         150  3.1847255E-03
         151  2.0325009E-02
         152  4.4790957E-02
         153 -4.7286628E-03
         154  2.5564892E-02
         155  0.1611334    
         156  0.3188864    
         157  1.8205673E-03
         158 -6.9887699E-03
         159 -3.7789591E-02
         160 -6.9304109E-02
         161  6.7046410E-03
         162 -9.8076640E-03
         163 -5.3765895E-03
         164 -7.8351218E-03
         165 -6.5067080E-03
         166  4.6803080E-03
         167  8.6841558E-04
         168 -1.4403085E-03
         169 -1.0219267E-02
         170  7.9640867E-03
         171 -9.2777297E-02
         172 -0.3402728    
         173  6.9415593E-03
         174 -7.1762782E-03
         175  1.8262295E-02
         176  8.2221411E-02
         177 -2.2404385E-04
         178 -1.3288864E-03
         179  3.0527089E-04
         180 -2.4574570E-04
         181  2.2139743E-03
         182 -1.7990537E-03
         183 -6.9128349E-03
         184 -1.2407513E-02
         185 -2.6093807E-02
         186  1.8412704E-02
         187  6.0590198E-03
         188 -5.4487050E-02
         189  2.1410460E-02
         190 -4.5540361E-03
         191 -1.0957168E-02
         192  1.7600674E-02
         193  1.3154634E-02
         194 -2.5552209E-02
         195 -2.3819622E-02
         196 -2.4304613E-02
         197 -1.0065831E-02
         198  9.6220141E-03
         199  1.0790460E-02
         200  3.5819032E-03
         201  2.3025176E-03
         202  2.8321240E-02
         203  1.1634094E-02
         204  3.3087216E-02
         205  2.4128793E-04
         206 -8.0765523E-03
         207 -4.6207886E-03
         208 -5.8106617E-03
         209 -8.3879259E-04
         210 -2.1946593E-03
         211  7.5231417E-04
         212 -5.3195236E-03
         213  1.3201548E-03
         214  4.0443516E-03
         215  1.0548785E-03
         216  8.1229554E-03
         217  2.1639694E-03
         218 -1.2458580E-04
         219 -4.4778665E-03
         220 -2.1697456E-02
         221  3.9398179E-05
         222 -5.5736373E-04
         223 -2.1849993E-04
         224  5.0417584E-04
         225 -3.6827731E-03
         226 -3.6968456E-03
         227  2.4502897E-03
         228 -9.2760567E-03
         229  2.2133607E-03
         230  2.0455958E-03
         231  8.3870156E-04
         232  7.2657657E-03
         233  1.1009771E-02
         234  2.0069115E-02
         235  6.0959114E-04
         236  4.0431306E-02
         237 -7.4511622E-03
         238 -7.0600081E-03
         239  6.0397484E-03
         240 -6.8097506E-03
         241 -3.4165401E-03
         242 -3.6367450E-03
         243  2.8352891E-03
         244 -8.6471875E-04
         245  5.4499065E-03
         246  4.5228889E-03
         247 -2.0118285E-04
         248 -1.3778318E-02
         249  5.2255555E-03
         250 -2.3270303E-03
         251  1.4917908E-04
         252  2.0108861E-03
         253  5.8289559E-04
         254  4.1331914E-03
         255  5.2328007E-03
         256  1.0904413E-02
         257 -7.7184709E-03
         258  8.8054817E-03
         259  4.2622229E-03
         260 -9.0469909E-04
         261  2.6548775E-03
         262 -7.7101256E-04
         263  5.6773401E-04
         264 -1.8349953E-03
         265 -5.1817682E-04
         266  1.5234877E-03
         267 -7.9445017E-04
         268  8.1696594E-04
         269 -8.4746059E-04
         270  2.1204894E-04
         271 -3.2322860E-04
         272 -1.3883054E-03
         273 -4.9916899E-04
         274 -1.4674769E-03
         275 -5.2969338E-04
         276 -3.3389049E-04
         277  1.8710149E-03
         278 -3.9545633E-04
         279 -1.1965864E-03
         280 -4.4898663E-04
         281 -4.1781608E-03
         282  6.4941440E-03
         283 -8.2766553E-03
         284 -2.8071078E-03
         285 -1.5724832E-03
         286 -7.7176170E-04
         287 -4.9693305E-03
         288  4.4747842E-03
         289 -8.9958804E-03
         290  1.5037416E-03
         291  1.4556445E-03
         292 -3.9441041E-03
         293  3.3183931E-03
         294 -3.8203958E-03
         295 -5.1322780E-03
         296 -2.1646945E-02
         297  1.2914663E-03
         298 -2.4304477E-02
         299 -6.1371312E-03
         300  2.3059056E-03
         301 -5.9719436E-04
         302  3.2366905E-02
         303  5.9152991E-02
         304  6.6871545E-03
         305 -1.1009333E-03
         306 -2.3782499E-04
         307 -3.3491191E-02
         308 -7.4714966E-02
         309  9.3852618E-04
         310  1.4628064E-03
         311 -2.0033951E-04
         312  2.7020840E-02
         313  6.0154673E-02
         314 -6.0877348E-03
         315  1.2141068E-03
         316 -3.2222976E-03
         317 -2.1378953E-02
         318 -4.0295612E-02
         319 -1.4886942E-03
         320  8.6391735E-04
         321  2.3703421E-03
         322  2.4295446E-02
         323  5.4549981E-02
         324 -1.3359654E-04
         325  5.0579186E-04
         326 -1.3210068E-02
         327  5.9942144E-04
         328 -7.0547089E-03
         329  1.4853191E-03
         330  1.0704122E-02
         331  1.1946695E-03
         332 -1.6220331E-02
         333  3.2771553E-03
         334  2.3468647E-02
         335 -3.1541153E-03
         336  3.2696960E-04
         337  9.9871494E-03
         338 -1.0851759E-02
         339 -4.2157415E-03
         340 -3.2484736E-03
         341 -4.6091150E-03
         342 -2.7980190E-03
         343 -3.9848285E-03
         344  2.9698685E-03
         345 -3.9997383E-04
         346  2.2352034E-02
         347  1.2125934E-03
         348 -1.0735011E-02
         349 -1.3347205E-02
         350  4.9101496E-03
         351 -2.7840829E-03
         352 -8.8971574E-03
         353  1.0700774E-03
         354 -5.7855016E-03
         355  3.4365952E-03
         356  2.0770403E-03
         357 -2.6007926E-03
         358 -1.1379368E-03
         359 -3.1727338E-03
         360  5.9156795E-04
         361  2.3040215E-05
         362  2.7124691E-04
         363 -9.6278352E-04
         364  3.0817601E-03
         365 -5.4453773E-04
         366 -8.4075815E-04
         367 -7.1326474E-04
         368 -2.6468735E-03
