 [Molden Format]
 [Atoms] Angs
C       1      6      2.87696349      4.99238861     -0.32901056
C       2      6      2.91182617      3.90157595      0.74555032
C       3      6      2.78697921      4.57830615      2.11892420
C       4      6      4.25912549      3.17088752      0.64385413
C       5      6      1.78982129      2.88747785      0.58787713
C       6      6      0.84596777      2.95377536     -0.43049320
C       7      6     -0.15231448      2.00457582     -0.55259907
C       8      6     -0.23772533      0.96094976      0.35794612
N       9      7     -1.23892014     -0.02190564      0.23429581
C      10      6     -1.05411457     -1.38003109      0.25895063
C      11      6      0.24159161     -2.02303128      0.44811580
C      12      6      0.36061280     -2.96121682      1.47116627
C      13      6      1.57746158     -3.53392546      1.77440035
C      14      6      2.72886467     -3.17607237      1.06870597
C      15      6      4.01200413     -3.70510546      1.39450156
C      16      6      5.11616785     -3.35029570      0.69697613
C      17      6      5.03562012     -2.44431590     -0.40181831
C      18      6      6.16019221     -2.06976464     -1.13998379
C      19      6      6.04695197     -1.19829247     -2.20808947
C      20      6      4.81450642     -0.68474623     -2.56910890
C      21      6      3.66373128     -1.02818114     -1.85700160
C      22      6      2.37212569     -0.54662646     -2.21840292
C      23      6      1.27258357     -0.87306539     -1.50050079
C      24      6      1.35793803     -1.70556946     -0.34563639
C      25      6      2.61714191     -2.26408752     -0.01058229
C      26      6      3.77018713     -1.91165077     -0.75468917
N      27      7     -2.19081299     -2.01632212      0.13600446
C      28      6     -3.16551563     -1.06738539      0.01721580
C      29      6     -4.56370171     -1.45600572     -0.09814158
C      30      6     -4.88040397     -2.69416557     -0.65685646
C      31      6     -6.19722103     -3.09626427     -0.77150175
C      32      6     -7.21856740     -2.27149600     -0.32755114
C      33      6     -6.91224884     -1.04731362      0.24471740
C      34      6     -5.59621083     -0.64122794      0.36389055
C      35      6     -2.59073047      0.19148238      0.07071153
C      36      6     -3.17954695      1.52242703     -0.01195085
C      37      6     -2.86573431      2.50409874      0.92672482
C      38      6     -3.42945067      3.76333089      0.83430266
C      39      6     -4.31140221      4.05989428     -0.19171247
C      40      6     -4.63139101      3.08822064     -1.12701289
C      41      6     -4.06958003      1.82858117     -1.04117695
C      42      6      0.68779233      0.88512304      1.39121078
C      43      6      1.68511958      1.83338664      1.49329993
H      44      1      2.98879726      4.56609164     -1.32323026
H      45      1      1.94921798      5.55823891     -0.28360377
H      46      1      3.70050199      5.68476515     -0.16674490
H      47      1      1.82150194      5.07251819      2.20861696
H      48      1      2.87821543      3.85800771      2.92704068
H      49      1      3.56917900      5.32474468      2.23887393
H      50      1      4.34793572      2.67743749     -0.32182692
H      51      1      5.07675550      3.88124458      0.74548911
H      52      1      4.36369129      2.41732039      1.41945936
H      53      1      0.87604767      3.74741939     -1.15810835
H      54      1     -0.86508914      2.07176810     -1.36154971
H      55      1     -0.52289680     -3.21791514      2.03752631
H      56      1      1.65093355     -4.25157939      2.57881492
H      57      1      4.07916505     -4.39904462      2.22048104
H      58      1      6.08551464     -3.75275640      0.95544046
H      59      1      7.12590097     -2.47155883     -0.86821081
H      60      1      6.92815426     -0.92040042     -2.76846238
H      61      1      4.73193426     -0.01134459     -3.41038501
H      62      1      2.28769046      0.08223888     -3.09348368
H      63      1      0.29918213     -0.52845955     -1.81677074
H      64      1     -4.07463883     -3.32903576     -0.99374658
H      65      1     -6.42954866     -4.05657791     -1.20964378
H      66      1     -8.24856601     -2.58435337     -0.41966968
H      67      1     -7.70385887     -0.40620118      0.60602143
H      68      1     -5.36552585      0.30643768      0.82797887
H      69      1     -2.18763414      2.27446455      1.73643012
H      70      1     -3.18064098      4.51483960      1.56949109
H      71      1     -4.75014109      5.04429174     -0.26178241
H      72      1     -5.31927800      3.31349730     -1.92896929
H      73      1     -4.31460426      1.06916964     -1.77001121
H      74      1      0.62293871      0.08260409      2.11151787
H      75      1      2.39127042      1.74173857      2.30392116
 [GTO]
           1   0
s              4   1.000000
     37.01866526     -0.01198412
      6.37492047     -0.05472053
      0.51225206      0.58055871
      0.19523194      0.47700799
p              4   1.000000
      5.96652501      0.05713170
      1.54703084      0.28574555
      0.54537624      0.55178731
      0.21712368      0.26323149
s              7   1.000000
      0.38350848     -0.19442238
      0.04707223      0.93937748
      0.02222627      0.24669478
     37.01866526      0.00521805
      6.37492047      0.02382605
      0.51225206     -0.25278308
      0.19523194     -0.20769570
p              7   1.000000
      1.83062075     -0.01151102
      0.10124670      0.56566901
      0.03901771      0.59075725
      5.96652501     -0.02389710
      1.54703084     -0.11952193
      0.54537624     -0.23080214
      0.21712368     -0.11010473
 
           2   0
s              4   1.000000
     36.96243265     -0.01198412
      6.36523675     -0.05472052
      0.51147393      0.58055871
      0.19493538      0.47700800
p              4   1.000000
      5.95746165      0.05713170
      1.54468085      0.28574555
      0.54454780      0.55178731
      0.21679386      0.26323149
s              7   1.000000
      0.38350848     -0.19446764
      0.04707223      0.93959618
      0.02222627      0.24675223
     36.96243265      0.00522566
      6.36523675      0.02386084
      0.51147393     -0.25315213
      0.19493538     -0.20799893
p              7   1.000000
      1.83062075     -0.01151353
      0.10124670      0.56579264
      0.03901771      0.59088634
      5.95746165     -0.02393216
      1.54468085     -0.11969724
      0.54454780     -0.23114066
      0.21679386     -0.11026622
 
           3   0
s              4   1.000000
     37.01723158     -0.01198412
      6.37467358     -0.05472052
      0.51223222      0.58055871
      0.19522438      0.47700799
p              4   1.000000
      5.96629393      0.05713170
      1.54697093      0.28574555
      0.54535512      0.55178731
      0.21711527      0.26323149
s              7   1.000000
      0.38350848     -0.19442353
      0.04707223      0.93938305
      0.02222627      0.24669624
     37.01723158      0.00521824
      6.37467358      0.02382694
      0.51223222     -0.25279247
      0.19522438     -0.20770342
p              7   1.000000
      1.83062075     -0.01151108
      0.10124670      0.56567216
      0.03901771      0.59076052
      5.96629393     -0.02389800
      1.54697093     -0.11952639
      0.54535512     -0.23081076
      0.21711527     -0.11010884
 
           4   0
s              4   1.000000
     37.01941594     -0.01198412
      6.37504975     -0.05472052
      0.51226245      0.58055871
      0.19523590      0.47700799
p              4   1.000000
      5.96664600      0.05713170
      1.54706221      0.28574555
      0.54538730      0.55178731
      0.21712808      0.26323149
s              7   1.000000
      0.38350848     -0.19442177
      0.04707223      0.93937456
      0.02222627      0.24669402
     37.01941594      0.00521794
      6.37504975      0.02382559
      0.51226245     -0.25277816
      0.19523590     -0.20769166
p              7   1.000000
      1.83062075     -0.01151098
      0.10124670      0.56566737
      0.03901771      0.59075555
      5.96664600     -0.02389664
      1.54706221     -0.11951959
      0.54538730     -0.23079763
      0.21712808     -0.11010257
 
           5   0
s              4   1.000000
     35.14340622     -0.01198412
      6.05198535     -0.05472052
      0.48630285      0.58055871
      0.18534205      0.47700799
p              4   1.000000
      5.66427802      0.05713170
      1.46866271      0.28574555
      0.51774905      0.55178731
      0.20612482      0.26323149
s              7   1.000000
      0.38350848     -0.19603737
      0.04707223      0.94718054
      0.02222627      0.24874399
     35.14340622      0.00548435
      6.05198535      0.02504203
      0.48630285     -0.26568402
      0.18534205     -0.21829558
p              7   1.000000
      1.83062075     -0.01160078
      0.10124670      0.57008015
      0.03901771      0.59536405
      5.66427802     -0.02512206
      1.46866271     -0.12564857
      0.51774905     -0.24263295
      0.20612482     -0.11574864
 
           6   0
s              4   1.000000
     35.01672273     -0.01198412
      6.03016940     -0.05472053
      0.48454984      0.58055871
      0.18467394      0.47700800
p              4   1.000000
      5.64385967      0.05713170
      1.46336854      0.28574555
      0.51588269      0.55178731
      0.20538179      0.26323149
s              7   1.000000
      0.38350848     -0.19615484
      0.04707223      0.94774811
      0.02222627      0.24889304
     35.01672273      0.00550330
      6.03016940      0.02512856
      0.48454984     -0.26660209
      0.18467394     -0.21904990
p              7   1.000000
      1.83062075     -0.01160731
      0.10124670      0.57040104
      0.03901771      0.59569915
      5.64385967     -0.02520921
      1.46336854     -0.12608443
      0.51588269     -0.24347463
      0.20538179     -0.11615017
 
           7   0
s              4   1.000000
     35.02303539     -0.01198412
      6.03125650     -0.05472052
      0.48463719      0.58055871
      0.18470723      0.47700799
p              4   1.000000
      5.64487712      0.05713170
      1.46363234      0.28574555
      0.51597569      0.55178731
      0.20541882      0.26323149
s              7   1.000000
      0.38350848     -0.19614896
      0.04707223      0.94771970
      0.02222627      0.24888558
     35.02303539      0.00550236
      6.03125650      0.02512424
      0.48463719     -0.26655620
      0.18470723     -0.21901219
p              7   1.000000
      1.83062075     -0.01160698
      0.10124670      0.57038497
      0.03901771      0.59568240
      5.64487712     -0.02520485
      1.46363234     -0.12606265
      0.51597569     -0.24343255
      0.20541882     -0.11613010
 
           8   0
s              4   1.000000
     35.15794284     -0.01198412
      6.05448868     -0.05472052
      0.48650400      0.58055871
      0.18541872      0.47700799
p              4   1.000000
      5.66662098      0.05713170
      1.46927020      0.28574555
      0.51796321      0.55178731
      0.20621008      0.26323149
s              7   1.000000
      0.38350848     -0.19602397
      0.04707223      0.94711576
      0.02222627      0.24872697
     35.15794284      0.00548219
      6.05448868      0.02503214
      0.48650400     -0.26557907
      0.18541872     -0.21820935
p              7   1.000000
      1.83062075     -0.01160004
      0.10124670      0.57004353
      0.03901771      0.59532578
      5.66662098     -0.02511210
      1.46927020     -0.12559874
      0.51796321     -0.24253673
      0.20621008     -0.11570274
 
           9   0
s              4   1.000000
     61.64157544     -0.01198412
     10.61518935     -0.05472052
      0.85297576      0.58055871
      0.32509017      0.47700799
p              4   1.000000
      7.26581430      0.05713170
      1.88391715      0.28574555
      0.66413909      0.55178731
      0.26440522      0.26323149
s              7   1.000000
      0.47894987     -0.18765182
      0.05878681      0.90666464
      0.02775758      0.23810390
     61.64157544      0.00394158
     10.61518935      0.01799760
      0.85297576     -0.19094592
      0.32509017     -0.15688805
p              7   1.000000
      2.28619608     -0.01155359
      0.12644335      0.56776105
      0.04872781      0.59294207
      7.26581430     -0.02448451
      1.88391715     -0.12245985
      0.66413909     -0.23647539
      0.26440522     -0.11281117
 
          10   0
s              4   1.000000
     35.86300091     -0.01198412
      6.17590551     -0.05472052
      0.49626036      0.58055871
      0.18913711      0.47700799
p              4   1.000000
      5.78025950      0.05713170
      1.49873498      0.28574555
      0.52835046      0.55178731
      0.21034542      0.26323149
s              7   1.000000
      0.38350848     -0.19539098
      0.04707223      0.94405743
      0.02222627      0.24792383
     35.86300091      0.00537909
      6.17590551      0.02456137
      0.49626036     -0.26058446
      0.18913711     -0.21410560
p              7   1.000000
      1.83062075     -0.01156485
      0.10124670      0.56831452
      0.03901771      0.59352011
      5.78025950     -0.02463793
      1.49873498     -0.12322717
      0.52835046     -0.23795712
      0.21034542     -0.11351803
 
          11   0
s              4   1.000000
     35.13874569     -0.01198412
      6.05118277     -0.05472053
      0.48623836      0.58055871
      0.18531747      0.47700799
p              4   1.000000
      5.66352686      0.05713170
      1.46846794      0.28574555
      0.51768039      0.55178731
      0.20609748      0.26323149
s              7   1.000000
      0.38350848     -0.19604168
      0.04707223      0.94720133
      0.02222627      0.24874945
     35.13874569      0.00548505
      6.05118277      0.02504520
      0.48623836     -0.26571769
      0.18531747     -0.21832324
p              7   1.000000
      1.83062075     -0.01160102
      0.10124670      0.57009190
      0.03901771      0.59537631
      5.66352686     -0.02512525
      1.46846794     -0.12566455
      0.51768039     -0.24266381
      0.20609748     -0.11576337
 
          12   0
s              4   1.000000
     35.01048049     -0.01198412
      6.02909444     -0.05472052
      0.48446346      0.58055871
      0.18464102      0.47700800
p              4   1.000000
      5.64285357      0.05713170
      1.46310767      0.28574555
      0.51579073      0.55178731
      0.20534518      0.26323149
s              7   1.000000
      0.38350848     -0.19616066
      0.04707223      0.94777622
      0.02222627      0.24890042
     35.01048049      0.00550424
      6.02909444      0.02513284
      0.48446346     -0.26664749
      0.18464102     -0.21908720
p              7   1.000000
      1.83062075     -0.01160763
      0.10124670      0.57041693
      0.03901771      0.59571573
      5.64285357     -0.02521352
      1.46310767     -0.12610599
      0.51579073     -0.24351625
      0.20534518     -0.11617002
 
          13   0
s              4   1.000000
     34.98415086     -0.01198412
      6.02456026     -0.05472052
      0.48409912      0.58055871
      0.18450216      0.47700800
p              4   1.000000
      5.63860986      0.05713170
      1.46200734      0.28574555
      0.51540283      0.55178731
      0.20519075      0.26323149
s              7   1.000000
      0.38350848     -0.19618523
      0.04707223      0.94789493
      0.02222627      0.24893160
     34.98415086      0.00550820
      6.02456026      0.02515091
      0.48409912     -0.26683914
      0.18450216     -0.21924467
p              7   1.000000
      1.83062075     -0.01160900
      0.10124670      0.57048404
      0.03901771      0.59578584
      5.63860986     -0.02523171
      1.46200734     -0.12619698
      0.51540283     -0.24369195
      0.20519075     -0.11625385
 
          14   0
s              4   1.000000
     35.13574102     -0.01198412
      6.05066534     -0.05472053
      0.48619678      0.58055871
      0.18530163      0.47700799
p              4   1.000000
      5.66304257      0.05713170
      1.46834238      0.28574555
      0.51763613      0.55178731
      0.20607986      0.26323149
s              7   1.000000
      0.38350848     -0.19604445
      0.04707223      0.94721472
      0.02222627      0.24875296
     35.13574102      0.00548550
      6.05066534      0.02504725
      0.48619678     -0.26573940
      0.18530163     -0.21834108
p              7   1.000000
      1.83062075     -0.01160117
      0.10124670      0.57009948
      0.03901771      0.59538424
      5.66304257     -0.02512732
      1.46834238     -0.12567486
      0.51763613     -0.24268371
      0.20607986     -0.11577286
 
          15   0
s              4   1.000000
     34.96395919     -0.01198412
      6.02108309     -0.05472052
      0.48381972      0.58055871
      0.18439567      0.47700799
p              4   1.000000
      5.63535544      0.05713170
      1.46116352      0.28574555
      0.51510535      0.55178731
      0.20507232      0.26323149
s              7   1.000000
      0.38350848     -0.19620410
      0.04707223      0.94798612
      0.02222627      0.24895554
     34.96395919      0.00551123
      6.02108309      0.02516478
      0.48381972     -0.26698630
      0.18439567     -0.21936558
p              7   1.000000
      1.83062075     -0.01161005
      0.10124670      0.57053560
      0.03901771      0.59583969
      5.63535544     -0.02524568
      1.46116352     -0.12626684
      0.51510535     -0.24382686
      0.20507232     -0.11631821
 
          16   0
s              4   1.000000
     34.96333851     -0.01198412
      6.02097620     -0.05472052
      0.48381113      0.58055871
      0.18439240      0.47700800
p              4   1.000000
      5.63525541      0.05713170
      1.46113758      0.28574555
      0.51509621      0.55178731
      0.20506868      0.26323149
s              7   1.000000
      0.38350848     -0.19620468
      0.04707223      0.94798893
      0.02222627      0.24895629
     34.96333851      0.00551133
      6.02097620      0.02516520
      0.48381113     -0.26699083
      0.18439240     -0.21936930
p              7   1.000000
      1.83062075     -0.01161008
      0.10124670      0.57053718
      0.03901771      0.59584135
      5.63525541     -0.02524611
      1.46113758     -0.12626899
      0.51509621     -0.24383101
      0.20506868     -0.11632018
 
          17   0
s              4   1.000000
     35.13429520     -0.01198412
      6.05041636     -0.05472052
      0.48617677      0.58055871
      0.18529400      0.47700799
p              4   1.000000
      5.66280954      0.05713170
      1.46828195      0.28574555
      0.51761483      0.55178731
      0.20607138      0.26323149
s              7   1.000000
      0.38350848     -0.19604578
      0.04707223      0.94722118
      0.02222627      0.24875466
     35.13429520      0.00548571
      6.05041636      0.02504824
      0.48617677     -0.26574985
      0.18529400     -0.21834966
p              7   1.000000
      1.83062075     -0.01160125
      0.10124670      0.57010313
      0.03901771      0.59538804
      5.66280954     -0.02512831
      1.46828195     -0.12567982
      0.51761483     -0.24269329
      0.20607138     -0.11577743
 
          18   0
s              4   1.000000
     34.98957260     -0.01198412
      6.02549393     -0.05472052
      0.48417415      0.58055871
      0.18453075      0.47700800
p              4   1.000000
      5.63948371      0.05713170
      1.46223392      0.28574555
      0.51548270      0.55178731
      0.20522255      0.26323149
s              7   1.000000
      0.38350848     -0.19618017
      0.04707223      0.94787047
      0.02222627      0.24892517
     34.98957260      0.00550738
      6.02549393      0.02514719
      0.48417415     -0.26679966
      0.18453075     -0.21921223
p              7   1.000000
      1.83062075     -0.01160872
      0.10124670      0.57047021
      0.03901771      0.59577140
      5.63948371     -0.02522796
      1.46223392     -0.12617823
      0.51548270     -0.24365575
      0.20522255     -0.11623658
 
          19   0
s              4   1.000000
     34.89867710     -0.01198412
      6.00984097     -0.05472052
      0.48291637      0.58055871
      0.18405138      0.47700799
p              4   1.000000
      5.62483353      0.05713170
      1.45843534      0.28574555
      0.51414359      0.55178731
      0.20468942      0.26323149
s              7   1.000000
      0.38350848     -0.19626532
      0.04707223      0.94828192
      0.02222627      0.24903322
     34.89867710      0.00552108
      6.00984097      0.02520973
      0.48291637     -0.26746318
      0.18405138     -0.21975740
p              7   1.000000
      1.83062075     -0.01161345
      0.10124670      0.57070284
      0.03901771      0.59601434
      5.62483353     -0.02529094
      1.45843534     -0.12649324
      0.51414359     -0.24426404
      0.20468942     -0.11652676
 
          20   0
s              4   1.000000
     34.98922967     -0.01198412
      6.02543487     -0.05472053
      0.48416940      0.58055871
      0.18452894      0.47700799
p              4   1.000000
      5.63942844      0.05713170
      1.46221958      0.28574555
      0.51547765      0.55178731
      0.20522054      0.26323149
s              7   1.000000
      0.38350848     -0.19618049
      0.04707223      0.94787201
      0.02222627      0.24892558
     34.98922967      0.00550743
      6.02543487      0.02514742
      0.48416940     -0.26680216
      0.18452894     -0.21921428
p              7   1.000000
      1.83062075     -0.01160874
      0.10124670      0.57047108
      0.03901771      0.59577233
      5.63942844     -0.02522820
      1.46221958     -0.12617942
      0.51547765     -0.24365804
      0.20522054     -0.11623766
 
          21   0
s              4   1.000000
     35.13574328     -0.01198412
      6.05066573     -0.05472052
      0.48619681      0.58055871
      0.18530164      0.47700799
p              4   1.000000
      5.66304294      0.05713170
      1.46834247      0.28574555
      0.51763616      0.55178731
      0.20607987      0.26323149
s              7   1.000000
      0.38350848     -0.19604445
      0.04707223      0.94721472
      0.02222627      0.24875296
     35.13574328      0.00548550
      6.05066573      0.02504725
      0.48619681     -0.26573938
      0.18530164     -0.21834107
p              7   1.000000
      1.83062075     -0.01160117
      0.10124670      0.57009947
      0.03901771      0.59538424
      5.66304294     -0.02512731
      1.46834247     -0.12567485
      0.51763616     -0.24268370
      0.20607987     -0.11577286
 
          22   0
s              4   1.000000
     34.97040605     -0.01198412
      6.02219329     -0.05472052
      0.48390893      0.58055871
      0.18442967      0.47700799
p              4   1.000000
      5.63639452      0.05713170
      1.46143293      0.28574555
      0.51520033      0.55178730
      0.20511013      0.26323149
s              7   1.000000
      0.38350848     -0.19619807
      0.04707223      0.94795699
      0.02222627      0.24894791
     34.97040605      0.00551026
      6.02219329      0.02516035
      0.48390893     -0.26693930
      0.18442967     -0.21932697
p              7   1.000000
      1.83062075     -0.01160971
      0.10124670      0.57051914
      0.03901771      0.59582250
      5.63639452     -0.02524121
      1.46143293     -0.12624453
      0.51520033     -0.24378377
      0.20511013     -0.11629765
 
          23   0
s              4   1.000000
     34.99497849     -0.01198412
      6.02642487     -0.05472053
      0.48424895      0.58055871
      0.18455926      0.47700800
p              4   1.000000
      5.64035501      0.05713170
      1.46245983      0.28574555
      0.51556235      0.55178731
      0.20525425      0.26323149
s              7   1.000000
      0.38350848     -0.19617512
      0.04707223      0.94784609
      0.02222627      0.24891878
     34.99497849      0.00550657
      6.02642487      0.02514348
      0.48424895     -0.26676030
      0.18455926     -0.21917989
p              7   1.000000
      1.83062075     -0.01160844
      0.10124670      0.57045643
      0.03901771      0.59575700
      5.64035501     -0.02522422
      1.46245983     -0.12615954
      0.51556235     -0.24361967
      0.20525425     -0.11621936
 
          24   0
s              4   1.000000
     35.21423613     -0.01198412
      6.06418285     -0.05472052
      0.48728297      0.58055871
      0.18571560      0.47700800
p              4   1.000000
      5.67569411      0.05713170
      1.47162273      0.28574555
      0.51879255      0.55178731
      0.20654026      0.26323149
s              7   1.000000
      0.38350848     -0.19597218
      0.04707223      0.94686558
      0.02222627      0.24866128
     35.21423613      0.00547381
      6.06418285      0.02499390
      0.48728297     -0.26517342
      0.18571560     -0.21787605
p              7   1.000000
      1.83062075     -0.01159716
      0.10124670      0.56990208
      0.03901771      0.59517807
      5.67569411     -0.02507359
      1.47162273     -0.12540614
      0.51879255     -0.24216481
      0.20654026     -0.11552532
 
          25   0
s              4   1.000000
     35.35007032     -0.01198412
      6.08757462     -0.05472053
      0.48916259      0.58055871
      0.18643197      0.47700800
p              4   1.000000
      5.69758734      0.05713170
      1.47729932      0.28574555
      0.52079372      0.55178731
      0.20733696      0.26323149
s              7   1.000000
      0.38350848     -0.19584814
      0.04707223      0.94626625
      0.02222627      0.24850387
     35.35007032      0.00545371
      6.08757462      0.02490211
      0.48916259     -0.26419957
      0.18643197     -0.21707591
p              7   1.000000
      1.83062075     -0.01159026
      0.10124670      0.56956325
      0.03901771      0.59482421
      5.69758734     -0.02498114
      1.47729932     -0.12494376
      0.52079372     -0.24127194
      0.20733696     -0.11509937
 
          26   0
s              4   1.000000
     35.35463846     -0.01198412
      6.08836129     -0.05472052
      0.48922581      0.58055871
      0.18645607      0.47700799
p              4   1.000000
      5.69832361      0.05713170
      1.47749022      0.28574555
      0.52086102      0.55178731
      0.20736375      0.26323149
s              7   1.000000
      0.38350848     -0.19584399
      0.04707223      0.94624620
      0.02222627      0.24849861
     35.35463846      0.00545304
      6.08836129      0.02489904
      0.48922581     -0.26416694
      0.18645607     -0.21704909
p              7   1.000000
      1.83062075     -0.01159003
      0.10124670      0.56955192
      0.03901771      0.59481239
      5.69832361     -0.02497804
      1.47749022     -0.12492827
      0.52086102     -0.24124202
      0.20736375     -0.11508510
 
          27   0
s              4   1.000000
     57.57659074     -0.01198412
      9.91516535     -0.05472052
      0.79672584      0.58055871
      0.30365194      0.47700799
p              4   1.000000
      6.78666652      0.05713170
      1.75968129      0.28574555
      0.62034211      0.55178731
      0.24696888      0.26323149
s              7   1.000000
      0.47894987     -0.18896932
      0.05878681      0.91303031
      0.02775758      0.23977563
     57.57659074      0.00421648
      9.91516535      0.01925284
      0.79672584     -0.20426341
      0.30365194     -0.16783020
p              7   1.000000
      2.28619608     -0.01167815
      0.12644335      0.57388211
      0.04872781      0.59933462
      6.78666652     -0.02613897
      1.75968129     -0.13073469
      0.62034211     -0.25245447
      0.24696888     -0.12043403
 
          28   0
s              4   1.000000
     35.69964140     -0.01198412
      6.14777365     -0.05472052
      0.49399984      0.58055871
      0.18827557      0.47700799
p              4   1.000000
      5.75392985      0.05713170
      1.49190809      0.28574555
      0.52594377      0.55178730
      0.20938728      0.26323149
s              7   1.000000
      0.38350848     -0.19553468
      0.04707223      0.94475173
      0.02222627      0.24810615
     35.69964140      0.00540263
      6.14777365      0.02466890
      0.49399984     -0.26172526
      0.18827557     -0.21504292
p              7   1.000000
      1.83062075     -0.01157284
      0.10124670      0.56870703
      0.03901771      0.59393001
      5.75392985     -0.02474624
      1.49190809     -0.12376889
      0.52594377     -0.23900321
      0.20938728     -0.11401707
 
          29   0
s              4   1.000000
     35.05958195     -0.01198412
      6.03755012     -0.05472052
      0.48514291      0.58055871
      0.18489997      0.47700800
p              4   1.000000
      5.65076755      0.05713170
      1.46515965      0.28574555
      0.51651411      0.55178731
      0.20563317      0.26323149
s              7   1.000000
      0.38350848     -0.19611497
      0.04707223      0.94755548
      0.02222627      0.24884246
     35.05958195      0.00549688
      6.03755012      0.02509922
      0.48514291     -0.26629080
      0.18489997     -0.21879413
p              7   1.000000
      1.83062075     -0.01160509
      0.10124670      0.57029213
      0.03901771      0.59558542
      5.65076755     -0.02517966
      1.46515965     -0.12593665
      0.51651411     -0.24318924
      0.20563317     -0.11601403
 
          30   0
s              4   1.000000
     35.02817211     -0.01198412
      6.03214108     -0.05472052
      0.48470827      0.58055871
      0.18473432      0.47700800
p              4   1.000000
      5.64570503      0.05713170
      1.46384701      0.28574555
      0.51605137      0.55178731
      0.20544894      0.26323149
s              7   1.000000
      0.38350848     -0.19614418
      0.04707223      0.94769660
      0.02222627      0.24887951
     35.02817211      0.00550159
      6.03214108      0.02512072
      0.48470827     -0.26651886
      0.18473432     -0.21898152
p              7   1.000000
      1.83062075     -0.01160672
      0.10124670      0.57037191
      0.03901771      0.59566872
      5.64570503     -0.02520131
      1.46384701     -0.12604492
      0.51605137     -0.24339832
      0.20544894     -0.11611377
 
          31   0
s              4   1.000000
     34.91553361     -0.01198412
      6.01274380     -0.05472053
      0.48314962      0.58055871
      0.18414028      0.47700799
p              4   1.000000
      5.62755040      0.05713170
      1.45913979      0.28574555
      0.51439193      0.55178731
      0.20478829      0.26323149
s              7   1.000000
      0.38350848     -0.19624949
      0.04707223      0.94820541
      0.02222627      0.24901313
     34.91553361      0.00551853
      6.01274380      0.02519810
      0.48314962     -0.26733989
      0.18414028     -0.21965610
p              7   1.000000
      1.83062075     -0.01161257
      0.10124670      0.57065958
      0.03901771      0.59596915
      5.62755040     -0.02527924
      1.45913979     -0.12643470
      0.51439193     -0.24415101
      0.20478829     -0.11647284
 
          32   0
s              4   1.000000
     34.91784164     -0.01198412
      6.01314126     -0.05472053
      0.48318156      0.58055871
      0.18415245      0.47700800
p              4   1.000000
      5.62792240      0.05713170
      1.45923624      0.28574555
      0.51442593      0.55178731
      0.20480183      0.26323149
s              7   1.000000
      0.38350848     -0.19624732
      0.04707223      0.94819494
      0.02222627      0.24901038
     34.91784164      0.00551818
      6.01314126      0.02519651
      0.48318156     -0.26732301
      0.18415245     -0.21964224
p              7   1.000000
      1.83062075     -0.01161245
      0.10124670      0.57065366
      0.03901771      0.59596300
      5.62792240     -0.02527764
      1.45923624     -0.12642669
      0.51442593     -0.24413554
      0.20480183     -0.11646546
 
          33   0
s              4   1.000000
     34.91898940     -0.01198412
      6.01333892     -0.05472053
      0.48319744      0.58055871
      0.18415850      0.47700800
p              4   1.000000
      5.62810739      0.05713170
      1.45928420      0.28574555
      0.51444284      0.55178731
      0.20480856      0.26323149
s              7   1.000000
      0.38350848     -0.19624624
      0.04707223      0.94818973
      0.02222627      0.24900901
     34.91898940      0.00551801
      6.01333892      0.02519572
      0.48319744     -0.26731462
      0.18415850     -0.21963534
p              7   1.000000
      1.83062075     -0.01161239
      0.10124670      0.57065072
      0.03901771      0.59595993
      5.62810739     -0.02527684
      1.45928420     -0.12642271
      0.51444284     -0.24412785
      0.20480856     -0.11646179
 
          34   0
s              4   1.000000
     35.01415225     -0.01198412
      6.02972675     -0.05472052
      0.48451427      0.58055871
      0.18466038      0.47700799
p              4   1.000000
      5.64344537      0.05713170
      1.46326111      0.28574555
      0.51584482      0.55178731
      0.20536671      0.26323149
s              7   1.000000
      0.38350848     -0.19615724
      0.04707223      0.94775969
      0.02222627      0.24889609
     35.01415225      0.00550369
      6.02972675      0.02513033
      0.48451427     -0.26662079
      0.18466038     -0.21906526
p              7   1.000000
      1.83062075     -0.01160744
      0.10124670      0.57040759
      0.03901771      0.59570598
      5.64344537     -0.02521098
      1.46326111     -0.12609331
      0.51584482     -0.24349176
      0.20536671     -0.11615834
 
          35   0
s              4   1.000000
     35.59431002     -0.01198412
      6.12963472     -0.05472053
      0.49254230      0.58055871
      0.18772006      0.47700800
p              4   1.000000
      5.73695295      0.05713170
      1.48750623      0.28574555
      0.52439198      0.55178731
      0.20876948      0.26323149
s              7   1.000000
      0.38350848     -0.19562827
      0.04707223      0.94520391
      0.02222627      0.24822490
     35.59431002      0.00541793
      6.12963472      0.02473872
      0.49254230     -0.26246603
      0.18772006     -0.21565156
p              7   1.000000
      1.83062075     -0.01157804
      0.10124670      0.56896266
      0.03901771      0.59419698
      5.73695295     -0.02481657
      1.48750623     -0.12412064
      0.52439198     -0.23968245
      0.20876948     -0.11434110
 
          36   0
s              4   1.000000
     35.06303681     -0.01198412
      6.03814507     -0.05472053
      0.48519072      0.58055871
      0.18491819      0.47700799
p              4   1.000000
      5.65132439      0.05713170
      1.46530403      0.28574555
      0.51656501      0.55178731
      0.20565343      0.26323149
s              7   1.000000
      0.38350848     -0.19611177
      0.04707223      0.94753999
      0.02222627      0.24883839
     35.06303681      0.00549636
      6.03814507      0.02509686
      0.48519072     -0.26626574
      0.18491819     -0.21877354
p              7   1.000000
      1.83062075     -0.01160492
      0.10124670      0.57028337
      0.03901771      0.59557628
      5.65132439     -0.02517728
      1.46530403     -0.12592475
      0.51656501     -0.24316626
      0.20565343     -0.11600306
 
          37   0
s              4   1.000000
     35.02477924     -0.01198412
      6.03155680     -0.05472052
      0.48466132      0.58055871
      0.18471643      0.47700799
p              4   1.000000
      5.64515818      0.05713170
      1.46370522      0.28574555
      0.51600139      0.55178731
      0.20542904      0.26323149
s              7   1.000000
      0.38350848     -0.19614734
      0.04707223      0.94771186
      0.02222627      0.24888351
     35.02477924      0.00550209
      6.03155680      0.02512304
      0.48466132     -0.26654352
      0.18471643     -0.21900178
p              7   1.000000
      1.83062075     -0.01160689
      0.10124670      0.57038054
      0.03901771      0.59567775
      5.64515818     -0.02520365
      1.46370522     -0.12605663
      0.51600139     -0.24342093
      0.20542904     -0.11612456
 
          38   0
s              4   1.000000
     34.91928560     -0.01198412
      6.01338993     -0.05472052
      0.48320154      0.58055871
      0.18416007      0.47700799
p              4   1.000000
      5.62815513      0.05713170
      1.45929658      0.28574555
      0.51444720      0.55178731
      0.20481030      0.26323149
s              7   1.000000
      0.38350848     -0.19624597
      0.04707223      0.94818838
      0.02222627      0.24900867
     34.91928560      0.00551797
      6.01338993      0.02519552
      0.48320154     -0.26731246
      0.18416007     -0.21963356
p              7   1.000000
      1.83062075     -0.01161238
      0.10124670      0.57064996
      0.03901771      0.59595912
      5.62815513     -0.02527663
      1.45929658     -0.12642168
      0.51444720     -0.24412586
      0.20481030     -0.11646085
 
          39   0
s              4   1.000000
     34.91918340     -0.01198412
      6.01337233     -0.05472053
      0.48320012      0.58055871
      0.18415953      0.47700799
p              4   1.000000
      5.62813866      0.05713170
      1.45929231      0.28574555
      0.51444570      0.55178731
      0.20480970      0.26323149
s              7   1.000000
      0.38350848     -0.19624606
      0.04707223      0.94818884
      0.02222627      0.24900879
     34.91918340      0.00551798
      6.01337233      0.02519559
      0.48320012     -0.26731320
      0.18415953     -0.21963417
p              7   1.000000
      1.83062075     -0.01161238
      0.10124670      0.57065022
      0.03901771      0.59595940
      5.62813866     -0.02527671
      1.45929231     -0.12642204
      0.51444570     -0.24412655
      0.20480970     -0.11646117
 
          40   0
s              4   1.000000
     34.91796441     -0.01198412
      6.01316241     -0.05472053
      0.48318326      0.58055871
      0.18415310      0.47700799
p              4   1.000000
      5.62794218      0.05713170
      1.45924137      0.28574555
      0.51442774      0.55178731
      0.20480255      0.26323149
s              7   1.000000
      0.38350848     -0.19624721
      0.04707223      0.94819438
      0.02222627      0.24901023
     34.91796441      0.00551817
      6.01316241      0.02519643
      0.48318326     -0.26732211
      0.18415310     -0.21964150
p              7   1.000000
      1.83062075     -0.01161245
      0.10124670      0.57065335
      0.03901771      0.59596264
      5.62794218     -0.02527755
      1.45924137     -0.12642627
      0.51442774     -0.24413472
      0.20480255     -0.11646507
 
          41   0
s              4   1.000000
     35.02286402     -0.01198412
      6.03122699     -0.05472052
      0.48463482      0.58055871
      0.18470633      0.47700799
p              4   1.000000
      5.64484950      0.05713170
      1.46362518      0.28574555
      0.51597317      0.55178731
      0.20541781      0.26323149
s              7   1.000000
      0.38350848     -0.19614912
      0.04707223      0.94772048
      0.02222627      0.24888578
     35.02286402      0.00550238
      6.03122699      0.02512436
      0.48463482     -0.26655744
      0.18470633     -0.21901322
p              7   1.000000
      1.83062075     -0.01160699
      0.10124670      0.57038541
      0.03901771      0.59568284
      5.64484950     -0.02520497
      1.46362518     -0.12606324
      0.51597317     -0.24343369
      0.20541781     -0.11613064
 
          42   0
s              4   1.000000
     35.02232382     -0.01198412
      6.03113396     -0.05472052
      0.48462735      0.58055871
      0.18470348      0.47700799
p              4   1.000000
      5.64476243      0.05713170
      1.46360261      0.28574555
      0.51596521      0.55178731
      0.20541464      0.26323149
s              7   1.000000
      0.38350848     -0.19614962
      0.04707223      0.94772291
      0.02222627      0.24888643
     35.02232382      0.00550246
      6.03113396      0.02512473
      0.48462735     -0.26656137
      0.18470348     -0.21901644
p              7   1.000000
      1.83062075     -0.01160702
      0.10124670      0.57038679
      0.03901771      0.59568426
      5.64476243     -0.02520534
      1.46360261     -0.12606510
      0.51596521     -0.24343729
      0.20541464     -0.11613236
 
          43   0
s              4   1.000000
     35.03472455     -0.01198412
      6.03326947     -0.05472052
      0.48479894      0.58055871
      0.18476888      0.47700799
p              4   1.000000
      5.64676113      0.05713170
      1.46412084      0.28574555
      0.51614790      0.55178731
      0.20548737      0.26323149
s              7   1.000000
      0.38350848     -0.19613808
      0.04707223      0.94766712
      0.02222627      0.24887178
     35.03472455      0.00550060
      6.03326947      0.02511623
      0.48479894     -0.26647125
      0.18476888     -0.21894240
p              7   1.000000
      1.83062075     -0.01160638
      0.10124670      0.57035525
      0.03901771      0.59565133
      5.64676113     -0.02519679
      1.46412084     -0.12602232
      0.51614790     -0.24335468
      0.20548737     -0.11609295
 
          44   0
s              4   1.000000
      8.30622200      0.05675242
      1.51993629      0.26014135
      0.42225494      0.53284611
      0.14014262      0.29162544
s              7   1.000000
      0.92936822     -0.06733193
      0.05643440      0.66949027
      0.02166600      0.51464145
      8.30622200     -0.02903001
      1.51993629     -0.13306754
      0.42225494     -0.27256151
      0.14014262     -0.14917228
p              4   1.000000
      0.64737396      0.05713170
      0.16785440      0.28574555
      0.05917387      0.55178731
      0.02355814      0.26323150
 
          45   0
s              4   1.000000
      8.30619109      0.05675242
      1.51993063      0.26014135
      0.42225337      0.53284611
      0.14014210      0.29162544
s              7   1.000000
      0.92936822     -0.06733197
      0.05643440      0.66949067
      0.02166600      0.51464175
      8.30619109     -0.02903009
      1.51993063     -0.13306792
      0.42225337     -0.27256229
      0.14014210     -0.14917271
p              4   1.000000
      0.64737396      0.05713170
      0.16785440      0.28574555
      0.05917387      0.55178731
      0.02355814      0.26323150
 
          46   0
s              4   1.000000
      8.30631600      0.05675242
      1.51995349      0.26014135
      0.42225972      0.53284611
      0.14014421      0.29162544
s              7   1.000000
      0.92936822     -0.06733181
      0.05643440      0.66948907
      0.02166600      0.51464053
      8.30631600     -0.02902975
      1.51995349     -0.13306639
      0.42225972     -0.27255915
      0.14014421     -0.14917099
p              4   1.000000
      0.64737396      0.05713170
      0.16785440      0.28574555
      0.05917387      0.55178731
      0.02355814      0.26323150
 
          47   0
s              4   1.000000
      8.30613485      0.05675242
      1.51992034      0.26014135
      0.42225051      0.53284611
      0.14014115      0.29162544
s              7   1.000000
      0.92936822     -0.06733204
      0.05643440      0.66949139
      0.02166600      0.51464230
      8.30613485     -0.02903024
      1.51992034     -0.13306861
      0.42225051     -0.27256370
      0.14014115     -0.14917348
p              4   1.000000
      0.64737396      0.05713170
      0.16785440      0.28574555
      0.05917387      0.55178731
      0.02355814      0.26323150
 
          48   0
s              4   1.000000
      8.30628521      0.05675242
      1.51994786      0.26014135
      0.42225816      0.53284611
      0.14014369      0.29162544
s              7   1.000000
      0.92936822     -0.06733185
      0.05643440      0.66948947
      0.02166600      0.51464083
      8.30628521     -0.02902984
      1.51994786     -0.13306676
      0.42225816     -0.27255992
      0.14014369     -0.14917141
p              4   1.000000
      0.64737396      0.05713170
      0.16785440      0.28574555
      0.05917387      0.55178731
      0.02355814      0.26323150
 
          49   0
s              4   1.000000
      8.30614267      0.05675242
      1.51992177      0.26014135
      0.42225091      0.53284611
      0.14014128      0.29162544
s              7   1.000000
      0.92936822     -0.06733203
      0.05643440      0.66949129
      0.02166600      0.51464222
      8.30614267     -0.02903022
      1.51992177     -0.13306851
      0.42225091     -0.27256350
      0.14014128     -0.14917337
p              4   1.000000
      0.64737396      0.05713170
      0.16785440      0.28574555
      0.05917387      0.55178731
      0.02355814      0.26323150
 
          50   0
s              4   1.000000
      8.30623750      0.05675242
      1.51993913      0.26014135
      0.42225573      0.53284611
      0.14014288      0.29162544
s              7   1.000000
      0.92936822     -0.06733191
      0.05643440      0.66949008
      0.02166600      0.51464130
      8.30623750     -0.02902996
      1.51993913     -0.13306735
      0.42225573     -0.27256112
      0.14014288     -0.14917207
p              4   1.000000
      0.64737396      0.05713170
      0.16785440      0.28574555
      0.05917387      0.55178731
      0.02355814      0.26323150
 
          51   0
s              4   1.000000
      8.30615377      0.05675242
      1.51992380      0.26014135
      0.42225148      0.53284611
      0.14014147      0.29162544
s              7   1.000000
      0.92936822     -0.06733202
      0.05643440      0.66949114
      0.02166600      0.51464212
      8.30615377     -0.02903019
      1.51992380     -0.13306838
      0.42225148     -0.27256322
      0.14014147     -0.14917322
p              4   1.000000
      0.64737396      0.05713170
      0.16785440      0.28574555
      0.05917387      0.55178731
      0.02355814      0.26323150
 
          52   0
s              4   1.000000
      8.30632487      0.05675242
      1.51995511      0.26014135
      0.42226017      0.53284611
      0.14014436      0.29162544
s              7   1.000000
      0.92936822     -0.06733180
      0.05643440      0.66948896
      0.02166600      0.51464044
      8.30632487     -0.02902973
      1.51995511     -0.13306628
      0.42226017     -0.27255893
      0.14014436     -0.14917087
p              4   1.000000
      0.64737396      0.05713170
      0.16785440      0.28574555
      0.05917387      0.55178731
      0.02355814      0.26323150
 
          53   0
s              4   1.000000
      8.31023886      0.05675242
      1.52067133      0.26014135
      0.42245915      0.53284611
      0.14021039      0.29162544
s              7   1.000000
      0.92936822     -0.06732676
      0.05643440      0.66943888
      0.02166600      0.51460195
      8.31023886     -0.02901926
      1.52067133     -0.13301827
      0.42245915     -0.27246060
      0.14021039     -0.14911705
p              4   1.000000
      0.64737396      0.05713170
      0.16785440      0.28574555
      0.05917387      0.55178731
      0.02355814      0.26323150
 
          54   0
s              4   1.000000
      8.30985833      0.05675242
      1.52060169      0.26014135
      0.42243980      0.53284611
      0.14020397      0.29162544
s              7   1.000000
      0.92936822     -0.06732725
      0.05643440      0.66944374
      0.02166600      0.51460568
      8.30985833     -0.02902028
      1.52060169     -0.13302294
      0.42243980     -0.27247015
      0.14020397     -0.14912228
p              4   1.000000
      0.64737396      0.05713170
      0.16785440      0.28574555
      0.05917387      0.55178731
      0.02355814      0.26323150
 
          55   0
s              4   1.000000
      8.30958350      0.05675242
      1.52055140      0.26014135
      0.42242583      0.53284611
      0.14019934      0.29162544
s              7   1.000000
      0.92936822     -0.06732761
      0.05643440      0.66944726
      0.02166600      0.51460838
      8.30958350     -0.02902101
      1.52055140     -0.13302631
      0.42242583     -0.27247706
      0.14019934     -0.14912606
p              4   1.000000
      0.64737396      0.05713170
      0.16785440      0.28574555
      0.05917387      0.55178731
      0.02355814      0.26323150
 
          56   0
s              4   1.000000
      8.30915948      0.05675242
      1.52047381      0.26014135
      0.42240427      0.53284611
      0.14019218      0.29162544
s              7   1.000000
      0.92936822     -0.06732815
      0.05643440      0.66945268
      0.02166600      0.51461256
      8.30915948     -0.02902214
      1.52047381     -0.13303151
      0.42240427     -0.27248771
      0.14019218     -0.14913189
p              4   1.000000
      0.64737396      0.05713170
      0.16785440      0.28574555
      0.05917387      0.55178731
      0.02355814      0.26323150
 
          57   0
s              4   1.000000
      8.30919796      0.05675242
      1.52048085      0.26014135
      0.42240623      0.53284611
      0.14019283      0.29162544
s              7   1.000000
      0.92936822     -0.06732810
      0.05643440      0.66945218
      0.02166600      0.51461219
      8.30919796     -0.02902204
      1.52048085     -0.13303103
      0.42240623     -0.27248674
      0.14019283     -0.14913136
p              4   1.000000
      0.64737396      0.05713170
      0.16785440      0.28574555
      0.05917387      0.55178731
      0.02355814      0.26323150
 
          58   0
s              4   1.000000
      8.30916110      0.05675242
      1.52047411      0.26014135
      0.42240436      0.53284611
      0.14019221      0.29162544
s              7   1.000000
      0.92936822     -0.06732815
      0.05643440      0.66945266
      0.02166600      0.51461253
      8.30916110     -0.02902214
      1.52047411     -0.13303149
      0.42240436     -0.27248767
      0.14019221     -0.14913186
p              4   1.000000
      0.64737396      0.05713170
      0.16785440      0.28574555
      0.05917387      0.55178731
      0.02355814      0.26323150
 
          59   0
s              4   1.000000
      8.30908385      0.05675242
      1.52045997      0.26014135
      0.42240043      0.53284611
      0.14019091      0.29162544
s              7   1.000000
      0.92936822     -0.06732825
      0.05643440      0.66945365
      0.02166600      0.51461330
      8.30908385     -0.02902235
      1.52045997     -0.13303243
      0.42240043     -0.27248961
      0.14019091     -0.14913293
p              4   1.000000
      0.64737396      0.05713170
      0.16785440      0.28574555
      0.05917387      0.55178731
      0.02355814      0.26323150
 
          60   0
s              4   1.000000
      8.30891483      0.05675242
      1.52042904      0.26014135
      0.42239184      0.53284611
      0.14018805      0.29162544
s              7   1.000000
      0.92936822     -0.06732847
      0.05643440      0.66945581
      0.02166600      0.51461497
      8.30891483     -0.02902280
      1.52042904     -0.13303451
      0.42239184     -0.27249385
      0.14018805     -0.14913525
p              4   1.000000
      0.64737396      0.05713170
      0.16785440      0.28574555
      0.05917387      0.55178731
      0.02355814      0.26323150
 
          61   0
s              4   1.000000
      8.30909107      0.05675242
      1.52046130      0.26014135
      0.42240080      0.53284611
      0.14019103      0.29162544
s              7   1.000000
      0.92936822     -0.06732824
      0.05643440      0.66945355
      0.02166600      0.51461323
      8.30909107     -0.02902233
      1.52046130     -0.13303235
      0.42240080     -0.27248943
      0.14019103     -0.14913283
p              4   1.000000
      0.64737396      0.05713170
      0.16785440      0.28574555
      0.05917387      0.55178731
      0.02355814      0.26323150
 
          62   0
s              4   1.000000
      8.30931230      0.05675242
      1.52050178      0.26014135
      0.42241204      0.53284611
      0.14019476      0.29162544
s              7   1.000000
      0.92936822     -0.06732796
      0.05643440      0.66945073
      0.02166600      0.51461104
      8.30931230     -0.02902174
      1.52050178     -0.13302963
      0.42241204     -0.27248387
      0.14019476     -0.14912979
p              4   1.000000
      0.64737396      0.05713170
      0.16785440      0.28574555
      0.05917387      0.55178731
      0.02355814      0.26323150
 
          63   0
s              4   1.000000
      8.31063813      0.05675242
      1.52074439      0.26014135
      0.42247944      0.53284611
      0.14021713      0.29162544
s              7   1.000000
      0.92936822     -0.06732625
      0.05643440      0.66943378
      0.02166600      0.51459802
      8.31063813     -0.02901819
      1.52074439     -0.13301338
      0.42247944     -0.27245057
      0.14021713     -0.14911156
p              4   1.000000
      0.64737396      0.05713170
      0.16785440      0.28574555
      0.05917387      0.55178731
      0.02355814      0.26323150
 
          64   0
s              4   1.000000
      8.30960581      0.05675242
      1.52055549      0.26014135
      0.42242696      0.53284611
      0.14019971      0.29162544
s              7   1.000000
      0.92936822     -0.06732758
      0.05643440      0.66944697
      0.02166600      0.51460816
      8.30960581     -0.02902095
      1.52055549     -0.13302603
      0.42242696     -0.27247650
      0.14019971     -0.14912576
p              4   1.000000
      0.64737396      0.05713170
      0.16785440      0.28574555
      0.05917387      0.55178731
      0.02355814      0.26323150
 
          65   0
s              4   1.000000
      8.30881976      0.05675242
      1.52041165      0.26014135
      0.42238700      0.53284611
      0.14018645      0.29162544
s              7   1.000000
      0.92936822     -0.06732859
      0.05643440      0.66945703
      0.02166600      0.51461589
      8.30881976     -0.02902305
      1.52041165     -0.13303567
      0.42238700     -0.27249624
      0.14018645     -0.14913656
p              4   1.000000
      0.64737396      0.05713170
      0.16785440      0.28574555
      0.05917387      0.55178731
      0.02355814      0.26323150
 
          66   0
s              4   1.000000
      8.30872649      0.05675242
      1.52039458      0.26014135
      0.42238226      0.53284611
      0.14018488      0.29162544
s              7   1.000000
      0.92936822     -0.06732871
      0.05643440      0.66945822
      0.02166600      0.51461681
      8.30872649     -0.02902330
      1.52039458     -0.13303682
      0.42238226     -0.27249858
      0.14018488     -0.14913784
p              4   1.000000
      0.64737396      0.05713170
      0.16785440      0.28574555
      0.05917387      0.55178731
      0.02355814      0.26323150
 
          67   0
s              4   1.000000
      8.30886040      0.05675242
      1.52041908      0.26014135
      0.42238907      0.53284611
      0.14018713      0.29162544
s              7   1.000000
      0.92936822     -0.06732854
      0.05643440      0.66945651
      0.02166600      0.51461549
      8.30886040     -0.02902294
      1.52041908     -0.13303517
      0.42238907     -0.27249522
      0.14018713     -0.14913600
p              4   1.000000
      0.64737396      0.05713170
      0.16785440      0.28574555
      0.05917387      0.55178731
      0.02355814      0.26323150
 
          68   0
s              4   1.000000
      8.31001709      0.05675242
      1.52063074      0.26014135
      0.42244787      0.53284611
      0.14020665      0.29162544
s              7   1.000000
      0.92936822     -0.06732705
      0.05643440      0.66944171
      0.02166600      0.51460411
      8.31001709     -0.02901985
      1.52063074     -0.13302099
      0.42244787     -0.27246617
      0.14020665     -0.14912010
p              4   1.000000
      0.64737396      0.05713170
      0.16785440      0.28574555
      0.05917387      0.55178731
      0.02355814      0.26323150
 
          69   0
s              4   1.000000
      8.30971573      0.05675242
      1.52057560      0.26014135
      0.42243255      0.53284611
      0.14020157      0.29162544
s              7   1.000000
      0.92936822     -0.06732744
      0.05643440      0.66944557
      0.02166600      0.51460709
      8.30971573     -0.02902066
      1.52057560     -0.13302469
      0.42243255     -0.27247374
      0.14020157     -0.14912424
p              4   1.000000
      0.64737396      0.05713170
      0.16785440      0.28574555
      0.05917387      0.55178731
      0.02355814      0.26323150
 
          70   0
s              4   1.000000
      8.30891573      0.05675242
      1.52042921      0.26014135
      0.42239188      0.53284611
      0.14018807      0.29162544
s              7   1.000000
      0.92936822     -0.06732846
      0.05643440      0.66945579
      0.02166600      0.51461494
      8.30891573     -0.02902280
      1.52042921     -0.13303450
      0.42239188     -0.27249383
      0.14018807     -0.14913524
p              4   1.000000
      0.64737396      0.05713170
      0.16785440      0.28574555
      0.05917387      0.55178731
      0.02355814      0.26323150
 
          71   0
s              4   1.000000
      8.30879284      0.05675242
      1.52040672      0.26014135
      0.42238564      0.53284611
      0.14018600      0.29162544
s              7   1.000000
      0.92936822     -0.06732862
      0.05643440      0.66945737
      0.02166600      0.51461616
      8.30879284     -0.02902313
      1.52040672     -0.13303600
      0.42238564     -0.27249692
      0.14018600     -0.14913693
p              4   1.000000
      0.64737396      0.05713170
      0.16785440      0.28574555
      0.05917387      0.55178731
      0.02355814      0.26323150
 
          72   0
s              4   1.000000
      8.30889083      0.05675242
      1.52042465      0.26014135
      0.42239062      0.53284611
      0.14018765      0.29162544
s              7   1.000000
      0.92936822     -0.06732850
      0.05643440      0.66945612
      0.02166600      0.51461519
      8.30889083     -0.02902286
      1.52042465     -0.13303480
      0.42239062     -0.27249446
      0.14018765     -0.14913558
p              4   1.000000
      0.64737396      0.05713170
      0.16785440      0.28574555
      0.05917387      0.55178731
      0.02355814      0.26323150
 
          73   0
s              4   1.000000
      8.30952105      0.05675242
      1.52053998      0.26014135
      0.42242265      0.53284611
      0.14019828      0.29162544
s              7   1.000000
      0.92936822     -0.06732769
      0.05643440      0.66944805
      0.02166600      0.51460900
      8.30952105     -0.02902118
      1.52053998     -0.13302707
      0.42242265     -0.27247863
      0.14019828     -0.14912692
p              4   1.000000
      0.64737396      0.05713170
      0.16785440      0.28574555
      0.05917387      0.55178731
      0.02355814      0.26323150
 
          74   0
s              4   1.000000
      8.30989266      0.05675242
      1.52060798      0.26014135
      0.42244155      0.53284611
      0.14020455      0.29162544
s              7   1.000000
      0.92936822     -0.06732721
      0.05643440      0.66944330
      0.02166600      0.51460535
      8.30989266     -0.02902018
      1.52060798     -0.13302252
      0.42244155     -0.27246929
      0.14020455     -0.14912181
p              4   1.000000
      0.64737396      0.05713170
      0.16785440      0.28574555
      0.05917387      0.55178731
      0.02355814      0.26323150
 
          75   0
s              4   1.000000
      8.30992901      0.05675242
      1.52061463      0.26014135
      0.42244339      0.53284611
      0.14020516      0.29162544
s              7   1.000000
      0.92936822     -0.06732716
      0.05643440      0.66944284
      0.02166600      0.51460498
      8.30992901     -0.02902009
      1.52061463     -0.13302207
      0.42244339     -0.27246838
      0.14020516     -0.14912131
p              4   1.000000
      0.64737396      0.05713170
      0.16785440      0.28574555
      0.05917387      0.55178731
      0.02355814      0.26323150
 
 [MO]
 Sym= Hole
 Ene= -0.9604743    
 Spin= Alpha
 Occup= 0
           1 -8.6892658E-05
           2  8.8846713E-04
           3 -1.4646898E-04
           4  5.4431410E-04
           5  2.8115569E-04
           6  3.3454198E-04
           7 -7.7370089E-05
           8 -6.2957282E-05
           9  1.0345070E-04
          10  2.3427357E-03
          11 -2.2188234E-03
          12 -2.3687761E-03
          13  2.8294526E-04
          14 -6.1119371E-04
          15 -1.9750357E-04
          16  7.4499176E-04
          17 -4.0747663E-03
          18  1.5335270E-04
          19  3.8260773E-03
          20  7.3021832E-03
          21  2.4462515E-03
          22 -3.0966359E-04
          23 -1.3009540E-03
          24 -9.5561921E-04
          25  4.0614489E-03
          26 -7.5218841E-03
          27  2.5915173E-03
          28  2.9007503E-04
          29 -2.2246342E-03
          30  7.5555407E-04
          31 -3.7158196E-04
          32 -7.5567700E-06
          33 -4.1462568E-05
          34 -2.7099688E-02
          35  2.5120692E-02
          36  3.0789923E-02
          37 -1.1404522E-04
          38  1.2975315E-03
          39 -1.7450564E-03
          40 -2.5145686E-03
          41 -3.4393757E-03
          42 -9.1906004E-03
          43  1.6450634E-02
          44  1.0502953E-02
          45  9.3806046E-04
          46 -5.0586590E-05
          47 -2.0081701E-03
          48 -1.0708293E-03
          49  1.3245421E-02
          50  2.0293813E-02
          51 -3.9456494E-02
          52 -1.3031414E-02
          53 -7.8013702E-03
          54 -1.0564692E-03
          55  5.1228902E-03
          56  9.4900728E-04
          57 -1.4395852E-03
          58  9.3557145E-03
          59 -3.8474286E-03
          60 -1.8954137E-02
          61 -2.7233924E-04
          62 -3.2977047E-03
          63 -1.8189172E-04
          64  6.9868444E-03
          65  1.0447369E-02
          66 -2.5254346E-02
          67  2.3090883E-04
          68  0.1490737    
          69 -4.8717014E-03
          70  1.4252684E-03
          71  4.7978885E-03
          72 -1.1277578E-02
          73  3.6637549E-04
          74 -4.8341107E-02
          75 -7.4548186E-03
          76  0.3886167    
          77 -1.0307434E-03
          78  1.9833983E-03
          79  4.0251524E-03
          80 -1.9093892E-02
          81 -1.9982633E-04
          82 -1.1462299E-02
          83 -3.1810086E-02
          84 -6.1903860E-02
          85  3.5256689E-04
          86  2.9129260E-03
          87  4.6018921E-03
          88  9.5281070E-03
          89 -3.0931985E-02
          90 -5.5856630E-03
          91 -0.1039501    
          92 -2.7104149E-02
          93  1.7618123E-02
          94  4.4099204E-05
          95  8.3203791E-03
          96 -4.1494775E-03
          97  1.0605818E-02
          98 -6.7416239E-03
          99  3.2352954E-02
         100  1.3980920E-02
         101 -4.3348866E-03
         102  3.8759983E-03
         103 -4.7937343E-03
         104 -1.3543492E-03
         105 -6.7065493E-04
         106  1.1217869E-02
         107  6.6067822E-02
         108  6.7075804E-02
         109 -1.2770275E-04
         110  5.7108805E-04
         111 -2.6943586E-03
         112 -5.8079921E-03
         113  1.1076322E-03
         114 -2.7261444E-03
         115 -1.1140557E-02
         116 -1.0307231E-02
         117 -1.0278656E-03
         118  2.4851455E-04
         119  2.2791997E-03
         120  3.1636641E-03
         121  7.9233920E-05
         122 -1.1530359E-02
         123 -5.7517368E-02
         124 -4.5511901E-02
         125 -4.0574694E-05
         126  1.2494384E-03
         127  3.8356141E-03
         128  3.0843909E-03
         129 -1.9288050E-03
         130  4.5477068E-03
         131  6.1896928E-03
         132  6.4075892E-03
         133  7.3135516E-04
         134 -1.1723330E-04
         135 -4.1371235E-04
         136 -9.5856749E-04
         137  1.1694946E-03
         138  8.4747123E-03
         139  5.2300438E-02
         140  4.2685479E-02
         141 -5.0132675E-04
         142 -4.2478199E-04
         143 -3.1719571E-03
         144 -3.1461900E-03
         145  6.9948443E-04
         146 -3.0525689E-04
         147 -1.1533966E-03
         148 -7.3971291E-04
         149 -2.3484560E-04
         150 -4.5225610E-05
         151 -5.3066772E-04
         152 -1.5612744E-04
         153 -2.5660213E-04
         154 -1.0719269E-02
         155 -5.6082189E-02
         156 -4.4362836E-02
         157 -2.6901445E-04
         158  1.0671889E-03
         159  2.9555117E-03
         160  2.3624587E-03
         161  1.9838936E-03
         162 -4.4404059E-03
         163 -5.9787170E-03
         164 -8.2022976E-03
         165 -4.9794058E-04
         166  2.6096616E-04
         167  1.3223632E-03
         168  2.4034625E-03
         169  6.2564440E-04
         170  1.0454800E-02
         171  6.6998601E-02
         172  4.9624633E-02
         173  6.2594039E-04
         174 -1.6754983E-03
         175 -4.2097890E-03
         176  5.0130294E-04
         177  3.1480060E-03
         178 -9.2761461E-03
         179  3.3828080E-02
         180  5.1582428E-03
         181 -4.0079462E-03
         182  3.2268465E-03
         183 -5.9710811E-03
         184 -5.9614838E-05
         185  2.3320092E-02
         186 -5.8257714E-02
         187 -9.3289673E-02
         188 -3.5359841E-02
         189 -1.4151614E-02
         190  7.3954961E-03
         191  4.2762719E-03
         192 -1.3929019E-03
         193 -5.7351533E-03
         194  9.2109302E-03
         195  1.3990486E-03
         196 -1.6241510E-03
         197  2.4126449E-03
         198 -3.0153790E-03
         199  2.3950292E-04
         200 -1.6029552E-03
         201  5.8106333E-03
         202 -8.3263163E-03
         203 -1.1997971E-03
         204  6.1266883E-03
         205 -1.3385471E-03
         206 -9.2383625E-04
         207  1.0708831E-03
         208  1.1620175E-04
         209 -1.2385798E-02
         210 -6.3658488E-04
         211  1.9688935E-03
         212  5.2535109E-02
         213  5.4388596E-03
         214  2.7104525E-03
         215  5.5641942E-03
         216  3.3002095E-03
         217  2.0147692E-03
         218  4.0786110E-02
         219 -1.6346965E-02
         220 -0.4572338    
         221 -1.5738150E-04
         222 -3.3282689E-05
         223  4.5862496E-03
         224  1.3486151E-02
         225  5.8077270E-04
         226  3.6093900E-03
         227 -4.7461353E-02
         228  0.1571201    
         229 -3.1112038E-04
         230 -1.3365508E-03
         231  3.4724772E-03
         232 -6.1911335E-03
         233 -2.0693032E-02
         234 -2.0582797E-03
         235 -0.1168777    
         236  0.1652736    
         237  9.7047882E-03
         238 -8.7865838E-04
         239  3.7030594E-03
         240 -1.7522943E-03
         241  6.5490818E-03
         242  5.4428028E-03
         243  3.1168116E-02
         244 -4.8447315E-02
         245 -2.3366695E-03
         246 -1.3819810E-03
         247 -1.4379376E-03
         248  1.9066466E-03
         249 -5.2036700E-04
         250 -8.7726675E-03
         251  8.6417705E-02
         252 -0.2006858    
         253 -1.3012468E-05
         254 -5.5199122E-04
         255 -1.0330984E-03
         256  5.8787731E-03
         257 -5.2427822E-03
         258 -1.0353416E-02
         259  1.4197198E-02
         260 -2.1214765E-02
         261  2.1776310E-03
         262  1.4186986E-03
         263 -4.2157713E-04
         264  2.4820252E-03
         265  1.5992871E-02
         266  4.0230833E-02
         267 -0.1246109    
         268  0.1879609    
         269 -7.8324890E-03
         270 -1.6072737E-03
         271  2.2463296E-03
         272 -1.8457744E-03
         273  1.8465518E-03
         274  5.1963024E-02
         275 -4.4658948E-03
         276 -0.4526940    
         277 -2.3346604E-03
         278 -6.4454135E-04
         279  2.1856271E-03
         280  2.1458048E-02
         281 -7.7517769E-05
         282 -7.1384460E-02
         283 -2.4973173E-02
         284  9.8124616E-02
         285 -3.4922711E-04
         286  5.0455439E-03
         287  1.5584737E-03
         288 -1.6014429E-04
         289  3.0878253E-02
         290 -0.1269836    
         291 -9.0943322E-02
         292  5.0328456E-02
         293 -1.5369548E-02
         294  4.8239157E-03
         295  1.6547301E-03
         296  6.3133967E-04
         297 -9.8140463E-03
         298  2.8247895E-02
         299  2.8731741E-02
         300 -1.6364248E-02
         301  3.4958746E-03
         302 -5.9182174E-04
         303 -2.6878675E-03
         304  9.7257312E-04
         305  3.0993921E-04
         306  0.1195289    
         307  4.5889679E-02
         308 -0.1032885    
         309  1.2456611E-04
         310 -2.5077914E-03
         311 -1.3067255E-03
         312  4.5443191E-03
         313  1.0472057E-02
         314  2.5198422E-02
         315 -7.6674763E-03
         316 -2.1716068E-03
         317 -4.4815470E-03
         318 -2.2238346E-03
         319  2.1842457E-03
         320  8.7750482E-04
         321 -3.0248607E-02
         322 -0.1657387    
         323 -3.2384556E-02
         324  5.3900953E-02
         325  1.4694045E-02
         326  4.4977320E-03
         327  1.4800064E-03
         328  7.2834309E-04
         329 -1.0282339E-02
         330  4.3120448E-02
         331 -2.7281819E-02
         332 -1.6568530E-02
         333  6.3348068E-03
         334 -7.5493008E-03
         335 -2.0111769E-05
         336 -8.1859133E-04
         337  3.8168207E-03
         338 -2.1503682E-03
         339 -4.4445181E-03
         340 -4.2434651E-03
         341 -1.7296448E-03
         342  1.3360310E-03
         343  6.8954701E-06
         344 -1.5800040E-04
         345 -1.5092528E-03
         346  4.8613168E-05
         347  6.8896741E-05
         348  4.3777193E-04
         349  2.8083997E-04
         350  4.6879982E-04
         351  3.9835581E-05
         352 -2.8704837E-04
         353 -4.8821699E-04
         354 -5.8020396E-05
         355  9.0067677E-04
         356  2.5376119E-04
         357 -1.1345030E-05
         358 -9.6010081E-05
         359 -7.7011435E-05
         360  9.9609781E-04
         361  6.9273141E-04
         362 -9.0639223E-04
         363 -3.0883026E-04
         364 -2.6921069E-05
         365  3.5730837E-04
         366  7.9638005E-04
         367 -5.5169087E-04
         368 -9.2892081E-04
         369  3.6957866E-04
         370  3.2978535E-03
         371 -1.3018282E-04
         372  6.9514959E-04
         373  9.0864225E-04
         374  4.8662422E-04
         375 -1.1393335E-03
         376 -5.4737367E-04
         377  2.5929220E-04
         378  1.4922320E-03
         379  1.3610052E-03
         380 -3.7644508E-03
         381  4.5339012E-04
         382 -9.8055776E-04
         383 -6.2371936E-04
         384 -1.8241809E-04
         385 -2.7187137E-04
         386 -1.1482960E-04
         387 -4.2173272E-04
         388  4.2885938E-04
         389 -2.8337675E-04
         390  6.8038395E-03
         391 -6.7818299E-05
         392 -9.2163787E-04
         393 -4.4687753E-04
         394  7.7831699E-04
         395 -3.7971351E-03
         396 -1.7261751E-03
         397  4.9271821E-03
         398  1.0977551E-04
         399 -2.1019543E-03
         400  5.7504773E-03
         401  3.1639617E-03
         402 -9.1044614E-03
         403 -2.7255607E-03
         404 -2.2933942E-03
         405 -1.5421137E-02
         406  2.7322804E-04
         407  2.2563981E-03
         408  3.2861682E-03
         409  3.3128359E-03
         410 -2.7693103E-03
         411  2.2134439E-04
         412 -3.5453364E-04
         413 -6.1777170E-04
         414 -1.7248676E-03
         415 -1.0525399E-04
         416 -8.2952269E-05
         417 -8.7236066E-04
         418 -5.3414050E-03
         419 -4.3615410E-03
         420 -1.5496945E-03
         421  2.2867684E-04
         422  4.5481703E-04
         423  4.9113077E-03
         424  3.8771913E-03
         425  8.0305494E-05
         426  1.9394766E-04
         427 -3.1169190E-04
         428  4.7886730E-04
         429  5.5480015E-04
         430 -8.9409464E-04
         431 -1.3292163E-04
         432 -1.7912559E-04
         433 -4.9397722E-03
         434 -3.8758242E-03
         435 -8.8664731E-03
         436  1.9033088E-03
         437  6.0598349E-04
         438  4.7236364E-03
         439  4.1469131E-03
         440 -1.4147576E-03
         441 -1.7823880E-03
         442  1.0747355E-02
         443  2.6828479E-03
         444 -5.6808284E-03
         445  9.9361576E-03
         446  8.7902423E-05
         447  4.0895655E-03
         448 -4.6385508E-03
         449  2.0946923E-03
         450 -1.2847025E-02
         451 -1.8034637E-04
         452 -1.2625523E-03
         453  1.2685490E-03
         454 -2.4468559E-03
         455  5.8055966E-04
         456 -6.3236727E-04
         457 -9.3077443E-04
         458  4.3877945E-03
         459 -9.6340505E-03
         460  1.4541201E-02
         461 -7.7664322E-04
         462  3.8042731E-04
         463  2.9861596E-03
         464 -3.0327465E-03
         465 -1.2968945E-02
         466 -1.1935559E-03
         467 -4.5665260E-03
         468 -4.1251229E-03
         469  4.6945343E-04
         470 -1.6398890E-02
         471 -1.0258735E-03
         472 -8.4831873E-03
         473  2.2812833E-03
         474 -5.1542069E-03
         475  2.1221062E-02
         476  4.9035368E-04
         477  2.3654611E-03
         478 -6.1219058E-04
         479 -4.8453739E-04
         480  3.7061298E-04
         481  1.0400604E-03
         482  6.5830960E-03
         483  1.6062483E-03
         484 -5.2303425E-03
         485 -2.1304624E-02
         486  6.5234554E-04
         487  2.0577246E-03
         488  2.4840278E-03
         489 -2.9423164E-04
         490  1.7362420E-02
         491  3.4799408E-03
         492  1.4903380E-03
         493 -9.8790824E-03
         494 -2.8250443E-03
         495  4.0203598E-03
         496  2.4638947E-03
         497 -5.0040307E-03
         498 -1.7969677E-03
         499 -2.4085753E-03
         500 -5.6736115E-03
         501  5.8992865E-04
         502  5.8128918E-04
         503 -3.3383345E-04
         504  1.5080931E-04
 Sym= Particle
 Ene= -0.9604743    
 Spin= Alpha
 Occup= 2
           1  9.4020063E-05
           2  2.1598923E-04
           3 -3.5982483E-04
           4 -8.0173410E-04
           5  7.7228417E-04
           6 -2.4881589E-03
           7  7.6430774E-04
           8  1.8177779E-03
           9  7.0961693E-04
          10 -1.0562210E-03
          11 -5.4478052E-04
          12  1.2383694E-05
          13  5.1577669E-04
          14 -7.5387261E-03
          15  4.4023241E-03
          16  6.2710051E-03
          17 -1.2908877E-02
          18 -7.2859455E-04
          19  9.1932379E-03
          20  2.2861205E-02
          21  1.1648411E-02
          22 -5.5140601E-03
          23 -6.2913867E-03
          24 -7.6372046E-03
          25  1.3408651E-02
          26 -1.9838616E-02
          27  1.0413967E-02
          28 -4.2244745E-04
          29 -1.0815707E-02
          30  7.9405876E-03
          31  2.0226242E-04
          32  2.5564344E-03
          33 -5.3078326E-04
          34 -9.3836479E-02
          35  8.8507473E-02
          36  9.7714581E-02
          37 -2.5667471E-04
          38  2.1959744E-02
          39 -2.4357930E-02
          40 -2.6116163E-02
          41 -1.8354462E-04
          42  3.2397930E-02
          43 -3.0343186E-02
          44 -3.4256719E-02
          45 -3.4539851E-03
          46 -4.9108709E-03
          47  3.0050399E-03
          48  4.9039475E-03
          49  1.2982392E-02
          50  6.9504693E-02
          51 -8.1211828E-02
          52 -5.4908227E-02
          53 -1.4479551E-02
          54 -2.1831991E-02
          55  2.6704902E-02
          56  1.1356019E-02
          57  1.0506029E-02
          58 -0.1146309    
          59  8.0087103E-02
          60  9.7228318E-02
          61 -5.4083443E-03
          62  3.9775204E-02
          63 -2.5837457E-02
          64 -2.9213512E-02
          65 -4.3256089E-02
          66  1.7537780E-02
          67 -1.5012496E-02
          68  0.1931250    
          69  3.4394126E-02
          70 -1.5381252E-02
          71  2.3594532E-02
          72 -7.2062567E-02
          73  1.6555134E-02
          74  1.8836820E-02
          75  3.0188987E-02
          76 -0.1273412    
          77 -4.1299849E-03
          78 -1.3903433E-02
          79 -1.7357567E-02
          80  4.0437125E-02
          81 -1.1516765E-02
          82  2.6504859E-02
          83  1.7964175E-02
          84  2.4700293E-02
          85  1.1580404E-02
          86 -1.1423141E-02
          87 -2.8523477E-03
          88 -1.1452741E-02
          89  1.0084669E-02
          90  1.7855914E-03
          91  2.4152985E-02
          92 -2.3087852E-03
          93 -4.4357213E-03
          94  3.0540493E-03
          95 -4.0087025E-03
          96 -5.1673205E-04
          97 -6.9769993E-03
          98  1.3222200E-03
          99 -3.2991394E-02
         100 -2.5750380E-02
         101  4.7649881E-03
         102  1.2116445E-03
         103  8.4136585E-03
         104  6.5554418E-03
         105 -3.2389522E-04
         106  2.5345194E-03
         107  7.3152645E-03
         108  2.9650133E-03
         109  1.0740487E-03
         110  1.4357505E-03
         111 -9.7884226E-04
         112 -7.2661991E-04
         113 -1.0877351E-03
         114  4.7299773E-03
         115  2.1765791E-02
         116  1.7162584E-02
         117 -2.4347672E-05
         118  1.0389684E-03
         119 -5.4050586E-03
         120 -4.2116265E-03
         121 -2.2194325E-04
         122 -3.1536566E-03
         123 -1.5420243E-02
         124 -1.2641460E-02
         125 -7.0279639E-04
         126  1.4400482E-03
         127  2.7609672E-03
         128  1.7325269E-03
         129  2.5370042E-05
         130 -3.5619037E-03
         131 -1.6719943E-02
         132 -1.3654727E-02
         133 -7.4709684E-04
         134  1.0276794E-03
         135  2.9324151E-03
         136  1.5698995E-03
         137 -3.1580791E-04
         138  6.2867356E-03
         139  3.2397997E-02
         140  2.5894519E-02
         141 -6.0488033E-04
         142 -9.0732845E-04
         143 -7.1486835E-03
         144 -6.2256334E-03
         145 -4.7951991E-05
         146 -7.4789405E-04
         147 -2.9625036E-03
         148 -2.4389857E-03
         149 -6.8279135E-04
         150  5.0223642E-04
         151  5.7844672E-04
         152  2.0472948E-04
         153 -3.5647288E-04
         154 -5.5583450E-03
         155 -3.0156780E-02
         156 -2.2964314E-02
         157 -5.4960506E-04
         158  2.6448430E-03
         159  6.1399825E-03
         160  4.1196709E-03
         161 -2.3146675E-04
         162  4.2263796E-03
         163  2.1296132E-02
         164  1.6989321E-02
         165 -2.5451847E-04
         166  1.0657881E-03
         167 -5.5661937E-03
         168 -3.9831270E-03
         169 -2.6549157E-03
         170  7.3279776E-03
         171  2.9816948E-02
         172  2.1832477E-02
         173  2.6128062E-03
         174 -1.2612724E-04
         175 -4.4464208E-03
         176 -5.3295493E-03
         177  9.6890121E-04
         178 -4.2003067E-03
         179 -4.2403940E-02
         180 -2.2618452E-02
         181  2.1651448E-03
         182  3.6667101E-03
         183  9.4284499E-03
         184  1.7568691E-03
         185 -8.5788984E-03
         186  1.1108962E-02
         187  4.0166238E-03
         188 -6.3918303E-03
         189  1.0676787E-02
         190 -4.8180395E-03
         191 -2.4855179E-03
         192  5.9794569E-03
         193 -7.5344043E-04
         194  1.6661109E-03
         195  4.3790224E-03
         196  4.4517848E-03
         197  2.2747878E-03
         198  1.9646380E-03
         199  2.5829112E-03
         200  2.6445926E-04
         201 -9.8752533E-04
         202 -1.4087685E-03
         203 -1.0897524E-02
         204 -9.8241968E-03
         205  1.7438387E-04
         206  2.3255015E-03
         207  3.4926876E-03
         208  2.9398091E-03
         209 -4.1741505E-03
         210  2.8036319E-02
         211 -3.2951899E-02
         212 -7.7768773E-02
         213  4.1434071E-03
         214 -1.5025996E-02
         215  6.6199023E-03
         216  2.8598461E-02
         217  1.8868867E-02
         218 -1.9242911E-02
         219  4.0165037E-02
         220  0.2565944    
         221 -1.3780084E-02
         222  1.6135449E-02
         223 -3.5639197E-02
         224 -6.5129094E-02
         225 -5.5732448E-03
         226  1.0127722E-02
         227 -0.1211916    
         228  0.2477330    
         229  1.1337579E-03
         230 -2.8522778E-03
         231  3.6126431E-02
         232 -7.6402470E-02
         233  1.2848863E-02
         234 -4.8393379E-03
         235  9.2005946E-02
         236 -0.1450433    
         237 -9.6895769E-03
         238  2.4071480E-04
         239 -2.8069358E-02
         240  3.9124113E-02
         241 -4.4809124E-03
         242 -1.1649567E-02
         243  4.9910344E-02
         244 -0.1084892    
         245 -1.7136740E-04
         246  1.4077767E-03
         247 -1.2704814E-02
         248  2.3660285E-02
         249 -5.0369737E-04
         250  1.2005761E-02
         251 -0.1043654    
         252  0.2286103    
         253 -1.6201257E-03
         254 -3.6112878E-03
         255  1.7041331E-02
         256 -4.6763096E-02
         257  1.2590938E-03
         258  5.9519988E-04
         259  1.8423406E-02
         260 -4.3451667E-02
         261  4.6038066E-04
         262 -1.4008675E-03
         263 -1.2486723E-03
         264  4.5717452E-03
         265 -9.2363562E-03
         266 -2.5249932E-02
         267  0.1144612    
         268 -0.2005547    
         269  8.3812047E-03
         270  4.8673879E-03
         271 -3.0716596E-02
         272  4.8786152E-02
         273  1.2500989E-02
         274  3.0253673E-02
         275 -1.3053556E-02
         276 -0.2923731    
         277 -4.0769093E-03
         278  1.9920915E-02
         279  1.4991978E-02
         280  8.8883705E-02
         281 -2.9070149E-03
         282  0.2892737    
         283  0.1192519    
         284 -0.2166713    
         285 -1.9382562E-04
         286 -9.8731600E-02
         287 -3.6855951E-02
         288  6.9394089E-02
         289  1.7235713E-02
         290 -0.1741497    
         291 -8.6464539E-02
         292  0.1008473    
         293 -1.4829230E-02
         294  5.2921906E-02
         295  2.7133908E-02
         296 -2.4880406E-02
         297 -6.0484302E-03
         298 -0.1236439    
         299 -4.1230064E-02
         300  8.9543618E-02
         301  1.5883854E-03
         302  2.6604513E-02
         303  8.1862742E-03
         304 -1.8724281E-02
         305 -5.5658008E-04
         306  0.2497368    
         307  9.7326696E-02
         308 -0.1927165    
         309  1.4570123E-04
         310 -5.3956788E-02
         311 -2.0062083E-02
         312  4.4621699E-02
         313  5.3967293E-03
         314 -6.1175585E-02
         315 -3.2345060E-02
         316  5.0328299E-02
         317 -3.8520491E-04
         318  1.0151362E-02
         319  6.0693603E-03
         320 -9.2671188E-03
         321 -1.9667562E-02
         322 -0.2275582    
         323 -7.4268989E-02
         324  0.1377062    
         325  1.7251603E-02
         326  6.4201787E-02
         327  1.8614592E-02
         328 -3.7066795E-02
         329 -1.7696867E-02
         330  9.1151051E-02
         331 -6.8207681E-02
         332 -5.2947264E-02
         333  1.2491105E-02
         334 -2.9711207E-02
         335  1.5109695E-02
         336  1.6929515E-02
         337  8.2730195E-03
         338  2.0661131E-02
         339 -3.4364637E-02
         340 -2.7884210E-02
         341 -3.8645980E-03
         342 -4.3111010E-03
         343  4.4963304E-03
         344  4.5598741E-03
         345 -1.0355425E-03
         346  1.2540094E-03
         347 -1.0139550E-03
         348  3.4907786E-03
         349  3.1798295E-04
         350  4.8072997E-04
         351  1.8569974E-03
         352 -2.2593257E-03
         353 -2.7925710E-03
         354  1.3836728E-03
         355  4.0874691E-04
         356  9.1643113E-04
         357  4.8342484E-04
         358 -2.9353975E-04
         359 -2.1048427E-04
         360  1.2768818E-03
         361  5.2967938E-03
         362 -4.4199890E-03
         363 -4.4825948E-03
         364 -1.8004109E-03
         365  2.0780051E-03
         366  3.7196944E-03
         367 -2.5158918E-03
         368 -2.6641053E-04
         369  1.4895243E-03
         370  1.0180433E-02
         371  1.8329494E-05
         372  1.8868742E-03
         373  3.5649489E-03
         374  4.0893834E-03
         375 -1.9982236E-03
         376 -3.6979732E-03
         377  4.8070825E-03
         378  5.1382142E-03
         379  3.4786167E-03
         380 -1.0690556E-02
         381  2.2087146E-03
         382 -6.4609880E-03
         383 -4.0608298E-05
         384 -8.6214743E-04
         385 -1.9500620E-03
         386 -1.3722162E-03
         387 -2.2237985E-03
         388  2.2870689E-03
         389  1.1034439E-03
         390  5.3205760E-03
         391 -1.0447204E-03
         392  7.8072273E-03
         393 -9.1494350E-03
         394 -8.2035204E-03
         395 -8.3270920E-03
         396  3.2174255E-04
         397  9.1172839E-03
         398 -1.8938219E-02
         399 -2.4677548E-03
         400  1.4261888E-04
         401 -5.4109180E-03
         402  6.7591285E-03
         403 -1.9895521E-03
         404  1.8386754E-03
         405  5.8996105E-03
         406 -3.9084791E-03
         407  9.8000723E-04
         408 -9.2874467E-03
         409 -1.4192535E-03
         410  6.5204140E-04
         411 -1.9982280E-03
         412  1.7565306E-03
         413  1.8219602E-03
         414  3.6698799E-03
         415  7.4731099E-05
         416 -1.5054015E-03
         417  4.7050903E-04
         418 -2.4531330E-03
         419 -1.6908463E-03
         420  3.2276427E-04
         421 -1.2601706E-03
         422  2.2590233E-03
         423  6.1679063E-03
         424  4.8539788E-03
         425 -4.4570854E-05
         426 -8.0030283E-04
         427  3.4521785E-04
         428 -1.8491954E-04
         429 -6.4185797E-04
         430  2.1922156E-04
         431 -1.2758721E-03
         432 -2.4180484E-04
         433 -4.6288888E-03
         434 -4.9471566E-03
         435  2.2972033E-03
         436 -6.0197501E-04
         437 -4.7230348E-04
         438  1.0039160E-02
         439  3.6851680E-03
         440  3.0590724E-03
         441 -7.0648815E-04
         442 -1.2447723E-03
         443 -1.2807478E-02
         444 -1.7777000E-02
         445 -2.8993683E-03
         446 -1.6147003E-03
         447  3.0149585E-03
         448  1.3199833E-02
         449 -3.0567819E-02
         450  6.5621864E-03
         451 -5.0873780E-03
         452 -2.7411329E-03
         453  7.8951251E-03
         454 -2.2570968E-02
         455  9.8881246E-05
         456 -3.5053284E-03
         457  3.0559569E-04
         458 -2.6563659E-02
         459  5.2502878E-02
         460 -7.1198842E-03
         461  2.0022719E-04
         462 -5.2158302E-04
         463  5.1812534E-03
         464 -7.8668538E-03
         465  1.0886050E-03
         466 -1.6879507E-03
         467 -2.2730134E-02
         468  2.8872155E-02
         469 -5.2056368E-02
         470 -2.4336276E-03
         471 -2.3067025E-03
         472 -3.2299507E-02
         473 -1.6935781E-02
         474  2.1025607E-02
         475  1.0327273E-02
         476 -3.6245331E-03
         477 -2.6585545E-02
         478 -8.2483962E-03
         479  2.0654414E-02
         480  1.1097580E-03
         481 -6.5728946E-04
         482  5.9751019E-02
         483  2.4319936E-02
         484 -4.5173921E-02
         485 -8.1413733E-03
         486  2.9841675E-03
         487 -1.2159060E-02
         488 -6.9408393E-03
         489  1.0421580E-02
         490  4.8310952E-03
         491  8.2709739E-04
         492 -5.2604806E-02
         493 -1.5730266E-02
         494  3.3401310E-02
         495  9.6943916E-04
         496  6.3143019E-03
         497  8.6036930E-03
         498 -1.7708380E-02
         499 -1.7978484E-02
         500 -8.8644540E-03
         501  5.2150134E-03
         502  2.6005972E-03
         503 -8.6515741E-03
         504 -9.4493181E-03
