 [Molden Format]
 [Atoms] Angs
C       1      6    -11.16884550     -0.11922937     -0.76715274
C       2      6    -10.15602219      0.74265553     -1.18420090
C       3      6     -8.84205810      0.55067354     -0.80196838
C       4      6     -8.55754319     -0.52873327      0.02318369
C       5      6     -9.57532823     -1.42110564      0.43380906
C       6      6    -10.88913715     -1.20694586      0.03600146
C       7      6     -8.93534034     -2.43036347      1.23056517
C       8      6     -9.39976045     -3.54845926      1.91202187
C       9      6     -8.49534657     -4.31629994      2.61840183
C      10      6     -7.14510904     -3.97348479      2.66268570
C      11      6     -6.65910534     -2.86681374      1.99294650
C      12      6     -7.55924224     -2.10438082      1.26119366
N      13      7     -7.34538065     -0.95466882      0.52815183
C      14      6     -6.10507971     -0.32693047      0.32626675
C      15      6     -5.02097723     -1.07661352     -0.14464753
C      16      6     -3.78286842     -0.50169262     -0.35455120
C      17      6     -3.64253717      0.85386326     -0.10153092
C      18      6     -4.73005105      1.62053239      0.36850052
C      19      6     -5.96352098      1.02832283      0.59155079
C      20      6     -4.25115728      2.96769256      0.52716318
C      21      6     -4.86954770      4.15045344      0.90916940
C      22      6     -4.12716139      5.31522932      0.90583361
C      23      6     -2.79455776      5.30830052      0.50420820
C      24      6     -2.15869685      4.13971451      0.12304847
C      25      6     -2.88644850      2.95932633      0.16252566
N      26      7     -2.51731277      1.66629754     -0.19486022
C      27      6     -1.24883627      1.24107362     -0.53727255
C      28      6     -0.09137116      1.77412951      0.04555979
N      29      7      1.11041559      1.40192339     -0.33930314
C      30      6      1.21345551      0.47284173     -1.29456031
N      31      7      2.48165450      0.12625208     -1.71802046
C      32      6      2.84166981     -0.28520764     -2.99738418
C      33      6      2.09599561     -0.32564565     -4.16648448
C      34      6      2.72496576     -0.74862201     -5.32435415
C      35      6      4.06783086     -1.11440188     -5.33230174
C      36      6      4.82686875     -1.03885539     -4.18075306
C      37      6      4.21551049     -0.61399577     -3.00899543
C      38      6      4.70881979     -0.37740169     -1.67871510
C      39      6      5.96035838     -0.52198004     -1.10009269
C      40      6      6.10905363     -0.20672040      0.24360742
N      41      7      7.36266877     -0.35025275      0.86109080
C      42      6      8.01910692      0.61680675      1.59530154
C      43      6      7.64401940      1.92466038      1.87077143
C      44      6      8.50664631      2.69882253      2.62304414
C      45      6      9.72041524      2.19478823      3.08712499
C      46      6     10.10948993      0.90214635      2.79726199
C      47      6      9.25880802      0.10349415      2.04319658
C      48      6      9.34344682     -1.24364177      1.55239318
C      49      6     10.29596458     -2.24787985      1.67247545
C      50      6     10.04839779     -3.46993930      1.07940254
C      51      6      8.86192084     -3.70255010      0.38592125
C      52      6      7.89999021     -2.71963416      0.25189924
C      53      6      8.15275271     -1.48159545      0.82679802
C      54      6      5.01780645      0.24849989      0.99241689
C      55      6      3.77013165      0.41256671      0.42314222
C      56      6      3.61951760      0.09894145     -0.91856924
C      57      6      0.05748104     -0.15356819     -1.77852798
N      58      7     -1.14482267      0.23658378     -1.41258393
H      59      1    -12.18440273      0.06602717     -1.08544117
H      60      1    -10.40339237      1.57765267     -1.82371061
H      61      1     -8.06238768      1.21519501     -1.14274813
H      62      1    -11.67209472     -1.88244221      0.34729635
H      63      1    -10.44836176     -3.80569323      1.89047079
H      64      1     -8.83560236     -5.19116471      3.15301459
H      65      1     -6.46380217     -4.58492155      3.23660218
H      66      1     -5.61406278     -2.60067777      2.04540497
H      67      1     -5.16635317     -2.12456590     -0.35838163
H      68      1     -2.95550346     -1.08579478     -0.72240247
H      69      1     -6.79350671      1.60198756      0.97318897
H      70      1     -5.91083825      4.15484867      1.19211284
H      71      1     -4.58603653      6.24678614      1.20070108
H      72      1     -2.24260676      6.23601968      0.48224300
H      73      1     -1.13414356      4.16498282     -0.21458564
H      74      1     -0.13057741      2.48084211      0.86206878
H      75      1      1.06239071     -0.01707293     -4.19257059
H      76      1      2.15915991     -0.78839752     -6.24308171
H      77      1      4.52103889     -1.44360405     -6.25509465
H      78      1      5.87540725     -1.29356888     -4.18748561
H      79      1      6.80349964     -0.86321269     -1.67988958
H      80      1      6.71311257      2.32877261      1.50242482
H      81      1      8.23588633      3.71899060      2.85390598
H      82      1     10.36640271      2.83098996      3.67443914
H      83      1     11.05657667      0.51684782      3.14482302
H      84      1     11.20862341     -2.07315741      2.22266615
H      85      1     10.77729049     -4.26321579      1.15956418
H      86      1      8.68964831     -4.67390813     -0.05472278
H      87      1      6.97727447     -2.91403977     -0.27404214
H      88      1      5.15960924      0.46616072      2.04002876
H      89      1      2.93850538      0.77342236      1.00552255
H      90      1      0.09820957     -1.00800134     -2.43878780
 [GTO]
           1   0
s              4   1.000000
     34.92055634     -0.01198412
      6.01360876     -0.05472053
      0.48321912      0.58055871
      0.18416677      0.47700799
p              4   1.000000
      5.62835994      0.05713170
      1.45934969      0.28574555
      0.51446592      0.55178731
      0.20481775      0.26323149
s              7   1.000000
      0.38350848     -0.19624477
      0.04707223      0.94818262
      0.02222627      0.24900716
     34.92055634      0.00551778
      6.01360876      0.02519464
      0.48321912     -0.26730317
      0.18416677     -0.21962593
p              7   1.000000
      1.83062075     -0.01161231
      0.10124670      0.57064670
      0.03901771      0.59595572
      5.62835994     -0.02527575
      1.45934969     -0.12641727
      0.51446592     -0.24411735
      0.20481775     -0.11645678
 
           2   0
s              4   1.000000
     34.93362385     -0.01198412
      6.01585909     -0.05472052
      0.48339995      0.58055871
      0.18423569      0.47700800
p              4   1.000000
      5.63046611      0.05713170
      1.45989579      0.28574555
      0.51465844      0.55178731
      0.20489439      0.26323149
s              7   1.000000
      0.38350848     -0.19623251
      0.04707223      0.94812339
      0.02222627      0.24899159
     34.93362385      0.00551580
      6.01585909      0.02518564
      0.48339995     -0.26720769
      0.18423569     -0.21954748
p              7   1.000000
      1.83062075     -0.01161163
      0.10124670      0.57061321
      0.03901771      0.59592072
      5.63046611     -0.02526669
      1.45989579     -0.12637194
      0.51465844     -0.24402982
      0.20489439     -0.11641503
 
           3   0
s              4   1.000000
     34.94110465     -0.01198412
      6.01714734     -0.05472052
      0.48350346      0.58055871
      0.18427514      0.47700800
p              4   1.000000
      5.63167184      0.05713170
      1.46020841      0.28574555
      0.51476865      0.55178731
      0.20493827      0.26323149
s              7   1.000000
      0.38350848     -0.19622550
      0.04707223      0.94808952
      0.02222627      0.24898269
     34.94110465      0.00551468
      6.01714734      0.02518050
      0.48350346     -0.26715306
      0.18427514     -0.21950260
p              7   1.000000
      1.83062075     -0.01161124
      0.10124670      0.57059406
      0.03901771      0.59590074
      5.63167184     -0.02526150
      1.46020841     -0.12634601
      0.51476865     -0.24397974
      0.20493827     -0.11639113
 
           4   0
s              4   1.000000
     35.62506599     -0.01198412
      6.13493115     -0.05472052
      0.49296789      0.58055871
      0.18788227      0.47700799
p              4   1.000000
      5.74191008      0.05713170
      1.48879154      0.28574555
      0.52484509      0.55178731
      0.20894987      0.26323149
s              7   1.000000
      0.38350848     -0.19560087
      0.04707223      0.94507151
      0.02222627      0.24819012
     35.62506599      0.00541345
      6.13493115      0.02471829
      0.49296789     -0.26224930
      0.18788227     -0.21547350
p              7   1.000000
      1.83062075     -0.01157652
      0.10124670      0.56888781
      0.03901771      0.59411881
      5.74191008     -0.02479599
      1.48879154     -0.12401773
      0.52484509     -0.23948373
      0.20894987     -0.11424630
 
           5   0
s              4   1.000000
     35.41569846     -0.01198412
      6.09887633     -0.05472053
      0.49007074      0.58055871
      0.18677809      0.47700799
p              4   1.000000
      5.70816503      0.05713170
      1.48004195      0.28574555
      0.52176059      0.55178731
      0.20772188      0.26323149
s              7   1.000000
      0.38350848     -0.19578866
      0.04707223      0.94597888
      0.02222627      0.24842841
     35.41569846      0.00544405
      6.09887633      0.02485800
      0.49007074     -0.26373156
      0.18677809     -0.21669137
p              7   1.000000
      1.83062075     -0.01158696
      0.10124670      0.56940078
      0.03901771      0.59465453
      5.70816503     -0.02493671
      1.48004195     -0.12472155
      0.52176059     -0.24084283
      0.20772188     -0.11489467
 
           6   0
s              4   1.000000
     34.93589343     -0.01198412
      6.01624993     -0.05472053
      0.48343135      0.58055871
      0.18424765      0.47700799
p              4   1.000000
      5.63083191      0.05713170
      1.45999063      0.28574555
      0.51469188      0.55178730
      0.20490770      0.26323149
s              7   1.000000
      0.38350848     -0.19623039
      0.04707223      0.94811310
      0.02222627      0.24898891
     34.93589343      0.00551546
      6.01624993      0.02518408
      0.48343135     -0.26719112
      0.18424765     -0.21953386
p              7   1.000000
      1.83062075     -0.01161151
      0.10124670      0.57060740
      0.03901771      0.59591466
      5.63083191     -0.02526512
      1.45999063     -0.12636407
      0.51469188     -0.24401462
      0.20490770     -0.11640778
 
           7   0
s              4   1.000000
     35.41552024     -0.01198412
      6.09884564     -0.05472052
      0.49006827      0.58055871
      0.18677715      0.47700799
p              4   1.000000
      5.70813630      0.05713170
      1.48003451      0.28574555
      0.52175796      0.55178731
      0.20772084      0.26323149
s              7   1.000000
      0.38350848     -0.19578883
      0.04707223      0.94597965
      0.02222627      0.24842863
     35.41552024      0.00544408
      6.09884564      0.02485812
      0.49006827     -0.26373283
      0.18677715     -0.21669241
p              7   1.000000
      1.83062075     -0.01158697
      0.10124670      0.56940122
      0.03901771      0.59465498
      5.70813630     -0.02493683
      1.48003451     -0.12472215
      0.52175796     -0.24084400
      0.20772084     -0.11489522
 
           8   0
s              4   1.000000
     34.93580843     -0.01198412
      6.01623529     -0.05472052
      0.48343018      0.58055871
      0.18424721      0.47700799
p              4   1.000000
      5.63081821      0.05713170
      1.45998708      0.28574555
      0.51469062      0.55178731
      0.20490721      0.26323149
s              7   1.000000
      0.38350848     -0.19623047
      0.04707223      0.94811349
      0.02222627      0.24898900
     34.93580843      0.00551548
      6.01623529      0.02518414
      0.48343018     -0.26719174
      0.18424721     -0.21953437
p              7   1.000000
      1.83062075     -0.01161151
      0.10124670      0.57060762
      0.03901771      0.59591490
      5.63081821     -0.02526518
      1.45998708     -0.12636437
      0.51469062     -0.24401519
      0.20490721     -0.11640805
 
           9   0
s              4   1.000000
     34.92054818     -0.01198412
      6.01360735     -0.05472053
      0.48321901      0.58055871
      0.18416673      0.47700799
p              4   1.000000
      5.62835862      0.05713170
      1.45934935      0.28574555
      0.51446580      0.55178731
      0.20481770      0.26323149
s              7   1.000000
      0.38350848     -0.19624478
      0.04707223      0.94818266
      0.02222627      0.24900716
     34.92054818      0.00551778
      6.01360735      0.02519465
      0.48321901     -0.26730323
      0.18416673     -0.21962598
p              7   1.000000
      1.83062075     -0.01161231
      0.10124670      0.57064672
      0.03901771      0.59595572
      5.62835862     -0.02527576
      1.45934935     -0.12641730
      0.51446580     -0.24411740
      0.20481770     -0.11645681
 
          10   0
s              4   1.000000
     34.93356179     -0.01198412
      6.01584840     -0.05472053
      0.48339909      0.58055871
      0.18423536      0.47700799
p              4   1.000000
      5.63045611      0.05713170
      1.45989319      0.28574555
      0.51465753      0.55178731
      0.20489403      0.26323149
s              7   1.000000
      0.38350848     -0.19623257
      0.04707223      0.94812367
      0.02222627      0.24899166
     34.93356179      0.00551581
      6.01584840      0.02518569
      0.48339909     -0.26720814
      0.18423536     -0.21954786
p              7   1.000000
      1.83062075     -0.01161163
      0.10124670      0.57061337
      0.03901771      0.59592089
      5.63045611     -0.02526673
      1.45989319     -0.12637216
      0.51465753     -0.24403023
      0.20489403     -0.11641522
 
          11   0
s              4   1.000000
     34.94111866     -0.01198412
      6.01714976     -0.05472052
      0.48350366      0.58055871
      0.18427521      0.47700799
p              4   1.000000
      5.63167410      0.05713170
      1.46020900      0.28574555
      0.51476886      0.55178731
      0.20493835      0.26323149
s              7   1.000000
      0.38350848     -0.19622549
      0.04707223      0.94808945
      0.02222627      0.24898269
     34.94111866      0.00551467
      6.01714976      0.02518049
      0.48350366     -0.26715296
      0.18427521     -0.21950251
p              7   1.000000
      1.83062075     -0.01161124
      0.10124670      0.57059402
      0.03901771      0.59590070
      5.63167410     -0.02526150
      1.46020900     -0.12634596
      0.51476886     -0.24397965
      0.20493835     -0.11639109
 
          12   0
s              4   1.000000
     35.62527141     -0.01198412
      6.13496652     -0.05472053
      0.49297074      0.58055871
      0.18788335      0.47700799
p              4   1.000000
      5.74194318      0.05713170
      1.48880013      0.28574555
      0.52484811      0.55178731
      0.20895108      0.26323149
s              7   1.000000
      0.38350848     -0.19560068
      0.04707223      0.94507062
      0.02222627      0.24818990
     35.62527141      0.00541342
      6.13496652      0.02471816
      0.49297074     -0.26224786
      0.18788335     -0.21547230
p              7   1.000000
      1.83062075     -0.01157651
      0.10124670      0.56888732
      0.03901771      0.59411829
      5.74194318     -0.02479585
      1.48880013     -0.12401705
      0.52484811     -0.23948241
      0.20895108     -0.11424567
 
          13   0
s              4   1.000000
     61.42598656     -0.01198412
     10.57806316     -0.05472052
      0.84999251      0.58055871
      0.32395318      0.47700799
p              4   1.000000
      7.24040241      0.05713170
      1.87732823      0.28574555
      0.66181630      0.55178731
      0.26348047      0.26323149
s              7   1.000000
      0.47894987     -0.18771573
      0.05878681      0.90697344
      0.02775758      0.23818500
     61.42598656      0.00395531
     10.57806316      0.01806029
      0.84999251     -0.19161109
      0.32395318     -0.15743459
p              7   1.000000
      2.28619608     -0.01155965
      0.12644335      0.56805874
      0.04872781      0.59325298
      7.24040241     -0.02456713
      1.87732823     -0.12287307
      0.66181630     -0.23727333
      0.26348047     -0.11319183
 
          14   0
s              4   1.000000
     35.13214194     -0.01198412
      6.05004555     -0.05472053
      0.48614697      0.58055871
      0.18528264      0.47700800
p              4   1.000000
      5.66246249      0.05713170
      1.46819197      0.28574555
      0.51758310      0.55178731
      0.20605875      0.26323149
s              7   1.000000
      0.38350848     -0.19604777
      0.04707223      0.94723079
      0.02222627      0.24875717
     35.13214194      0.00548603
      6.05004555      0.02504970
      0.48614697     -0.26576541
      0.18528264     -0.21836245
p              7   1.000000
      1.83062075     -0.01160136
      0.10124670      0.57010856
      0.03901771      0.59539370
      5.66246249     -0.02512978
      1.46819197     -0.12568720
      0.51758310     -0.24270756
      0.20605875     -0.11578424
 
          15   0
s              4   1.000000
     35.02599052     -0.01198412
      6.03176540     -0.05472053
      0.48467809      0.58055871
      0.18472282      0.47700800
p              4   1.000000
      5.64535341      0.05713170
      1.46375584      0.28574555
      0.51601923      0.55178731
      0.20543615      0.26323149
s              7   1.000000
      0.38350848     -0.19614621
      0.04707223      0.94770640
      0.02222627      0.24888209
     35.02599052      0.00550191
      6.03176540      0.02512221
      0.48467809     -0.26653472
      0.18472282     -0.21899454
p              7   1.000000
      1.83062075     -0.01160683
      0.10124670      0.57037745
      0.03901771      0.59567455
      5.64535341     -0.02520281
      1.46375584     -0.12605245
      0.51601923     -0.24341286
      0.20543615     -0.11612070
 
          16   0
s              4   1.000000
     34.94584544     -0.01198412
      6.01796375     -0.05472052
      0.48356907      0.58055871
      0.18430014      0.47700799
p              4   1.000000
      5.63243594      0.05713170
      1.46040653      0.28574555
      0.51483850      0.55178731
      0.20496608      0.26323149
s              7   1.000000
      0.38350848     -0.19622106
      0.04707223      0.94806805
      0.02222627      0.24897706
     34.94584544      0.00551396
      6.01796375      0.02517723
      0.48356907     -0.26711846
      0.18430014     -0.21947417
p              7   1.000000
      1.83062075     -0.01161099
      0.10124670      0.57058192
      0.03901771      0.59588808
      5.63243594     -0.02525822
      1.46040653     -0.12632958
      0.51483850     -0.24394801
      0.20496608     -0.11637600
 
          17   0
s              4   1.000000
     35.60640448     -0.01198412
      6.13171748     -0.05472052
      0.49270966      0.58055871
      0.18778385      0.47700800
p              4   1.000000
      5.73890229      0.05713170
      1.48801167      0.28574555
      0.52457016      0.55178731
      0.20884042      0.26323149
s              7   1.000000
      0.38350848     -0.19561749
      0.04707223      0.94515180
      0.02222627      0.24821120
     35.60640448      0.00541617
      6.13171748      0.02473068
      0.49270966     -0.26238076
      0.18778385     -0.21558150
p              7   1.000000
      1.83062075     -0.01157744
      0.10124670      0.56893321
      0.03901771      0.59416623
      5.73890229     -0.02480847
      1.48801167     -0.12408015
      0.52457016     -0.23960427
      0.20884042     -0.11430381
 
          18   0
s              4   1.000000
     35.41286942     -0.01198412
      6.09838914     -0.05472053
      0.49003159      0.58055871
      0.18676317      0.47700799
p              4   1.000000
      5.70770906      0.05713170
      1.47992373      0.28574555
      0.52171891      0.55178731
      0.20770529      0.26323149
s              7   1.000000
      0.38350848     -0.19579122
      0.04707223      0.94599123
      0.02222627      0.24843165
     35.41286942      0.00544446
      6.09838914      0.02485990
      0.49003159     -0.26375170
      0.18676317     -0.21670792
p              7   1.000000
      1.83062075     -0.01158710
      0.10124670      0.56940777
      0.03901771      0.59466181
      5.70770906     -0.02493862
      1.47992373     -0.12473111
      0.52171891     -0.24086130
      0.20770529     -0.11490347
 
          19   0
s              4   1.000000
     35.03206792     -0.01198412
      6.03281197     -0.05472053
      0.48476218      0.58055871
      0.18475487      0.47700799
p              4   1.000000
      5.64633295      0.05713170
      1.46400982      0.28574555
      0.51610877      0.55178731
      0.20547179      0.26323149
s              7   1.000000
      0.38350848     -0.19614055
      0.04707223      0.94767908
      0.02222627      0.24887490
     35.03206792      0.00550100
      6.03281197      0.02511805
      0.48476218     -0.26649055
      0.18475487     -0.21895826
p              7   1.000000
      1.83062075     -0.01160652
      0.10124670      0.57036200
      0.03901771      0.59565841
      5.64633295     -0.02519862
      1.46400982     -0.12603148
      0.51610877     -0.24337237
      0.20547179     -0.11610139
 
          20   0
s              4   1.000000
     35.41451572     -0.01198412
      6.09867265     -0.05472053
      0.49005437      0.58055871
      0.18677185      0.47700800
p              4   1.000000
      5.70797440      0.05713170
      1.47999253      0.28574555
      0.52174316      0.55178731
      0.20771494      0.26323149
s              7   1.000000
      0.38350848     -0.19578973
      0.04707223      0.94598404
      0.02222627      0.24842977
     35.41451572      0.00544422
      6.09867265      0.02485880
      0.49005437     -0.26373998
      0.18677185     -0.21669829
p              7   1.000000
      1.83062075     -0.01158702
      0.10124670      0.56940370
      0.03901771      0.59465761
      5.70797440     -0.02493751
      1.47999253     -0.12472555
      0.52174316     -0.24085055
      0.20771494     -0.11489835
 
          21   0
s              4   1.000000
     34.93910841     -0.01198412
      6.01680358     -0.05472053
      0.48347584      0.58055871
      0.18426461      0.47700799
p              4   1.000000
      5.63135009      0.05713170
      1.46012499      0.28574555
      0.51473924      0.55178731
      0.20492656      0.26323149
s              7   1.000000
      0.38350848     -0.19622737
      0.04707223      0.94809855
      0.02222627      0.24898508
     34.93910841      0.00551498
      6.01680358      0.02518187
      0.48347584     -0.26716764
      0.18426461     -0.21951458
p              7   1.000000
      1.83062075     -0.01161134
      0.10124670      0.57059917
      0.03901771      0.59590608
      5.63135009     -0.02526289
      1.46012499     -0.12635293
      0.51473924     -0.24399310
      0.20492656     -0.11639751
 
          22   0
s              4   1.000000
     34.92070630     -0.01198412
      6.01363458     -0.05472052
      0.48322120      0.58055871
      0.18416756      0.47700799
p              4   1.000000
      5.62838411      0.05713170
      1.45935595      0.28574555
      0.51446813      0.55178731
      0.20481863      0.26323149
s              7   1.000000
      0.38350848     -0.19624463
      0.04707223      0.94818194
      0.02222627      0.24900697
     34.92070630      0.00551775
      6.01363458      0.02519454
      0.48322120     -0.26730207
      0.18416756     -0.21962503
p              7   1.000000
      1.83062075     -0.01161230
      0.10124670      0.57064631
      0.03901771      0.59595531
      5.62838411     -0.02527565
      1.45935595     -0.12641675
      0.51446813     -0.24411634
      0.20481863     -0.11645630
 
          23   0
s              4   1.000000
     34.93495963     -0.01198412
      6.01608912     -0.05472053
      0.48341843      0.58055871
      0.18424273      0.47700799
p              4   1.000000
      5.63068141      0.05713170
      1.45995161      0.28574555
      0.51467812      0.55178731
      0.20490223      0.26323149
s              7   1.000000
      0.38350848     -0.19623126
      0.04707223      0.94811734
      0.02222627      0.24899000
     34.93495963      0.00551560
      6.01608912      0.02518472
      0.48341843     -0.26719793
      0.18424273     -0.21953947
p              7   1.000000
      1.83062075     -0.01161156
      0.10124670      0.57060979
      0.03901771      0.59591716
      5.63068141     -0.02526576
      1.45995161     -0.12636731
      0.51467812     -0.24402088
      0.20490223     -0.11641076
 
          24   0
s              4   1.000000
     34.94260416     -0.01198412
      6.01740557     -0.05472052
      0.48352421      0.58055871
      0.18428305      0.47700799
p              4   1.000000
      5.63191352      0.05713170
      1.46027108      0.28574555
      0.51479074      0.55178731
      0.20494707      0.26323149
s              7   1.000000
      0.38350848     -0.19622410
      0.04707223      0.94808273
      0.02222627      0.24898091
     34.94260416      0.00551445
      6.01740557      0.02517946
      0.48352421     -0.26714212
      0.18428305     -0.21949361
p              7   1.000000
      1.83062075     -0.01161116
      0.10124670      0.57059022
      0.03901771      0.59589673
      5.63191352     -0.02526047
      1.46027108     -0.12634081
      0.51479074     -0.24396970
      0.20494707     -0.11638634
 
          25   0
s              4   1.000000
     35.59326613     -0.01198412
      6.12945495     -0.05472052
      0.49252786      0.58055871
      0.18771456      0.47700799
p              4   1.000000
      5.73678470      0.05713170
      1.48746261      0.28574555
      0.52437660      0.55178731
      0.20876336      0.26323149
s              7   1.000000
      0.38350848     -0.19562920
      0.04707223      0.94520841
      0.02222627      0.24822607
     35.59326613      0.00541808
      6.12945495      0.02473941
      0.49252786     -0.26247339
      0.18771456     -0.21565761
p              7   1.000000
      1.83062075     -0.01157809
      0.10124670      0.56896521
      0.03901771      0.59419965
      5.73678470     -0.02481727
      1.48746261     -0.12412414
      0.52437660     -0.23968920
      0.20876336     -0.11434432
 
          26   0
s              4   1.000000
     61.40753594     -0.01198412
     10.57488582     -0.05472052
      0.84973720      0.58055871
      0.32385588      0.47700799
p              4   1.000000
      7.23822760      0.05713170
      1.87676433      0.28574555
      0.66161750      0.55178731
      0.26340133      0.26323149
s              7   1.000000
      0.47894987     -0.18772123
      0.05878681      0.90700000
      0.02775758      0.23819198
     61.40753594      0.00395649
     10.57488582      0.01806568
      0.84973720     -0.19166822
      0.32385588     -0.15748152
p              7   1.000000
      2.28619608     -0.01156017
      0.12644335      0.56808436
      0.04872781      0.59327970
      7.23822760     -0.02457422
      1.87676433     -0.12290856
      0.66161750     -0.23734186
      0.26340133     -0.11322452
 
          27   0
s              4   1.000000
     35.24929349     -0.01198412
      6.07022001     -0.05472053
      0.48776808      0.58055871
      0.18590049      0.47700799
p              4   1.000000
      5.68134452      0.05713170
      1.47308780      0.28574555
      0.51930903      0.55178731
      0.20674587      0.26323149
s              7   1.000000
      0.38350848     -0.19594005
      0.04707223      0.94671030
      0.02222627      0.24862051
     35.24929349      0.00546861
      6.07022001      0.02497015
      0.48776808     -0.26492141
      0.18590049     -0.21766899
p              7   1.000000
      1.83062075     -0.01159537
      0.10124670      0.56981430
      0.03901771      0.59508640
      5.68134452     -0.02504967
      1.47308780     -0.12528649
      0.51930903     -0.24193376
      0.20674587     -0.11541509
 
          28   0
s              4   1.000000
     35.12594560     -0.01198412
      6.04897849     -0.05472052
      0.48606123      0.58055871
      0.18524997      0.47700799
p              4   1.000000
      5.66146379      0.05713170
      1.46793302      0.28574555
      0.51749181      0.55178731
      0.20602241      0.26323149
s              7   1.000000
      0.38350848     -0.19605350
      0.04707223      0.94725844
      0.02222627      0.24876444
     35.12594560      0.00548696
      6.04897849      0.02505392
      0.48606123     -0.26581019
      0.18524997     -0.21839925
p              7   1.000000
      1.83062075     -0.01160168
      0.10124670      0.57012420
      0.03901771      0.59541005
      5.66146379     -0.02513404
      1.46793302     -0.12570847
      0.51749181     -0.24274862
      0.20602241     -0.11580382
 
          29   0
s              4   1.000000
     57.21365603     -0.01198412
      9.85266499     -0.05472052
      0.79170367      0.58055871
      0.30173787      0.47700799
p              4   1.000000
      6.74388669      0.05713170
      1.74858912      0.28574555
      0.61643177      0.55178731
      0.24541211      0.26323149
s              7   1.000000
      0.47894987     -0.18909953
      0.05878681      0.91365944
      0.02775758      0.23994084
     57.21365603      0.00424279
      9.85266499      0.01937294
      0.79170367     -0.20553763
      0.30173787     -0.16887714
p              7   1.000000
      2.28619608     -0.01169043
      0.12644335      0.57448542
      0.04872781      0.59996468
      6.74388669     -0.02629733
      1.74858912     -0.13152673
      0.61643177     -0.25398393
      0.24541211     -0.12116366
 
          30   0
s              4   1.000000
     35.24918299     -0.01198412
      6.07020099     -0.05472052
      0.48776655      0.58055871
      0.18589991      0.47700799
p              4   1.000000
      5.68132671      0.05713170
      1.47308318      0.28574555
      0.51930741      0.55178731
      0.20674523      0.26323149
s              7   1.000000
      0.38350848     -0.19594015
      0.04707223      0.94671080
      0.02222627      0.24862063
     35.24918299      0.00546863
      6.07020099      0.02497023
      0.48776655     -0.26492220
      0.18589991     -0.21766964
p              7   1.000000
      1.83062075     -0.01159538
      0.10124670      0.56981457
      0.03901771      0.59508668
      5.68132671     -0.02504974
      1.47308318     -0.12528687
      0.51930741     -0.24193449
      0.20674523     -0.11541544
 
          31   0
s              4   1.000000
     61.40761599     -0.01198412
     10.57489960     -0.05472052
      0.84973830      0.58055871
      0.32385630      0.47700800
p              4   1.000000
      7.23823704      0.05713170
      1.87676678      0.28574555
      0.66161837      0.55178731
      0.26340167      0.26323149
s              7   1.000000
      0.47894987     -0.18772121
      0.05878681      0.90699989
      0.02775758      0.23819193
     61.40761599      0.00395648
     10.57489960      0.01806565
      0.84973830     -0.19166797
      0.32385630     -0.15748132
p              7   1.000000
      2.28619608     -0.01156017
      0.12644335      0.56808424
      0.04872781      0.59327961
      7.23823704     -0.02457419
      1.87676678     -0.12290840
      0.66161837     -0.23734157
      0.26340167     -0.11322438
 
          32   0
s              4   1.000000
     35.59299277     -0.01198412
      6.12940788     -0.05472052
      0.49252408      0.58055871
      0.18771312      0.47700800
p              4   1.000000
      5.73674064      0.05713170
      1.48745118      0.28574555
      0.52437257      0.55178731
      0.20876176      0.26323149
s              7   1.000000
      0.38350848     -0.19562944
      0.04707223      0.94520959
      0.02222627      0.24822639
     35.59299277      0.00541812
      6.12940788      0.02473959
      0.49252408     -0.26247532
      0.18771312     -0.21565919
p              7   1.000000
      1.83062075     -0.01157811
      0.10124670      0.56896587
      0.03901771      0.59420033
      5.73674064     -0.02481745
      1.48745118     -0.12412505
      0.52437257     -0.23969097
      0.20876176     -0.11434517
 
          33   0
s              4   1.000000
     34.94255966     -0.01198412
      6.01739791     -0.05472052
      0.48352360      0.58055871
      0.18428281      0.47700799
p              4   1.000000
      5.63190635      0.05713170
      1.46026922      0.28574555
      0.51479009      0.55178730
      0.20494680      0.26323149
s              7   1.000000
      0.38350848     -0.19622414
      0.04707223      0.94808292
      0.02222627      0.24898096
     34.94255966      0.00551446
      6.01739791      0.02517949
      0.48352360     -0.26714244
      0.18428281     -0.21949387
p              7   1.000000
      1.83062075     -0.01161116
      0.10124670      0.57059033
      0.03901771      0.59589685
      5.63190635     -0.02526050
      1.46026922     -0.12634097
      0.51479009     -0.24397000
      0.20494680     -0.11638649
 
          34   0
s              4   1.000000
     34.93493013     -0.01198412
      6.01608404     -0.05472053
      0.48341802      0.58055871
      0.18424257      0.47700799
p              4   1.000000
      5.63067665      0.05713170
      1.45995038      0.28574555
      0.51467769      0.55178731
      0.20490205      0.26323149
s              7   1.000000
      0.38350848     -0.19623129
      0.04707223      0.94811748
      0.02222627      0.24899005
     34.93493013      0.00551561
      6.01608404      0.02518474
      0.48341802     -0.26719815
      0.18424257     -0.21953964
p              7   1.000000
      1.83062075     -0.01161156
      0.10124670      0.57060986
      0.03901771      0.59591724
      5.63067665     -0.02526578
      1.45995038     -0.12636741
      0.51467769     -0.24402107
      0.20490205     -0.11641085
 
          35   0
s              4   1.000000
     34.92064643     -0.01198412
      6.01362427     -0.05472053
      0.48322037      0.58055871
      0.18416724      0.47700799
p              4   1.000000
      5.62837446      0.05713170
      1.45935345      0.28574555
      0.51446725      0.55178731
      0.20481828      0.26323149
s              7   1.000000
      0.38350848     -0.19624469
      0.04707223      0.94818222
      0.02222627      0.24900704
     34.92064643      0.00551776
      6.01362427      0.02519458
      0.48322037     -0.26730251
      0.18416724     -0.21962539
p              7   1.000000
      1.83062075     -0.01161231
      0.10124670      0.57064647
      0.03901771      0.59595548
      5.62837446     -0.02527569
      1.45935345     -0.12641696
      0.51446725     -0.24411675
      0.20481828     -0.11645649
 
          36   0
s              4   1.000000
     34.93910809     -0.01198412
      6.01680352     -0.05472053
      0.48347584      0.58055871
      0.18426461      0.47700799
p              4   1.000000
      5.63135004      0.05713170
      1.46012498      0.28574555
      0.51473924      0.55178731
      0.20492656      0.26323149
s              7   1.000000
      0.38350848     -0.19622737
      0.04707223      0.94809855
      0.02222627      0.24898508
     34.93910809      0.00551498
      6.01680352      0.02518187
      0.48347584     -0.26716764
      0.18426461     -0.21951458
p              7   1.000000
      1.83062075     -0.01161134
      0.10124670      0.57059917
      0.03901771      0.59590608
      5.63135004     -0.02526289
      1.46012498     -0.12635293
      0.51473924     -0.24399310
      0.20492656     -0.11639751
 
          37   0
s              4   1.000000
     35.41475745     -0.01198412
      6.09871428     -0.05472052
      0.49005771      0.58055871
      0.18677313      0.47700799
p              4   1.000000
      5.70801336      0.05713170
      1.48000263      0.28574555
      0.52174673      0.55178730
      0.20771636      0.26323149
s              7   1.000000
      0.38350848     -0.19578952
      0.04707223      0.94598299
      0.02222627      0.24842950
     35.41475745      0.00544419
      6.09871428      0.02485863
      0.49005771     -0.26373826
      0.18677313     -0.21669688
p              7   1.000000
      1.83062075     -0.01158700
      0.10124670      0.56940310
      0.03901771      0.59465696
      5.70801336     -0.02493735
      1.48000263     -0.12472473
      0.52174673     -0.24084898
      0.20771636     -0.11489760
 
          38   0
s              4   1.000000
     35.41307553     -0.01198412
      6.09842464     -0.05472052
      0.49003444      0.58055871
      0.18676425      0.47700799
p              4   1.000000
      5.70774228      0.05713170
      1.47993234      0.28574555
      0.52172195      0.55178731
      0.20770650      0.26323149
s              7   1.000000
      0.38350848     -0.19579104
      0.04707223      0.94599033
      0.02222627      0.24843143
     35.41307553      0.00544443
      6.09842464      0.02485976
      0.49003444     -0.26375024
      0.18676425     -0.21670671
p              7   1.000000
      1.83062075     -0.01158709
      0.10124670      0.56940727
      0.03901771      0.59466129
      5.70774228     -0.02493848
      1.47993234     -0.12473042
      0.52172195     -0.24085996
      0.20770650     -0.11490283
 
          39   0
s              4   1.000000
     35.03276879     -0.01198412
      6.03293267     -0.05472052
      0.48477188      0.58055871
      0.18475856      0.47700800
p              4   1.000000
      5.64644591      0.05713170
      1.46403911      0.28574555
      0.51611909      0.55178731
      0.20547590      0.26323149
s              7   1.000000
      0.38350848     -0.19613990
      0.04707223      0.94767592
      0.02222627      0.24887408
     35.03276879      0.00550090
      6.03293267      0.02511757
      0.48477188     -0.26648546
      0.18475856     -0.21895408
p              7   1.000000
      1.83062075     -0.01160648
      0.10124670      0.57036022
      0.03901771      0.59565655
      5.64644591     -0.02519814
      1.46403911     -0.12602906
      0.51611909     -0.24336770
      0.20547590     -0.11609916
 
          40   0
s              4   1.000000
     35.13214550     -0.01198412
      6.05004616     -0.05472052
      0.48614702      0.58055871
      0.18528266      0.47700799
p              4   1.000000
      5.66246306      0.05713170
      1.46819212      0.28574555
      0.51758315      0.55178730
      0.20605877      0.26323149
s              7   1.000000
      0.38350848     -0.19604777
      0.04707223      0.94723077
      0.02222627      0.24875717
     35.13214550      0.00548603
      6.05004616      0.02504970
      0.48614702     -0.26576538
      0.18528266     -0.21836243
p              7   1.000000
      1.83062075     -0.01160136
      0.10124670      0.57010855
      0.03901771      0.59539370
      5.66246306     -0.02512978
      1.46819212     -0.12568719
      0.51758315     -0.24270753
      0.20605877     -0.11578423
 
          41   0
s              4   1.000000
     61.42604984     -0.01198412
     10.57807406     -0.05472053
      0.84999339      0.58055871
      0.32395352      0.47700799
p              4   1.000000
      7.24040987      0.05713170
      1.87733016      0.28574555
      0.66181698      0.55178731
      0.26348074      0.26323149
s              7   1.000000
      0.47894987     -0.18771571
      0.05878681      0.90697334
      0.02775758      0.23818496
     61.42604984      0.00395531
     10.57807406      0.01806027
      0.84999339     -0.19161089
      0.32395352     -0.15743443
p              7   1.000000
      2.28619608     -0.01155964
      0.12644335      0.56805866
      0.04872781      0.59325289
      7.24040987     -0.02456710
      1.87733016     -0.12287295
      0.66181698     -0.23727310
      0.26348074     -0.11319172
 
          42   0
s              4   1.000000
     35.62455656     -0.01198412
      6.13484342     -0.05472053
      0.49296084      0.58055871
      0.18787958      0.47700799
p              4   1.000000
      5.74182797      0.05713170
      1.48877025      0.28574555
      0.52483758      0.55178731
      0.20894689      0.26323149
s              7   1.000000
      0.38350848     -0.19560132
      0.04707223      0.94507369
      0.02222627      0.24819071
     35.62455656      0.00541353
      6.13484342      0.02471863
      0.49296084     -0.26225289
      0.18787958     -0.21547644
p              7   1.000000
      1.83062075     -0.01157654
      0.10124670      0.56888905
      0.03901771      0.59412011
      5.74182797     -0.02479633
      1.48877025     -0.12401944
      0.52483758     -0.23948702
      0.20894689     -0.11424787
 
          43   0
s              4   1.000000
     34.94087265     -0.01198412
      6.01710739     -0.05472053
      0.48350025      0.58055871
      0.18427391      0.47700799
p              4   1.000000
      5.63163445      0.05713170
      1.46019872      0.28574555
      0.51476523      0.55178731
      0.20493691      0.26323149
s              7   1.000000
      0.38350848     -0.19622572
      0.04707223      0.94809056
      0.02222627      0.24898298
     34.94087265      0.00551471
      6.01710739      0.02518065
      0.48350025     -0.26715476
      0.18427391     -0.21950399
p              7   1.000000
      1.83062075     -0.01161125
      0.10124670      0.57059465
      0.03901771      0.59590135
      5.63163445     -0.02526167
      1.46019872     -0.12634681
      0.51476523     -0.24398129
      0.20493691     -0.11639187
 
          44   0
s              4   1.000000
     34.93364852     -0.01198412
      6.01586334     -0.05472053
      0.48340029      0.58055871
      0.18423581      0.47700799
p              4   1.000000
      5.63047009      0.05713170
      1.45989682      0.28574555
      0.51465880      0.55178731
      0.20489454      0.26323149
s              7   1.000000
      0.38350848     -0.19623249
      0.04707223      0.94812328
      0.02222627      0.24899156
     34.93364852      0.00551580
      6.01586334      0.02518563
      0.48340029     -0.26720751
      0.18423581     -0.21954734
p              7   1.000000
      1.83062075     -0.01161163
      0.10124670      0.57061314
      0.03901771      0.59592068
      5.63047009     -0.02526667
      1.45989682     -0.12637186
      0.51465880     -0.24402965
      0.20489454     -0.11641494
 
          45   0
s              4   1.000000
     34.92059344     -0.01198412
      6.01361515     -0.05472052
      0.48321964      0.58055871
      0.18416696      0.47700799
p              4   1.000000
      5.62836592      0.05713170
      1.45935124      0.28574555
      0.51446647      0.55178731
      0.20481797      0.26323149
s              7   1.000000
      0.38350848     -0.19624474
      0.04707223      0.94818246
      0.02222627      0.24900711
     34.92059344      0.00551777
      6.01361515      0.02519462
      0.48321964     -0.26730290
      0.18416696     -0.21962571
p              7   1.000000
      1.83062075     -0.01161231
      0.10124670      0.57064661
      0.03901771      0.59595560
      5.62836592     -0.02527573
      1.45935124     -0.12641714
      0.51446647     -0.24411710
      0.20481797     -0.11645666
 
          46   0
s              4   1.000000
     34.93593735     -0.01198412
      6.01625749     -0.05472052
      0.48343196      0.58055871
      0.18424789      0.47700799
p              4   1.000000
      5.63083899      0.05713170
      1.45999247      0.28574555
      0.51469252      0.55178731
      0.20490796      0.26323149
s              7   1.000000
      0.38350848     -0.19623035
      0.04707223      0.94811291
      0.02222627      0.24898886
     34.93593735      0.00551546
      6.01625749      0.02518405
      0.48343196     -0.26719079
      0.18424789     -0.21953360
p              7   1.000000
      1.83062075     -0.01161151
      0.10124670      0.57060729
      0.03901771      0.59591453
      5.63083899     -0.02526509
      1.45999247     -0.12636392
      0.51469252     -0.24401433
      0.20490796     -0.11640763
 
          47   0
s              4   1.000000
     35.41582195     -0.01198412
      6.09889759     -0.05472052
      0.49007245      0.58055871
      0.18677874      0.47700799
p              4   1.000000
      5.70818493      0.05713170
      1.48004712      0.28574555
      0.52176241      0.55178731
      0.20772261      0.26323149
s              7   1.000000
      0.38350848     -0.19578855
      0.04707223      0.94597833
      0.02222627      0.24842826
     35.41582195      0.00544403
      6.09889759      0.02485792
      0.49007245     -0.26373068
      0.18677874     -0.21669065
p              7   1.000000
      1.83062075     -0.01158695
      0.10124670      0.56940047
      0.03901771      0.59465421
      5.70818493     -0.02493663
      1.48004712     -0.12472113
      0.52176241     -0.24084203
      0.20772261     -0.11489428
 
          48   0
s              4   1.000000
     35.41514443     -0.01198412
      6.09878092     -0.05472053
      0.49006307      0.58055871
      0.18677517      0.47700800
p              4   1.000000
      5.70807573      0.05713170
      1.48001880      0.28574555
      0.52175243      0.55178731
      0.20771863      0.26323149
s              7   1.000000
      0.38350848     -0.19578917
      0.04707223      0.94598129
      0.02222627      0.24842904
     35.41514443      0.00544413
      6.09878092      0.02485837
      0.49006307     -0.26373551
      0.18677517     -0.21669461
p              7   1.000000
      1.83062075     -0.01158698
      0.10124670      0.56940216
      0.03901771      0.59465595
      5.70807573     -0.02493709
      1.48001880     -0.12472342
      0.52175243     -0.24084645
      0.20771863     -0.11489639
 
          49   0
s              4   1.000000
     34.93587944     -0.01198412
      6.01624752     -0.05472053
      0.48343116      0.58055871
      0.18424758      0.47700799
p              4   1.000000
      5.63082966      0.05713170
      1.45999005      0.28574555
      0.51469167      0.55178731
      0.20490762      0.26323149
s              7   1.000000
      0.38350848     -0.19623040
      0.04707223      0.94811317
      0.02222627      0.24898891
     34.93587944      0.00551546
      6.01624752      0.02518409
      0.48343116     -0.26719122
      0.18424758     -0.21953395
p              7   1.000000
      1.83062075     -0.01161151
      0.10124670      0.57060743
      0.03901771      0.59591470
      5.63082966     -0.02526513
      1.45999005     -0.12636412
      0.51469167     -0.24401472
      0.20490762     -0.11640782
 
          50   0
s              4   1.000000
     34.92053381     -0.01198412
      6.01360488     -0.05472052
      0.48321881      0.58055871
      0.18416665      0.47700799
p              4   1.000000
      5.62835631      0.05713170
      1.45934875      0.28574555
      0.51446559      0.55178731
      0.20481762      0.26323149
s              7   1.000000
      0.38350848     -0.19624479
      0.04707223      0.94818272
      0.02222627      0.24900719
     34.92053381      0.00551778
      6.01360488      0.02519466
      0.48321881     -0.26730333
      0.18416665     -0.21962607
p              7   1.000000
      1.83062075     -0.01161231
      0.10124670      0.57064675
      0.03901771      0.59595576
      5.62835631     -0.02527577
      1.45934875     -0.12641735
      0.51446559     -0.24411750
      0.20481762     -0.11645685
 
          51   0
s              4   1.000000
     34.93342163     -0.01198412
      6.01582427     -0.05472052
      0.48339715      0.58055871
      0.18423462      0.47700800
p              4   1.000000
      5.63043352      0.05713170
      1.45988733      0.28574555
      0.51465546      0.55178731
      0.20489321      0.26323149
s              7   1.000000
      0.38350848     -0.19623270
      0.04707223      0.94812431
      0.02222627      0.24899183
     34.93342163      0.00551583
      6.01582427      0.02518578
      0.48339715     -0.26720917
      0.18423462     -0.21954870
p              7   1.000000
      1.83062075     -0.01161164
      0.10124670      0.57061373
      0.03901771      0.59592129
      5.63043352     -0.02526683
      1.45988733     -0.12637265
      0.51465546     -0.24403117
      0.20489321     -0.11641567
 
          52   0
s              4   1.000000
     34.94132718     -0.01198412
      6.01718567     -0.05472053
      0.48350654      0.58055871
      0.18427631      0.47700799
p              4   1.000000
      5.63170771      0.05713170
      1.46021771      0.28574555
      0.51477193      0.55178731
      0.20493958      0.26323149
s              7   1.000000
      0.38350848     -0.19622529
      0.04707223      0.94808850
      0.02222627      0.24898245
     34.94132718      0.00551464
      6.01718567      0.02518034
      0.48350654     -0.26715144
      0.18427631     -0.21950126
p              7   1.000000
      1.83062075     -0.01161123
      0.10124670      0.57059349
      0.03901771      0.59590013
      5.63170771     -0.02526135
      1.46021771     -0.12634524
      0.51477193     -0.24397825
      0.20493958     -0.11639042
 
          53   0
s              4   1.000000
     35.62617852     -0.01198412
      6.13512274     -0.05472053
      0.49298329      0.58055871
      0.18788813      0.47700799
p              4   1.000000
      5.74208939      0.05713170
      1.48883803      0.28574555
      0.52486148      0.55178731
      0.20895640      0.26323149
s              7   1.000000
      0.38350848     -0.19559988
      0.04707223      0.94506672
      0.02222627      0.24818888
     35.62617852      0.00541329
      6.13512274      0.02471755
      0.49298329     -0.26224147
      0.18788813     -0.21546706
p              7   1.000000
      1.83062075     -0.01157646
      0.10124670      0.56888510
      0.03901771      0.59411598
      5.74208939     -0.02479525
      1.48883803     -0.12401401
      0.52486148     -0.23947655
      0.20895640     -0.11424288
 
          54   0
s              4   1.000000
     35.02540284     -0.01198412
      6.03166419     -0.05472053
      0.48466995      0.58055871
      0.18471972      0.47700799
p              4   1.000000
      5.64525869      0.05713170
      1.46373128      0.28574555
      0.51601057      0.55178731
      0.20543270      0.26323149
s              7   1.000000
      0.38350848     -0.19614676
      0.04707223      0.94770905
      0.02222627      0.24888278
     35.02540284      0.00550200
      6.03166419      0.02512262
      0.48466995     -0.26653899
      0.18471972     -0.21899805
p              7   1.000000
      1.83062075     -0.01160686
      0.10124670      0.57037895
      0.03901771      0.59567609
      5.64525869     -0.02520322
      1.46373128     -0.12605448
      0.51601057     -0.24341677
      0.20543270     -0.11612257
 
          55   0
s              4   1.000000
     34.94598060     -0.01198412
      6.01798703     -0.05472052
      0.48357093      0.58055871
      0.18430085      0.47700799
p              4   1.000000
      5.63245773      0.05713170
      1.46041218      0.28574555
      0.51484049      0.55178731
      0.20496687      0.26323149
s              7   1.000000
      0.38350848     -0.19622093
      0.04707223      0.94806744
      0.02222627      0.24897691
     34.94598060      0.00551394
      6.01798703      0.02517714
      0.48357093     -0.26711747
      0.18430085     -0.21947335
p              7   1.000000
      1.83062075     -0.01161098
      0.10124670      0.57058158
      0.03901771      0.59588771
      5.63245773     -0.02525813
      1.46041218     -0.12632911
      0.51484049     -0.24394711
      0.20496687     -0.11637556
 
          56   0
s              4   1.000000
     35.60649624     -0.01198412
      6.13173328     -0.05472052
      0.49271093      0.58055871
      0.18778433      0.47700799
p              4   1.000000
      5.73891707      0.05713170
      1.48801550      0.28574555
      0.52457151      0.55178731
      0.20884096      0.26323149
s              7   1.000000
      0.38350848     -0.19561741
      0.04707223      0.94515141
      0.02222627      0.24821111
     35.60649624      0.00541615
      6.13173328      0.02473062
      0.49271093     -0.26238011
      0.18778433     -0.21558097
p              7   1.000000
      1.83062075     -0.01157744
      0.10124670      0.56893299
      0.03901771      0.59416599
      5.73891707     -0.02480841
      1.48801550     -0.12407985
      0.52457151     -0.23960368
      0.20884096     -0.11430352
 
          57   0
s              4   1.000000
     35.12539084     -0.01198412
      6.04888295     -0.05472053
      0.48605356      0.58055871
      0.18524704      0.47700799
p              4   1.000000
      5.66137437      0.05713170
      1.46790984      0.28574555
      0.51748364      0.55178731
      0.20601916      0.26323149
s              7   1.000000
      0.38350848     -0.19605401
      0.04707223      0.94726092
      0.02222627      0.24876510
     35.12539084      0.00548704
      6.04888295      0.02505430
      0.48605356     -0.26581420
      0.18524704     -0.21840255
p              7   1.000000
      1.83062075     -0.01160171
      0.10124670      0.57012560
      0.03901771      0.59541150
      5.66137437     -0.02513442
      1.46790984     -0.12571037
      0.51748364     -0.24275229
      0.20601916     -0.11580558
 
          58   0
s              4   1.000000
     57.21322022     -0.01198412
      9.85258994     -0.05472052
      0.79169764      0.58055871
      0.30173557      0.47700799
p              4   1.000000
      6.74383532      0.05713170
      1.74857580      0.28574555
      0.61642708      0.55178731
      0.24541024      0.26323149
s              7   1.000000
      0.47894987     -0.18909969
      0.05878681      0.91366021
      0.02775758      0.23994104
     57.21322022      0.00424282
      9.85258994      0.01937308
      0.79169764     -0.20553917
      0.30173557     -0.16887840
p              7   1.000000
      2.28619608     -0.01169044
      0.12644335      0.57448616
      0.04872781      0.59996544
      6.74383532     -0.02629752
      1.74857580     -0.13152768
      0.61642708     -0.25398578
      0.24541024     -0.12116454
 
          59   0
s              4   1.000000
      8.30888764      0.05675242
      1.52042407      0.26014135
      0.42239045      0.53284611
      0.14018759      0.29162544
s              7   1.000000
      0.92936822     -0.06732850
      0.05643440      0.66945616
      0.02166600      0.51461522
      8.30888764     -0.02902287
      1.52042407     -0.13303484
      0.42239045     -0.27249454
      0.14018759     -0.14913563
p              4   1.000000
      0.64737396      0.05713170
      0.16785440      0.28574555
      0.05917387      0.55178731
      0.02355814      0.26323150
 
          60   0
s              4   1.000000
      8.30895537      0.05675242
      1.52043646      0.26014135
      0.42239390      0.53284611
      0.14018874      0.29162544
s              7   1.000000
      0.92936822     -0.06732841
      0.05643440      0.66945530
      0.02166600      0.51461457
      8.30895537     -0.02902269
      1.52043646     -0.13303401
      0.42239390     -0.27249283
      0.14018874     -0.14913470
p              4   1.000000
      0.64737396      0.05713170
      0.16785440      0.28574555
      0.05917387      0.55178731
      0.02355814      0.26323150
 
          61   0
s              4   1.000000
      8.30925597      0.05675242
      1.52049147      0.26014135
      0.42240918      0.53284611
      0.14019381      0.29162544
s              7   1.000000
      0.92936822     -0.06732803
      0.05643440      0.66945144
      0.02166600      0.51461161
      8.30925597     -0.02902189
      1.52049147     -0.13303032
      0.42240918     -0.27248528
      0.14019381     -0.14913056
p              4   1.000000
      0.64737396      0.05713170
      0.16785440      0.28574555
      0.05917387      0.55178731
      0.02355814      0.26323150
 
          62   0
s              4   1.000000
      8.30888480      0.05675242
      1.52042355      0.26014135
      0.42239031      0.53284611
      0.14018755      0.29162544
s              7   1.000000
      0.92936822     -0.06732851
      0.05643440      0.66945619
      0.02166600      0.51461527
      8.30888480     -0.02902288
      1.52042355     -0.13303487
      0.42239031     -0.27249461
      0.14018755     -0.14913566
p              4   1.000000
      0.64737396      0.05713170
      0.16785440      0.28574555
      0.05917387      0.55178731
      0.02355814      0.26323150
 
          63   0
s              4   1.000000
      8.30888494      0.05675242
      1.52042358      0.26014135
      0.42239032      0.53284611
      0.14018755      0.29162544
s              7   1.000000
      0.92936822     -0.06732851
      0.05643440      0.66945619
      0.02166600      0.51461524
      8.30888494     -0.02902288
      1.52042358     -0.13303487
      0.42239032     -0.27249460
      0.14018755     -0.14913566
p              4   1.000000
      0.64737396      0.05713170
      0.16785440      0.28574555
      0.05917387      0.55178731
      0.02355814      0.26323150
 
          64   0
s              4   1.000000
      8.30888793      0.05675242
      1.52042412      0.26014135
      0.42239047      0.53284611
      0.14018760      0.29162544
s              7   1.000000
      0.92936822     -0.06732850
      0.05643440      0.66945616
      0.02166600      0.51461522
      8.30888793     -0.02902287
      1.52042412     -0.13303484
      0.42239047     -0.27249453
      0.14018760     -0.14913562
p              4   1.000000
      0.64737396      0.05713170
      0.16785440      0.28574555
      0.05917387      0.55178731
      0.02355814      0.26323150
 
          65   0
s              4   1.000000
      8.30895318      0.05675242
      1.52043606      0.26014135
      0.42239379      0.53284611
      0.14018870      0.29162544
s              7   1.000000
      0.92936822     -0.06732842
      0.05643440      0.66945532
      0.02166600      0.51461457
      8.30895318     -0.02902270
      1.52043606     -0.13303404
      0.42239379     -0.27249289
      0.14018870     -0.14913472
p              4   1.000000
      0.64737396      0.05713170
      0.16785440      0.28574555
      0.05917387      0.55178731
      0.02355814      0.26323150
 
          66   0
s              4   1.000000
      8.30923763      0.05675242
      1.52048811      0.26014135
      0.42240825      0.53284611
      0.14019350      0.29162544
s              7   1.000000
      0.92936822     -0.06732805
      0.05643440      0.66945169
      0.02166600      0.51461179
      8.30923763     -0.02902194
      1.52048811     -0.13303055
      0.42240825     -0.27248574
      0.14019350     -0.14913082
p              4   1.000000
      0.64737396      0.05713170
      0.16785440      0.28574555
      0.05917387      0.55178731
      0.02355814      0.26323150
 
          67   0
s              4   1.000000
      8.30968650      0.05675242
      1.52057025      0.26014135
      0.42243107      0.53284611
      0.14020107      0.29162544
s              7   1.000000
      0.92936822     -0.06732747
      0.05643440      0.66944594
      0.02166600      0.51460737
      8.30968650     -0.02902073
      1.52057025     -0.13302504
      0.42243107     -0.27247447
      0.14020107     -0.14912465
p              4   1.000000
      0.64737396      0.05713170
      0.16785440      0.28574555
      0.05917387      0.55178731
      0.02355814      0.26323150
 
          68   0
s              4   1.000000
      8.30997089      0.05675242
      1.52062229      0.26014135
      0.42244552      0.53284611
      0.14020587      0.29162544
s              7   1.000000
      0.92936822     -0.06732711
      0.05643440      0.66944231
      0.02166600      0.51460458
      8.30997089     -0.02901997
      1.52062229     -0.13302156
      0.42244552     -0.27246733
      0.14020587     -0.14912074
p              4   1.000000
      0.64737396      0.05713170
      0.16785440      0.28574555
      0.05917387      0.55178731
      0.02355814      0.26323150
 
          69   0
s              4   1.000000
      8.30957238      0.05675242
      1.52054937      0.26014135
      0.42242526      0.53284611
      0.14019915      0.29162544
s              7   1.000000
      0.92936822     -0.06732762
      0.05643440      0.66944740
      0.02166600      0.51460848
      8.30957238     -0.02902104
      1.52054937     -0.13302644
      0.42242526     -0.27247734
      0.14019915     -0.14912621
p              4   1.000000
      0.64737396      0.05713170
      0.16785440      0.28574555
      0.05917387      0.55178731
      0.02355814      0.26323150
 
          70   0
s              4   1.000000
      8.30899379      0.05675242
      1.52044349      0.26014135
      0.42239585      0.53284611
      0.14018939      0.29162544
s              7   1.000000
      0.92936822     -0.06732837
      0.05643440      0.66945480
      0.02166600      0.51461417
      8.30899379     -0.02902259
      1.52044349     -0.13303354
      0.42239585     -0.27249187
      0.14018939     -0.14913417
p              4   1.000000
      0.64737396      0.05713170
      0.16785440      0.28574555
      0.05917387      0.55178731
      0.02355814      0.26323150
 
          71   0
s              4   1.000000
      8.30895094      0.05675242
      1.52043565      0.26014135
      0.42239367      0.53284611
      0.14018866      0.29162543
s              7   1.000000
      0.92936822     -0.06732842
      0.05643440      0.66945535
      0.02166600      0.51461460
      8.30895094     -0.02902270
      1.52043565     -0.13303406
      0.42239367     -0.27249294
      0.14018866     -0.14913476
p              4   1.000000
      0.64737396      0.05713170
      0.16785440      0.28574555
      0.05917387      0.55178731
      0.02355814      0.26323150
 
          72   0
s              4   1.000000
      8.30903320      0.05675242
      1.52045070      0.26014135
      0.42239785      0.53284611
      0.14019005      0.29162544
s              7   1.000000
      0.92936822     -0.06732831
      0.05643440      0.66945429
      0.02166600      0.51461380
      8.30903320     -0.02902248
      1.52045070     -0.13303305
      0.42239785     -0.27249088
      0.14019005     -0.14913362
p              4   1.000000
      0.64737396      0.05713170
      0.16785440      0.28574555
      0.05917387      0.55178731
      0.02355814      0.26323150
 
          73   0
s              4   1.000000
      8.30939092      0.05675242
      1.52051616      0.26014135
      0.42241604      0.53284611
      0.14019609      0.29162544
s              7   1.000000
      0.92936822     -0.06732785
      0.05643440      0.66944972
      0.02166600      0.51461027
      8.30939092     -0.02902153
      1.52051616     -0.13302867
      0.42241604     -0.27248190
      0.14019609     -0.14912871
p              4   1.000000
      0.64737396      0.05713170
      0.16785440      0.28574555
      0.05917387      0.55178731
      0.02355814      0.26323150
 
          74   0
s              4   1.000000
      8.30945067      0.05675242
      1.52052710      0.26014135
      0.42241908      0.53284611
      0.14019709      0.29162544
s              7   1.000000
      0.92936822     -0.06732778
      0.05643440      0.66944896
      0.02166600      0.51460970
      8.30945067     -0.02902137
      1.52052710     -0.13302794
      0.42241908     -0.27248039
      0.14019709     -0.14912789
p              4   1.000000
      0.64737396      0.05713170
      0.16785440      0.28574555
      0.05917387      0.55178731
      0.02355814      0.26323150
 
          75   0
s              4   1.000000
      8.30940037      0.05675242
      1.52051789      0.26014135
      0.42241652      0.53284611
      0.14019625      0.29162544
s              7   1.000000
      0.92936822     -0.06732784
      0.05643440      0.66944960
      0.02166600      0.51461017
      8.30940037     -0.02902150
      1.52051789     -0.13302855
      0.42241652     -0.27248166
      0.14019625     -0.14912858
p              4   1.000000
      0.64737396      0.05713170
      0.16785440      0.28574555
      0.05917387      0.55178731
      0.02355814      0.26323150
 
          76   0
s              4   1.000000
      8.30903403      0.05675242
      1.52045086      0.26014135
      0.42239790      0.53284611
      0.14019007      0.29162544
s              7   1.000000
      0.92936822     -0.06732831
      0.05643440      0.66945429
      0.02166600      0.51461378
      8.30903403     -0.02902248
      1.52045086     -0.13303304
      0.42239790     -0.27249086
      0.14019007     -0.14913361
p              4   1.000000
      0.64737396      0.05713170
      0.16785440      0.28574555
      0.05917387      0.55178731
      0.02355814      0.26323150
 
          77   0
s              4   1.000000
      8.30895004      0.05675242
      1.52043549      0.26014135
      0.42239363      0.53284611
      0.14018865      0.29162544
s              7   1.000000
      0.92936822     -0.06732842
      0.05643440      0.66945536
      0.02166600      0.51461462
      8.30895004     -0.02902270
      1.52043549     -0.13303407
      0.42239363     -0.27249297
      0.14018865     -0.14913477
p              4   1.000000
      0.64737396      0.05713170
      0.16785440      0.28574555
      0.05917387      0.55178731
      0.02355814      0.26323150
 
          78   0
s              4   1.000000
      8.30899403      0.05675242
      1.52044354      0.26014135
      0.42239586      0.53284611
      0.14018939      0.29162544
s              7   1.000000
      0.92936822     -0.06732836
      0.05643440      0.66945480
      0.02166600      0.51461417
      8.30899403     -0.02902259
      1.52044354     -0.13303354
      0.42239586     -0.27249186
      0.14018939     -0.14913416
p              4   1.000000
      0.64737396      0.05713170
      0.16785440      0.28574555
      0.05917387      0.55178731
      0.02355814      0.26323150
 
          79   0
s              4   1.000000
      8.30958940      0.05675242
      1.52055248      0.26014135
      0.42242613      0.53284611
      0.14019944      0.29162544
s              7   1.000000
      0.92936822     -0.06732760
      0.05643440      0.66944718
      0.02166600      0.51460833
      8.30958940     -0.02902099
      1.52055248     -0.13302623
      0.42242613     -0.27247691
      0.14019944     -0.14912598
p              4   1.000000
      0.64737396      0.05713170
      0.16785440      0.28574555
      0.05917387      0.55178731
      0.02355814      0.26323150
 
          80   0
s              4   1.000000
      8.30924185      0.05675242
      1.52048889      0.26014135
      0.42240846      0.53284611
      0.14019357      0.29162544
s              7   1.000000
      0.92936822     -0.06732805
      0.05643440      0.66945163
      0.02166600      0.51461174
      8.30924185     -0.02902192
      1.52048889     -0.13303050
      0.42240846     -0.27248564
      0.14019357     -0.14913076
p              4   1.000000
      0.64737396      0.05713170
      0.16785440      0.28574555
      0.05917387      0.55178731
      0.02355814      0.26323150
 
          81   0
s              4   1.000000
      8.30895557      0.05675242
      1.52043650      0.26014135
      0.42239391      0.53284611
      0.14018874      0.29162544
s              7   1.000000
      0.92936822     -0.06732841
      0.05643440      0.66945529
      0.02166600      0.51461457
      8.30895557     -0.02902269
      1.52043650     -0.13303401
      0.42239391     -0.27249283
      0.14018874     -0.14913469
p              4   1.000000
      0.64737396      0.05713170
      0.16785440      0.28574555
      0.05917387      0.55178731
      0.02355814      0.26323150
 
          82   0
s              4   1.000000
      8.30888813      0.05675242
      1.52042416      0.26014135
      0.42239048      0.53284611
      0.14018760      0.29162544
s              7   1.000000
      0.92936822     -0.06732850
      0.05643440      0.66945616
      0.02166600      0.51461522
      8.30888813     -0.02902287
      1.52042416     -0.13303483
      0.42239048     -0.27249452
      0.14018760     -0.14913562
p              4   1.000000
      0.64737396      0.05713170
      0.16785440      0.28574555
      0.05917387      0.55178731
      0.02355814      0.26323150
 
          83   0
s              4   1.000000
      8.30888565      0.05675242
      1.52042371      0.26014135
      0.42239035      0.53284611
      0.14018756      0.29162544
s              7   1.000000
      0.92936822     -0.06732850
      0.05643440      0.66945618
      0.02166600      0.51461524
      8.30888565     -0.02902288
      1.52042371     -0.13303486
      0.42239035     -0.27249459
      0.14018756     -0.14913565
p              4   1.000000
      0.64737396      0.05713170
      0.16785440      0.28574555
      0.05917387      0.55178731
      0.02355814      0.26323150
 
          84   0
s              4   1.000000
      8.30888729      0.05675242
      1.52042400      0.26014135
      0.42239044      0.53284611
      0.14018759      0.29162544
s              7   1.000000
      0.92936822     -0.06732850
      0.05643440      0.66945616
      0.02166600      0.51461524
      8.30888729     -0.02902287
      1.52042400     -0.13303484
      0.42239044     -0.27249455
      0.14018759     -0.14913563
p              4   1.000000
      0.64737396      0.05713170
      0.16785440      0.28574555
      0.05917387      0.55178731
      0.02355814      0.26323150
 
          85   0
s              4   1.000000
      8.30888706      0.05675242
      1.52042396      0.26014135
      0.42239043      0.53284611
      0.14018759      0.29162544
s              7   1.000000
      0.92936822     -0.06732850
      0.05643440      0.66945617
      0.02166600      0.51461524
      8.30888706     -0.02902287
      1.52042396     -0.13303485
      0.42239043     -0.27249455
      0.14018759     -0.14913563
p              4   1.000000
      0.64737396      0.05713170
      0.16785440      0.28574555
      0.05917387      0.55178731
      0.02355814      0.26323150
 
          86   0
s              4   1.000000
      8.30895371      0.05675242
      1.52043616      0.26014135
      0.42239381      0.53284611
      0.14018871      0.29162544
s              7   1.000000
      0.92936822     -0.06732842
      0.05643440      0.66945531
      0.02166600      0.51461457
      8.30895371     -0.02902270
      1.52043616     -0.13303403
      0.42239381     -0.27249288
      0.14018871     -0.14913472
p              4   1.000000
      0.64737396      0.05713170
      0.16785440      0.28574555
      0.05917387      0.55178731
      0.02355814      0.26323150
 
          87   0
s              4   1.000000
      8.30925196      0.05675242
      1.52049074      0.26014135
      0.42240898      0.53284611
      0.14019374      0.29162544
s              7   1.000000
      0.92936822     -0.06732803
      0.05643440      0.66945151
      0.02166600      0.51461164
      8.30925196     -0.02902190
      1.52049074     -0.13303037
      0.42240898     -0.27248539
      0.14019374     -0.14913062
p              4   1.000000
      0.64737396      0.05713170
      0.16785440      0.28574555
      0.05917387      0.55178731
      0.02355814      0.26323150
 
          88   0
s              4   1.000000
      8.30968067      0.05675242
      1.52056918      0.26014135
      0.42243077      0.53284611
      0.14020098      0.29162544
s              7   1.000000
      0.92936822     -0.06732748
      0.05643440      0.66944602
      0.02166600      0.51460744
      8.30968067     -0.02902075
      1.52056918     -0.13302512
      0.42243077     -0.27247462
      0.14020098     -0.14912472
p              4   1.000000
      0.64737396      0.05713170
      0.16785440      0.28574555
      0.05917387      0.55178731
      0.02355814      0.26323150
 
          89   0
s              4   1.000000
      8.30994613      0.05675242
      1.52061776      0.26014135
      0.42244426      0.53284611
      0.14020545      0.29162544
s              7   1.000000
      0.92936822     -0.06732714
      0.05643440      0.66944262
      0.02166600      0.51460483
      8.30994613     -0.02902004
      1.52061776     -0.13302186
      0.42244426     -0.27246795
      0.14020545     -0.14912108
p              4   1.000000
      0.64737396      0.05713170
      0.16785440      0.28574555
      0.05917387      0.55178731
      0.02355814      0.26323150
 
          90   0
s              4   1.000000
      8.30944085      0.05675242
      1.52052530      0.26014135
      0.42241858      0.53284611
      0.14019693      0.29162544
s              7   1.000000
      0.92936822     -0.06732779
      0.05643440      0.66944908
      0.02166600      0.51460978
      8.30944085     -0.02902139
      1.52052530     -0.13302806
      0.42241858     -0.27248064
      0.14019693     -0.14912802
p              4   1.000000
      0.64737396      0.05713170
      0.16785440      0.28574555
      0.05917387      0.55178731
      0.02355814      0.26323150
 
 [MO]
 Sym= Hole
 Ene= -0.7804019    
 Spin= Alpha
 Occup= 0
           1  1.6639654E-03
           2  8.7875463E-03
           3 -2.8610863E-02
           4 -4.4259798E-02
           5 -4.8409306E-04
           6 -2.0563438E-04
           7  2.8604739E-03
           8  3.3390983E-03
           9  2.1561085E-04
          10 -3.5283659E-03
          11  1.0307444E-02
          12  1.5886232E-02
          13 -2.1658113E-04
          14  4.9888482E-04
          15 -6.3487241E-04
          16  8.6475600E-04
          17  2.6365502E-03
          18 -3.8781120E-03
          19  3.9129805E-02
          20  4.3205287E-02
          21 -2.8288667E-03
          22  1.0467062E-03
          23 -4.3611377E-03
          24 -2.6108930E-03
          25  1.0537342E-02
          26  2.3456506E-02
          27 -1.0080919E-02
          28 -5.6819110E-03
          29 -7.9581607E-03
          30 -5.0436864E-03
          31 -2.2045593E-04
          32 -3.9118924E-03
          33 -3.6688137E-04
          34 -1.2500475E-02
          35  2.5008138E-02
          36  4.7595654E-02
          37 -1.5585229E-04
          38  9.5457048E-04
          39 -1.2015860E-03
          40 -5.2702515E-03
          41  1.6964105E-03
          42  6.8856301E-03
          43 -1.3833624E-02
          44 -1.7038641E-02
          45 -3.7080437E-04
          46  4.5767656E-04
          47  1.9190157E-03
          48  3.2829733E-03
          49  5.5972015E-04
          50 -7.5021730E-04
          51  3.0560598E-02
          52  4.4518840E-02
          53  4.7784782E-04
          54 -7.4448652E-04
          55 -2.0549304E-03
          56 -4.9457047E-03
          57 -1.7266074E-03
          58  2.9702296E-03
          59 -1.6047927E-02
          60 -1.6433321E-02
          61  3.5120471E-04
          62 -8.7924278E-04
          63  1.1612044E-03
          64  3.5086477E-03
          65 -8.7134779E-04
          66  7.7690468E-03
          67 -2.9078847E-02
          68 -4.3131117E-02
          69  3.7240848E-04
          70 -1.3569127E-03
          71  2.4177763E-03
          72  3.3833461E-03
          73 -1.3748689E-03
          74 -3.5894497E-03
          75  9.5442710E-03
          76  1.6750429E-02
          77  5.1346835E-04
          78  6.5388839E-04
          79 -1.4614317E-04
          80  4.0571202E-04
          81  3.9074913E-04
          82 -1.3623455E-02
          83  3.4053810E-02
          84  4.4740707E-02
          85  8.3814829E-04
          86  2.7310688E-03
          87 -3.9606527E-03
          88 -2.8408500E-03
          89 -1.0596686E-02
          90 -6.3629029E-03
          91 -2.6315760E-02
          92 -2.1367990E-03
          93  7.6851612E-03
          94  1.7971458E-03
          95  3.1173658E-03
          96 -4.5110825E-03
          97 -1.7515984E-05
          98  1.3303786E-02
          99 -5.7200681E-02
         100 -9.9683248E-02
         101  4.2051372E-05
         102 -3.0538966E-03
         103  9.0150815E-03
         104  1.1564304E-02
         105  1.3776964E-03
         106  4.5399770E-02
         107 -3.1973831E-02
         108  0.1757062    
         109 -8.3799573E-04
         110 -3.0984678E-03
         111  4.2085325E-05
         112 -1.6199008E-02
         113 -7.5017265E-03
         114  9.0869442E-03
         115 -1.3378134E-03
         116 -2.6987134E-02
         117  4.7905212E-03
         118 -5.5723176E-03
         119  1.3396610E-03
         120 -2.0892159E-03
         121  2.7557195E-03
         122 -5.7351343E-02
         123  3.9617877E-02
         124 -0.1951989    
         125 -2.6359300E-03
         126  5.1573809E-04
         127 -2.2697440E-04
         128  1.1355870E-02
         129  8.9835282E-03
         130  8.3552413E-03
         131  1.4806353E-02
         132 -4.9801491E-02
         133 -7.2756573E-03
         134 -1.9561367E-03
         135 -3.6062889E-03
         136  1.6658716E-02
         137 -3.9779237E-03
         138 -4.3897554E-02
         139  4.1825175E-02
         140 -0.1362826    
         141  4.2458597E-04
         142  3.9063883E-03
         143 -4.4738622E-03
         144  1.1930980E-02
         145  9.6036149E-03
         146  3.7266713E-02
         147 -4.1325618E-02
         148  0.1212541    
         149 -5.8542797E-03
         150 -1.2700233E-04
         151  5.2654995E-03
         152 -1.0377862E-02
         153 -2.9951213E-03
         154 -4.4353105E-02
         155  2.6726922E-02
         156 -0.1470071    
         157  9.8857086E-04
         158  9.6191961E-04
         159 -3.1136461E-03
         160  1.1074003E-02
         161 -3.6970759E-04
         162  2.2737635E-02
         163 -1.3896528E-02
         164  8.4539182E-02
         165 -2.6949402E-04
         166 -2.3227208E-03
         167  2.1407129E-03
         168 -8.8513987E-03
         169 -7.8945968E-04
         170  4.4695433E-02
         171 -2.9359192E-02
         172  0.1626495    
         173 -6.3416330E-05
         174 -2.1295496E-03
         175  2.0387620E-03
         176 -9.2718573E-03
         177  1.5171159E-04
         178 -1.2695544E-02
         179  7.6304865E-03
         180 -4.6388976E-02
         181 -5.8753212E-04
         182 -1.1148789E-03
         183  1.4442708E-03
         184 -1.5171859E-03
         185 -1.8505298E-03
         186 -7.0972882E-02
         187  2.1418931E-02
         188 -0.1809199    
         189  1.2007416E-03
         190  4.9553746E-03
         191  1.3008293E-03
         192  1.1056012E-02
         193 -5.7504149E-03
         194 -3.0322042E-03
         195  1.3244281E-02
         196 -5.9105521E-03
         197  3.9018807E-03
         198  4.5659174E-03
         199 -4.6324474E-03
         200  1.1182260E-02
         201 -6.8955189E-03
         202  6.7397818E-02
         203 -7.5606972E-02
         204  0.3520731    
         205  4.1543045E-03
         206 -3.6783090E-03
         207  4.7708736E-03
         208 -3.9233476E-02
         209 -4.0834802E-03
         210 -3.5840823E-04
         211  0.1162766    
         212 -0.1299227    
         213 -1.2876800E-03
         214 -3.6594196E-04
         215 -1.6150080E-02
         216  2.0932509E-02
         217 -9.2287529E-03
         218  3.7864733E-02
         219  0.1702199    
         220 -0.1361519    
         221  6.1300704E-03
         222 -1.2346569E-02
         223 -1.6680134E-02
         224  1.3649639E-02
         225 -2.6676327E-02
         226 -2.1510748E-02
         227 -4.9119264E-02
         228  8.6120047E-02
         229  1.4049220E-02
         230  8.0650970E-03
         231  5.6741559E-03
         232 -1.4778999E-02
         233  4.3525952E-03
         234  1.6543737E-03
         235 -0.1249756    
         236  0.1219470    
         237  1.3760573E-03
         238 -1.0819008E-03
         239  2.1101480E-02
         240 -1.6417265E-02
         241  4.8931744E-03
         242  6.2674120E-02
         243  0.3535792    
         244 -9.4745703E-02
         245 -3.0366229E-03
         246 -3.8588650E-03
         247 -3.9003573E-02
         248  7.6773176E-03
         249  5.6642024E-03
         250 -6.0195997E-03
         251 -5.2145519E-03
         252  1.4867084E-02
         253 -4.3654148E-03
         254  4.1545043E-03
         255  1.0956526E-02
         256 -6.0876519E-03
         257  2.7940562E-03
         258 -6.5634973E-02
         259 -0.1844101    
         260  3.3609707E-02
         261 -1.8035620E-03
         262  4.6015210E-03
         263  1.1095469E-02
         264  2.1561695E-04
         265  1.5936200E-04
         266 -1.1608751E-02
         267 -4.6550009E-02
         268  1.0586081E-02
         269  3.9530190E-04
         270 -1.2978866E-03
         271 -1.4043489E-03
         272  1.8285451E-03
         273  1.3976690E-03
         274  4.1450173E-02
         275  0.1648449    
         276 -3.7325155E-02
         277 -4.0610705E-04
         278 -2.4988067E-03
         279 -9.1693448E-03
         280  2.3240212E-03
         281  5.4554814E-05
         282  2.0788083E-02
         283  8.5338347E-02
         284 -2.0711996E-02
         285  1.9837973E-04
         286 -2.8084533E-03
         287 -8.7240543E-03
         288  2.5041625E-03
         289  6.2095290E-03
         290 -3.5638809E-02
         291 -0.1485132    
         292  4.1947216E-02
         293 -2.0326141E-03
         294  8.0465904E-04
         295  1.1163265E-02
         296 -2.9489121E-03
         297 -5.1288836E-04
         298 -4.2118285E-02
         299 -0.1385648    
         300  4.3421950E-02
         301  7.0435071E-04
         302  4.0084422E-03
         303  1.1916849E-02
         304 -5.0422633E-03
         305  6.0918215E-03
         306  3.4579761E-02
         307  0.1303245    
         308 -1.7638359E-02
         309 -4.0935660E-03
         310 -4.7768308E-03
         311 -1.0540386E-02
         312 -2.6054226E-04
         313 -9.9644775E-04
         314  4.5536309E-02
         315  0.1736085    
         316 -5.1358636E-02
         317  1.1086307E-03
         318 -5.1296055E-03
         319 -1.4319832E-02
         320  7.2807632E-03
         321  5.8426271E-04
         322 -5.1791210E-02
         323 -4.8564624E-02
         324  9.3035884E-02
         325  2.4030393E-04
         326  6.3872486E-03
         327  3.3103041E-03
         328 -1.3043771E-02
         329 -1.1366582E-02
         330  7.9134526E-03
         331  8.4626619E-03
         332  2.5825666E-02
         333  8.5867196E-03
         334 -4.9492274E-03
         335 -3.6381637E-03
         336 -1.1009474E-03
         337  4.9225503E-04
         338  2.8122157E-02
         339  1.3146097E-02
         340 -4.9410265E-02
         341  1.4198249E-03
         342 -3.8632439E-03
         343  4.3097163E-05
         344  4.0148194E-03
         345 -1.7620774E-03
         346  1.0872390E-02
         347  7.2484375E-03
         348 -1.4740128E-02
         349  5.8337761E-04
         350  1.4569031E-04
         351  8.9660747E-04
         352  1.9749461E-04
         353 -7.9407688E-04
         354 -2.4064431E-02
         355 -1.6893601E-02
         356  4.4309765E-02
         357  4.9782608E-04
         358  2.0844506E-03
         359  1.5068728E-03
         360 -3.5505695E-03
         361 -1.8363228E-03
         362 -8.2246484E-03
         363 -5.4700123E-03
         364  2.0791614E-02
         365  4.5350788E-04
         366  2.2881485E-03
         367  1.3608739E-03
         368 -2.6834088E-03
         369  5.2467274E-04
         370  1.8110529E-02
         371  2.1890515E-02
         372 -4.6821415E-02
         373  6.0913659E-04
         374 -8.7220903E-04
         375 -3.2851142E-03
         376  4.4021956E-03
         377 -3.4034523E-04
         378  2.8686421E-02
         379  2.0491179E-02
         380 -4.2576183E-02
         381 -1.5011719E-04
         382 -3.5728784E-03
         383 -3.1856732E-03
         384  3.0567518E-03
         385  1.8776302E-03
         386 -1.2024302E-02
         387 -5.3742975E-03
         388  1.8816829E-02
         389 -1.8443668E-04
         390  9.3929132E-04
         391  1.3731212E-03
         392 -3.3975907E-03
         393  1.1766774E-03
         394 -2.3860613E-02
         395 -1.6880272E-02
         396  4.4938702E-02
         397 -4.6884321E-04
         398  1.8897876E-03
         399  1.6808892E-03
         400 -3.5994316E-03
         401  7.2307745E-04
         402  7.5721010E-03
         403  6.5629743E-03
         404 -1.6749915E-02
         405 -3.9070441E-05
         406 -5.9527491E-04
         407  1.3495958E-03
         408 -7.9983234E-05
         409  1.8867225E-03
         410  1.9573471E-02
         411  1.2854814E-02
         412 -5.3928230E-02
         413 -2.3348837E-03
         414 -1.6356519E-03
         415 -9.7319586E-05
         416  4.8291995E-03
         417  1.0743719E-02
         418 -2.1889299E-02
         419  1.2080478E-02
         420  1.0551617E-02
         421 -7.3813801E-03
         422  2.4189199E-03
         423 -4.3415413E-03
         424  2.5908258E-03
         425 -8.9869890E-03
         426 -1.7353356E-02
         427 -1.7394671E-02
         428  1.2955002E-02
         429  6.1657284E-03
         430  2.0622001E-03
         431 -4.2731701E-03
         432  1.8308472E-03
         433  6.0386001E-04
         434 -4.2802505E-02
         435 -0.2004140    
         436  4.7957689E-02
         437  1.6736587E-03
         438 -6.3285528E-04
         439  1.1706215E-02
         440 -5.5539160E-04
         441 -8.7759756E-03
         442  4.0051653E-03
         443 -4.6647146E-02
         444  2.2556826E-02
         445  6.9350307E-03
         446 -1.0400639E-03
         447  1.5899392E-02
         448 -6.0792700E-03
         449  9.8397713E-03
         450  4.4312552E-02
         451 -0.1263244    
         452  0.1790745    
         453 -6.3773268E-03
         454 -1.3904206E-02
         455  1.2887388E-02
         456 -1.7220180E-02
         457  2.9109344E-02
         458 -2.7406784E-02
         459  7.9755537E-02
         460 -5.5871271E-02
         461 -1.4653794E-02
         462  7.7132848E-03
         463 -1.4719669E-02
         464  6.6501666E-03
         465  1.2380871E-04
         466  1.0066657E-04
         467  6.3519768E-04
         468 -3.4905917E-03
         469 -4.4501591E-03
         470 -3.7377875E-03
         471  7.7812996E-04
         472  1.5134073E-04
         473  8.5182139E-04
         474  1.4306288E-03
         475 -1.0760900E-03
         476  2.4249360E-04
         477 -3.9004725E-03
         478  4.2124367E-03
         479  2.8530080E-03
         480 -2.9869194E-03
         481  7.2161428E-04
         482  4.6552654E-04
         483 -1.8352302E-04
         484 -8.9752109E-04
         485  3.1499951E-03
         486 -6.6881429E-04
         487 -2.4340906E-04
         488 -5.3986226E-04
         489 -7.1094598E-04
         490 -6.1192969E-04
         491  1.5810879E-04
         492  1.2509852E-03
         493 -2.9609599E-03
         494 -4.5328946E-03
         495  3.0200414E-03
         496 -3.2965225E-04
         497 -2.8228207E-04
         498  6.2241143E-04
         499  1.3364286E-03
         500  3.0540256E-03
         501 -1.0662206E-03
         502 -6.6384912E-04
         503  4.2965394E-03
         504  3.5628555E-03
         505  8.4144284E-04
         506  1.1677025E-03
         507 -4.3881219E-03
         508 -9.5327402E-04
         509  2.3941682E-03
         510 -9.0117082E-03
         511 -4.2553307E-05
         512 -7.0347614E-03
         513  2.8810394E-03
         514 -1.0685671E-02
         515 -7.8613954E-03
         516 -7.4792461E-04
         517  3.3853098E-03
         518  1.6728705E-03
         519  3.1901677E-03
         520  2.6265401E-04
         521 -4.6239846E-04
         522  2.8902516E-04
         523  2.6976728E-04
         524  2.9668231E-03
         525  2.1509675E-04
         526 -1.1542312E-04
         527  3.7344280E-03
         528 -2.2093367E-03
         529  1.2092463E-02
         530  6.0745697E-03
         531 -1.2400801E-03
         532 -6.5413665E-04
         533  4.7916654E-04
         534 -2.4008965E-03
         535 -1.8586222E-03
         536  2.9444500E-04
         537 -2.1548313E-04
         538  5.6741893E-04
         539 -1.1366540E-02
         540 -3.8818237E-03
         541  2.7275794E-06
         542 -7.7878758E-03
         543  5.1641641E-03
         544 -4.4206656E-03
         545  2.8711141E-04
         546 -2.0555092E-04
         547  4.2650779E-04
         548 -1.1637357E-02
         549  1.3220008E-03
         550 -5.9313765E-03
         551  1.2384943E-03
         552 -4.5290575E-04
         553 -2.3431538E-03
         554  8.6209335E-04
         555 -1.3422961E-03
         556 -7.7807454E-05
         557  3.0847930E-03
         558  1.2203678E-02
         559 -3.1115157E-03
         560 -2.0253363E-03
         561  9.0245646E-04
         562  1.6119308E-04
         563  3.0972150E-03
         564  1.2393302E-04
         565  4.4748964E-04
         566 -1.6427620E-03
         567 -1.6925319E-03
         568  3.4365179E-03
         569 -3.6871112E-03
         570  3.6154974E-03
         571 -1.8128069E-04
         572  1.0448640E-03
         573  2.4708477E-04
         574 -5.6578456E-03
         575  2.6883846E-03
         576 -4.3483975E-04
         577  4.1586300E-04
         578  5.8116298E-04
         579 -1.3666684E-03
         580 -5.8237690E-04
         581  2.2825274E-04
         582 -2.7288874E-03
         583 -1.9345798E-03
         584  4.5419885E-03
         585  3.3835056E-03
         586 -6.4306828E-04
         587 -1.1330232E-04
         588 -2.3602512E-04
         589  8.7184733E-04
         590 -3.0357391E-03
         591  7.3107315E-04
         592 -8.9599827E-04
         593 -7.9032259E-05
         594  5.6995987E-04
         595 -2.5362140E-04
         596 -8.4762920E-05
         597 -2.4150067E-03
         598 -1.9248190E-03
         599  4.8033390E-03
         600 -3.1859449E-03
         601  1.0147759E-03
         602  8.4684207E-04
         603  7.4647582E-04
         604 -1.2117578E-03
         605 -1.8107987E-03
         606  6.2187191E-04
         607  3.5877158E-03
         608 -3.6110744E-04
         609 -4.7399546E-03
         610  5.8318651E-03
         611  1.8131870E-03
         612  3.4233104E-03
         613 -2.1196518E-05
         614 -7.8067312E-04
         615 -1.9612410E-03
         616  4.6851151E-04
         617 -8.6653391E-03
         618 -1.0122298E-02
         619  3.2016474E-03
         620  1.5221660E-03
         621  5.6101882E-04
         622 -8.2825124E-03
         623 -3.8453888E-03
         624  5.8620232E-03
 Sym= Particle
 Ene= -0.7804019    
 Spin= Alpha
 Occup= 2
           1 -8.8652497E-04
           2 -2.7341642E-03
           3  9.0170726E-03
           4  1.3500267E-02
           5  1.3148809E-03
           6  7.2758988E-04
           7 -1.4681875E-03
           8 -2.7531253E-03
           9  5.0085313E-05
          10  5.1822048E-03
          11 -1.8717479E-02
          12 -2.5788650E-02
          13  1.0424661E-03
          14 -1.4179965E-03
          15  4.1447724E-03
          16  5.2064937E-03
          17 -2.1776815E-03
          18 -4.1656657E-03
          19 -1.1482805E-03
          20  6.1483313E-03
          21  4.5480109E-03
          22  5.7913880E-03
          23  6.6507125E-04
          24 -1.6095261E-03
          25 -6.0400041E-03
          26 -1.5342878E-02
          27  1.8086249E-02
          28  2.0059362E-02
          29  5.6152260E-03
          30  7.5504086E-03
          31 -2.5708212E-03
          32 -7.8104874E-03
          33  1.6536450E-04
          34  6.2681776E-03
          35 -1.5788391E-02
          36 -2.9340491E-02
          37  2.6114794E-04
          38 -1.7205821E-03
          39  3.0965221E-03
          40  7.2610709E-03
          41 -7.9210108E-04
          42 -4.1797669E-03
          43  1.2547576E-02
          44  1.7473571E-02
          45  7.5755274E-04
          46  7.8481191E-04
          47 -3.0065624E-03
          48 -4.9041547E-03
          49 -4.3747865E-04
          50  6.3161954E-04
          51 -1.7432079E-02
          52 -2.7563522E-02
          53 -8.3065138E-04
          54 -8.4493855E-05
          55  4.2378348E-03
          56  6.9884108E-03
          57  1.0501174E-03
          58 -2.7390469E-03
          59  1.1155652E-02
          60  1.3597212E-02
          61 -6.3513136E-05
          62  1.3742597E-03
          63 -1.7695250E-03
          64 -4.1347775E-03
          65 -3.0259222E-05
          66 -3.8150726E-03
          67  9.6908249E-03
          68  1.4296160E-02
          69  6.0103150E-05
          70  9.0233097E-04
          71 -1.1857329E-03
          72 -2.7020662E-03
          73  1.9279250E-03
          74  6.5670726E-03
          75 -1.4025552E-02
          76 -2.4799077E-02
          77 -1.1339145E-03
          78 -2.4744584E-03
          79  3.9771749E-03
          80  6.2250434E-03
          81 -2.8222597E-03
          82 -3.2086342E-03
          83 -7.5343536E-04
          84  2.7431180E-03
          85  8.2213961E-04
          86  8.9017180E-04
          87  2.1972619E-04
          88 -1.4384262E-03
          89  7.3303268E-03
          90 -9.2431169E-04
          91  3.0433916E-02
          92  2.1487666E-02
          93 -7.8088017E-03
          94 -2.0140291E-03
          95 -1.2340638E-02
          96 -5.8773183E-03
          97 -1.4683435E-03
          98 -1.7460302E-03
          99  8.4585615E-04
         100  4.0375078E-03
         101 -5.1585154E-04
         102 -1.8744550E-03
         103  1.7089068E-03
         104 -4.4580605E-03
         105  1.1402267E-03
         106 -2.8645327E-02
         107  2.1092260E-02
         108 -0.1062778    
         109 -4.8734848E-03
         110  6.3969898E-03
         111 -4.2865961E-03
         112  3.0823737E-02
         113 -3.4599809E-03
         114  3.6880862E-02
         115 -4.5101523E-02
         116  0.1716396    
         117 -4.0792450E-03
         118 -6.7268698E-03
         119  1.1730276E-02
         120 -3.9788935E-02
         121  1.2104179E-02
         122  1.0641007E-02
         123 -4.3745281E-04
         124 -1.8251380E-02
         125 -1.2954721E-02
         126 -7.4333777E-03
         127  7.2326558E-03
         128  2.7624164E-03
         129 -1.8501440E-02
         130 -7.9826899E-02
         131  2.4558479E-02
         132 -0.1688928    
         133  1.2332525E-02
         134  3.5748098E-02
         135 -1.2403236E-03
         136  4.9703132E-02
         137  1.6366653E-03
         138  5.4905672E-02
         139 -4.9588375E-02
         140  0.1665512    
         141 -9.3697506E-04
         142 -1.0281684E-02
         143  1.4948581E-02
         144 -4.2565558E-02
         145 -1.4706149E-03
         146 -2.9390948E-02
         147  1.7819718E-02
         148 -9.0106517E-02
         149 -2.5215468E-03
         150  6.0029319E-03
         151 -3.8870501E-03
         152  2.4421990E-02
         153  5.1128201E-04
         154  3.3285778E-02
         155 -3.5800546E-02
         156  0.1631026    
         157 -2.9844986E-03
         158 -5.0062221E-03
         159  7.3606619E-03
         160 -3.9336145E-02
         161  3.3504185E-03
         162 -2.9387848E-02
         163  1.6343893E-02
         164 -0.1103201    
         165 -3.3172849E-03
         166  8.2119359E-03
         167 -5.8913068E-03
         168  2.8328162E-02
         169  9.2371140E-04
         170 -2.3205983E-02
         171  1.2930283E-02
         172 -7.5750239E-02
         173 -2.3803976E-03
         174  3.8941430E-03
         175 -2.2258582E-03
         176  1.3347882E-02
         177  2.6977244E-03
         178  4.9981501E-02
         179 -2.7495300E-02
         180  0.1540857    
         181 -3.8221665E-03
         182 -1.3763550E-02
         183  6.6203456E-03
         184 -3.2978129E-02
         185 -8.3777925E-04
         186 -7.2588576E-03
         187  6.6591385E-03
         188 -2.4827955E-02
         189 -3.4287968E-03
         190 -3.5540496E-03
         191 -4.5257664E-04
         192  1.1660433E-02
         193  1.4836588E-02
         194 -2.8070722E-02
         195 -2.0826084E-03
         196 -0.1595265    
         197 -1.4765928E-02
         198  8.5646909E-04
         199 -4.1617607E-03
         200  5.4956503E-02
         201  2.6307390E-03
         202  4.2051887E-03
         203  1.3920172E-03
         204 -2.1800338E-03
         205  1.7394683E-05
         206 -1.7529699E-03
         207 -1.0980789E-02
         208 -1.9866647E-03
         209 -7.7930223E-03
         210 -2.4160495E-02
         211 -0.2725676    
         212  0.2965457    
         213  9.5625763E-04
         214  7.7381101E-03
         215  9.9126667E-02
         216 -0.1174347    
         217  1.1215053E-02
         218  1.1714391E-03
         219  2.5474804E-03
         220 -1.0889540E-04
         221 -1.3748499E-02
         222  3.1269095E-03
         223  6.4091748E-03
         224 -7.3238569E-03
         225 -2.1168664E-03
         226 -1.2518161E-02
         227  0.2138079    
         228 -0.2187297    
         229  5.4399106E-03
         230  7.4437344E-03
         231 -6.1142322E-02
         232  6.8989463E-02
         233 -8.0750249E-03
         234  3.1098988E-02
         235 -0.2806550    
         236  0.2888523    
         237  2.1146561E-03
         238 -1.0301264E-02
         239  0.1116840    
         240 -0.1055631    
         241  2.7662478E-03
         242 -3.8729575E-03
         243 -1.0967989E-05
         244 -5.4477411E-04
         245  4.0632751E-04
         246  1.1186246E-03
         247  3.6527400E-03
         248  1.0641265E-02
         249  1.5094133E-02
         250  2.3859886E-02
         251  0.1608172    
         252 -6.2485603E-03
         253 -1.4054240E-02
         254  6.9133134E-04
         255 -5.5049323E-02
         256  6.9926130E-03
         257 -1.2647700E-03
         258  7.2923386E-03
         259  2.6994713E-02
         260 -8.8386368E-03
         261 -2.7917458E-03
         262  3.3590342E-03
         263 -1.2094649E-02
         264  1.1087883E-03
         265  2.5674878E-03
         266 -4.5901157E-02
         267 -0.1560868    
         268  3.6727849E-02
         269 -3.4934969E-03
         270  1.2806120E-02
         271  3.3417191E-02
         272 -8.9799147E-03
         273  8.0987893E-04
         274  2.0667793E-02
         275  7.4869804E-02
         276 -1.6735859E-02
         277 -2.0082919E-03
         278 -3.3860565E-03
         279 -1.3203510E-02
         280  2.5881513E-03
         281  2.8110456E-03
         282  2.6476692E-02
         283  0.1128457    
         284 -2.3334576E-02
         285 -2.0309605E-03
         286 -6.8774428E-03
         287 -2.8845314E-02
         288  8.0556273E-03
         289 -1.9829215E-04
         290 -2.8689846E-02
         291 -0.1633648    
         292  4.4177942E-02
         293 -1.1688988E-03
         294  4.8802719E-03
         295  3.9378986E-02
         296 -8.6497059E-03
         297  2.3313062E-03
         298 -4.8247311E-02
         299 -0.1684083    
         300  5.9235290E-02
         301  1.2035088E-03
         302  1.0129999E-02
         303  4.3023102E-02
         304 -1.6283574E-02
         305 -2.9622735E-03
         306  2.5249299E-02
         307  9.2104428E-02
         308 -2.1546809E-02
         309  1.2190808E-03
         310 -4.7047995E-03
         311 -2.4439061E-02
         312  5.8892290E-03
         313  1.0608530E-03
         314  2.4332110E-02
         315  0.1076547    
         316 -2.5016142E-02
         317  6.0205394E-04
         318 -5.5699884E-03
         319 -3.0310055E-02
         320  7.2536189E-03
         321 -1.0920160E-03
         322 -6.2906859E-04
         323 -1.7135215E-03
         324  2.3532500E-03
         325  1.8351536E-03
         326 -4.9323792E-04
         327  5.1124133E-03
         328 -1.4521928E-03
         329 -7.1156435E-03
         330 -6.9568693E-03
         331 -3.4824647E-03
         332  3.5691876E-02
         333  7.0417449E-03
         334 -3.0956912E-04
         335  6.2228687E-04
         336 -1.4230015E-02
         337  3.3812521E-03
         338 -5.0426330E-03
         339 -1.1679138E-03
         340  2.7062517E-04
         341 -2.1485195E-03
         342  1.4561997E-03
         343  1.0223842E-03
         344 -9.2954608E-04
         345 -1.8877939E-03
         346  1.5154603E-02
         347  1.0237393E-02
         348 -2.2157319E-02
         349  9.9906698E-04
         350 -4.8343819E-03
         351 -2.4345559E-03
         352  5.8103530E-03
         353  1.0679587E-04
         354 -8.4994733E-03
         355 -5.0482694E-03
         356  1.4096120E-02
         357  4.6795999E-06
         358  1.6787546E-03
         359  1.0135842E-03
         360 -2.1125556E-03
         361 -9.0632256E-04
         362 -7.2569409E-03
         363 -4.5412206E-03
         364  1.5142818E-02
         365  1.8912215E-04
         366  2.7352548E-03
         367  1.8180587E-03
         368 -3.2500725E-03
         369  2.9876304E-04
         370  1.0697714E-02
         371  1.3638367E-02
         372 -2.6810233E-02
         373  9.8517642E-04
         374 -2.8860553E-03
         375 -3.5191886E-03
         376  6.7233439E-03
         377 -5.0738128E-04
         378  1.7014692E-02
         379  1.2818126E-02
         380 -2.4952330E-02
         381  7.4550313E-05
         382 -4.7942712E-03
         383 -3.4587565E-03
         384  5.8473423E-03
         385  1.1122242E-03
         386 -1.0271185E-02
         387 -5.8401851E-03
         388  1.8129759E-02
         389 -7.1541569E-04
         390  2.3681456E-03
         391  2.0636555E-03
         392 -4.4954405E-03
         393  8.6630177E-04
         394 -7.0876051E-03
         395 -4.9058720E-03
         396  1.2786126E-02
         397 -1.0632802E-03
         398  1.6915915E-03
         399  1.0408753E-03
         400 -2.2741586E-03
         401  8.7079672E-05
         402  1.3689498E-02
         403  9.4042392E-03
         404 -2.6949599E-02
         405 -8.5078576E-04
         406 -3.3874805E-03
         407 -1.4366304E-03
         408  5.8788974E-03
         409  2.2229855E-03
         410 -7.2419955E-03
         411 -3.8371733E-03
         412  2.0206200E-03
         413 -4.2908690E-03
         414  4.9481154E-03
         415 -6.2468142E-04
         416  1.0292135E-04
         417  6.9784308E-03
         418 -2.1502750E-02
         419  8.7799662E-04
         420  2.2890821E-02
         421 -5.9776916E-03
         422  9.5644575E-03
         423  1.1049077E-03
         424 -5.3559961E-03
         425 -6.5733329E-03
         426 -3.4091718E-02
         427 -0.1752034    
         428  4.5694992E-02
         429  3.2874232E-03
         430  9.0319999E-03
         431  4.1082393E-02
         432 -8.9434106E-03
         433  1.1846254E-02
         434 -9.7761797E-03
         435  1.9510956E-02
         436  9.2206785E-05
         437 -9.4159804E-03
         438  8.5727144E-03
         439 -3.5268012E-03
         440 -6.3496991E-03
         441 -2.0098709E-02
         442  7.4751109E-02
         443  0.1722295    
         444 -3.4322109E-02
         445  1.5839895E-02
         446 -3.3024900E-02
         447 -5.1473644E-02
         448  5.1892404E-03
         449  1.1049983E-02
         450 -1.4413275E-03
         451  1.0037586E-03
         452 -3.9199404E-03
         453 -1.3491396E-02
         454 -3.1345533E-03
         455  6.2952209E-03
         456 -5.9682019E-03
         457 -1.7780594E-03
         458  6.6114711E-03
         459  0.2053804    
         460 -0.2251150    
         461  4.9379612E-03
         462 -5.9064003E-03
         463 -6.4845130E-02
         464  6.4843990E-02
         465  9.1286725E-04
         466  1.0557828E-03
         467  2.4493763E-04
         468  2.2521359E-03
         469  2.9541152E-03
         470  2.3395738E-03
         471  3.5465895E-05
         472  8.5665705E-04
         473 -4.1113738E-03
         474 -5.1686931E-03
         475  2.6248754E-03
         476  2.4201830E-03
         477  6.8186680E-03
         478 -2.7223094E-03
         479  4.0255482E-03
         480  1.8217018E-03
         481  2.4332068E-04
         482 -6.4372009E-04
         483  2.6416783E-03
         484  2.8244429E-03
         485 -2.3276205E-03
         486  1.2886028E-03
         487 -8.5678694E-05
         488  2.3666285E-03
         489  1.9580831E-03
         490  3.6264755E-04
         491  4.3880980E-05
         492 -5.0840538E-04
         493  1.9588002E-03
         494  2.8339671E-03
         495 -6.1005779E-04
         496 -2.0566468E-04
         497  4.1278033E-04
         498 -2.9393369E-03
         499 -4.2174025E-03
         500 -2.0419720E-03
         501  3.6106978E-03
         502  5.9336890E-03
         503  1.4895428E-03
         504 -5.7429890E-03
         505 -1.3575142E-03
         506 -1.3723047E-03
         507  1.0004944E-02
         508 -6.4172237E-03
         509  3.1979822E-02
         510  1.4100388E-03
         511 -5.9200241E-03
         512 -3.0618161E-02
         513  5.0899489E-03
         514  1.0849551E-03
         515  5.1601878E-03
         516 -2.2230020E-03
         517 -5.5843634E-03
         518  3.0494113E-03
         519 -1.3033506E-02
         520 -5.9730355E-03
         521  1.0026820E-03
         522 -4.0623508E-03
         523  2.1962069E-03
         524 -1.9193342E-02
         525 -4.4443872E-04
         526 -1.1280612E-03
         527 -4.8649879E-03
         528  3.1335836E-03
         529 -1.6127948E-02
         530 -3.0477145E-03
         531 -8.1364164E-04
         532  8.2547329E-03
         533 -4.9111811E-03
         534  3.0675052E-02
         535 -6.2761288E-03
         536  5.3864140E-03
         537  9.6126366E-03
         538  4.3183565E-03
         539  2.3552838E-03
         540 -8.0885915E-03
         541  2.7226552E-03
         542  3.7001341E-03
         543  3.7774863E-03
         544 -1.9571891E-02
         545 -6.2499135E-03
         546  5.4355040E-03
         547 -9.8561617E-03
         548 -2.0681561E-03
         549 -3.9177029E-03
         550 -2.9790811E-03
         551 -9.0116239E-04
         552 -7.5196628E-03
         553 -3.1171348E-02
         554  6.4642369E-03
         555 -3.8067161E-04
         556 -1.2107168E-03
         557  4.4225133E-03
         558  1.5945295E-02
         559 -4.0725959E-03
         560 -5.8660014E-03
         561  1.6194339E-03
         562  4.4571720E-03
         563  1.9792361E-02
         564 -2.5073097E-03
         565  7.4045071E-03
         566 -1.7441175E-03
         567  4.4269622E-03
         568  1.3987436E-02
         569 -2.7252720E-03
         570  1.9887169E-03
         571 -2.5537314E-03
         572  7.5502205E-03
         573  3.4109938E-03
         574 -1.8267591E-03
         575  5.0843530E-04
         576  6.2655070E-04
         577  1.7028790E-03
         578  1.4761363E-03
         579 -4.2782305E-03
         580 -2.9453411E-04
         581  1.3808865E-04
         582 -1.6824596E-03
         583 -1.2530216E-03
         584  2.9057891E-03
         585  2.3264214E-03
         586 -9.9849072E-04
         587 -7.9308648E-04
         588 -4.4772067E-04
         589  2.7088155E-03
         590 -2.1477493E-03
         591  1.6087387E-04
         592 -1.9097169E-03
         593 -6.6115364E-04
         594  3.3461219E-03
         595 -7.4425846E-04
         596 -8.3156396E-04
         597 -7.0410344E-04
         598 -1.2926703E-03
         599  2.9271424E-03
         600 -2.4542941E-03
         601  3.5601991E-04
         602  2.5424683E-03
         603  2.1666663E-03
         604 -5.8867452E-03
         605 -3.0084872E-03
         606 -9.2957012E-04
         607  2.7691147E-03
         608 -6.5659927E-03
         609 -1.3943357E-05
         610  1.1572079E-03
         611  3.2118112E-03
         612 -5.0932816E-03
         613 -3.2570701E-02
         614  1.0807134E-02
         615  2.4012225E-03
         616 -4.8869029E-03
         617  3.1512428E-02
         618 -1.8363085E-03
         619 -3.7066396E-03
         620 -8.2663381E-03
         621  2.8708009E-03
         622 -3.5196284E-03
         623  1.9251782E-02
         624 -4.6856250E-03
 Sym= Hole
 Ene= -0.1214560    
 Spin= Alpha
 Occup= 0
           1  1.7728974E-03
           2  1.4614063E-02
           3 -4.9690068E-02
           4 -7.2308421E-02
           5 -3.2622318E-04
           6 -5.0953910E-04
           7  3.2117157E-03
           8  4.7920998E-03
           9  4.6006410E-04
          10 -3.4945244E-03
          11  1.5804192E-02
          12  2.3773581E-02
          13  2.7962899E-04
          14  1.2512362E-03
          15  1.2437240E-04
          16  1.6611980E-03
          17  3.0678541E-03
          18 -1.0854881E-02
          19  6.7222081E-02
          20  7.6299392E-02
          21 -2.4460615E-03
          22  2.7402965E-03
          23 -4.3859966E-03
          24 -4.0279282E-03
          25  1.1460633E-02
          26  2.5141718E-02
          27 -7.3024193E-03
          28  3.3761975E-03
          29 -7.3805070E-03
          30 -2.4133869E-03
          31 -1.9687258E-03
          32 -7.1741482E-03
          33 -2.0508615E-04
          34 -1.7310217E-02
          35  4.3125466E-02
          36  7.4632078E-02
          37 -6.2579944E-05
          38  1.3177291E-03
          39 -1.2906605E-03
          40 -6.1774440E-03
          41  1.9433696E-03
          42  1.0107192E-02
          43 -2.3578873E-02
          44 -3.3544023E-02
          45 -9.9924000E-05
          46 -1.7318556E-04
          47  3.6181496E-03
          48  4.2212079E-03
          49 -1.2230138E-04
          50 -6.2687681E-03
          51  4.8136324E-02
          52  7.1039915E-02
          53  7.8100915E-04
          54 -1.2200907E-03
          55 -2.5295496E-03
          56 -5.7912390E-03
          57 -1.9835958E-03
          58  4.9465573E-03
          59 -2.6075605E-02
          60 -3.2659810E-02
          61  4.0235807E-04
          62 -1.6221926E-03
          63  2.6635753E-03
          64  4.6177269E-03
          65 -9.0306730E-04
          66  1.5356621E-02
          67 -4.8308410E-02
          68 -7.0887208E-02
          69  5.7295902E-04
          70 -5.8519654E-04
          71  3.1031570E-03
          72  4.8911851E-03
          73 -1.8051710E-03
          74 -7.6697366E-03
          75  1.5026045E-02
          76  2.4561048E-02
          77  5.3720741E-04
          78 -3.8096478E-04
          79  8.7857261E-05
          80  1.3285704E-03
          81  6.0701551E-04
          82 -2.3107937E-02
          83  5.9880361E-02
          84  7.7839784E-02
          85  7.8439817E-04
          86  2.4784890E-03
          87 -5.1302845E-03
          88 -4.0202974E-03
          89 -1.1688554E-02
          90 -6.7806169E-03
          91 -2.4804942E-02
          92  5.3265910E-03
          93  7.5217038E-03
          94  1.9296979E-03
          95 -2.6227775E-04
          96 -7.4351784E-03
          97 -4.6699736E-04
          98  2.2449531E-02
          99 -9.9028490E-02
         100 -0.1682157    
         101  5.2127143E-04
         102 -5.4730317E-03
         103  1.4447878E-02
         104  1.2643324E-02
         105  1.7343219E-03
         106  4.7429878E-02
         107 -2.9615832E-02
         108  0.1922258    
         109 -4.6099172E-04
         110 -1.3610006E-03
         111 -2.1000875E-03
         112 -1.3913477E-02
         113 -1.7225793E-02
         114  1.9630499E-02
         115 -1.4206530E-02
         116 -6.2356917E-03
         117  9.3877204E-03
         118 -5.3920518E-03
         119  1.4123664E-03
         120 -4.9941773E-03
         121  9.1297608E-03
         122 -5.6576621E-02
         123  4.4433888E-02
         124 -0.2041294    
         125 -4.7747884E-03
         126  1.4240382E-03
         127 -1.0288906E-03
         128  5.9904247E-03
         129 -7.1402648E-03
         130 -3.7212882E-02
         131  1.2956502E-02
         132 -0.1139647    
         133  1.5305908E-03
         134  6.1539598E-03
         135 -1.6475591E-03
         136  1.8273160E-02
         137 -2.5263804E-03
         138 -2.3451058E-02
         139  2.7704187E-02
         140 -9.7849406E-02
         141  9.5569470E-04
         142  2.5220532E-03
         143 -1.5532157E-03
         144  6.6813850E-03
         145  1.2405963E-02
         146  5.1921114E-02
         147 -7.0867039E-02
         148  0.1847374    
         149 -8.2604811E-03
         150  1.9260285E-03
         151  6.0988488E-03
         152 -8.0553479E-03
         153 -6.8347796E-04
         154 -5.0443050E-02
         155  2.1247735E-02
         156 -0.1456213    
         157 -4.3673721E-05
         158  1.1166345E-03
         159 -2.1590199E-03
         160  3.6116561E-03
         161  1.3363831E-03
         162  2.2793155E-02
         163 -1.5005985E-02
         164  8.2302727E-02
         165 -5.6175370E-04
         166 -1.1385308E-03
         167  1.0759508E-03
         168 -6.3408962E-03
         169  5.3907710E-04
         170  4.7269806E-02
         171 -3.1182127E-02
         172  0.1718334    
         173 -8.1083865E-04
         174 -1.1007194E-03
         175  1.1615392E-03
         176 -4.4161142E-03
         177  1.6270645E-03
         178  2.7327333E-03
         179 -1.2219063E-03
         180 -1.9126885E-03
         181 -1.2715008E-03
         182 -1.7377955E-03
         183  8.8750268E-04
         184 -1.7862598E-03
         185 -1.1268213E-03
         186 -5.9851281E-02
         187  2.3613468E-02
         188 -0.1635914    
         189 -2.1340995E-04
         190 -1.9493050E-04
         191 -4.0533862E-04
         192  5.8961110E-03
         193  4.9959556E-03
         194 -1.1675050E-02
         195  4.0801438E-03
         196 -8.4990628E-02
         197 -3.8671929E-03
         198  1.2993000E-03
         199 -2.5959176E-03
         200  1.2787509E-02
         201  2.2745787E-03
         202  6.8884082E-02
         203 -5.4597538E-02
         204  0.2887132    
         205 -2.0368788E-03
         206 -3.9309431E-03
         207  2.8409428E-05
         208 -2.1015698E-02
         209 -5.9878146E-03
         210 -1.8270520E-02
         211 -9.2483446E-02
         212  6.3837379E-02
         213 -5.2888622E-03
         214  6.9753774E-03
         215  1.5977921E-02
         216  7.6107993E-03
         217 -1.7603464E-02
         218  3.1181937E-02
         219  7.8329653E-02
         220 -4.2506523E-02
         221  4.4250782E-03
         222 -1.2897938E-02
         223 -1.7443288E-04
         224  6.2736239E-05
         225  1.8340360E-03
         226 -3.3199210E-02
         227  4.9756933E-02
         228 -0.1177837    
         229  2.4575889E-04
         230 -8.4071548E-04
         231 -2.6762353E-03
         232  1.3506581E-02
         233 -4.6070572E-03
         234  2.1317590E-02
         235 -6.0994003E-02
         236  9.7903699E-02
         237 -5.5467105E-03
         238 -6.8936362E-03
         239 -8.6409990E-03
         240 -1.6366802E-02
         241  3.3908312E-03
         242 -6.3551351E-02
         243 -0.2820457    
         244  6.7370497E-02
         245 -2.7003242E-03
         246  3.9853551E-03
         247  2.0047022E-02
         248 -2.3663025E-03
         249  5.8601410E-03
         250  1.5407741E-02
         251  8.4624656E-02
         252 -9.5530823E-03
         253 -3.6485223E-03
         254 -5.1641185E-04
         255 -1.2306086E-02
         256  4.2558652E-03
         257 -2.5566036E-03
         258  5.1670000E-02
         259  0.1602003    
         260 -3.4519121E-02
         261  3.7457483E-04
         262  3.1688466E-04
         263 -5.4781013E-03
         264  1.1929263E-03
         265  1.0816910E-03
         266 -3.8224717E-03
         267 -1.5488799E-03
         268  1.0402215E-03
         269 -9.0094877E-04
         270  1.7336153E-03
         271  1.6573180E-03
         272 -1.3466531E-03
         273 -6.9902313E-04
         274 -4.2989135E-02
         275 -0.1698075    
         276  3.8676299E-02
         277  3.8334489E-05
         278  2.2831578E-03
         279  4.0464425E-03
         280 -7.3001022E-04
         281  2.3244745E-03
         282 -2.0527102E-02
         283 -7.7967018E-02
         284  2.1279335E-02
         285 -3.4900807E-04
         286  1.9487984E-03
         287  5.8860523E-03
         288 -1.5660124E-03
         289 -7.4535515E-03
         290  3.7020452E-02
         291  0.1452318    
         292 -4.1910075E-02
         293  2.1079776E-03
         294 -1.6182681E-03
         295 -3.5219300E-03
         296  1.1225544E-03
         297  5.8252090E-03
         298  2.4743691E-02
         299  9.5280804E-02
         300 -1.9632492E-02
         301 -7.8424125E-04
         302 -2.9194278E-03
         303 -6.2215785E-03
         304  1.9491989E-03
         305 -1.5237045E-02
         306 -4.8000049E-02
         307 -0.1982279    
         308  2.5578538E-02
         309  8.1509715E-03
         310  5.9162257E-03
         311  7.9753948E-03
         312  2.0906292E-03
         313  1.1200244E-03
         314 -5.1435921E-02
         315 -0.1809665    
         316  6.1956279E-02
         317 -4.3666988E-04
         318  5.1176446E-03
         319  1.0300300E-02
         320 -8.6142356E-03
         321 -1.3810506E-03
         322  8.7975807E-02
         323  7.7939369E-02
         324 -0.1589440    
         325  3.0737824E-04
         326 -8.9034103E-03
         327 -1.2207137E-03
         328  1.7500805E-02
         329  1.1613641E-02
         330 -1.3297516E-02
         331 -1.2126101E-02
         332 -1.9476334E-02
         333 -7.8686578E-03
         334  4.8302743E-03
         335  5.0864108E-03
         336 -3.3481240E-03
         337 -5.0305214E-04
         338 -4.7337890E-02
         339 -2.5136927E-02
         340  8.4700078E-02
         341 -1.0726813E-03
         342  3.6988363E-03
         343  2.2470895E-05
         344 -6.0044900E-03
         345  2.0006711E-03
         346 -1.4321970E-02
         347 -1.0083668E-02
         348  2.0775277E-02
         349 -3.3633245E-04
         350 -6.8772072E-04
         351 -1.1721723E-03
         352  6.2855007E-04
         353  6.7468791E-04
         354  3.9332692E-02
         355  2.7573096E-02
         356 -7.4221879E-02
         357 -3.3566914E-04
         358 -2.8190080E-03
         359 -1.9255421E-03
         360  4.7474834E-03
         361  2.2198127E-03
         362  1.5102999E-02
         363  1.1091907E-02
         364 -3.5640400E-02
         365 -2.9174396E-04
         366 -3.1565779E-03
         367 -1.6150203E-03
         368  4.3863710E-03
         369 -7.1533525E-04
         370 -3.2242436E-02
         371 -3.3006556E-02
         372  7.5898834E-02
         373 -6.0127059E-04
         374  1.2971397E-03
         375  3.7295467E-03
         376 -4.7448585E-03
         377 -3.3896893E-05
         378 -4.3075439E-02
         379 -3.0614780E-02
         380  6.7659833E-02
         381  3.4976305E-04
         382  3.2931447E-03
         383  3.6376324E-03
         384 -3.8496894E-03
         385 -1.9831643E-03
         386  2.2131298E-02
         387  1.1814462E-02
         388 -3.6339078E-02
         389  1.2491840E-04
         390 -1.6671697E-03
         391 -1.7508896E-03
         392  5.0573372E-03
         393 -1.6189090E-03
         394  4.0131908E-02
         395  2.7647264E-02
         396 -7.3467866E-02
         397  3.2468364E-04
         398 -2.1538343E-03
         399 -2.0722987E-03
         400  5.0535602E-03
         401 -4.0072843E-04
         402 -1.4021311E-02
         403 -1.0454491E-02
         404  2.6324602E-02
         405 -2.3572265E-04
         406 -4.4205957E-05
         407 -1.5945198E-03
         408  8.9017686E-04
         409 -3.0445531E-03
         410 -3.6475670E-02
         411 -2.5956344E-02
         412  9.2961535E-02
         413  2.4599938E-03
         414  3.5283505E-03
         415 -6.9182468E-05
         416 -5.6974431E-03
         417 -1.0482946E-02
         418  2.0314109E-02
         419 -1.4902024E-02
         420 -4.4278977E-03
         421  6.9518154E-03
         422  1.1273202E-03
         423  5.8108196E-03
         424 -5.1177209E-03
         425  1.1409247E-02
         426  2.7182331E-02
         427 -1.0844131E-02
         428 -1.2142726E-02
         429 -7.7664307E-03
         430 -5.7244622E-03
         431  7.7064158E-03
         432 -2.6183024E-03
         433  2.0082865E-03
         434  3.4302514E-02
         435  0.2069882    
         436 -5.1299676E-02
         437 -2.6386620E-03
         438 -8.5178202E-05
         439 -6.2326211E-03
         440  1.0486982E-03
         441 -7.2300304E-03
         442  4.3178603E-02
         443  0.1081258    
         444 -2.9086588E-02
         445  2.2315716E-03
         446 -7.1678613E-03
         447 -1.7089328E-02
         448  5.0010961E-03
         449 -1.8656714E-02
         450 -3.2077607E-02
         451  3.3305828E-02
         452 -7.5166419E-02
         453  4.9521769E-03
         454  1.2387515E-02
         455  5.5994431E-04
         456 -1.9859789E-04
         457  3.9914395E-03
         458  2.9137755E-02
         459  0.1147873    
         460 -5.7872895E-02
         461 -4.7188866E-04
         462 -5.6283630E-04
         463 -1.4481864E-02
         464  4.1435361E-03
         465 -3.6168401E-04
         466  2.6404680E-04
         467  1.4937603E-03
         468 -4.5136642E-03
         469 -6.5508401E-03
         470 -4.4777640E-03
         471  1.2665857E-03
         472 -2.7291200E-04
         473  5.2454678E-04
         474  1.4142359E-03
         475 -8.5121189E-04
         476  8.3241559E-04
         477 -2.7488468E-03
         478  3.6624300E-03
         479  5.8241077E-03
         480 -3.7951823E-03
         481  8.2085602E-04
         482  7.6681271E-04
         483 -5.2423828E-04
         484 -1.6664340E-03
         485  3.9480119E-03
         486 -5.1979843E-04
         487 -9.6787779E-05
         488 -1.1642750E-03
         489 -1.3664566E-03
         490 -1.1574223E-03
         491 -4.5570912E-05
         492  1.2671681E-03
         493 -4.4620913E-03
         494 -6.5456596E-03
         495  1.8456746E-03
         496 -1.0320349E-03
         497  1.0763809E-04
         498  9.2824252E-04
         499  1.2483676E-03
         500  3.1526133E-03
         501 -5.8915670E-04
         502  8.1460392E-05
         503  5.1440005E-03
         504  5.5873725E-03
         505  5.5145184E-03
         506  2.8075615E-03
         507 -5.1135328E-03
         508 -5.1998929E-04
         509  3.7706899E-03
         510 -5.6374697E-03
         511 -1.7221458E-03
         512 -8.0696363E-03
         513 -1.6765317E-03
         514 -2.5908742E-03
         515 -8.1064142E-03
         516 -2.4067853E-03
         517  4.2279642E-03
         518  3.7504041E-03
         519  3.0136954E-03
         520 -2.4980134E-03
         521  7.6996523E-04
         522  8.1853732E-04
         523 -5.3157483E-04
         524  2.6969207E-03
         525  7.5412601E-05
         526  1.1427794E-05
         527  2.4039415E-03
         528 -1.4392423E-03
         529  6.3552181E-03
         530  3.1818599E-03
         531 -6.7678915E-04
         532 -1.1108198E-03
         533  2.6080411E-04
         534 -1.1155789E-03
         535 -6.7641018E-03
         536  2.6720248E-03
         537  2.8521286E-03
         538  1.5286227E-03
         539 -5.3768191E-03
         540  2.5351841E-02
         541 -2.6153480E-03
         542 -6.5591088E-03
         543  4.9441308E-03
         544 -1.2513029E-03
         545 -3.9561894E-03
         546  2.5341983E-03
         547 -3.3337343E-03
         548  5.3450111E-03
         549 -1.5890298E-03
         550  3.2554732E-03
         551 -4.3085541E-04
         552  1.0698907E-03
         553  9.6879934E-04
         554 -7.0825289E-04
         555  1.1899759E-03
         556  6.5557455E-05
         557 -1.7547932E-03
         558 -6.2401532E-03
         559  1.8721826E-03
         560  2.0003921E-04
         561 -1.5892908E-04
         562 -5.7624374E-04
         563 -2.6960736E-03
         564  8.2318991E-04
         565  7.0564686E-03
         566  1.1912695E-03
         567  3.6963846E-03
         568 -2.5630638E-03
         569  5.3507448E-03
         570 -4.1851043E-03
         571  9.3699305E-04
         572 -2.2285550E-03
         573 -1.6442782E-03
         574  6.5340856E-03
         575 -3.1849479E-03
         576  7.7124941E-04
         577 -4.7223296E-04
         578 -6.4217555E-04
         579  1.3126677E-03
         580 -8.5193878E-06
         581 -2.5527983E-04
         582  3.6007850E-03
         583  2.7189618E-03
         584 -6.6965772E-03
         585 -3.9195819E-03
         586  6.8115559E-04
         587  3.9385239E-04
         588  8.9797960E-04
         589 -1.6064928E-03
         590  3.4634781E-03
         591 -6.8206841E-04
         592  1.3252421E-03
         593  8.8492705E-04
         594 -1.1562663E-03
         595  8.8014797E-04
         596 -1.4700568E-05
         597  3.5824426E-03
         598  2.5133330E-03
         599 -6.8825241E-03
         600  4.2706709E-03
         601 -1.1117720E-03
         602 -7.5059792E-04
         603 -6.6269655E-04
         604  1.1951308E-03
         605  5.7066832E-04
         606 -1.5439815E-04
         607 -5.1403120E-03
         608 -1.0285903E-03
         609  5.4975166E-03
         610 -7.7963118E-03
         611 -1.4147949E-03
         612 -7.4247080E-03
         613 -3.4214836E-04
         614  7.0851401E-04
         615  1.4677398E-02
         616 -2.1502972E-03
         617  1.0045317E-02
         618  1.6849217E-03
         619  1.3454874E-03
         620  2.4918610E-02
         621 -2.0634024E-03
         622  6.3948408E-03
         623  9.4056997E-04
         624 -4.9852687E-03
 Sym= Particle
 Ene= -0.1214560    
 Spin= Alpha
 Occup= 2
           1 -9.5089705E-04
           2 -3.9022004E-03
           3  1.3058278E-02
           4  1.9240279E-02
           5  1.8681170E-03
           6  1.5174694E-03
           7 -2.8079443E-03
           8 -4.6950192E-03
           9  1.1954314E-04
          10  1.4472195E-02
          11 -5.3715102E-02
          12 -7.5147063E-02
          13  1.5476975E-03
          14 -3.9123599E-03
          15  1.2993658E-02
          16  1.8733136E-02
          17 -3.1107343E-03
          18 -1.1662720E-02
          19  2.2442093E-02
          20  4.0537391E-02
          21  6.2672263E-03
          22  9.3794400E-03
          23 -4.8377286E-03
          24 -8.9619188E-03
          25 -7.4838432E-03
          26 -2.4133420E-02
          27  3.9613277E-02
          28  4.8731122E-02
          29  6.7065018E-03
          30  1.2592003E-02
          31 -1.0914776E-02
          32 -2.0426987E-02
          33  1.6840131E-04
          34  1.3647748E-02
          35 -4.1050553E-02
          36 -6.9419205E-02
          37  4.3221383E-04
          38 -3.2659075E-03
          39  9.7153159E-03
          40  1.8268159E-02
          41 -1.2420623E-03
          42 -1.2069956E-02
          43  4.0007316E-02
          44  5.7359770E-02
          45  1.6623782E-03
          46  3.3965441E-03
          47 -9.8349852E-03
          48 -1.5445874E-02
          49 -9.4255527E-05
          50  6.2857284E-03
          51 -4.3581098E-02
          52 -6.7025356E-02
          53 -1.4637114E-03
          54 -1.1628504E-03
          55  1.1882135E-02
          56  1.7595235E-02
          57  1.1990300E-03
          58 -9.7015314E-03
          59  3.4860346E-02
          60  4.8210591E-02
          61  7.3208153E-05
          62  3.3919683E-03
          63 -7.1732458E-03
          64 -1.3091366E-02
          65 -1.2942411E-04
          66 -6.5157479E-03
          67  1.6284851E-02
          68  2.4116356E-02
          69  1.8977624E-04
          70  1.7928481E-03
          71 -2.4889077E-03
          72 -5.0806468E-03
          73  2.7886496E-03
          74  1.7188745E-02
          75 -4.6069995E-02
          76 -7.2136983E-02
          77 -1.4935193E-03
          78 -5.2537695E-03
          79  1.2830072E-02
          80  1.9406149E-02
          81 -4.2863111E-03
          82 -1.1691187E-02
          83  1.8509377E-02
          84  3.0830411E-02
          85  2.2675029E-03
          86  3.9434736E-03
          87 -4.0686047E-03
          88 -8.8248309E-03
          89  9.1691567E-03
          90 -7.0212088E-03
          91  5.8341701E-02
          92  5.6374867E-02
          93 -1.0583618E-02
          94 -4.3644774E-04
          95 -2.5950298E-02
          96 -2.0563940E-02
          97 -5.7391910E-04
          98  3.4851807E-03
          99 -1.8888524E-02
         100 -2.9033445E-02
         101 -1.7162892E-03
         102 -4.9978564E-03
         103  9.2008030E-03
         104  5.1283436E-03
         105  1.0628564E-03
         106 -3.7093204E-02
         107  2.8484134E-02
         108 -0.1321680    
         109 -6.6146613E-03
         110  1.3305468E-02
         111 -8.5337907E-03
         112  4.7059689E-02
         113  4.9910941E-05
         114  7.4422851E-02
         115 -6.9803894E-02
         116  0.2663021    
         117 -7.5139250E-03
         118 -1.8998437E-02
         119  2.3505149E-02
         120 -7.4411258E-02
         121  6.2022335E-03
         122 -2.0187752E-02
         123  1.6920855E-02
         124 -9.9578619E-02
         125 -1.3510342E-02
         126 -2.4844361E-03
         127  2.9916794E-03
         128  1.8724659E-02
         129  2.7679857E-03
         130 -6.2153187E-02
         131  4.9722407E-02
         132 -0.2269345    
         133 -7.2339447E-03
         134  2.5769591E-02
         135 -1.5253654E-02
         136  8.7535687E-02
         137 -2.7523115E-03
         138  5.9725236E-02
         139 -4.7938004E-02
         140  0.2088839    
         141 -1.3185428E-03
         142 -1.3962244E-02
         143  1.5581341E-02
         144 -5.7176154E-02
         145  4.6801949E-03
         146 -3.0047961E-02
         147  1.9607963E-02
         148 -0.1068836    
         149 -6.2128613E-03
         150  8.2094232E-03
         151 -1.3784749E-03
         152  2.4440156E-02
         153  1.1330318E-03
         154  3.5989542E-02
         155 -3.2564957E-02
         156  0.1559035    
         157 -3.2087420E-03
         158 -6.4582471E-03
         159  6.5680533E-03
         160 -3.5297576E-02
         161  2.2824474E-03
         162 -4.8313197E-02
         163  2.9606951E-02
         164 -0.1759824    
         165 -3.4907644E-03
         166  1.3218335E-02
         167 -7.5396290E-03
         168  4.4370506E-02
         169  1.1186045E-05
         170 -7.8784209E-03
         171  2.5930461E-03
         172 -1.7911131E-02
         173 -1.0633046E-03
         174  2.4187157E-03
         175 -1.8076491E-05
         176  1.5606446E-03
         177  1.4551610E-03
         178  6.2896736E-02
         179 -3.3934336E-02
         180  0.1998868    
         181 -1.3027764E-03
         182 -1.7145552E-02
         183  8.9149345E-03
         184 -4.9746837E-02
         185 -7.7490456E-04
         186 -4.9386460E-02
         187  1.6337637E-02
         188 -0.1286474    
         189  1.1043336E-03
         190  1.5632849E-02
         191 -3.9656637E-03
         192  2.9189227E-02
         193  2.1457719E-04
         194 -3.6034532E-02
         195  1.8218650E-02
         196 -0.1364484    
         197 -1.9651607E-03
         198  1.5199979E-02
         199 -8.8564074E-03
         200  6.0736310E-02
         201 -4.7471900E-03
         202  3.1719420E-02
         203 -3.0971376E-02
         204  0.1560665    
         205  2.6344215E-03
         206 -1.4554861E-02
         207  1.1855088E-02
         208 -7.0783518E-02
         209 -3.2943999E-04
         210 -8.2901781E-03
         211 -3.4655493E-02
         212  5.5495199E-02
         213 -5.8140126E-03
         214  2.9937080E-03
         215  3.0635510E-02
         216 -4.1284531E-02
         217 -1.7113917E-03
         218  1.1041051E-02
         219  0.1014159    
         220 -7.6219596E-02
         221  1.1637021E-03
         222 -8.4375106E-03
         223 -4.6853412E-02
         224  3.5009746E-02
         225 -1.1746039E-02
         226 -7.1369316E-03
         227 -6.8461776E-02
         228  8.7154664E-02
         229  1.0028053E-02
         230 -2.8972010E-04
         231  2.8133187E-02
         232 -4.1023362E-02
         233  1.4918561E-03
         234 -7.3261494E-03
         235  4.8291702E-02
         236 -3.2995913E-02
         237  2.4727799E-03
         238  2.1823596E-03
         239 -3.7454553E-02
         240  3.0993272E-02
         241  3.3916838E-03
         242  2.8131561E-02
         243  0.1557939    
         244 -4.0031463E-02
         245 -2.5443318E-03
         246 -1.2696014E-02
         247 -7.0898183E-02
         248  1.6547855E-02
         249  4.2841787E-04
         250 -3.2323569E-02
         251 -0.1321059    
         252  2.6327781E-02
         253 -5.1565719E-04
         254  1.3263566E-02
         255  5.9307657E-02
         256 -1.2340660E-02
         257  1.8054460E-03
         258 -4.6314724E-02
         259 -0.1309418    
         260  2.4805794E-02
         261 -2.9209692E-03
         262  1.4787326E-02
         263  2.9717792E-02
         264 -5.5300016E-03
         265 -9.5644221E-04
         266  5.5992249E-02
         267  0.1984286    
         268 -4.4771269E-02
         269  3.0895392E-04
         270 -1.5207572E-02
         271 -4.9359057E-02
         272  1.2069049E-02
         273  7.7182025E-04
         274 -5.9932377E-03
         275 -1.4995508E-02
         276  2.3201872E-03
         277 -2.9811403E-04
         278  1.4590403E-03
         279  1.2159813E-03
         280  9.1461564E-04
         281 -1.2422097E-03
         282 -4.2423885E-02
         283 -0.1766912    
         284  4.0204000E-02
         285  1.2493101E-03
         286  1.0376326E-02
         287  4.4838417E-02
         288 -1.0907511E-02
         289  9.3726529E-04
         290  3.2243837E-02
         291  0.1526921    
         292 -3.7649333E-02
         293 -4.3285996E-04
         294 -7.2298958E-03
         295 -3.3789836E-02
         296  6.8201143E-03
         297  9.3655271E-06
         298  4.9111281E-02
         299  0.2088396    
         300 -5.9296131E-02
         301 -1.1498799E-03
         302 -1.3108539E-02
         303 -5.7000447E-02
         304  1.7232476E-02
         305  3.3541080E-03
         306 -2.4108380E-02
         307 -0.1047324    
         308  3.1823330E-02
         309 -4.1177822E-03
         310  4.9919835E-03
         311  2.3691192E-02
         312 -7.8142956E-03
         313 -1.0489625E-03
         314 -3.1598732E-02
         315 -0.1327312    
         316  3.3503082E-02
         317 -2.6284487E-03
         318  1.1480817E-02
         319  4.6898361E-02
         320 -1.2326228E-02
         321  7.6240662E-04
         322 -1.5427524E-02
         323 -1.3183788E-02
         324  2.8773019E-02
         325 -2.6826893E-03
         326  6.7808791E-03
         327 -2.1546069E-03
         328 -9.3139941E-03
         329  8.9483345E-03
         330  2.5546040E-02
         331  1.6270634E-02
         332 -7.6107614E-02
         333 -9.5948810E-03
         334 -6.2953015E-03
         335 -4.9815536E-03
         336  3.3040866E-02
         337 -5.2527897E-03
         338  2.3616003E-02
         339  1.0596587E-02
         340 -2.8086962E-02
         341  3.9212443E-03
         342 -6.9616828E-03
         343 -3.3697546E-03
         344  6.7594284E-03
         345  2.6943674E-03
         346 -4.2473599E-02
         347 -2.9286183E-02
         348  7.0486031E-02
         349 -1.3848824E-03
         350  1.2529622E-02
         351  7.6447669E-03
         352 -1.8825168E-02
         353 -4.7187027E-04
         354  1.4652172E-02
         355  8.7172873E-03
         356 -2.4662979E-02
         357  2.4719309E-04
         358 -3.3406415E-03
         359 -1.9330259E-03
         360  4.6513481E-03
         361  1.2367180E-03
         362  2.6167369E-02
         363  1.8024838E-02
         364 -5.0867666E-02
         365 -2.8209318E-04
         366 -7.7215335E-03
         367 -5.3852880E-03
         368  1.1849277E-02
         369 -3.2785360E-04
         370 -3.0816378E-02
         371 -3.0830653E-02
         372  6.7144528E-02
         373 -1.2746047E-03
         374  8.1407344E-03
         375  8.2227327E-03
         376 -1.7434826E-02
         377  2.7317929E-04
         378 -3.9196849E-02
         379 -2.9746035E-02
         380  6.5193549E-02
         381  6.8005829E-05
         382  1.1104677E-02
         383  7.8134201E-03
         384 -1.5903477E-02
         385 -1.2319071E-03
         386  3.2457646E-02
         387  2.1856055E-02
         388 -5.9667226E-02
         389  1.3203565E-03
         390 -8.8123977E-03
         391 -6.5053958E-03
         392  1.4955989E-02
         393 -1.0734509E-03
         394  1.0487276E-02
         395  7.2791888E-03
         396 -1.9358333E-02
         397  1.7580308E-03
         398 -2.9408529E-03
         399 -1.5677646E-03
         400  4.2622657E-03
         401  1.8249716E-04
         402 -4.0794067E-02
         403 -2.7903669E-02
         404  7.9496503E-02
         405  1.1694035E-03
         406  1.1169775E-02
         407  6.6161356E-03
         408 -1.9747304E-02
         409 -3.6689790E-03
         410  2.7401708E-02
         411  1.6833916E-02
         412 -3.6864985E-02
         413  6.5120985E-03
         414 -1.2130163E-02
         415 -1.6794764E-03
         416  7.4404632E-03
         417 -8.0161747E-03
         418  3.9276574E-02
         419  8.6540850E-03
         420 -5.3895559E-02
         421  7.0076957E-03
         422 -1.8958228E-02
         423 -5.6680590E-03
         424  1.7986858E-02
         425  1.6266464E-04
         426  6.1791405E-02
         427  0.2707351    
         428 -6.4626791E-02
         429 -1.6533906E-03
         430 -1.8320134E-02
         431 -7.6707028E-02
         432  1.6228929E-02
         433 -4.5779822E-03
         434 -1.7595146E-02
         435 -0.1001356    
         436  2.0698797E-02
         437  6.5912777E-03
         438 -6.3970359E-03
         439  1.9245747E-02
         440  1.0157059E-03
         441 -2.2120626E-06
         442 -5.5396084E-02
         443 -0.2249475    
         444  6.3017085E-02
         445  9.4630499E-04
         446  2.1204935E-02
         447  8.7180316E-02
         448 -2.2143085E-02
         449  3.0120518E-03
         450  1.3041308E-02
         451 -6.6654243E-02
         452  9.9382602E-02
         453 -4.1825282E-03
         454 -9.7314613E-03
         455  3.1703956E-02
         456 -4.6737503E-02
         457  1.2538427E-02
         458 -9.5517375E-03
         459  8.2219966E-02
         460 -7.2461702E-02
         461 -1.0495641E-02
         462  1.3652393E-03
         463 -3.9590534E-02
         464  3.0570004E-02
         465  9.2660147E-04
         466  1.8613699E-03
         467  5.1541597E-04
         468  3.4535264E-03
         469  4.9227406E-03
         470  2.6513475E-03
         471  2.4864916E-04
         472  2.6725745E-03
         473 -1.2151795E-02
         474 -1.5246744E-02
         475  4.2374912E-03
         476  2.7726935E-03
         477  7.5909267E-03
         478  1.0197222E-03
         479  1.1059294E-02
         480  2.6443007E-03
         481  3.2224302E-04
         482 -2.3388222E-03
         483  8.1916377E-03
         484  1.0513027E-02
         485 -3.0482442E-03
         486  2.1009641E-03
         487 -1.0866595E-03
         488  7.1879542E-03
         489  8.7272907E-03
         490  3.8808497E-04
         491  4.6023953E-04
         492 -1.1356184E-03
         493  4.1685416E-03
         494  5.6935912E-03
         495 -3.7259611E-04
         496  3.5161269E-05
         497  2.4997597E-03
         498 -9.5026195E-03
         499 -1.3886633E-02
         500 -2.0373366E-03
         501  4.2615826E-03
         502  6.7727254E-03
         503  3.8680246E-03
         504 -7.2350311E-03
         505 -3.8834931E-03
         506 -3.8129785E-03
         507  1.7054694E-02
         508 -7.2281663E-03
         509  5.3221278E-02
         510 -6.0877269E-03
         511 -3.9786650E-03
         512 -2.0514093E-02
         513  1.0018330E-02
         514 -1.5306669E-02
         515 -1.2752838E-03
         516 -4.9902988E-04
         517 -6.6176718E-03
         518  6.0145175E-03
         519 -2.0568596E-02
         520 -2.6564519E-03
         521  6.4593094E-04
         522 -6.1691534E-03
         523  5.6091608E-03
         524 -3.3971231E-02
         525  5.8234576E-04
         526  5.4455234E-04
         527 -8.3423097E-04
         528  8.4555778E-04
         529 -9.3958769E-03
         530  2.6518132E-03
         531 -7.8519853E-04
         532  1.1009085E-02
         533 -7.5318301E-03
         534  4.1139983E-02
         535  1.7284175E-03
         536  3.0106418E-03
         537  1.2062738E-03
         538 -3.9274367E-03
         539 -1.8376315E-02
         540 -9.9931611E-03
         541  4.2801141E-03
         542  6.1813742E-03
         543  1.3238574E-02
         544 -1.9701060E-02
         545 -1.9834943E-03
         546 -2.9110110E-03
         547  1.7737005E-03
         548 -1.9785488E-02
         549 -1.8579712E-03
         550 -2.7575602E-03
         551  9.1802492E-04
         552  1.0044202E-02
         553  4.0745392E-02
         554 -9.4035883E-03
         555 -1.5158438E-03
         556  4.3220898E-05
         557 -1.2681255E-03
         558 -8.4314495E-03
         559  2.3026238E-03
         560  1.6465697E-03
         561 -1.2568440E-03
         562 -7.1646799E-03
         563 -3.3883423E-02
         564  6.0687265E-03
         565 -3.3152192E-03
         566 -1.0408532E-04
         567 -5.2349237E-03
         568 -2.1057978E-02
         569  5.5010258E-03
         570 -1.6504562E-03
         571  4.7154767E-03
         572 -1.1440985E-02
         573 -4.2956304E-03
         574 -2.6898789E-03
         575  3.5793000E-04
         576 -1.2970177E-03
         577 -7.2873486E-03
         578 -5.3169364E-03
         579  1.4480894E-02
         580  8.5939717E-04
         581 -4.4531145E-04
         582  3.3717423E-03
         583  2.4477965E-03
         584 -6.0050292E-03
         585 -3.1419483E-03
         586  1.6725352E-03
         587  4.1992795E-03
         588  3.2078170E-03
         589 -1.0461080E-02
         590  2.3039470E-03
         591  3.4913630E-04
         592  5.7435036E-03
         593  3.5296245E-03
         594 -1.1997140E-02
         595  9.0172997E-04
         596  1.6358376E-03
         597  1.2824748E-03
         598  2.4502275E-03
         599 -5.1090848E-03
         600  3.0512712E-03
         601 -5.2867306E-04
         602 -7.7125882E-03
         603 -5.5492003E-03
         604  1.6929312E-02
         605  5.1798443E-03
         606  1.7877354E-03
         607 -3.7683933E-03
         608  1.0716487E-02
         609 -6.6153901E-03
         610  3.8210474E-04
         611 -3.9302539E-03
         612  8.3910143E-03
         613  5.3027652E-02
         614 -1.6722832E-02
         615  3.2088417E-03
         616  2.2866020E-03
         617 -2.2277106E-02
         618 -1.5398491E-02
         619  8.2724793E-03
         620  9.1666756E-03
         621 -4.2843516E-03
         622  5.9775217E-03
         623 -1.5968770E-02
         624  1.3328407E-02
