 [Molden Format]
 [Atoms] Angs
C       1      6      2.33002579     -0.92435735      2.08695978
C       2      6      3.70514157     -0.69115019      1.47212233
C       3      6      3.74819775     -1.17308029      0.02435882
C       4      6      5.12925956     -1.07579741     -0.62465521
C       5      6      5.69657868      0.33992471     -0.76088732
C       6      6      4.84519844      1.27046671     -1.64541451
N       7      7      3.95182510      2.11116897     -0.87320653
C       8      6      2.57117967      1.92213536     -0.89019755
C       9      6      1.89621313      1.25363755     -1.84055886
C      10      6      0.42394413      0.99108917     -1.77741070
C      11      6     -0.15796026      1.14535794     -0.39765290
C      12      6     -1.26397208      0.51773555      0.02530106
C      13      6     -2.04616667     -0.51247925     -0.73460018
C      14      6     -3.51941346     -0.48489918     -0.41788656
C      15      6     -4.41042267      0.55066821     -0.58137701
C      16      6     -5.74704054      0.36770527     -0.21698958
C      17      6     -6.71397533      1.46546436     -0.37073764
C      18      6     -7.99708794      1.22541542     -0.85862487
C      19      6     -8.90365798      2.26028532     -0.99757656
C      20      6     -8.54642602      3.55203212     -0.64723272
C      21      6     -7.27418398      3.80257019     -0.15987291
C      22      6     -6.36459764      2.76988070     -0.02584601
C      23      6     -6.15332294     -0.86197662      0.30366948
C      24      6     -5.25985951     -1.90362550      0.47764241
C      25      6     -3.93448606     -1.71427640      0.11835405
C      26      6     -2.78275508     -2.59448535      0.19896108
C      27      6     -2.65123727     -3.89129244      0.67177009
C      28      6     -1.40062184     -4.48242879      0.65954340
C      29      6     -0.27988514     -3.80316027      0.18012593
C      30      6      1.04172526     -4.44919067      0.18416453
C      31      6      1.47664386     -5.17547041      1.29092711
C      32      6      2.72316801     -5.77430364      1.29592933
C      33      6      3.55233459     -5.66748176      0.19132290
C      34      6      3.12807371     -4.95345293     -0.91719906
C      35      6      1.88652384     -4.34395862     -0.91902541
C      36      6     -0.41962512     -2.49997294     -0.30296572
C      37      6     -1.66201175     -1.90895234     -0.29472670
C      38      6      0.53849726      2.06208980      0.46945093
C      39      6      1.80596158      2.45562285      0.23602458
O      40      8      2.36357986      3.34649172      1.10286592
C      41      6      3.67676733      3.69289984      0.92941189
C      42      6      4.17392066      4.67659713      1.76931988
C      43      6      5.49966867      5.06133212      1.68504342
C      44      6      6.32166765      4.44914853      0.75524182
C      45      6      5.82932996      3.46852141     -0.08653013
C      46      6      4.49226232      3.06869455     -0.02804157
H      47      1      2.30503969     -0.57714302      3.11803779
H      48      1      1.56696398     -0.38712893      1.52663210
H      49      1      2.08104038     -1.98371273      2.07303794
H      50      1      4.46057758     -1.22371315      2.05576110
H      51      1      3.93858956      0.37453365      1.52191695
H      52      1      3.02059829     -0.60534552     -0.55773267
H      53      1      3.43702201     -2.22085459      0.00343250
H      54      1      5.83409715     -1.66780845     -0.03527869
H      55      1      5.07565971     -1.52696077     -1.61896703
H      56      1      5.81293167      0.78440880      0.22788384
H      57      1      6.69349078      0.25716802     -1.19905103
H      58      1      4.25540836      0.66311618     -2.32640110
H      59      1      5.48833408      1.91077381     -2.25699762
H      60      1      2.38239293      0.87824492     -2.72682294
H      61      1      0.23291674     -0.00970588     -2.16971872
H      62      1     -0.08893528      1.69546202     -2.45001680
H      63      1     -1.61815753      0.70186583      1.03093440
H      64      1     -1.89237077     -0.39074814     -1.81087735
H      65      1     -4.08678723      1.49215530     -1.00171762
H      66      1     -8.27752415      0.22277758     -1.14842381
H      67      1     -9.89323954      2.05931050     -1.38292229
H      68      1     -9.25629119      4.35957193     -0.75300290
H      69      1     -6.99034273      4.80752286      0.11910864
H      70      1     -5.37906622      2.96934588      0.37013281
H      71      1     -7.18459847     -0.99123388      0.59953755
H      72      1     -5.59198977     -2.84437213      0.89201600
H      73      1     -3.50742852     -4.43209032      1.04782466
H      74      1     -1.28740857     -5.49678213      1.01494956
H      75      1      0.83983972     -5.25044379      2.16100685
H      76      1      3.04988269     -6.32632867      2.16582682
H      77      1      4.52447381     -6.13867754      0.19460890
H      78      1      3.76842597     -4.87095630     -1.78382973
H      79      1      1.55684611     -3.79615917     -1.79008761
H      80      1      0.44998221     -1.95818800     -0.64370002
H      81      1      0.04393104      2.40962432      1.36412022
H      82      1      3.50081216      5.11912360      2.48746295
H      83      1      5.88312609      5.82594296      2.34231345
H      84      1      7.36030225      4.73418450      0.67976883
H      85      1      6.50109687      3.01433200     -0.79449363
 [GTO]
           1   0
s              4   1.000000
     36.84775529     -0.01198412
      6.34548836     -0.05472053
      0.50988707      0.58055871
      0.19433058      0.47700799
p              4   1.000000
      5.93897840      0.05713170
      1.53988842      0.28574555
      0.54285832      0.55178731
      0.21612125      0.26323149
s              7   1.000000
      0.38350848     -0.19456053
      0.04707223      0.94004496
      0.02222627      0.24687008
     36.84775529      0.00524127
      6.34548836      0.02393208
      0.50988707     -0.25390801
      0.19433058     -0.20861999
p              7   1.000000
      1.83062075     -0.01151869
      0.10124670      0.56604631
      0.03901771      0.59115129
      5.93897840     -0.02400394
      1.53988842     -0.12005628
      0.54285832     -0.23183400
      0.21612125     -0.11059698
 
           2   0
s              4   1.000000
     36.86270458     -0.01198412
      6.34806275     -0.05472052
      0.51009393      0.58055871
      0.19440942      0.47700799
p              4   1.000000
      5.94138787      0.05713170
      1.54051315      0.28574555
      0.54307856      0.55178731
      0.21620893      0.26323149
s              7   1.000000
      0.38350848     -0.19454837
      0.04707223      0.93998624
      0.02222627      0.24685465
     36.86270458      0.00523923
      6.34806275      0.02392277
      0.51009393     -0.25380923
      0.19440942     -0.20853882
p              7   1.000000
      1.83062075     -0.01151802
      0.10124670      0.56601312
      0.03901771      0.59111662
      5.94138787     -0.02399456
      1.54051315     -0.12000936
      0.54307856     -0.23174339
      0.21620893     -0.11055375
 
           3   0
s              4   1.000000
     36.93266148     -0.01198412
      6.36010991     -0.05472052
      0.51106197      0.58055871
      0.19477837      0.47700799
p              4   1.000000
      5.95266325      0.05713170
      1.54343669      0.28574555
      0.54410920      0.55178731
      0.21661925      0.26323149
s              7   1.000000
      0.38350848     -0.19449168
      0.04707223      0.93971234
      0.02222627      0.24678272
     36.93266148      0.00522971
      6.36010991      0.02387929
      0.51106197     -0.25334794
      0.19477837     -0.20815982
p              7   1.000000
      1.83062075     -0.01151487
      0.10124670      0.56585828
      0.03901771      0.59095491
      5.95266325     -0.02395075
      1.54343669     -0.11979025
      0.54410920     -0.23132027
      0.21661925     -0.11035190
 
           4   0
s              4   1.000000
     36.90628031     -0.01198412
      6.35556686     -0.05472052
      0.51069692      0.58055871
      0.19463923      0.47700799
p              4   1.000000
      5.94841124      0.05713170
      1.54233421      0.28574555
      0.54372054      0.55178731
      0.21646451      0.26323149
s              7   1.000000
      0.38350848     -0.19451303
      0.04707223      0.93981547
      0.02222627      0.24680980
     36.90628031      0.00523329
      6.35556686      0.02389567
      0.51069692     -0.25352170
      0.19463923     -0.20830258
p              7   1.000000
      1.83062075     -0.01151606
      0.10124670      0.56591658
      0.03901771      0.59101580
      5.94841124     -0.02396725
      1.54233421     -0.11987279
      0.54372054     -0.23147966
      0.21646451     -0.11042794
 
           5   0
s              4   1.000000
     36.91829871     -0.01198412
      6.35763652     -0.05472053
      0.51086322      0.58055871
      0.19470262      0.47700799
p              4   1.000000
      5.95034831      0.05713170
      1.54283646      0.28574555
      0.54389760      0.55178731
      0.21653501      0.26323149
s              7   1.000000
      0.38350848     -0.19450330
      0.04707223      0.93976846
      0.02222627      0.24679747
     36.91829871      0.00523166
      6.35763652      0.02388821
      0.51086322     -0.25344252
      0.19470262     -0.20823752
p              7   1.000000
      1.83062075     -0.01151551
      0.10124670      0.56589001
      0.03901771      0.59098805
      5.95034831     -0.02395973
      1.54283646     -0.11983517
      0.54389760     -0.23140702
      0.21653501     -0.11039329
 
           6   0
s              4   1.000000
     37.07238297     -0.01198412
      6.38417111     -0.05472052
      0.51299539      0.58055871
      0.19551524      0.47700800
p              4   1.000000
      5.97518302      0.05713170
      1.54927573      0.28574555
      0.54616764      0.55178731
      0.21743875      0.26323149
s              7   1.000000
      0.38350848     -0.19437931
      0.04707223      0.93916939
      0.02222627      0.24664013
     37.07238297      0.00521079
      6.38417111      0.02379292
      0.51299539     -0.25243151
      0.19551524     -0.20740684
p              7   1.000000
      1.83062075     -0.01150862
      0.10124670      0.56555138
      0.03901771      0.59063442
      5.97518302     -0.02386371
      1.54927573     -0.11935492
      0.54616764     -0.23047964
      0.21743875     -0.10995088
 
           7   0
s              4   1.000000
     60.98761624     -0.01198412
     10.50257217     -0.05472052
      0.84392649      0.58055871
      0.32164127      0.47700799
p              4   1.000000
      7.18873084      0.05713170
      1.86393056      0.28574555
      0.65709320      0.55178731
      0.26160013      0.26323149
s              7   1.000000
      0.47894987     -0.18784761
      0.05878681      0.90761061
      0.02775758      0.23835233
     60.98761624      0.00398351
     10.50257217      0.01818904
      0.84392649     -0.19297708
      0.32164127     -0.15855694
p              7   1.000000
      2.28619608     -0.01157214
      0.12644335      0.56867275
      0.04872781      0.59389420
      7.18873084     -0.02473680
      1.86393056     -0.12372166
      0.65709320     -0.23891201
      0.26160013     -0.11397356
 
           8   0
s              4   1.000000
     35.13171676     -0.01198412
      6.04997233     -0.05472052
      0.48614109      0.58055871
      0.18528040      0.47700799
p              4   1.000000
      5.66239396      0.05713170
      1.46817420      0.28574555
      0.51757684      0.55178731
      0.20605626      0.26323149
s              7   1.000000
      0.38350848     -0.19604816
      0.04707223      0.94723269
      0.02222627      0.24875769
     35.13171676      0.00548610
      6.04997233      0.02504999
      0.48614109     -0.26576848
      0.18528040     -0.21836498
p              7   1.000000
      1.83062075     -0.01160138
      0.10124670      0.57010963
      0.03901771      0.59539484
      5.66239396     -0.02513008
      1.46817420     -0.12568866
      0.51757684     -0.24271037
      0.20605626     -0.11578558
 
           9   0
s              4   1.000000
     34.96351315     -0.01198412
      6.02100628     -0.05472053
      0.48381355      0.58055871
      0.18439332      0.47700799
p              4   1.000000
      5.63528355      0.05713170
      1.46114488      0.28574555
      0.51509878      0.55178731
      0.20506970      0.26323149
s              7   1.000000
      0.38350848     -0.19620452
      0.04707223      0.94798813
      0.02222627      0.24895607
     34.96351315      0.00551130
      6.02100628      0.02516508
      0.48381355     -0.26698956
      0.18439332     -0.21936826
p              7   1.000000
      1.83062075     -0.01161007
      0.10124670      0.57053674
      0.03901771      0.59584086
      5.63528355     -0.02524598
      1.46114488     -0.12626839
      0.51509878     -0.24382984
      0.20506970     -0.11631962
 
          10   0
s              4   1.000000
     37.03962391     -0.01198412
      6.37852973     -0.05472053
      0.51254208      0.58055871
      0.19534247      0.47700799
p              4   1.000000
      5.96990304      0.05713170
      1.54790671      0.28574555
      0.54568502      0.55178731
      0.21724661      0.26323149
s              7   1.000000
      0.38350848     -0.19440555
      0.04707223      0.93929619
      0.02222627      0.24667345
     37.03962391      0.00521521
      6.37852973      0.02381311
      0.51254208     -0.25264580
      0.19534247     -0.20758290
p              7   1.000000
      1.83062075     -0.01151008
      0.10124670      0.56562306
      0.03901771      0.59070927
      5.96990304     -0.02388407
      1.54790671     -0.11945672
      0.54568502     -0.23067621
      0.21724661     -0.11004465
 
          11   0
s              4   1.000000
     34.92619020     -0.01198412
      6.01457896     -0.05472052
      0.48329708      0.58055871
      0.18419648      0.47700799
p              4   1.000000
      5.62926799      0.05713170
      1.45958513      0.28574555
      0.51454893      0.55178731
      0.20485079      0.26323149
s              7   1.000000
      0.38350848     -0.19623949
      0.04707223      0.94815708
      0.02222627      0.24900043
     34.92619020      0.00551693
      6.01457896      0.02519076
      0.48329708     -0.26726200
      0.18419648     -0.21959210
p              7   1.000000
      1.83062075     -0.01161202
      0.10124670      0.57063226
      0.03901771      0.59594063
      5.62926799     -0.02527184
      1.45958513     -0.12639773
      0.51454893     -0.24407960
      0.20485079     -0.11643878
 
          12   0
s              4   1.000000
     35.00461325     -0.01198412
      6.02808405     -0.05472053
      0.48438227      0.58055871
      0.18461007      0.47700800
p              4   1.000000
      5.64190791      0.05713170
      1.46286247      0.28574555
      0.51570429      0.55178731
      0.20531076      0.26323149
s              7   1.000000
      0.38350848     -0.19616613
      0.04707223      0.94780266
      0.02222627      0.24890737
     35.00461325      0.00550512
      6.02808405      0.02513687
      0.48438227     -0.26669017
      0.18461007     -0.21912227
p              7   1.000000
      1.83062075     -0.01160794
      0.10124670      0.57043187
      0.03901771      0.59573135
      5.64190791     -0.02521757
      1.46286247     -0.12612625
      0.51570429     -0.24355538
      0.20531076     -0.11618869
 
          13   0
s              4   1.000000
     37.24657519     -0.01198412
      6.41416845     -0.05472053
      0.51540580      0.58055871
      0.19643391      0.47700799
p              4   1.000000
      6.00325864      0.05713170
      1.55655532      0.28574555
      0.54873392      0.55178731
      0.21846043      0.26323149
s              7   1.000000
      0.38350848     -0.19424079
      0.04707223      0.93850011
      0.02222627      0.24646436
     37.24657519      0.00518739
      6.41416845      0.02368607
      0.51540580     -0.25129796
      0.19643391     -0.20647548
p              7   1.000000
      1.83062075     -0.01150093
      0.10124670      0.56517308
      0.03901771      0.59023933
      6.00325864     -0.02375605
      1.55655532     -0.11881645
      0.54873392     -0.22943982
      0.21846043     -0.10945483
 
          14   0
s              4   1.000000
     35.41121712     -0.01198412
      6.09810460     -0.05472052
      0.49000872      0.58055871
      0.18675445      0.47700799
p              4   1.000000
      5.70744274      0.05713170
      1.47985468      0.28574555
      0.52169457      0.55178731
      0.20769560      0.26323149
s              7   1.000000
      0.38350848     -0.19579272
      0.04707223      0.94599845
      0.02222627      0.24843355
     35.41121712      0.00544471
      6.09810460      0.02486101
      0.49000872     -0.26376347
      0.18675445     -0.21671758
p              7   1.000000
      1.83062075     -0.01158718
      0.10124670      0.56941185
      0.03901771      0.59466610
      5.70744274     -0.02493974
      1.47985468     -0.12473670
      0.52169457     -0.24087209
      0.20769560     -0.11490862
 
          15   0
s              4   1.000000
     35.04106850     -0.01198412
      6.03436195     -0.05472053
      0.48488673      0.58055871
      0.18480234      0.47700799
p              4   1.000000
      5.64778362      0.05713170
      1.46438596      0.28574555
      0.51624137      0.55178731
      0.20552458      0.26323149
s              7   1.000000
      0.38350848     -0.19613218
      0.04707223      0.94763862
      0.02222627      0.24886428
     35.04106850      0.00549965
      6.03436195      0.02511189
      0.48488673     -0.26642518
      0.18480234     -0.21890454
p              7   1.000000
      1.83062075     -0.01160605
      0.10124670      0.57033913
      0.03901771      0.59563450
      5.64778362     -0.02519241
      1.46438596     -0.12600044
      0.51624137     -0.24331243
      0.20552458     -0.11607279
 
          16   0
s              4   1.000000
     35.09612729     -0.01198412
      6.04384353     -0.05472052
      0.48564862      0.58055871
      0.18509271      0.47700800
p              4   1.000000
      5.65665779      0.05713170
      1.46668690      0.28574555
      0.51705252      0.55178731
      0.20584752      0.26323149
s              7   1.000000
      0.38350848     -0.19608108
      0.04707223      0.94739172
      0.02222627      0.24879944
     35.09612729      0.00549141
      6.04384353      0.02507426
      0.48564862     -0.26602593
      0.18509271     -0.21857650
p              7   1.000000
      1.83062075     -0.01160321
      0.10124670      0.57019955
      0.03901771      0.59548873
      5.65665779     -0.02515451
      1.46668690     -0.12581089
      0.51705252     -0.24294640
      0.20584752     -0.11589818
 
          17   0
s              4   1.000000
     35.09069440     -0.01198412
      6.04290794     -0.05472053
      0.48557344      0.58055871
      0.18506406      0.47700799
p              4   1.000000
      5.65578213      0.05713170
      1.46645985      0.28574555
      0.51697248      0.55178730
      0.20581565      0.26323149
s              7   1.000000
      0.38350848     -0.19608611
      0.04707223      0.94741604
      0.02222627      0.24880583
     35.09069440      0.00549222
      6.04290794      0.02507797
      0.48557344     -0.26606527
      0.18506406     -0.21860883
p              7   1.000000
      1.83062075     -0.01160349
      0.10124670      0.57021329
      0.03901771      0.59550310
      5.65578213     -0.02515825
      1.46645985     -0.12582957
      0.51697248     -0.24298247
      0.20581565     -0.11591539
 
          18   0
s              4   1.000000
     35.01266062     -0.01198412
      6.02946988     -0.05472052
      0.48449363      0.58055871
      0.18465251      0.47700799
p              4   1.000000
      5.64320495      0.05713170
      1.46319878      0.28574555
      0.51582285      0.55178731
      0.20535796      0.26323149
s              7   1.000000
      0.38350848     -0.19615863
      0.04707223      0.94776641
      0.02222627      0.24889784
     35.01266062      0.00550391
      6.02946988      0.02513135
      0.48449363     -0.26663163
      0.18465251     -0.21907417
p              7   1.000000
      1.83062075     -0.01160752
      0.10124670      0.57041138
      0.03901771      0.59570995
      5.64320495     -0.02521201
      1.46319878     -0.12609846
      0.51582285     -0.24350171
      0.20535796     -0.11616309
 
          19   0
s              4   1.000000
     34.91626081     -0.01198412
      6.01286903     -0.05472053
      0.48315968      0.58055871
      0.18414411      0.47700800
p              4   1.000000
      5.62766760      0.05713170
      1.45917017      0.28574555
      0.51440264      0.55178730
      0.20479255      0.26323149
s              7   1.000000
      0.38350848     -0.19624880
      0.04707223      0.94820210
      0.02222627      0.24901226
     34.91626081      0.00551842
      6.01286903      0.02519760
      0.48315968     -0.26733457
      0.18414411     -0.21965173
p              7   1.000000
      1.83062075     -0.01161253
      0.10124670      0.57065771
      0.03901771      0.59596721
      5.62766760     -0.02527873
      1.45917017     -0.12643218
      0.51440264     -0.24414613
      0.20479255     -0.11647051
 
          20   0
s              4   1.000000
     34.91790320     -0.01198412
      6.01315187     -0.05472053
      0.48318241      0.58055871
      0.18415278      0.47700799
p              4   1.000000
      5.62793232      0.05713170
      1.45923881      0.28574555
      0.51442684      0.55178731
      0.20480219      0.26323149
s              7   1.000000
      0.38350848     -0.19624726
      0.04707223      0.94819466
      0.02222627      0.24901031
     34.91790320      0.00551818
      6.01315187      0.02519647
      0.48318241     -0.26732256
      0.18415278     -0.21964187
p              7   1.000000
      1.83062075     -0.01161245
      0.10124670      0.57065350
      0.03901771      0.59596280
      5.62793232     -0.02527759
      1.45923881     -0.12642648
      0.51442684     -0.24413513
      0.20480219     -0.11646526
 
          21   0
s              4   1.000000
     34.91616015     -0.01198412
      6.01285170     -0.05472052
      0.48315829      0.58055871
      0.18414358      0.47700799
p              4   1.000000
      5.62765138      0.05713170
      1.45916597      0.28574555
      0.51440116      0.55178731
      0.20479196      0.26323149
s              7   1.000000
      0.38350848     -0.19624890
      0.04707223      0.94820256
      0.02222627      0.24901238
     34.91616015      0.00551844
      6.01285170      0.02519767
      0.48315829     -0.26733530
      0.18414358     -0.21965234
p              7   1.000000
      1.83062075     -0.01161254
      0.10124670      0.57065797
      0.03901771      0.59596749
      5.62765138     -0.02527880
      1.45916597     -0.12643253
      0.51440116     -0.24414681
      0.20479196     -0.11647084
 
          22   0
s              4   1.000000
     35.01537870     -0.01198412
      6.02993795     -0.05472052
      0.48453124      0.58055871
      0.18466685      0.47700800
p              4   1.000000
      5.64364304      0.05713170
      1.46331237      0.28574555
      0.51586289      0.55178731
      0.20537391      0.26323149
s              7   1.000000
      0.38350848     -0.19615609
      0.04707223      0.94775416
      0.02222627      0.24889462
     35.01537870      0.00550351
      6.02993795      0.02512948
      0.48453124     -0.26661187
      0.18466685     -0.21905793
p              7   1.000000
      1.83062075     -0.01160738
      0.10124670      0.57040445
      0.03901771      0.59570275
      5.64364304     -0.02521013
      1.46331237     -0.12608908
      0.51586289     -0.24348359
      0.20537391     -0.11615444
 
          23   0
s              4   1.000000
     35.01878467     -0.01198412
      6.03052449     -0.05472052
      0.48457837      0.58055871
      0.18468481      0.47700799
p              4   1.000000
      5.64419200      0.05713170
      1.46345470      0.28574555
      0.51591307      0.55178731
      0.20539388      0.26323149
s              7   1.000000
      0.38350848     -0.19615292
      0.04707223      0.94773883
      0.02222627      0.24889060
     35.01878467      0.00550299
      6.03052449      0.02512715
      0.48457837     -0.26658710
      0.18468481     -0.21903758
p              7   1.000000
      1.83062075     -0.01160720
      0.10124670      0.57039579
      0.03901771      0.59569368
      5.64419200     -0.02520778
      1.46345470     -0.12607732
      0.51591307     -0.24346088
      0.20539388     -0.11614361
 
          24   0
s              4   1.000000
     34.94258696     -0.01198412
      6.01740261     -0.05472052
      0.48352397      0.58055871
      0.18428295      0.47700799
p              4   1.000000
      5.63191075      0.05713170
      1.46027036      0.28574555
      0.51479049      0.55178730
      0.20494697      0.26323149
s              7   1.000000
      0.38350848     -0.19622411
      0.04707223      0.94808280
      0.02222627      0.24898093
     34.94258696      0.00551445
      6.01740261      0.02517948
      0.48352397     -0.26714224
      0.18428295     -0.21949371
p              7   1.000000
      1.83062075     -0.01161116
      0.10124670      0.57059026
      0.03901771      0.59589677
      5.63191075     -0.02526048
      1.46027036     -0.12634087
      0.51479049     -0.24396982
      0.20494697     -0.11638640
 
          25   0
s              4   1.000000
     35.33978495     -0.01198412
      6.08580339     -0.05472053
      0.48902027      0.58055871
      0.18637773      0.47700800
p              4   1.000000
      5.69592958      0.05713170
      1.47686949      0.28574555
      0.52064220      0.55178731
      0.20727663      0.26323149
s              7   1.000000
      0.38350848     -0.19585749
      0.04707223      0.94631141
      0.02222627      0.24851574
     35.33978495      0.00545523
      6.08580339      0.02490904
      0.48902027     -0.26427307
      0.18637773     -0.21713629
p              7   1.000000
      1.83062075     -0.01159078
      0.10124670      0.56958878
      0.03901771      0.59485087
      5.69592958     -0.02498812
      1.47686949     -0.12497866
      0.52064220     -0.24133932
      0.20727663     -0.11513152
 
          26   0
s              4   1.000000
     35.33796340     -0.01198412
      6.08548971     -0.05472052
      0.48899506      0.58055871
      0.18636812      0.47700800
p              4   1.000000
      5.69563599      0.05713170
      1.47679336      0.28574555
      0.52061536      0.55178731
      0.20726595      0.26323149
s              7   1.000000
      0.38350848     -0.19585915
      0.04707223      0.94631941
      0.02222627      0.24851784
     35.33796340      0.00545550
      6.08548971      0.02491027
      0.48899506     -0.26428609
      0.18636812     -0.21714699
p              7   1.000000
      1.83062075     -0.01159087
      0.10124670      0.56959330
      0.03901771      0.59485560
      5.69563599     -0.02498935
      1.47679336     -0.12498484
      0.52061536     -0.24135126
      0.20726595     -0.11513721
 
          27   0
s              4   1.000000
     34.94365502     -0.01198412
      6.01758654     -0.05472052
      0.48353875      0.58055871
      0.18428859      0.47700799
p              4   1.000000
      5.63208290      0.05713170
      1.46031499      0.28574555
      0.51480622      0.55178731
      0.20495323      0.26323149
s              7   1.000000
      0.38350848     -0.19622311
      0.04707223      0.94807796
      0.02222627      0.24897967
     34.94365502      0.00551429
      6.01758654      0.02517874
      0.48353875     -0.26713444
      0.18428859     -0.21948730
p              7   1.000000
      1.83062075     -0.01161111
      0.10124670      0.57058753
      0.03901771      0.59589390
      5.63208290     -0.02525974
      1.46031499     -0.12633717
      0.51480622     -0.24396267
      0.20495323     -0.11638299
 
          28   0
s              4   1.000000
     35.01747310     -0.01198412
      6.03029862     -0.05472052
      0.48456023      0.58055871
      0.18467790      0.47700799
p              4   1.000000
      5.64398061      0.05713170
      1.46339989      0.28574555
      0.51589375      0.55178731
      0.20538619      0.26323149
s              7   1.000000
      0.38350848     -0.19615414
      0.04707223      0.94774473
      0.02222627      0.24889216
     35.01747310      0.00550319
      6.03029862      0.02512805
      0.48456023     -0.26659664
      0.18467790     -0.21904542
p              7   1.000000
      1.83062075     -0.01160727
      0.10124670      0.57039912
      0.03901771      0.59569716
      5.64398061     -0.02520869
      1.46339989     -0.12608184
      0.51589375     -0.24346962
      0.20538619     -0.11614778
 
          29   0
s              4   1.000000
     35.09984611     -0.01198412
      6.04448394     -0.05472052
      0.48570008      0.58055871
      0.18511232      0.47700799
p              4   1.000000
      5.65725717      0.05713170
      1.46684231      0.28574555
      0.51710731      0.55178731
      0.20586933      0.26323149
s              7   1.000000
      0.38350848     -0.19607764
      0.04707223      0.94737508
      0.02222627      0.24879508
     35.09984611      0.00549085
      6.04448394      0.02507172
      0.48570008     -0.26599900
      0.18511232     -0.21855438
p              7   1.000000
      1.83062075     -0.01160302
      0.10124670      0.57019014
      0.03901771      0.59547890
      5.65725717     -0.02515196
      1.46684231     -0.12579811
      0.51710731     -0.24292172
      0.20586933     -0.11588640
 
          30   0
s              4   1.000000
     35.09390889     -0.01198412
      6.04346150     -0.05472053
      0.48561792      0.58055871
      0.18508101      0.47700799
p              4   1.000000
      5.65630023      0.05713170
      1.46659419      0.28574555
      0.51701984      0.55178731
      0.20583451      0.26323149
s              7   1.000000
      0.38350848     -0.19608314
      0.04707223      0.94740166
      0.02222627      0.24880205
     35.09390889      0.00549174
      6.04346150      0.02507577
      0.48561792     -0.26604199
      0.18508101     -0.21858970
p              7   1.000000
      1.83062075     -0.01160332
      0.10124670      0.57020516
      0.03901771      0.59549460
      5.65630023     -0.02515604
      1.46659419     -0.12581852
      0.51701984     -0.24296113
      0.20583451     -0.11590521
 
          31   0
s              4   1.000000
     35.01447026     -0.01198412
      6.02978151     -0.05472052
      0.48451867      0.58055871
      0.18466206      0.47700799
p              4   1.000000
      5.64349662      0.05713170
      1.46327440      0.28574555
      0.51584951      0.55178731
      0.20536858      0.26323149
s              7   1.000000
      0.38350848     -0.19615694
      0.04707223      0.94775826
      0.02222627      0.24889570
     35.01447026      0.00550364
      6.02978151      0.02513011
      0.48451867     -0.26661847
      0.18466206     -0.21906336
p              7   1.000000
      1.83062075     -0.01160743
      0.10124670      0.57040678
      0.03901771      0.59570513
      5.64349662     -0.02521076
      1.46327440     -0.12609221
      0.51584951     -0.24348964
      0.20536858     -0.11615733
 
          32   0
s              4   1.000000
     34.91712446     -0.01198412
      6.01301776     -0.05472053
      0.48317163      0.58055871
      0.18414867      0.47700800
p              4   1.000000
      5.62780680      0.05713170
      1.45920627      0.28574555
      0.51441536      0.55178731
      0.20479762      0.26323149
s              7   1.000000
      0.38350848     -0.19624800
      0.04707223      0.94819819
      0.02222627      0.24901123
     34.91712446      0.00551829
      6.01301776      0.02519701
      0.48317163     -0.26732825
      0.18414867     -0.21964654
p              7   1.000000
      1.83062075     -0.01161249
      0.10124670      0.57065550
      0.03901771      0.59596490
      5.62780680     -0.02527813
      1.45920627     -0.12642918
      0.51441536     -0.24414035
      0.20479762     -0.11646775
 
          33   0
s              4   1.000000
     34.91893161     -0.01198412
      6.01332897     -0.05472053
      0.48319664      0.58055871
      0.18415820      0.47700799
p              4   1.000000
      5.62809807      0.05713170
      1.45928179      0.28574555
      0.51444199      0.55178731
      0.20480822      0.26323149
s              7   1.000000
      0.38350848     -0.19624630
      0.04707223      0.94818999
      0.02222627      0.24900909
     34.91893161      0.00551802
      6.01332897      0.02519576
      0.48319664     -0.26731505
      0.18415820     -0.21963569
p              7   1.000000
      1.83062075     -0.01161239
      0.10124670      0.57065087
      0.03901771      0.59596005
      5.62809807     -0.02527688
      1.45928179     -0.12642291
      0.51444199     -0.24412824
      0.20480822     -0.11646198
 
          34   0
s              4   1.000000
     34.91878394     -0.01198412
      6.01330354     -0.05472053
      0.48319460      0.58055871
      0.18415742      0.47700799
p              4   1.000000
      5.62807427      0.05713170
      1.45927562      0.28574555
      0.51443981      0.55178731
      0.20480735      0.26323149
s              7   1.000000
      0.38350848     -0.19624644
      0.04707223      0.94819066
      0.02222627      0.24900926
     34.91878394      0.00551804
      6.01330354      0.02519586
      0.48319460     -0.26731612
      0.18415742     -0.21963658
p              7   1.000000
      1.83062075     -0.01161240
      0.10124670      0.57065125
      0.03901771      0.59596045
      5.62807427     -0.02527698
      1.45927562     -0.12642342
      0.51443981     -0.24412923
      0.20480735     -0.11646245
 
          35   0
s              4   1.000000
     35.01784984     -0.01198412
      6.03036350     -0.05472052
      0.48456544      0.58055871
      0.18467988      0.47700800
p              4   1.000000
      5.64404133      0.05713170
      1.46341564      0.28574555
      0.51589930      0.55178731
      0.20538840      0.26323149
s              7   1.000000
      0.38350848     -0.19615379
      0.04707223      0.94774304
      0.02222627      0.24889170
     35.01784984      0.00550313
      6.03036350      0.02512779
      0.48456544     -0.26659390
      0.18467988     -0.21904317
p              7   1.000000
      1.83062075     -0.01160725
      0.10124670      0.57039817
      0.03901771      0.59569615
      5.64404133     -0.02520843
      1.46341564     -0.12608054
      0.51589930     -0.24346711
      0.20538840     -0.11614658
 
          36   0
s              4   1.000000
     35.04589998     -0.01198412
      6.03519397     -0.05472053
      0.48495359      0.58055871
      0.18482782      0.47700799
p              4   1.000000
      5.64856234      0.05713170
      1.46458787      0.28574555
      0.51631255      0.55178731
      0.20555292      0.26323149
s              7   1.000000
      0.38350848     -0.19612769
      0.04707223      0.94761690
      0.02222627      0.24885860
     35.04589998      0.00549893
      6.03519397      0.02510858
      0.48495359     -0.26639010
      0.18482782     -0.21887572
p              7   1.000000
      1.83062075     -0.01160580
      0.10124670      0.57032686
      0.03901771      0.59562167
      5.64856234     -0.02518908
      1.46458787     -0.12598379
      0.51631255     -0.24328027
      0.20555292     -0.11605745
 
          37   0
s              4   1.000000
     35.42529539     -0.01198412
      6.10052900     -0.05472052
      0.49020354      0.58055871
      0.18682870      0.47700800
p              4   1.000000
      5.70971183      0.05713170
      1.48044302      0.28574555
      0.52190198      0.55178731
      0.20777817      0.26323149
s              7   1.000000
      0.38350848     -0.19577999
      0.04707223      0.94593697
      0.02222627      0.24841741
     35.42529539      0.00544264
      6.10052900      0.02485156
      0.49020354     -0.26366326
      0.18682870     -0.21663525
p              7   1.000000
      1.83062075     -0.01158647
      0.10124670      0.56937710
      0.03901771      0.59462981
      5.70971183     -0.02493023
      1.48044302     -0.12468912
      0.52190198     -0.24078021
      0.20777817     -0.11486479
 
          38   0
s              4   1.000000
     35.02779095     -0.01198412
      6.03207545     -0.05472052
      0.48470300      0.58055871
      0.18473231      0.47700799
p              4   1.000000
      5.64564360      0.05713170
      1.46383108      0.28574555
      0.51604576      0.55178730
      0.20544671      0.26323149
s              7   1.000000
      0.38350848     -0.19614453
      0.04707223      0.94769830
      0.02222627      0.24887997
     35.02779095      0.00550164
      6.03207545      0.02512098
      0.48470300     -0.26652163
      0.18473231     -0.21898380
p              7   1.000000
      1.83062075     -0.01160674
      0.10124670      0.57037289
      0.03901771      0.59566973
      5.64564360     -0.02520157
      1.46383108     -0.12604624
      0.51604576     -0.24340086
      0.20544671     -0.11611498
 
          39   0
s              4   1.000000
     35.17956412     -0.01198412
      6.05821204     -0.05472052
      0.48680319      0.58055871
      0.18553274      0.47700799
p              4   1.000000
      5.67010581      0.05713170
      1.47017377      0.28574555
      0.51828175      0.55178731
      0.20633689      0.26323149
s              7   1.000000
      0.38350848     -0.19600405
      0.04707223      0.94701954
      0.02222627      0.24870172
     35.17956412      0.00547897
      6.05821204      0.02501744
      0.48680319     -0.26542313
      0.18553274     -0.21808122
p              7   1.000000
      1.83062075     -0.01159893
      0.10124670      0.56998913
      0.03901771      0.59526898
      5.67010581     -0.02509729
      1.47017377     -0.12552470
      0.51828175     -0.24239375
      0.20633689     -0.11563453
 
          40   0
s              4   1.000000
     78.10363464     -0.01198412
     13.45009216     -0.05472053
      1.08077230      0.58055871
      0.41190907      0.47700799
p              4   1.000000
      8.05426386      0.05713170
      2.08835035      0.28574555
      0.73620812      0.55178731
      0.29309714      0.26323149
s              7   1.000000
      0.57971233     -0.18685216
      0.07115450      0.90280096
      0.03359728      0.23708923
     78.10363464      0.00376596
     13.45009216      0.01719572
      1.08077230     -0.18243841
      0.41190907     -0.14989799
p              7   1.000000
      2.76717072     -0.01171681
      0.15304476      0.57578213
      0.05897927      0.60131890
      8.05426386     -0.02663506
      2.08835035     -0.13321590
      0.73620812     -0.25724579
      0.29309714     -0.12271974
 
          41   0
s              4   1.000000
     35.23076290     -0.01198412
      6.06702889     -0.05472052
      0.48751166      0.58055871
      0.18580276      0.47700799
p              4   1.000000
      5.67835783      0.05713170
      1.47231339      0.28574555
      0.51903603      0.55178731
      0.20663719      0.26323149
s              7   1.000000
      0.38350848     -0.19595702
      0.04707223      0.94679233
      0.02222627      0.24864203
     35.23076290      0.00547136
      6.06702889      0.02498270
      0.48751166     -0.26505456
      0.18580276     -0.21777839
p              7   1.000000
      1.83062075     -0.01159631
      0.10124670      0.56986067
      0.03901771      0.59513483
      5.67835783     -0.02506231
      1.47231339     -0.12534971
      0.51903603     -0.24205584
      0.20663719     -0.11547333
 
          42   0
s              4   1.000000
     34.97042652     -0.01198412
      6.02219682     -0.05472053
      0.48390921      0.58055871
      0.18442978      0.47700799
p              4   1.000000
      5.63639782      0.05713170
      1.46143379      0.28574555
      0.51520064      0.55178731
      0.20511025      0.26323149
s              7   1.000000
      0.38350848     -0.19619805
      0.04707223      0.94795690
      0.02222627      0.24894788
     34.97042652      0.00551026
      6.02219682      0.02516033
      0.48390921     -0.26693915
      0.18442978     -0.21932684
p              7   1.000000
      1.83062075     -0.01160971
      0.10124670      0.57051907
      0.03901771      0.59582242
      5.63639782     -0.02524120
      1.46143379     -0.12624446
      0.51520064     -0.24378363
      0.20511025     -0.11629758
 
          43   0
s              4   1.000000
     34.91191390     -0.01198412
      6.01212046     -0.05472052
      0.48309953      0.58055871
      0.18412119      0.47700799
p              4   1.000000
      5.62696699      0.05713170
      1.45898851      0.28574555
      0.51433860      0.55178731
      0.20476706      0.26323149
s              7   1.000000
      0.38350848     -0.19625289
      0.04707223      0.94822183
      0.02222627      0.24901745
     34.91191390      0.00551908
      6.01212046      0.02520060
      0.48309953     -0.26736635
      0.18412119     -0.21967784
p              7   1.000000
      1.83062075     -0.01161276
      0.10124670      0.57066886
      0.03901771      0.59597886
      5.62696699     -0.02528175
      1.45898851     -0.12644727
      0.51433860     -0.24417527
      0.20476706     -0.11648441
 
          44   0
s              4   1.000000
     34.91988324     -0.01198412
      6.01349284     -0.05472053
      0.48320981      0.58055871
      0.18416322      0.47700800
p              4   1.000000
      5.62825145      0.05713170
      1.45932156      0.28574555
      0.51445601      0.55178731
      0.20481380      0.26323149
s              7   1.000000
      0.38350848     -0.19624540
      0.04707223      0.94818568
      0.02222627      0.24900794
     34.91988324      0.00551788
      6.01349284      0.02519511
      0.48320981     -0.26730809
      0.18416322     -0.21962998
p              7   1.000000
      1.83062075     -0.01161235
      0.10124670      0.57064842
      0.03901771      0.59595750
      5.62825145     -0.02527622
      1.45932156     -0.12641961
      0.51445601     -0.24412186
      0.20481380     -0.11645893
 
          45   0
s              4   1.000000
     35.02116259     -0.01198412
      6.03093399     -0.05472053
      0.48461128      0.58055871
      0.18469735      0.47700800
p              4   1.000000
      5.64457527      0.05713170
      1.46355408      0.28574555
      0.51594810      0.55178731
      0.20540783      0.26323149
s              7   1.000000
      0.38350848     -0.19615071
      0.04707223      0.94772813
      0.02222627      0.24888780
     35.02116259      0.00550264
      6.03093399      0.02512552
      0.48461128     -0.26656981
      0.18469735     -0.21902338
p              7   1.000000
      1.83062075     -0.01160708
      0.10124670      0.57038974
      0.03901771      0.59568737
      5.64457527     -0.02520614
      1.46355408     -0.12606911
      0.51594810     -0.24344503
      0.20540783     -0.11613605
 
          46   0
s              4   1.000000
     35.21558961     -0.01198412
      6.06441593     -0.05472053
      0.48730170      0.58055871
      0.18572274      0.47700799
p              4   1.000000
      5.67591226      0.05713170
      1.47167929      0.28574555
      0.51881249      0.55178731
      0.20654819      0.26323149
s              7   1.000000
      0.38350848     -0.19597094
      0.04707223      0.94685957
      0.02222627      0.24865970
     35.21558961      0.00547361
      6.06441593      0.02499299
      0.48730170     -0.26516368
      0.18572274     -0.21786805
p              7   1.000000
      1.83062075     -0.01159709
      0.10124670      0.56989869
      0.03901771      0.59517451
      5.67591226     -0.02507266
      1.47167929     -0.12540152
      0.51881249     -0.24215589
      0.20654819     -0.11552106
 
          47   0
s              4   1.000000
      8.30567821      0.05675242
      1.51983678      0.26014135
      0.42222730      0.53284611
      0.14013344      0.29162544
s              7   1.000000
      0.92936822     -0.06733263
      0.05643440      0.66949724
      0.02166600      0.51464680
      8.30567821     -0.02903146
      1.51983678     -0.13307421
      0.42222730     -0.27257518
      0.14013344     -0.14917976
p              4   1.000000
      0.64737396      0.05713170
      0.16785440      0.28574555
      0.05917387      0.55178731
      0.02355814      0.26323150
 
          48   0
s              4   1.000000
      8.30654202      0.05675242
      1.51999485      0.26014135
      0.42227121      0.53284611
      0.14014802      0.29162544
s              7   1.000000
      0.92936822     -0.06733152
      0.05643440      0.66948617
      0.02166600      0.51463830
      8.30654202     -0.02902915
      1.51999485     -0.13306361
      0.42227121     -0.27255347
      0.14014802     -0.14916788
p              4   1.000000
      0.64737396      0.05713170
      0.16785440      0.28574555
      0.05917387      0.55178731
      0.02355814      0.26323150
 
          49   0
s              4   1.000000
      8.30615912      0.05675242
      1.51992478      0.26014135
      0.42225175      0.53284611
      0.14014156      0.29162544
s              7   1.000000
      0.92936822     -0.06733201
      0.05643440      0.66949108
      0.02166600      0.51464207
      8.30615912     -0.02903017
      1.51992478     -0.13306831
      0.42225175     -0.27256309
      0.14014156     -0.14917314
p              4   1.000000
      0.64737396      0.05713170
      0.16785440      0.28574555
      0.05917387      0.55178731
      0.02355814      0.26323150
 
          50   0
s              4   1.000000
      8.30803541      0.05675242
      1.52026812      0.26014135
      0.42234713      0.53284611
      0.14017322      0.29162544
s              7   1.000000
      0.92936822     -0.06732960
      0.05643440      0.66946706
      0.02166600      0.51462361
      8.30803541     -0.02902515
      1.52026812     -0.13304529
      0.42234713     -0.27251594
      0.14017322     -0.14914734
p              4   1.000000
      0.64737396      0.05713170
      0.16785440      0.28574555
      0.05917387      0.55178731
      0.02355814      0.26323150
 
          51   0
s              4   1.000000
      8.30868237      0.05675242
      1.52038651      0.26014135
      0.42238002      0.53284611
      0.14018413      0.29162544
s              7   1.000000
      0.92936822     -0.06732877
      0.05643440      0.66945879
      0.02166600      0.51461725
      8.30868237     -0.02902342
      1.52038651     -0.13303736
      0.42238002     -0.27249969
      0.14018413     -0.14913845
p              4   1.000000
      0.64737396      0.05713170
      0.16785440      0.28574555
      0.05917387      0.55178731
      0.02355814      0.26323150
 
          52   0
s              4   1.000000
      8.30985365      0.05675242
      1.52060084      0.26014135
      0.42243956      0.53284611
      0.14020389      0.29162543
s              7   1.000000
      0.92936822     -0.06732726
      0.05643440      0.66944380
      0.02166600      0.51460573
      8.30985365     -0.02902029
      1.52060084     -0.13302299
      0.42243956     -0.27247027
      0.14020389     -0.14912235
p              4   1.000000
      0.64737396      0.05713170
      0.16785440      0.28574555
      0.05917387      0.55178731
      0.02355814      0.26323150
 
          53   0
s              4   1.000000
      8.30906348      0.05675242
      1.52045625      0.26014135
      0.42239939      0.53284611
      0.14019056      0.29162544
s              7   1.000000
      0.92936822     -0.06732828
      0.05643440      0.66945390
      0.02166600      0.51461350
      8.30906348     -0.02902240
      1.52045625     -0.13303268
      0.42239939     -0.27249012
      0.14019056     -0.14913321
p              4   1.000000
      0.64737396      0.05713170
      0.16785440      0.28574555
      0.05917387      0.55178731
      0.02355814      0.26323150
 
          54   0
s              4   1.000000
      8.30828594      0.05675242
      1.52031396      0.26014135
      0.42235987      0.53284611
      0.14017744      0.29162544
s              7   1.000000
      0.92936822     -0.06732928
      0.05643440      0.66946385
      0.02166600      0.51462115
      8.30828594     -0.02902448
      1.52031396     -0.13304222
      0.42235987     -0.27250965
      0.14017744     -0.14914390
p              4   1.000000
      0.64737396      0.05713170
      0.16785440      0.28574555
      0.05917387      0.55178731
      0.02355814      0.26323150
 
          55   0
s              4   1.000000
      8.30823641      0.05675242
      1.52030490      0.26014135
      0.42235735      0.53284611
      0.14017661      0.29162544
s              7   1.000000
      0.92936822     -0.06732934
      0.05643440      0.66946450
      0.02166600      0.51462163
      8.30823641     -0.02902461
      1.52030490     -0.13304283
      0.42235735     -0.27251090
      0.14017661     -0.14914458
p              4   1.000000
      0.64737396      0.05713170
      0.16785440      0.28574555
      0.05917387      0.55178731
      0.02355814      0.26323150
 
          56   0
s              4   1.000000
      8.30919109      0.05675242
      1.52047960      0.26014135
      0.42240588      0.53284611
      0.14019271      0.29162544
s              7   1.000000
      0.92936822     -0.06732811
      0.05643440      0.66945228
      0.02166600      0.51461223
      8.30919109     -0.02902206
      1.52047960     -0.13303112
      0.42240588     -0.27248691
      0.14019271     -0.14913145
p              4   1.000000
      0.64737396      0.05713170
      0.16785440      0.28574555
      0.05917387      0.55178731
      0.02355814      0.26323150
 
          57   0
s              4   1.000000
      8.30816247      0.05675242
      1.52029137      0.26014135
      0.42235359      0.53284611
      0.14017536      0.29162543
s              7   1.000000
      0.92936822     -0.06732943
      0.05643440      0.66946544
      0.02166600      0.51462235
      8.30816247     -0.02902481
      1.52029137     -0.13304373
      0.42235359     -0.27251275
      0.14017536     -0.14914560
p              4   1.000000
      0.64737396      0.05713170
      0.16785440      0.28574555
      0.05917387      0.55178731
      0.02355814      0.26323150
 
          58   0
s              4   1.000000
      8.31000308      0.05675242
      1.52062818      0.26014135
      0.42244716      0.53284611
      0.14020642      0.29162544
s              7   1.000000
      0.92936822     -0.06732707
      0.05643440      0.66944190
      0.02166600      0.51460426
      8.31000308     -0.02901989
      1.52062818     -0.13302116
      0.42244716     -0.27246652
      0.14020642     -0.14912029
p              4   1.000000
      0.64737396      0.05713170
      0.16785440      0.28574555
      0.05917387      0.55178731
      0.02355814      0.26323150
 
          59   0
s              4   1.000000
      8.30801159      0.05675242
      1.52026376      0.26014135
      0.42234592      0.53284611
      0.14017281      0.29162544
s              7   1.000000
      0.92936822     -0.06732963
      0.05643440      0.66946737
      0.02166600      0.51462384
      8.30801159     -0.02902522
      1.52026376     -0.13304558
      0.42234592     -0.27251654
      0.14017281     -0.14914767
p              4   1.000000
      0.64737396      0.05713170
      0.16785440      0.28574555
      0.05917387      0.55178731
      0.02355814      0.26323150
 
          60   0
s              4   1.000000
      8.30944205      0.05675242
      1.52052552      0.26014135
      0.42241864      0.53284611
      0.14019695      0.29162544
s              7   1.000000
      0.92936822     -0.06732779
      0.05643440      0.66944907
      0.02166600      0.51460978
      8.30944205     -0.02902139
      1.52052552     -0.13302804
      0.42241864     -0.27248061
      0.14019695     -0.14912800
p              4   1.000000
      0.64737396      0.05713170
      0.16785440      0.28574555
      0.05917387      0.55178731
      0.02355814      0.26323150
 
          61   0
s              4   1.000000
      8.30924449      0.05675242
      1.52048937      0.26014135
      0.42240860      0.53284611
      0.14019362      0.29162544
s              7   1.000000
      0.92936822     -0.06732804
      0.05643440      0.66945159
      0.02166600      0.51461171
      8.30924449     -0.02902192
      1.52048937     -0.13303046
      0.42240860     -0.27248557
      0.14019362     -0.14913072
p              4   1.000000
      0.64737396      0.05713170
      0.16785440      0.28574555
      0.05917387      0.55178731
      0.02355814      0.26323150
 
          62   0
s              4   1.000000
      8.30824935      0.05675242
      1.52030727      0.26014135
      0.42235801      0.53284611
      0.14017683      0.29162544
s              7   1.000000
      0.92936822     -0.06732932
      0.05643440      0.66946433
      0.02166600      0.51462150
      8.30824935     -0.02902458
      1.52030727     -0.13304267
      0.42235801     -0.27251057
      0.14017683     -0.14914440
p              4   1.000000
      0.64737396      0.05713170
      0.16785440      0.28574555
      0.05917387      0.55178731
      0.02355814      0.26323150
 
          63   0
s              4   1.000000
      8.31002449      0.05675242
      1.52063210      0.26014135
      0.42244825      0.53284611
      0.14020678      0.29162544
s              7   1.000000
      0.92936822     -0.06732704
      0.05643440      0.66944162
      0.02166600      0.51460406
      8.31002449     -0.02901983
      1.52063210     -0.13302090
      0.42244825     -0.27246598
      0.14020678     -0.14912000
p              4   1.000000
      0.64737396      0.05713170
      0.16785440      0.28574555
      0.05917387      0.55178731
      0.02355814      0.26323150
 
          64   0
s              4   1.000000
      8.31122765      0.05675242
      1.52085226      0.26014135
      0.42250941      0.53284611
      0.14022708      0.29162544
s              7   1.000000
      0.92936822     -0.06732549
      0.05643440      0.66942624
      0.02166600      0.51459223
      8.31122765     -0.02901661
      1.52085226     -0.13300615
      0.42250941     -0.27243577
      0.14022708     -0.14910347
p              4   1.000000
      0.64737396      0.05713170
      0.16785440      0.28574555
      0.05917387      0.55178731
      0.02355814      0.26323150
 
          65   0
s              4   1.000000
      8.30952500      0.05675242
      1.52054070      0.26014135
      0.42242286      0.53284611
      0.14019835      0.29162544
s              7   1.000000
      0.92936822     -0.06732768
      0.05643440      0.66944800
      0.02166600      0.51460896
      8.30952500     -0.02902117
      1.52054070     -0.13302702
      0.42242286     -0.27247853
      0.14019835     -0.14912686
p              4   1.000000
      0.64737396      0.05713170
      0.16785440      0.28574555
      0.05917387      0.55178731
      0.02355814      0.26323150
 
          66   0
s              4   1.000000
      8.30934012      0.05675242
      1.52050687      0.26014135
      0.42241346      0.53284611
      0.14019523      0.29162544
s              7   1.000000
      0.92936822     -0.06732792
      0.05643440      0.66945037
      0.02166600      0.51461077
      8.30934012     -0.02902166
      1.52050687     -0.13302929
      0.42241346     -0.27248317
      0.14019523     -0.14912941
p              4   1.000000
      0.64737396      0.05713170
      0.16785440      0.28574555
      0.05917387      0.55178731
      0.02355814      0.26323150
 
          67   0
s              4   1.000000
      8.30881043      0.05675242
      1.52040994      0.26014135
      0.42238653      0.53284611
      0.14018629      0.29162544
s              7   1.000000
      0.92936822     -0.06732860
      0.05643440      0.66945715
      0.02166600      0.51461599
      8.30881043     -0.02902308
      1.52040994     -0.13303579
      0.42238653     -0.27249648
      0.14018629     -0.14913669
p              4   1.000000
      0.64737396      0.05713170
      0.16785440      0.28574555
      0.05917387      0.55178731
      0.02355814      0.26323150
 
          68   0
s              4   1.000000
      8.30872549      0.05675242
      1.52039440      0.26014135
      0.42238221      0.53284611
      0.14018486      0.29162544
s              7   1.000000
      0.92936822     -0.06732871
      0.05643440      0.66945823
      0.02166600      0.51461683
      8.30872549     -0.02902331
      1.52039440     -0.13303683
      0.42238221     -0.27249861
      0.14018486     -0.14913786
p              4   1.000000
      0.64737396      0.05713170
      0.16785440      0.28574555
      0.05917387      0.55178731
      0.02355814      0.26323150
 
          69   0
s              4   1.000000
      8.30881056      0.05675242
      1.52040997      0.26014135
      0.42238654      0.53284611
      0.14018629      0.29162544
s              7   1.000000
      0.92936822     -0.06732860
      0.05643440      0.66945714
      0.02166600      0.51461599
      8.30881056     -0.02902308
      1.52040997     -0.13303579
      0.42238654     -0.27249647
      0.14018629     -0.14913669
p              4   1.000000
      0.64737396      0.05713170
      0.16785440      0.28574555
      0.05917387      0.55178731
      0.02355814      0.26323150
 
          70   0
s              4   1.000000
      8.30939078      0.05675242
      1.52051614      0.26014135
      0.42241603      0.53284611
      0.14019608      0.29162544
s              7   1.000000
      0.92936822     -0.06732785
      0.05643440      0.66944972
      0.02166600      0.51461027
      8.30939078     -0.02902153
      1.52051614     -0.13302867
      0.42241603     -0.27248190
      0.14019608     -0.14912871
p              4   1.000000
      0.64737396      0.05713170
      0.16785440      0.28574555
      0.05917387      0.55178731
      0.02355814      0.26323150
 
          71   0
s              4   1.000000
      8.30948018      0.05675242
      1.52053250      0.26014135
      0.42242058      0.53284611
      0.14019759      0.29162544
s              7   1.000000
      0.92936822     -0.06732774
      0.05643440      0.66944858
      0.02166600      0.51460940
      8.30948018     -0.02902129
      1.52053250     -0.13302757
      0.42242058     -0.27247965
      0.14019759     -0.14912748
p              4   1.000000
      0.64737396      0.05713170
      0.16785440      0.28574555
      0.05917387      0.55178731
      0.02355814      0.26323150
 
          72   0
s              4   1.000000
      8.30894408      0.05675242
      1.52043440      0.26014135
      0.42239332      0.53284611
      0.14018855      0.29162544
s              7   1.000000
      0.92936822     -0.06732843
      0.05643440      0.66945544
      0.02166600      0.51461467
      8.30894408     -0.02902272
      1.52043440     -0.13303415
      0.42239332     -0.27249312
      0.14018855     -0.14913485
p              4   1.000000
      0.64737396      0.05713170
      0.16785440      0.28574555
      0.05917387      0.55178731
      0.02355814      0.26323150
 
          73   0
s              4   1.000000
      8.30894970      0.05675242
      1.52043543      0.26014135
      0.42239361      0.53284611
      0.14018864      0.29162544
s              7   1.000000
      0.92936822     -0.06732842
      0.05643440      0.66945537
      0.02166600      0.51461462
      8.30894970     -0.02902271
      1.52043543     -0.13303408
      0.42239361     -0.27249298
      0.14018864     -0.14913477
p              4   1.000000
      0.64737396      0.05713170
      0.16785440      0.28574555
      0.05917387      0.55178731
      0.02355814      0.26323150
 
          74   0
s              4   1.000000
      8.30945359      0.05675242
      1.52052763      0.26014135
      0.42241923      0.53284611
      0.14019714      0.29162544
s              7   1.000000
      0.92936822     -0.06732777
      0.05643440      0.66944892
      0.02166600      0.51460965
      8.30945359     -0.02902136
      1.52052763     -0.13302790
      0.42241923     -0.27248032
      0.14019714     -0.14912785
p              4   1.000000
      0.64737396      0.05713170
      0.16785440      0.28574555
      0.05917387      0.55178731
      0.02355814      0.26323150
 
          75   0
s              4   1.000000
      8.30936002      0.05675242
      1.52051051      0.26014135
      0.42241447      0.53284611
      0.14019556      0.29162544
s              7   1.000000
      0.92936822     -0.06732789
      0.05643440      0.66945011
      0.02166600      0.51461057
      8.30936002     -0.02902161
      1.52051051     -0.13302905
      0.42241447     -0.27248267
      0.14019556     -0.14912913
p              4   1.000000
      0.64737396      0.05713170
      0.16785440      0.28574555
      0.05917387      0.55178731
      0.02355814      0.26323150
 
          76   0
s              4   1.000000
      8.30882985      0.05675242
      1.52041349      0.26014135
      0.42238752      0.53284611
      0.14018662      0.29162544
s              7   1.000000
      0.92936822     -0.06732858
      0.05643440      0.66945690
      0.02166600      0.51461579
      8.30882985     -0.02902303
      1.52041349     -0.13303555
      0.42238752     -0.27249599
      0.14018662     -0.14913642
p              4   1.000000
      0.64737396      0.05713170
      0.16785440      0.28574555
      0.05917387      0.55178731
      0.02355814      0.26323150
 
          77   0
s              4   1.000000
      8.30876243      0.05675242
      1.52040116      0.26014135
      0.42238409      0.53284611
      0.14018548      0.29162544
s              7   1.000000
      0.92936822     -0.06732866
      0.05643440      0.66945776
      0.02166600      0.51461646
      8.30876243     -0.02902321
      1.52040116     -0.13303638
      0.42238409     -0.27249768
      0.14018548     -0.14913735
p              4   1.000000
      0.64737396      0.05713170
      0.16785440      0.28574555
      0.05917387      0.55178731
      0.02355814      0.26323150
 
          78   0
s              4   1.000000
      8.30888493      0.05675242
      1.52042357      0.26014135
      0.42239032      0.53284611
      0.14018755      0.29162544
s              7   1.000000
      0.92936822     -0.06732851
      0.05643440      0.66945619
      0.02166600      0.51461524
      8.30888493     -0.02902288
      1.52042357     -0.13303487
      0.42239032     -0.27249460
      0.14018755     -0.14913566
p              4   1.000000
      0.64737396      0.05713170
      0.16785440      0.28574555
      0.05917387      0.55178731
      0.02355814      0.26323150
 
          79   0
s              4   1.000000
      8.30945570      0.05675242
      1.52052802      0.26014135
      0.42241933      0.53284611
      0.14019718      0.29162544
s              7   1.000000
      0.92936822     -0.06732777
      0.05643440      0.66944889
      0.02166600      0.51460965
      8.30945570     -0.02902135
      1.52052802     -0.13302787
      0.42241933     -0.27248027
      0.14019718     -0.14912782
p              4   1.000000
      0.64737396      0.05713170
      0.16785440      0.28574555
      0.05917387      0.55178731
      0.02355814      0.26323150
 
          80   0
s              4   1.000000
      8.30996951      0.05675242
      1.52062204      0.26014135
      0.42244545      0.53284611
      0.14020585      0.29162544
s              7   1.000000
      0.92936822     -0.06732711
      0.05643440      0.66944232
      0.02166600      0.51460458
      8.30996951     -0.02901998
      1.52062204     -0.13302158
      0.42244545     -0.27246736
      0.14020585     -0.14912076
p              4   1.000000
      0.64737396      0.05713170
      0.16785440      0.28574555
      0.05917387      0.55178731
      0.02355814      0.26323150
 
          81   0
s              4   1.000000
      8.30975490      0.05675242
      1.52058277      0.26014135
      0.42243454      0.53284611
      0.14020223      0.29162544
s              7   1.000000
      0.92936822     -0.06732739
      0.05643440      0.66944507
      0.02166600      0.51460669
      8.30975490     -0.02902055
      1.52058277     -0.13302421
      0.42243454     -0.27247275
      0.14020223     -0.14912371
p              4   1.000000
      0.64737396      0.05713170
      0.16785440      0.28574555
      0.05917387      0.55178731
      0.02355814      0.26323150
 
          82   0
s              4   1.000000
      8.30920750      0.05675242
      1.52048260      0.26014135
      0.42240672      0.53284611
      0.14019299      0.29162544
s              7   1.000000
      0.92936822     -0.06732809
      0.05643440      0.66945206
      0.02166600      0.51461209
      8.30920750     -0.02902202
      1.52048260     -0.13303092
      0.42240672     -0.27248650
      0.14019299     -0.14913123
p              4   1.000000
      0.64737396      0.05713170
      0.16785440      0.28574555
      0.05917387      0.55178731
      0.02355814      0.26323150
 
          83   0
s              4   1.000000
      8.30885709      0.05675242
      1.52041848      0.26014135
      0.42238890      0.53284611
      0.14018708      0.29162544
s              7   1.000000
      0.92936822     -0.06732854
      0.05643440      0.66945655
      0.02166600      0.51461554
      8.30885709     -0.02902295
      1.52041848     -0.13303521
      0.42238890     -0.27249530
      0.14018708     -0.14913605
p              4   1.000000
      0.64737396      0.05713170
      0.16785440      0.28574555
      0.05917387      0.55178731
      0.02355814      0.26323150
 
          84   0
s              4   1.000000
      8.30901907      0.05675242
      1.52044812      0.26014135
      0.42239714      0.53284611
      0.14018981      0.29162544
s              7   1.000000
      0.92936822     -0.06732833
      0.05643440      0.66945447
      0.02166600      0.51461392
      8.30901907     -0.02902252
      1.52044812     -0.13303323
      0.42239714     -0.27249123
      0.14018981     -0.14913382
p              4   1.000000
      0.64737396      0.05713170
      0.16785440      0.28574555
      0.05917387      0.55178731
      0.02355814      0.26323150
 
          85   0
s              4   1.000000
      8.31020063      0.05675242
      1.52066433      0.26014135
      0.42245720      0.53284611
      0.14020975      0.29162544
s              7   1.000000
      0.92936822     -0.06732681
      0.05643440      0.66943936
      0.02166600      0.51460232
      8.31020063     -0.02901936
      1.52066433     -0.13301874
      0.42245720     -0.27246156
      0.14020975     -0.14911758
p              4   1.000000
      0.64737396      0.05713170
      0.16785440      0.28574555
      0.05917387      0.55178731
      0.02355814      0.26323150
 
 [MO]
 Sym= Hole
 Ene= -0.9338158    
 Spin= Alpha
 Occup= 0
           1  4.0863088E-04
           2 -6.3090719E-04
           3  7.6526409E-04
           4 -6.0615229E-04
           5 -2.3200353E-04
           6 -1.0074140E-03
           7 -6.9983043E-06
           8 -3.6200500E-04
           9  1.4188950E-04
          10  1.9193262E-04
          11 -5.9732050E-04
          12 -5.5586518E-04
          13  7.9721271E-05
          14 -3.4961128E-04
          15  9.3381917E-05
          16  2.4396769E-04
          17 -9.8185230E-04
          18  7.0346537E-04
          19  3.9313980E-03
          20 -2.3476149E-04
          21  4.9557583E-04
          22  6.0353288E-04
          23  5.0972889E-05
          24  5.2712829E-04
          25  1.7699864E-04
          26 -5.7188276E-04
          27 -5.4690766E-04
          28  2.9361795E-04
          29 -2.0558199E-04
          30  4.0993950E-04
          31 -3.8418124E-04
          32 -1.7973053E-04
          33  7.3575138E-05
          34 -2.2407995E-04
          35  1.4081820E-03
          36 -5.9334759E-04
          37 -6.1883678E-05
          38  1.0404121E-04
          39 -2.4340703E-04
          40  8.9550434E-05
          41  2.3285499E-04
          42 -1.6255492E-04
          43 -5.0761452E-04
          44  7.7177850E-05
          45 -1.0301537E-04
          46  1.0850190E-04
          47  1.5928395E-04
          48 -1.0680012E-04
          49  5.5621218E-05
          50 -1.1250701E-04
          51  3.5826287E-03
          52 -3.9624036E-03
          53  1.1096767E-04
          54 -2.0801654E-04
          55 -4.1527158E-04
          56  2.9434636E-04
          57 -3.5569249E-04
          58  3.2865104E-05
          59  1.0463482E-03
          60 -1.0551090E-03
          61 -6.5671491E-05
          62  1.7787358E-04
          63 -7.5399934E-04
          64  3.6283224E-04
          65  1.6045977E-03
          66 -4.3341010E-03
          67  9.0118367E-03
          68 -4.3024472E-03
          69 -1.1935986E-03
          70  1.0583797E-03
          71 -1.3106951E-03
          72  5.5687479E-04
          73  1.3829131E-03
          74  1.3083662E-03
          75 -3.7805948E-03
          76  3.5461590E-03
          77 -1.0928554E-03
          78  6.0686296E-05
          79  2.5817758E-04
          80 -6.1398605E-04
          81 -2.5271687E-03
          82 -2.0484777E-02
          83  3.5404194E-02
          84 -1.6563248E-02
          85  7.8865397E-04
          86  6.8686221E-04
          87 -1.9718609E-03
          88  1.2014528E-03
          89  2.6164986E-03
          90 -1.9107280E-02
          91  2.0472012E-02
          92 -5.6358553E-03
          93 -7.1302819E-04
          94  1.2939640E-03
          95 -1.6679079E-03
          96  1.1739081E-03
          97 -2.1824352E-03
          98  3.7003779E-03
          99 -3.5092151E-03
         100 -3.8908300E-04
         101  1.0854262E-03
         102  1.2846045E-04
         103  4.1904007E-04
         104 -5.7928111E-05
         105 -1.3843704E-03
         106 -6.5370440E-02
         107 -8.9557871E-02
         108 -0.2571543    
         109  1.7043364E-03
         110  1.5030749E-03
         111  3.4218690E-05
         112  6.4407516E-04
         113 -2.7126765E-03
         114  2.8678145E-02
         115  3.0938046E-02
         116  9.5446959E-02
         117  2.0951459E-03
         118 -5.0756760E-04
         119 -1.0243104E-03
         120  1.3576281E-04
         121 -1.0281819E-03
         122  7.0151091E-02
         123  0.1088842    
         124  0.3255706    
         125  2.7790715E-04
         126 -2.3445871E-03
         127 -1.8202333E-03
         128 -2.3541423E-03
         129  3.0730420E-04
         130  1.3009206E-02
         131 -1.7903830E-03
         132 -8.9793347E-02
         133 -7.9877995E-05
         134 -3.9311000E-03
         135 -3.0767003E-03
         136  1.3016239E-03
         137  2.1178702E-02
         138  7.4107945E-02
         139  1.9623158E-02
         140 -0.1044743    
         141 -1.0402285E-02
         142 -2.1265759E-03
         143 -4.1767117E-03
         144 -9.4804005E-04
         145 -6.9921459E-03
         146 -1.8283967E-02
         147  1.0360872E-03
         148  2.1616107E-02
         149  2.6128711E-03
         150  2.1736599E-03
         151 -2.0808107E-03
         152 -1.1986834E-03
         153  1.2642986E-04
         154 -3.8015109E-02
         155 -1.7539524E-02
         156  0.1225980    
         157 -3.7508908E-05
         158 -4.4080295E-04
         159 -8.1971003E-04
         160 -3.5066055E-03
         161  6.9942246E-03
         162 -3.6808269E-03
         163 -1.4602861E-02
         164  2.1552784E-02
         165 -2.5794420E-03
         166 -1.6200673E-03
         167  2.1583680E-03
         168 -1.7452495E-03
         169 -2.0922128E-02
         170  4.4435561E-02
         171  5.5799652E-02
         172 -0.1100783    
         173  1.0225914E-02
         174 -4.1018375E-03
         175 -1.6514156E-03
         176 -1.1969187E-03
         177  3.0050755E-03
         178  3.8198981E-02
         179  6.5460555E-02
         180  0.1651783    
         181 -1.9584922E-03
         182 -1.5464388E-03
         183  1.3253110E-04
         184  5.3622737E-04
         185 -1.4640497E-03
         186 -4.6889096E-02
         187 -8.0329619E-02
         188 -0.2161083    
         189  5.1847013E-04
         190 -6.0026022E-04
         191  2.9238716E-05
         192 -1.3208081E-04
         193 -8.6454308E-04
         194 -6.6199556E-02
         195 -0.1096640    
         196 -0.3031442    
         197  5.9259380E-04
         198  6.6084962E-05
         199 -7.1767165E-04
         200  9.0186758E-04
         201 -1.8267860E-04
         202  6.4055279E-02
         203  0.1144890    
         204  0.2990142    
         205 -2.6451991E-04
         206  4.1596731E-04
         207 -8.8759075E-04
         208 -5.2744208E-04
         209 -3.5065570E-04
         210  3.8690157E-02
         211  8.5622199E-02
         212  0.2154693    
         213  7.8353420E-05
         214  5.3032831E-04
         215  3.1015654E-05
         216  1.8483956E-04
         217  2.4828592E-03
         218 -2.4913630E-02
         219 -6.1843425E-02
         220 -0.1655622    
         221 -1.5794369E-03
         222  2.3856357E-04
         223 -1.1277174E-03
         224  2.9206893E-04
         225  4.0634969E-04
         226 -6.2000904E-02
         227 -0.1268829    
         228 -0.3164938    
         229 -6.6589273E-05
         230 -2.3605389E-04
         231 -1.9024962E-04
         232  3.6597841E-03
         233 -3.0286566E-04
         234  2.8948229E-02
         235  5.7677377E-02
         236  5.2738681E-02
         237 -1.4327064E-05
         238 -1.8720457E-03
         239 -4.0932172E-03
         240  2.5433057E-03
         241  2.1914463E-02
         242  2.9836493E-02
         243  0.1183216    
         244  2.0138975E-02
         245 -1.0875404E-02
         246 -2.3923027E-03
         247 -1.5690509E-03
         248  4.0887706E-03
         249 -7.3837610E-03
         250  5.2031194E-04
         251 -2.4935137E-02
         252 -4.6751164E-03
         253  2.7947535E-03
         254 -2.2294803E-03
         255  2.4131101E-03
         256  7.5293344E-04
         257  1.0774763E-04
         258 -4.7970209E-02
         259 -9.9050857E-02
         260 -5.1568035E-02
         261 -4.0261562E-05
         262  8.5339352E-04
         263  1.8036251E-03
         264  3.0589784E-03
         265  7.0652664E-03
         266 -1.9200930E-02
         267 -1.5417099E-02
         268 -4.6064481E-03
         269 -2.7423843E-03
         270  3.1409403E-03
         271 -1.2583479E-04
         272  7.5418246E-04
         273 -2.1175584E-02
         274  7.3919974E-02
         275  9.7724676E-02
         276  2.0119732E-02
         277  1.0311127E-02
         278  2.8267375E-04
         279 -2.7370013E-03
         280  3.6681022E-03
         281 -3.8148789E-03
         282 -1.6096419E-02
         283 -3.0384814E-02
         284 -9.2268497E-02
         285  1.5461270E-03
         286 -1.6109891E-03
         287 -3.5901568E-04
         288  4.2428132E-04
         289  3.7459906E-03
         290  4.9595144E-02
         291  0.1036541    
         292  0.2557678    
         293 -2.5225009E-03
         294 -3.3103768E-04
         295 -1.2449619E-03
         296 -1.0802209E-04
         297  8.5133004E-05
         298  5.0858231E-03
         299 -1.0348093E-02
         300  5.4764431E-03
         301 -1.7395439E-05
         302 -7.4728363E-04
         303  1.8031885E-03
         304 -1.3180709E-03
         305  4.9117953E-04
         306  7.1200803E-03
         307 -2.0096749E-02
         308  1.5278416E-02
         309 -6.6504261E-04
         310 -3.4087745E-04
         311  2.6995584E-03
         312 -2.1757756E-03
         313  2.1726848E-04
         314 -3.7671798E-03
         315  9.7295409E-03
         316 -7.5259265E-03
         317 -2.2439750E-04
         318  8.4153347E-04
         319 -2.3144500E-03
         320  1.8210601E-03
         321  7.2512637E-05
         322 -1.9277472E-04
         323  1.0658655E-03
         324 -1.3362885E-03
         325 -3.2535307E-05
         326 -5.2485499E-04
         327  8.5446227E-04
         328 -5.8671489E-04
         329 -1.5677436E-04
         330  1.5733212E-03
         331 -3.8865434E-03
         332  3.9590821E-03
         333  1.3374141E-04
         334 -4.7482044E-04
         335  7.8293128E-04
         336 -7.9313893E-04
         337  5.4474865E-05
         338  1.5739161E-04
         339 -6.1588269E-04
         340  5.6769128E-04
         341 -1.4921552E-05
         342  1.1022178E-04
         343 -3.4859302E-04
         344  3.8856725E-04
         345  1.7368080E-05
         346 -9.1028836E-04
         347  2.5277238E-03
         348 -2.4935592E-03
         349  9.6603017E-06
         350  2.2978881E-04
         351 -6.9811137E-04
         352  6.6330470E-04
         353 -1.2906273E-04
         354  8.7802007E-04
         355 -1.4435656E-03
         356  1.4377019E-03
         357  3.4643945E-05
         358  6.2594016E-05
         359 -1.2102544E-04
         360  1.4477491E-04
         361  1.0187332E-04
         362  6.9206109E-04
         363 -2.7960180E-03
         364  3.0250307E-03
         365 -6.4347056E-05
         366 -3.3499405E-04
         367  9.2605740E-04
         368 -1.0557449E-03
         369 -1.1202606E-04
         370  1.9127724E-04
         371 -5.7007746E-05
         372 -1.1002240E-04
         373 -2.2095081E-04
         374  5.3833582E-04
         375 -2.0713703E-04
         376  6.8118866E-04
         377  6.4388447E-04
         378  2.9256058E-04
         379  5.7070752E-06
         380  5.8296358E-04
         381 -8.8360015E-05
         382 -8.6987397E-04
         383 -7.2811166E-04
         384  7.3726504E-04
         385  4.1017352E-05
         386  9.0893009E-05
         387  1.1117294E-04
         388  2.6555135E-04
         389 -1.1672183E-03
         390  2.2598848E-04
         391  6.4659973E-05
         392 -4.5115702E-04
         393  2.1417197E-04
         394  4.8227655E-04
         395 -1.5214059E-04
         396  1.3843366E-04
         397 -3.0821728E-04
         398  4.9139879E-04
         399 -1.0623808E-03
         400  2.9638546E-04
         401 -6.4252329E-04
         402  4.4323487E-04
         403  2.7657123E-04
         404  6.8326452E-04
         405  3.1251759E-05
         406  2.3099346E-04
         407 -2.4854325E-04
         408 -1.2169217E-04
         409  2.6924201E-04
         410 -2.7164049E-05
         411  7.7087614E-05
         412 -1.9398786E-04
         413 -7.0356058E-05
         414  2.1300894E-04
         415  8.8452216E-05
         416  4.3015694E-05
         417  2.3917761E-04
         418  1.4995907E-04
         419  1.4723396E-05
         420  4.7803915E-05
         421 -2.3219782E-04
         422 -1.6135336E-05
         423  6.4275679E-05
         424  8.3958315E-05
         425 -1.0311544E-04
         426  2.2254599E-04
         427  1.1973827E-04
         428 -1.1181293E-04
         429 -1.5200260E-03
         430  3.9135054E-04
         431 -3.1671886E-04
         432 -1.9451085E-04
         433  3.1903593E-04
         434 -1.3865189E-03
         435  4.1758714E-05
         436 -2.6529966E-04
         437  1.5461410E-03
         438 -6.3967069E-05
         439  7.9665324E-03
         440 -2.5972885E-03
         441  3.7644958E-04
         442 -3.0520878E-04
         443  5.6161323E-05
         444 -1.4223569E-02
         445  2.6516137E-03
         446  6.0279970E-04
         447 -1.4618317E-03
         448  1.1044279E-03
         449  4.6396367E-03
         450 -9.1168616E-04
         451 -1.0268230E-03
         452  1.4997830E-03
         453 -1.0117644E-03
         454 -1.4069689E-03
         455  8.1963069E-04
         456 -7.4674812E-04
         457  1.3300879E-03
         458  1.2575732E-04
         459  1.3203409E-03
         460 -1.6794173E-04
         461  7.7488681E-04
         462  1.9177294E-03
         463  1.9358512E-03
         464 -6.9427867E-03
         465 -8.8637823E-04
         466  1.6927220E-03
         467  5.8704386E-03
         468 -2.3884948E-03
         469  1.1308459E-02
         470 -9.7255048E-05
         471 -5.9467880E-04
         472 -1.6445903E-03
         473  2.2563662E-03
         474 -1.2792060E-04
         475 -4.4063577E-06
         476 -2.1025708E-03
         477 -1.1273954E-03
         478  5.8573666E-03
         479 -1.1676180E-02
         480  1.2934215E-04
         481 -2.0130905E-03
         482 -1.2410553E-04
         483  1.9876983E-03
         484  7.0011462E-03
         485  7.6302193E-04
         486  6.1923442E-03
         487  7.5417536E-04
         488 -1.4967769E-03
         489 -2.9607488E-06
         490 -1.2305194E-04
         491  1.5157155E-03
         492  6.4545416E-04
         493  3.1871190E-03
         494  2.1643555E-03
         495 -7.0368245E-05
         496 -8.9375739E-04
         497 -1.1515091E-03
         498 -2.4181583E-03
         499  2.8360998E-03
         500 -4.3219687E-05
         501  5.0264731E-04
         502  6.6196889E-04
         503  2.6726767E-03
         504 -2.4593130E-04
         505  6.1087456E-05
         506 -1.1760601E-03
         507 -6.5947650E-04
         508 -3.3418408E-03
         509 -6.3651251E-03
         510 -9.8877004E-04
         511  5.3213290E-03
         512  2.7676777E-03
         513 -2.5307317E-03
         514  1.1643842E-02
         515 -6.6505359E-05
         516 -2.0555197E-03
         517 -1.7508230E-03
         518 -2.8265768E-04
         519 -1.5861813E-04
         520  3.4855817E-05
         521 -2.6173582E-03
         522 -5.2700210E-03
         523 -2.3152786E-03
         524 -1.1488007E-02
         525  1.9202568E-04
         526 -3.4512213E-04
         527 -2.7361866E-03
         528 -2.4593069E-04
         529  7.4819275E-03
         530  7.9002790E-04
         531 -7.8894454E-04
         532  6.2470147E-03
         533 -2.7217530E-03
         534  3.5182561E-04
         535 -4.3951430E-05
         536  2.5612567E-04
         537 -1.1308577E-03
         538 -3.0157021E-03
         539 -2.6024131E-03
         540  2.0012284E-04
         541  7.6639897E-04
         542 -2.2072408E-03
         543  1.0303055E-03
         544  1.0824171E-04
         545  7.2449671E-05
         546 -1.5032376E-04
         547 -2.1386115E-04
         548  1.8688725E-05
         549 -8.0993104E-06
         550  3.1766223E-05
         551 -7.0832953E-06
         552  3.5717712E-06
         553 -3.9538820E-05
         554 -4.8087575E-05
         555  4.3635362E-05
         556 -2.7552745E-04
         557  6.8538042E-04
         558 -6.0387404E-04
         559  2.0308791E-04
         560 -1.6947331E-06
         561  6.4344240E-05
         562 -2.0922643E-04
         563  2.4393386E-04
 Sym= Particle
 Ene= -0.9338158    
 Spin= Alpha
 Occup= 2
           1  1.0448839E-03
           2 -1.9280806E-03
           3 -1.0602569E-04
           4 -4.6324485E-04
           5 -1.7666912E-03
           6 -5.6081463E-04
           7 -1.2824783E-03
           8  2.1242118E-04
           9 -3.0450997E-04
          10  5.2841951E-04
          11  4.3442968E-04
          12  1.0179933E-03
          13 -2.6465501E-04
          14 -1.0840425E-03
          15 -3.8432720E-04
          16 -2.9216212E-04
          17  2.0822827E-03
          18 -1.7851951E-03
          19 -4.3963282E-03
          20 -7.3256344E-04
          21 -2.4941117E-03
          22  2.1005567E-04
          23  2.2710878E-03
          24  8.7036379E-04
          25 -2.4046935E-04
          26  9.4592350E-04
          27 -2.0563164E-05
          28 -7.8426424E-04
          29 -2.3764123E-04
          30 -3.8023872E-04
          31  2.6454323E-04
          32  5.4977430E-05
          33  2.3509095E-04
          34  1.9998921E-04
          35 -9.0626365E-04
          36  7.0281152E-04
          37 -1.6446813E-04
          38 -5.1147229E-04
          39  1.8596671E-04
          40 -4.9868348E-04
          41 -1.3967941E-05
          42 -1.8786140E-04
          43  4.4227057E-04
          44  4.3127581E-04
          45  6.9759641E-05
          46 -4.8860983E-04
          47 -3.2437223E-04
          48 -3.1483753E-04
          49 -8.7091676E-04
          50  7.1826356E-04
          51 -1.5489724E-03
          52  2.4446002E-03
          53  7.4014987E-04
          54 -7.9547474E-04
          55  1.7522647E-04
          56 -7.4714137E-04
          57  1.6990971E-03
          58 -6.1489601E-04
          59  1.2594737E-03
          60 -2.3776277E-03
          61 -1.2406328E-03
          62  1.3097727E-05
          63 -1.8725800E-04
          64  8.8878727E-04
          65 -2.3964136E-03
          66  6.1378707E-03
          67 -6.3597444E-03
          68  3.4357316E-03
          69  1.1080645E-03
          70 -2.9675073E-03
          71  3.4199923E-04
          72 -1.3875660E-03
          73 -3.2483254E-04
          74  5.4796477E-04
          75 -3.7791128E-03
          76 -1.0504779E-02
          77 -1.4965660E-03
          78 -5.1406823E-04
          79 -1.7547091E-04
          80  4.2955019E-03
          81 -9.4993822E-03
          82  2.7384775E-02
          83 -9.1307005E-03
          84  7.1396265E-04
          85 -7.0404483E-04
          86 -7.5660679E-03
          87  2.8481744E-03
          88 -2.1476718E-03
          89  4.3000225E-02
          90 -4.2951938E-02
          91 -3.3288740E-02
          92 -3.4374591E-02
          93 -3.8256917E-02
          94  1.7894557E-02
          95  1.6914671E-02
          96  1.9749827E-03
          97  4.3615587E-03
          98 -2.1878812E-03
          99  6.8469662E-03
         100 -7.7548414E-03
         101 -6.3579637E-03
         102 -1.9076871E-03
         103 -7.3171477E-03
         104 -1.2373733E-02
         105 -4.5547693E-04
         106 -5.0728202E-02
         107 -8.4441163E-02
         108 -0.2354118    
         109 -2.1769695E-03
         110  1.6823452E-02
         111  2.5102872E-02
         112  6.8668671E-02
         113  4.2294939E-03
         114 -4.3955281E-02
         115 -5.2364115E-02
         116 -0.1391260    
         117 -3.5849554E-03
         118  1.3660995E-02
         119  9.8506324E-03
         120  3.4021050E-02
         121 -4.1692492E-04
         122  7.8082211E-02
         123  0.1174840    
         124  0.3351765    
         125 -8.3486193E-05
         126 -2.2108236E-02
         127 -3.2859303E-02
         128 -8.0022655E-02
         129  2.5107765E-05
         130 -3.7009452E-02
         131 -1.9275384E-02
         132  9.9725299E-02
         133 -3.8211897E-04
         134  1.5392444E-02
         135  1.2289862E-02
         136 -6.2583960E-03
         137  1.9213514E-02
         138  7.2777584E-02
         139  2.6421571E-02
         140 -0.1117482    
         141 -1.6205102E-02
         142 -2.2953890E-02
         143  3.6491405E-05
         144  2.5726672E-02
         145 -6.5766708E-03
         146  5.1643001E-03
         147  1.0865490E-02
         148 -2.9800465E-02
         149  3.2051101E-03
         150  2.2069030E-03
         151 -8.6351839E-04
         152  2.1392466E-03
         153 -5.4935326E-06
         154 -4.2067055E-02
         155 -1.9599121E-02
         156  0.1325460    
         157  1.5662197E-04
         158  7.6039671E-03
         159  3.2449751E-03
         160 -2.3915594E-02
         161  6.7025619E-03
         162  1.5605046E-02
         163 -3.5231552E-04
         164 -2.9428720E-02
         165 -3.0611996E-03
         166 -4.7311175E-04
         167  1.7920439E-03
         168  1.8768189E-03
         169 -1.8947372E-02
         170  5.0608929E-02
         171  5.1566094E-02
         172 -0.1146701    
         173  1.5865928E-02
         174 -6.4549674E-03
         175 -1.9551367E-02
         176  2.7759878E-02
         177 -3.6810020E-03
         178 -3.6229394E-02
         179 -5.5543378E-02
         180 -0.1277578    
         181  2.4668239E-03
         182  7.5146104E-03
         183  1.3060540E-02
         184  3.0229485E-02
         185  1.8049976E-03
         186 -5.3337950E-02
         187 -8.5078105E-02
         188 -0.2377981    
         189 -8.2080322E-04
         190  1.2242825E-02
         191  2.4622658E-02
         192  6.4737111E-02
         193  7.9147884E-04
         194  6.8584926E-02
         195  0.1142615    
         196  0.3187893    
         197 -1.5496947E-03
         198 -1.6042361E-02
         199 -2.3501219E-02
         200 -7.2271921E-02
         201 -1.2018128E-03
         202  6.5907851E-02
         203  0.1201219    
         204  0.3095891    
         205 -1.3059921E-05
         206 -1.3654271E-02
         207 -2.6381606E-02
         208 -6.9395602E-02
         209 -1.4847523E-03
         210 -4.7474686E-02
         211 -8.9678183E-02
         212 -0.2331792    
         213  1.8618081E-04
         214  1.2047153E-02
         215  2.5663426E-02
         216  6.2417667E-02
         217  4.4150720E-03
         218 -1.5870932E-02
         219 -4.2127620E-02
         220 -0.1341553    
         221 -2.4735597E-03
         222  1.3561194E-03
         223  1.1940379E-02
         224  3.0335492E-02
         225 -1.0066021E-04
         226  6.0994245E-02
         227  0.1265333    
         228  0.3288912    
         229  4.6418249E-04
         230 -1.3566393E-02
         231 -2.6078187E-02
         232 -8.3532959E-02
         233 -3.6175497E-04
         234  4.2239409E-02
         235  8.6431742E-02
         236  3.7288759E-02
         237  7.1143423E-04
         238 -7.3345462E-03
         239 -1.5592042E-02
         240  9.6887322E-03
         241 -1.9234361E-02
         242 -3.9799694E-02
         243 -0.1213920    
         244 -2.3038397E-02
         245  1.6603688E-02
         246  1.3035244E-03
         247  3.2380763E-02
         248  4.7359713E-03
         249  6.5774494E-03
         250 -1.9478396E-02
         251 -2.2458613E-02
         252 -1.1748479E-02
         253 -2.5903694E-03
         254  1.9847960E-03
         255 -2.3190453E-04
         256  1.8107380E-03
         257  5.2197545E-05
         258  5.3101137E-02
         259  0.1096551    
         260  5.5723216E-02
         261  6.2637142E-04
         262 -9.8129865E-03
         263 -1.9092295E-02
         264 -1.0529910E-02
         265 -6.8251230E-03
         266 -4.9154982E-03
         267 -2.8241524E-02
         268 -1.1351778E-02
         269  4.2129899E-03
         270 -1.6442892E-03
         271  2.7568529E-03
         272  1.8562118E-03
         273  1.9668533E-02
         274 -7.1216792E-02
         275 -0.1059624    
         276 -2.3397882E-02
         277 -1.5851911E-02
         278  2.5840798E-02
         279  2.2394551E-02
         280  4.9264706E-03
         281 -4.7340300E-03
         282 -2.0604113E-02
         283 -4.1719515E-02
         284 -0.1392381    
         285  3.2261703E-03
         286  5.1464252E-03
         287  1.1944873E-02
         288  3.0605929E-02
         289  5.1102228E-03
         290 -4.6282452E-02
         291 -9.0126306E-02
         292 -0.2384243    
         293 -3.5806417E-03
         294  1.5992034E-02
         295  2.8801380E-02
         296  6.7517020E-02
         297  7.8890678E-03
         298 -4.6266564E-03
         299 -8.1165768E-03
         300 -4.7280756E-03
         301 -4.6936478E-03
         302  6.8901631E-04
         303  9.8582031E-04
         304  1.5411403E-03
         305 -4.0005953E-03
         306  7.3320238E-04
         307  1.0127746E-02
         308 -9.8374365E-03
         309  1.3883547E-03
         310 -7.1400532E-04
         311 -2.8802676E-03
         312  2.9655709E-03
         313  2.2058676E-03
         314  4.9503107E-04
         315 -6.0326662E-03
         316  1.4603970E-03
         317 -1.9341309E-03
         318 -2.5529700E-04
         319  1.9941721E-03
         320 -4.0697938E-04
         321 -9.9510327E-04
         322  2.0671808E-03
         323 -6.3180010E-04
         324  9.6516206E-04
         325  6.2604103E-04
         326 -9.4047753E-04
         327 -1.9212555E-04
         328 -6.8639335E-04
         329  6.5024651E-04
         330 -2.0035838E-03
         331  3.5361974E-03
         332 -4.4544092E-03
         333 -1.5541940E-04
         334  4.9384590E-04
         335 -1.1082063E-03
         336  7.6146564E-04
         337 -3.1576614E-04
         338  1.1325497E-03
         339 -1.4679566E-03
         340  1.6618166E-03
         341  3.6968244E-04
         342 -3.7560789E-04
         343  2.9165178E-04
         344 -6.2222878E-04
         345  5.0883311E-05
         346  1.1678047E-03
         347 -3.0307835E-03
         348  2.7720295E-03
         349  2.3038202E-04
         350 -4.0266869E-04
         351  4.2617199E-04
         352 -6.1207131E-04
         353 -7.9899175E-05
         354 -9.0351060E-04
         355  3.5016437E-03
         356 -3.4329407E-03
         357  2.4983700E-04
         358 -3.7744476E-06
         359 -1.0233441E-03
         360  8.1349985E-04
         361  2.1457598E-04
         362 -3.1955054E-04
         363 -2.1417410E-04
         364 -7.0865144E-04
         365  1.0170779E-04
         366 -5.3755456E-04
         367  2.9003719E-04
         368 -1.3239948E-04
         369 -4.2224454E-04
         370  6.9629139E-04
         371 -3.0899706E-04
         372 -3.8436716E-04
         373  4.2207589E-04
         374  2.4356159E-04
         375 -9.9525880E-04
         376  4.7648652E-03
         377 -2.6482896E-05
         378  2.2568475E-03
         379  4.5230001E-04
         380  8.0564793E-04
         381 -5.5536786E-03
         382 -1.5798035E-03
         383 -2.0557649E-03
         384 -9.1608650E-05
         385  5.4532487E-04
         386 -1.3133547E-04
         387 -1.3542336E-05
         388  7.1982882E-05
         389  8.9731766E-04
         390  4.0410756E-04
         391 -9.2216076E-05
         392  2.3483706E-04
         393  4.0454484E-04
         394 -1.2273737E-04
         395 -8.7016390E-04
         396  2.3942749E-04
         397  1.5429875E-03
         398 -1.0776891E-04
         399 -7.0615037E-04
         400 -1.2527637E-03
         401  2.7755504E-03
         402  4.4141128E-03
         403  4.6192338E-03
         404 -4.0028678E-04
         405  6.2166649E-04
         406 -4.3429900E-04
         407 -9.0856524E-04
         408  1.9581418E-04
         409 -3.0606217E-04
         410 -4.9937062E-04
         411  1.1916772E-03
         412  8.9592597E-04
         413  2.1161383E-04
         414 -9.7048061E-05
         415  2.3532991E-04
         416 -2.0827894E-04
         417 -6.8330140E-05
         418 -2.5486818E-04
         419 -1.7407649E-04
         420  1.0811661E-05
         421 -2.6904151E-04
         422  1.2708470E-04
         423  5.2012358E-05
         424  3.2424784E-04
         425  5.7038291E-05
         426 -3.5086900E-04
         427  1.3023987E-04
         428  2.3944865E-04
         429  7.0240325E-04
         430  1.6513423E-04
         431 -7.8555517E-05
         432  2.2028142E-04
         433 -1.2678064E-04
         434  6.2263716E-05
         435  1.0133295E-03
         436 -2.6720075E-04
         437 -8.6585927E-04
         438  3.9589236E-04
         439  1.5140346E-03
         440 -8.4109779E-04
         441  5.7640527E-03
         442 -4.1606380E-03
         443  2.7965970E-04
         444  1.0164198E-02
         445 -5.1492713E-03
         446  2.5001522E-03
         447  2.1664936E-03
         448 -4.1403067E-03
         449 -1.0914843E-02
         450 -6.6020638E-03
         451  1.1209659E-02
         452  1.3341620E-03
         453 -8.7059662E-03
         454 -9.6318297E-02
         455  4.5280490E-02
         456 -1.0942359E-02
         457 -1.4265303E-02
         458  1.9178983E-02
         459 -5.6388767E-06
         460  1.1029283E-03
         461 -4.4313534E-03
         462 -6.9197165E-03
         463 -2.3289653E-02
         464 -4.5880047E-03
         465 -3.1629594E-03
         466  1.6703170E-03
         467  7.5801280E-03
         468 -1.5474340E-02
         469  9.1619696E-03
         470 -2.3822072E-03
         471  7.1613368E-04
         472  1.5080754E-03
         473 -5.9999153E-03
         474  9.1954083E-05
         475  2.4737132E-04
         476 -6.9962065E-03
         477 -2.9719684E-03
         478  2.4807762E-02
         479 -9.1258734E-03
         480  3.0395072E-03
         481  2.4754221E-03
         482 -8.9876849E-04
         483 -5.9253429E-03
         484  4.8270803E-03
         485  4.0751505E-03
         486  8.8454494E-03
         487 -1.8135111E-03
         488 -1.4622636E-02
         489  1.1174342E-03
         490  5.1800918E-04
         491 -2.6884023E-03
         492 -9.4415639E-03
         493 -2.5499787E-02
         494 -3.1532319E-03
         495  2.1985648E-03
         496 -1.0648116E-02
         497 -1.4226125E-02
         498 -4.3756742E-02
         499  5.1478143E-03
         500 -1.7395699E-03
         501 -9.1363667E-03
         502 -1.6248021E-02
         503 -4.2325050E-02
         504 -7.9150090E-04
         505  7.5313915E-04
         506 -4.4462467E-03
         507 -1.0510351E-02
         508 -2.4086809E-02
         509  4.7733672E-03
         510  3.6638023E-03
         511 -1.2135911E-02
         512 -1.0531029E-02
         513 -6.0728220E-03
         514 -9.0582427E-03
         515  2.9376282E-03
         516 -3.6811428E-03
         517 -4.0895627E-03
         518 -3.0574719E-03
         519 -2.9542335E-04
         520  4.8728241E-04
         521  9.1809388E-03
         522  2.0189043E-02
         523  1.1160470E-02
         524  8.8486662E-03
         525 -1.4288668E-03
         526 -1.1381435E-03
         527 -3.9784536E-03
         528 -2.5806215E-03
         529 -4.9525267E-03
         530 -2.7330695E-03
         531  4.4238471E-04
         532 -1.5229461E-02
         533 -4.8432695E-03
         534  1.2054738E-03
         535  1.2055868E-03
         536 -5.2702660E-03
         537 -8.4404424E-03
         538 -2.1165043E-02
         539  3.3639392E-03
         540 -1.7683847E-03
         541  2.1233778E-03
         542  8.9471214E-05
         543  7.7882622E-05
         544  2.4058203E-05
         545  1.6489107E-04
         546  2.0906855E-05
         547  7.9671026E-04
         548 -7.4591523E-04
         549  1.2993207E-04
         550  2.3941121E-04
         551  2.6103049E-05
         552 -3.3071023E-04
         553  2.1458769E-04
         554 -3.5089531E-04
         555  4.0018043E-04
         556  9.8270131E-05
         557 -9.0343255E-04
         558  6.7344523E-04
         559 -2.1264578E-04
         560  4.6467036E-04
         561 -4.7855472E-04
         562  5.8529089E-04
         563 -6.0857274E-04
