 [Molden Format]
 [Atoms] Angs
O       1      8      4.56957383      2.28945147     -1.11418233
C       2      6      5.03216574      1.31190175     -0.56201572
C       3      6      6.42930141      1.31211074     -0.05652955
C       4      6      7.03849547      2.54773508      0.17545624
C       5      6      8.32740725      2.61489680      0.66968435
C       6      6      9.03377964      1.45162206      0.93838060
C       7      6      8.44603592      0.21934013      0.69852816
C       8      6      7.15657239      0.15842670      0.21022400
S       9     16      6.45910393     -1.43998439     -0.19158871
O      10      8      6.75278301     -1.71643419     -1.57235181
O      11      8      6.87705614     -2.40817812      0.78509608
C      12      6      4.70353776     -1.14938418     -0.04110899
C      13      6      3.86630119     -2.21280253      0.23141034
C      14      6      2.49643497     -2.02315500      0.26811366
C      15      6      1.94922068     -0.76479244      0.01016103
C      16      6      0.49435234     -0.56036143      0.02549684
C      17      6     -0.11753347      0.25248430     -0.92707131
C      18      6     -1.48583377      0.43543882     -0.91432476
C      19      6     -2.28890759     -0.17371628      0.04635571
SI     20     14     -4.16852164      0.07755065      0.02792883
C      21      6     -4.95081870     -1.06859485     -1.26114483
C      22      6     -6.30819112     -1.37263184     -1.19637792
C      23      6     -6.90279263     -2.18957589     -2.14041918
C      24      6     -6.14536861     -2.72110988     -3.17103587
C      25      6     -4.79339164     -2.43245902     -3.24836910
C      26      6     -4.20484536     -1.61356812     -2.30134751
C      27      6     -4.88196871     -0.34375456      1.73181236
C      28      6     -5.18561414      0.64854774      2.65841675
C      29      6     -5.69137414      0.32920213      3.90585705
C      30      6     -5.90270635     -0.99531335      4.24971824
C      31      6     -5.60887702     -1.99621988      3.33853583
C      32      6     -5.10448395     -1.67021330      2.09291649
C      33      6     -4.52076342      1.88840368     -0.40103392
C      34      6     -5.58177587      2.24533493     -1.22705822
C      35      6     -5.84425683      3.57203498     -1.51812710
C      36      6     -5.04596786      4.56964247     -0.98446135
C      37      6     -3.98355762      4.23240520     -0.16231834
C      38      6     -3.72604882      2.90430014      0.12404798
C      39      6     -1.66931430     -0.97606255      0.99880040
C      40      6     -0.30225423     -1.17301816      0.99046492
C      41      6      2.80834966      0.29400765     -0.26689532
C      42      6      4.19105293      0.11898343     -0.28937803
H      43      1      6.47531600      3.44349802     -0.04025927
H      44      1      8.78520629      3.57673246      0.84510633
H      45      1     10.03964597      1.50373645      1.32617194
H      46      1      8.96695068     -0.70619789      0.88735657
H      47      1      4.30863860     -3.17978568      0.41326010
H      48      1      1.84319013     -2.85826587      0.47100477
H      49      1      0.48283013      0.72160766     -1.69278597
H      50      1     -1.94467004      1.06783911     -1.66114307
H      51      1     -6.90230286     -0.96563114     -0.38978115
H      52      1     -7.95783980     -2.41404263     -2.07336163
H      53      1     -6.60716414     -3.36014368     -3.90968316
H      54      1     -4.19729119     -2.84726209     -4.04865365
H      55      1     -3.14820901     -1.39515004     -2.36554797
H      56      1     -5.02763008      1.68452133      2.39389094
H      57      1     -5.92256099      1.11405386      4.61187265
H      58      1     -6.29755199     -1.24712966      5.22335243
H      59      1     -5.77511632     -3.03153708      3.60039921
H      60      1     -4.88414659     -2.45491453      1.38223227
H      61      1     -6.20554171      1.47076450     -1.65024604
H      62      1     -6.67242579      3.82978225     -2.16275338
H      63      1     -5.24929200      5.60647032     -1.20999299
H      64      1     -3.35545426      5.00681614      0.25460836
H      65      1     -2.89159026      2.64604433      0.76159104
H      66      1     -2.27017197     -1.44913276      1.76210797
H      67      1      0.15787221     -1.78534374      1.75268418
H      68      1      2.41791298      1.28382327     -0.45247967
 [GTO]
           1   0
s              4   1.000000
     73.02924703     -0.01198412
     12.57624063     -0.05472052
      1.01055460      0.58055871
      0.38514737      0.47700799
p              4   1.000000
      7.53097891      0.05713170
      1.95267037      0.28574555
      0.68837673      0.55178731
      0.27405464      0.26323149
s              7   1.000000
      0.57971233     -0.18804861
      0.07115450      0.90858178
      0.03359728      0.23860737
     73.02924703      0.00402614
     12.57624063      0.01838372
      1.01055460     -0.19504254
      0.38514737     -0.16025399
p              7   1.000000
      2.76717072     -0.01185858
      0.15304476      0.58274872
      0.05897927      0.60859448
      7.53097891     -0.02839297
      1.95267037     -0.14200811
      0.68837673     -0.27422395
      0.27405464     -0.13081921
 
           2   0
s              4   1.000000
     34.98475035     -0.01198412
      6.02466350     -0.05472052
      0.48410742      0.58055871
      0.18450532      0.47700799
p              4   1.000000
      5.63870648      0.05713170
      1.46203239      0.28574555
      0.51541166      0.55178731
      0.20519426      0.26323149
s              7   1.000000
      0.38350848     -0.19618467
      0.04707223      0.94789222
      0.02222627      0.24893089
     34.98475035      0.00550811
      6.02466350      0.02515050
      0.48410742     -0.26683478
      0.18450532     -0.21924109
p              7   1.000000
      1.83062075     -0.01160897
      0.10124670      0.57048252
      0.03901771      0.59578423
      5.63870648     -0.02523129
      1.46203239     -0.12619490
      0.51541166     -0.24368795
      0.20519426     -0.11625193
 
           3   0
s              4   1.000000
     35.23456243     -0.01198412
      6.06768320     -0.05472053
      0.48756424      0.58055871
      0.18582280      0.47700799
p              4   1.000000
      5.67897023      0.05713170
      1.47247218      0.28574555
      0.51909201      0.55178731
      0.20665947      0.26323149
s              7   1.000000
      0.38350848     -0.19595354
      0.04707223      0.94677550
      0.02222627      0.24863762
     35.23456243      0.00547079
      6.06768320      0.02498013
      0.48756424     -0.26502725
      0.18582280     -0.21775595
p              7   1.000000
      1.83062075     -0.01159612
      0.10124670      0.56985115
      0.03901771      0.59512487
      5.67897023     -0.02505971
      1.47247218     -0.12533674
      0.51909201     -0.24203080
      0.20665947     -0.11546139
 
           4   0
s              4   1.000000
     35.02596673     -0.01198412
      6.03176130     -0.05472052
      0.48467776      0.58055871
      0.18472269      0.47700799
p              4   1.000000
      5.64534958      0.05713170
      1.46375485      0.28574555
      0.51601888      0.55178731
      0.20543601      0.26323149
s              7   1.000000
      0.38350848     -0.19614623
      0.04707223      0.94770651
      0.02222627      0.24888212
     35.02596673      0.00550192
      6.03176130      0.02512223
      0.48467776     -0.26653489
      0.18472269     -0.21899469
p              7   1.000000
      1.83062075     -0.01160683
      0.10124670      0.57037752
      0.03901771      0.59567459
      5.64534958     -0.02520283
      1.46375485     -0.12605253
      0.51601888     -0.24341302
      0.20543601     -0.11612078
 
           5   0
s              4   1.000000
     34.91337501     -0.01198412
      6.01237207     -0.05472052
      0.48311975      0.58055871
      0.18412889      0.47700799
p              4   1.000000
      5.62720248      0.05713170
      1.45904958      0.28574555
      0.51436013      0.55178731
      0.20477563      0.26323149
s              7   1.000000
      0.38350848     -0.19625152
      0.04707223      0.94821519
      0.02222627      0.24901572
     34.91337501      0.00551886
      6.01237207      0.02519959
      0.48311975     -0.26735567
      0.18412889     -0.21966907
p              7   1.000000
      1.83062075     -0.01161268
      0.10124670      0.57066512
      0.03901771      0.59597493
      5.62720248     -0.02528074
      1.45904958     -0.12644220
      0.51436013     -0.24416548
      0.20477563     -0.11647974
 
           6   0
s              4   1.000000
     34.92413090     -0.01198412
      6.01422433     -0.05472052
      0.48326859      0.58055871
      0.18418562      0.47700800
p              4   1.000000
      5.62893608      0.05713170
      1.45949907      0.28574555
      0.51451859      0.55178731
      0.20483872      0.26323149
s              7   1.000000
      0.38350848     -0.19624142
      0.04707223      0.94816642
      0.02222627      0.24900290
     34.92413090      0.00551724
      6.01422433      0.02519218
      0.48326859     -0.26727705
      0.18418562     -0.21960447
p              7   1.000000
      1.83062075     -0.01161212
      0.10124670      0.57063754
      0.03901771      0.59594613
      5.62893608     -0.02527327
      1.45949907     -0.12640487
      0.51451859     -0.24409340
      0.20483872     -0.11644536
 
           7   0
s              4   1.000000
     35.12154922     -0.01198412
      6.04822139     -0.05472053
      0.48600040      0.58055871
      0.18522678      0.47700799
p              4   1.000000
      5.66075520      0.05713170
      1.46774929      0.28574555
      0.51742705      0.55178731
      0.20599662      0.26323149
s              7   1.000000
      0.38350848     -0.19605756
      0.04707223      0.94727808
      0.02222627      0.24876961
     35.12154922      0.00548761
      6.04822139      0.02505692
      0.48600040     -0.26584198
      0.18522678     -0.21842537
p              7   1.000000
      1.83062075     -0.01160190
      0.10124670      0.57013529
      0.03901771      0.59542162
      5.66075520     -0.02513705
      1.46774929     -0.12572356
      0.51742705     -0.24277776
      0.20599662     -0.11581773
 
           8   0
s              4   1.000000
     35.06211319     -0.01198412
      6.03798602     -0.05472053
      0.48517794      0.58055871
      0.18491332      0.47700799
p              4   1.000000
      5.65117553      0.05713170
      1.46526543      0.28574555
      0.51655141      0.55178731
      0.20564802      0.26323149
s              7   1.000000
      0.38350848     -0.19611263
      0.04707223      0.94754412
      0.02222627      0.24883946
     35.06211319      0.00549650
      6.03798602      0.02509749
      0.48517794     -0.26627244
      0.18491332     -0.21877904
p              7   1.000000
      1.83062075     -0.01160496
      0.10124670      0.57028571
      0.03901771      0.59557871
      5.65117553     -0.02517791
      1.46526543     -0.12592793
      0.51655141     -0.24317240
      0.20564802     -0.11600599
 
           9   0
s              4   1.000000
     13.75632071     -0.03295496
      3.87481769     -0.17245169
      0.69481507      0.75185111
      0.34185185      0.35896273
p              4   1.000000
      7.94339677     -0.01434249
      0.82087031      0.27551776
      0.37100533      0.58467508
      0.17935216      0.21449865
s              7   1.000000
      0.16124732     -0.33688855
      0.03162593      1.06300399
      0.01560824      0.12641050
     13.75632071      0.00359218
      3.87481769      0.01879768
      0.69481507     -0.08195369
      0.34185185     -0.03912785
p              7   1.000000
      0.34551743     -0.06391053
      0.05282782      0.68654568
      0.02597475      0.40882286
      7.94339677      0.00407419
      0.82087031     -0.07826472
      0.37100533     -0.16608523
      0.17935216     -0.06093138
 
          10   0
s              4   1.000000
     72.81678216     -0.01198412
     12.53965242     -0.05472052
      1.00761458      0.58055871
      0.38402686      0.47700799
p              4   1.000000
      7.50906894      0.05713170
      1.94698945      0.28574555
      0.68637403      0.55178731
      0.27325733      0.26323149
s              7   1.000000
      0.57971233     -0.18810376
      0.07115450      0.90884824
      0.03359728      0.23867735
     72.81678216      0.00403777
     12.53965242      0.01843681
      1.00761458     -0.19560578
      0.38402686     -0.16071677
p              7   1.000000
      2.76717072     -0.01186509
      0.15304476      0.58306868
      0.05897927      0.60892861
      7.50906894     -0.02847159
      1.94698945     -0.14240133
      0.68637403     -0.27498328
      0.27325733     -0.13118145
 
          11   0
s              4   1.000000
     72.81504889     -0.01198412
     12.53935394     -0.05472052
      1.00759059      0.58055871
      0.38401771      0.47700799
p              4   1.000000
      7.50889020      0.05713170
      1.94694310      0.28574555
      0.68635769      0.55178731
      0.27325082      0.26323149
s              7   1.000000
      0.57971233     -0.18810421
      0.07115450      0.90885042
      0.03359728      0.23867792
     72.81504889      0.00403787
     12.53935394      0.01843725
      1.00759059     -0.19561039
      0.38401771     -0.16072056
p              7   1.000000
      2.76717072     -0.01186514
      0.15304476      0.58307130
      0.05897927      0.60893136
      7.50889020     -0.02847223
      1.94694310     -0.14240455
      0.68635769     -0.27498949
      0.27325082     -0.13118441
 
          12   0
s              4   1.000000
     35.06031035     -0.01198412
      6.03767555     -0.05472053
      0.48515299      0.58055871
      0.18490381      0.47700799
p              4   1.000000
      5.65088495      0.05713170
      1.46519009      0.28574555
      0.51652485      0.55178731
      0.20563744      0.26323149
s              7   1.000000
      0.38350848     -0.19611430
      0.04707223      0.94755222
      0.02222627      0.24884161
     35.06031035      0.00549677
      6.03767555      0.02509872
      0.48515299     -0.26628551
      0.18490381     -0.21878979
p              7   1.000000
      1.83062075     -0.01160506
      0.10124670      0.57029029
      0.03901771      0.59558348
      5.65088495     -0.02517916
      1.46519009     -0.12593414
      0.51652485     -0.24318439
      0.20563744     -0.11601171
 
          13   0
s              4   1.000000
     35.11566946     -0.01198412
      6.04720885     -0.05472052
      0.48591903      0.58055871
      0.18519577      0.47700799
p              4   1.000000
      5.65980752      0.05713170
      1.46750358      0.28574555
      0.51734042      0.55178731
      0.20596214      0.26323149
s              7   1.000000
      0.38350848     -0.19606300
      0.04707223      0.94730434
      0.02222627      0.24877650
     35.11566946      0.00548849
      6.04720885      0.02506093
      0.48591903     -0.26588450
      0.18519577     -0.21846030
p              7   1.000000
      1.83062075     -0.01160221
      0.10124670      0.57015014
      0.03901771      0.59543715
      5.65980752     -0.02514109
      1.46750358     -0.12574375
      0.51734042     -0.24281674
      0.20596214     -0.11583633
 
          14   0
s              4   1.000000
     35.01710870     -0.01198412
      6.03023587     -0.05472052
      0.48455518      0.58055871
      0.18467597      0.47700799
p              4   1.000000
      5.64392188      0.05713170
      1.46338466      0.28574555
      0.51588838      0.55178731
      0.20538405      0.26323149
s              7   1.000000
      0.38350848     -0.19615448
      0.04707223      0.94774637
      0.02222627      0.24889258
     35.01710870      0.00550325
      6.03023587      0.02512830
      0.48455518     -0.26659929
      0.18467597     -0.21904760
p              7   1.000000
      1.83062075     -0.01160729
      0.10124670      0.57040006
      0.03901771      0.59569814
      5.64392188     -0.02520894
      1.46338466     -0.12608310
      0.51588838     -0.24347205
      0.20538405     -0.11614894
 
          15   0
s              4   1.000000
     35.08241127     -0.01198412
      6.04148152     -0.05472052
      0.48545882      0.58055871
      0.18502037      0.47700799
p              4   1.000000
      5.65444709      0.05713170
      1.46611370      0.28574555
      0.51685045      0.55178731
      0.20576707      0.26323149
s              7   1.000000
      0.38350848     -0.19609379
      0.04707223      0.94745313
      0.02222627      0.24881558
     35.08241127      0.00549346
      6.04148152      0.02508362
      0.48545882     -0.26612528
      0.18502037     -0.21865813
p              7   1.000000
      1.83062075     -0.01160392
      0.10124670      0.57023426
      0.03901771      0.59552498
      5.65444709     -0.02516394
      1.46611370     -0.12585806
      0.51685045     -0.24303749
      0.20576707     -0.11594163
 
          16   0
s              4   1.000000
     35.09614040     -0.01198412
      6.04384579     -0.05472052
      0.48564880      0.58055871
      0.18509278      0.47700800
p              4   1.000000
      5.65665990      0.05713170
      1.46668744      0.28574555
      0.51705271      0.55178731
      0.20584759      0.26323149
s              7   1.000000
      0.38350848     -0.19608107
      0.04707223      0.94739166
      0.02222627      0.24879944
     35.09614040      0.00549141
      6.04384579      0.02507425
      0.48564880     -0.26602583
      0.18509278     -0.21857643
p              7   1.000000
      1.83062075     -0.01160321
      0.10124670      0.57019951
      0.03901771      0.59548869
      5.65665990     -0.02515451
      1.46668744     -0.12581085
      0.51705271     -0.24294632
      0.20584759     -0.11589813
 
          17   0
s              4   1.000000
     35.00821291     -0.01198412
      6.02870394     -0.05472052
      0.48443209      0.58055871
      0.18462906      0.47700799
p              4   1.000000
      5.64248809      0.05713170
      1.46301291      0.28574555
      0.51575732      0.55178731
      0.20533188      0.26323149
s              7   1.000000
      0.38350848     -0.19616277
      0.04707223      0.94778643
      0.02222627      0.24890311
     35.00821291      0.00550458
      6.02870394      0.02513440
      0.48443209     -0.26666399
      0.18462906     -0.21910076
p              7   1.000000
      1.83062075     -0.01160775
      0.10124670      0.57042271
      0.03901771      0.59572180
      5.64248809     -0.02521508
      1.46301291     -0.12611382
      0.51575732     -0.24353137
      0.20533188     -0.11617724
 
          18   0
s              4   1.000000
     35.06831293     -0.01198412
      6.03905366     -0.05472052
      0.48526373      0.58055871
      0.18494602      0.47700799
p              4   1.000000
      5.65217477      0.05713170
      1.46552452      0.28574555
      0.51664274      0.55178731
      0.20568438      0.26323149
s              7   1.000000
      0.38350848     -0.19610687
      0.04707223      0.94751631
      0.02222627      0.24883218
     35.06831293      0.00549557
      6.03905366      0.02509325
      0.48526373     -0.26622747
      0.18494602     -0.21874210
p              7   1.000000
      1.83062075     -0.01160464
      0.10124670      0.57026998
      0.03901771      0.59556228
      5.65217477     -0.02517365
      1.46552452     -0.12590658
      0.51664274     -0.24313118
      0.20568438     -0.11598633
 
          19   0
s              4   1.000000
     34.90578054     -0.01198412
      6.01106424     -0.05472052
      0.48301466      0.58055871
      0.18408884      0.47700799
p              4   1.000000
      5.62597844      0.05713170
      1.45873220      0.28574555
      0.51424824      0.55178731
      0.20473109      0.26323149
s              7   1.000000
      0.38350848     -0.19625865
      0.04707223      0.94824967
      0.02222627      0.24902476
     34.90578054      0.00552001
      6.01106424      0.02520483
      0.48301466     -0.26741121
      0.18408884     -0.21971470
p              7   1.000000
      1.83062075     -0.01161308
      0.10124670      0.57068460
      0.03901771      0.59599528
      5.62597844     -0.02528601
      1.45873220     -0.12646856
      0.51424824     -0.24421639
      0.20473109     -0.11650403
 
          20   0
s              4   1.000000
      3.85424888     -0.03295496
      1.08564725     -0.17245170
      0.19467343      0.75185111
      0.09578012      0.35896273
p              4   1.000000
      5.18269682     -0.01434249
      0.53557968      0.27551776
      0.24206372      0.58467508
      0.11701894      0.21449865
s              7   1.000000
      0.10554915     -0.35142321
      0.02070168      1.10886604
      0.01021683      0.13186433
      3.85424888      0.01047729
      1.08564725      0.05482714
      0.19467343     -0.23903416
      0.09578012     -0.11412413
p              7   1.000000
      0.22616854     -0.06392891
      0.03458000      0.68674308
      0.01700253      0.40894042
      5.18269682      0.00408985
      0.53557968     -0.07856555
      0.24206372     -0.16672362
      0.11701894     -0.06116558
 
          21   0
s              4   1.000000
     34.90728851     -0.01198412
      6.01132393     -0.05472052
      0.48303553      0.58055871
      0.18409680      0.47700799
p              4   1.000000
      5.62622148      0.05713170
      1.45879522      0.28574555
      0.51427046      0.55178731
      0.20473993      0.26323149
s              7   1.000000
      0.38350848     -0.19625723
      0.04707223      0.94824282
      0.02222627      0.24902296
     34.90728851      0.00551978
      6.01132393      0.02520379
      0.48303553     -0.26740018
      0.18409680     -0.21970564
p              7   1.000000
      1.83062075     -0.01161300
      0.10124670      0.57068073
      0.03901771      0.59599124
      5.62622148     -0.02528496
      1.45879522     -0.12646333
      0.51427046     -0.24420628
      0.20473993     -0.11649921
 
          22   0
s              4   1.000000
     35.07394702     -0.01198412
      6.04002390     -0.05472052
      0.48534169      0.58055871
      0.18497573      0.47700799
p              4   1.000000
      5.65308286      0.05713170
      1.46575997      0.28574555
      0.51672575      0.55178731
      0.20571742      0.26323149
s              7   1.000000
      0.38350848     -0.19610164
      0.04707223      0.94749106
      0.02222627      0.24882555
     35.07394702      0.00549473
      6.04002390      0.02508940
      0.48534169     -0.26618662
      0.18497573     -0.21870854
p              7   1.000000
      1.83062075     -0.01160435
      0.10124670      0.57025571
      0.03901771      0.59554740
      5.65308286     -0.02516977
      1.46575997     -0.12588719
      0.51672575     -0.24309373
      0.20571742     -0.11596846
 
          23   0
s              4   1.000000
     34.91547683     -0.01198412
      6.01273402     -0.05472052
      0.48314883      0.58055871
      0.18413998      0.47700799
p              4   1.000000
      5.62754125      0.05713170
      1.45913741      0.28574555
      0.51439109      0.55178731
      0.20478796      0.26323149
s              7   1.000000
      0.38350848     -0.19624954
      0.04707223      0.94820566
      0.02222627      0.24901321
     34.91547683      0.00551854
      6.01273402      0.02519814
      0.48314883     -0.26734030
      0.18413998     -0.21965644
p              7   1.000000
      1.83062075     -0.01161258
      0.10124670      0.57065972
      0.03901771      0.59596931
      5.62754125     -0.02527928
      1.45913741     -0.12643490
      0.51439109     -0.24415139
      0.20478796     -0.11647302
 
          24   0
s              4   1.000000
     34.92222793     -0.01198412
      6.01389662     -0.05472053
      0.48324225      0.58055871
      0.18417558      0.47700800
p              4   1.000000
      5.62862936      0.05713170
      1.45941954      0.28574555
      0.51449055      0.55178731
      0.20482755      0.26323149
s              7   1.000000
      0.38350848     -0.19624320
      0.04707223      0.94817504
      0.02222627      0.24900516
     34.92222793      0.00551752
      6.01389662      0.02519349
      0.48324225     -0.26729095
      0.18417558     -0.21961589
p              7   1.000000
      1.83062075     -0.01161222
      0.10124670      0.57064242
      0.03901771      0.59595123
      5.62862936     -0.02527459
      1.45941954     -0.12641147
      0.51449055     -0.24410615
      0.20482755     -0.11645144
 
          25   0
s              4   1.000000
     34.91622309     -0.01198412
      6.01286254     -0.05472052
      0.48315916      0.58055871
      0.18414391      0.47700799
p              4   1.000000
      5.62766152      0.05713170
      1.45916860      0.28574555
      0.51440208      0.55178731
      0.20479233      0.26323149
s              7   1.000000
      0.38350848     -0.19624884
      0.04707223      0.94820228
      0.02222627      0.24901230
     34.91622309      0.00551843
      6.01286254      0.02519763
      0.48315916     -0.26733484
      0.18414391     -0.21965196
p              7   1.000000
      1.83062075     -0.01161254
      0.10124670      0.57065781
      0.03901771      0.59596733
      5.62766152     -0.02527876
      1.45916860     -0.12643231
      0.51440208     -0.24414639
      0.20479233     -0.11647064
 
          26   0
s              4   1.000000
     35.06034155     -0.01198412
      6.03768093     -0.05472052
      0.48515342      0.58055871
      0.18490398      0.47700799
p              4   1.000000
      5.65088998      0.05713170
      1.46519139      0.28574555
      0.51652531      0.55178731
      0.20563762      0.26323149
s              7   1.000000
      0.38350848     -0.19611427
      0.04707223      0.94755208
      0.02222627      0.24884156
     35.06034155      0.00549676
      6.03768093      0.02509870
      0.48515342     -0.26628529
      0.18490398     -0.21878960
p              7   1.000000
      1.83062075     -0.01160506
      0.10124670      0.57029020
      0.03901771      0.59558340
      5.65088998     -0.02517913
      1.46519139     -0.12593403
      0.51652531     -0.24318418
      0.20563762     -0.11601161
 
          27   0
s              4   1.000000
     34.90707536     -0.01198412
      6.01128722     -0.05472052
      0.48303258      0.58055871
      0.18409567      0.47700800
p              4   1.000000
      5.62618713      0.05713170
      1.45878631      0.28574555
      0.51426732      0.55178731
      0.20473868      0.26323149
s              7   1.000000
      0.38350848     -0.19625743
      0.04707223      0.94824378
      0.02222627      0.24902322
     34.90707536      0.00551981
      6.01128722      0.02520393
      0.48303258     -0.26740174
      0.18409567     -0.21970692
p              7   1.000000
      1.83062075     -0.01161301
      0.10124670      0.57068128
      0.03901771      0.59599185
      5.62618713     -0.02528511
      1.45878631     -0.12646407
      0.51426732     -0.24420771
      0.20473868     -0.11649989
 
          28   0
s              4   1.000000
     35.06079772     -0.01198412
      6.03775948     -0.05472053
      0.48515974      0.58055871
      0.18490638      0.47700800
p              4   1.000000
      5.65096350      0.05713170
      1.46521045      0.28574555
      0.51653203      0.55178731
      0.20564030      0.26323149
s              7   1.000000
      0.38350848     -0.19611385
      0.04707223      0.94755002
      0.02222627      0.24884102
     35.06079772      0.00549670
      6.03775948      0.02509839
      0.48515974     -0.26628198
      0.18490638     -0.21878689
p              7   1.000000
      1.83062075     -0.01160503
      0.10124670      0.57028905
      0.03901771      0.59558219
      5.65096350     -0.02517882
      1.46521045     -0.12593246
      0.51653203     -0.24318115
      0.20564030     -0.11601017
 
          29   0
s              4   1.000000
     34.91606806     -0.01198412
      6.01283584     -0.05472053
      0.48315702      0.58055871
      0.18414310      0.47700799
p              4   1.000000
      5.62763654      0.05713170
      1.45916212      0.28574555
      0.51439980      0.55178731
      0.20479142      0.26323149
s              7   1.000000
      0.38350848     -0.19624899
      0.04707223      0.94820298
      0.02222627      0.24901250
     34.91606806      0.00551845
      6.01283584      0.02519774
      0.48315702     -0.26733598
      0.18414310     -0.21965289
p              7   1.000000
      1.83062075     -0.01161254
      0.10124670      0.57065821
      0.03901771      0.59596773
      5.62763654     -0.02527887
      1.45916212     -0.12643285
      0.51439980     -0.24414743
      0.20479142     -0.11647113
 
          30   0
s              4   1.000000
     34.92215468     -0.01198412
      6.01388401     -0.05472052
      0.48324124      0.58055871
      0.18417520      0.47700799
p              4   1.000000
      5.62861755      0.05713170
      1.45941648      0.28574555
      0.51448947      0.55178731
      0.20482712      0.26323149
s              7   1.000000
      0.38350848     -0.19624327
      0.04707223      0.94817537
      0.02222627      0.24900524
     34.92215468      0.00551753
      6.01388401      0.02519354
      0.48324124     -0.26729149
      0.18417520     -0.21961633
p              7   1.000000
      1.83062075     -0.01161223
      0.10124670      0.57064260
      0.03901771      0.59595143
      5.62861755     -0.02527464
      1.45941648     -0.12641173
      0.51448947     -0.24410664
      0.20482712     -0.11645167
 
          31   0
s              4   1.000000
     34.91537716     -0.01198412
      6.01271686     -0.05472052
      0.48314746      0.58055871
      0.18413945      0.47700799
p              4   1.000000
      5.62752518      0.05713170
      1.45913325      0.28574555
      0.51438962      0.55178731
      0.20478737      0.26323149
s              7   1.000000
      0.38350848     -0.19624964
      0.04707223      0.94820611
      0.02222627      0.24901333
     34.91537716      0.00551856
      6.01271686      0.02519821
      0.48314746     -0.26734103
      0.18413945     -0.21965704
p              7   1.000000
      1.83062075     -0.01161258
      0.10124670      0.57065998
      0.03901771      0.59596959
      5.62752518     -0.02527935
      1.45913325     -0.12643525
      0.51438962     -0.24415206
      0.20478737     -0.11647334
 
          32   0
s              4   1.000000
     35.07248226     -0.01198412
      6.03977166     -0.05472053
      0.48532142      0.58055871
      0.18496801      0.47700799
p              4   1.000000
      5.65284677      0.05713170
      1.46569876      0.28574555
      0.51670417      0.55178731
      0.20570883      0.26323149
s              7   1.000000
      0.38350848     -0.19610300
      0.04707223      0.94749762
      0.02222627      0.24882725
     35.07248226      0.00549495
      6.03977166      0.02509040
      0.48532142     -0.26619724
      0.18496801     -0.21871726
p              7   1.000000
      1.83062075     -0.01160443
      0.10124670      0.57025942
      0.03901771      0.59555124
      5.65284677     -0.02517078
      1.46569876     -0.12589223
      0.51670417     -0.24310346
      0.20570883     -0.11597310
 
          33   0
s              4   1.000000
     34.90737265     -0.01198412
      6.01133842     -0.05472053
      0.48303669      0.58055871
      0.18409724      0.47700799
p              4   1.000000
      5.62623505      0.05713170
      1.45879873      0.28574555
      0.51427170      0.55178731
      0.20474042      0.26323149
s              7   1.000000
      0.38350848     -0.19625715
      0.04707223      0.94824243
      0.02222627      0.24902286
     34.90737265      0.00551977
      6.01133842      0.02520373
      0.48303669     -0.26739956
      0.18409724     -0.21970513
p              7   1.000000
      1.83062075     -0.01161300
      0.10124670      0.57068052
      0.03901771      0.59599104
      5.62623505     -0.02528490
      1.45879873     -0.12646303
      0.51427170     -0.24420572
      0.20474042     -0.11649894
 
          34   0
s              4   1.000000
     35.06156265     -0.01198412
      6.03789121     -0.05472053
      0.48517032      0.58055871
      0.18491042      0.47700799
p              4   1.000000
      5.65108679      0.05713170
      1.46524242      0.28574555
      0.51654329      0.55178731
      0.20564479      0.26323149
s              7   1.000000
      0.38350848     -0.19611313
      0.04707223      0.94754659
      0.02222627      0.24884012
     35.06156265      0.00549658
      6.03789121      0.02509787
      0.48517032     -0.26627643
      0.18491042     -0.21878233
p              7   1.000000
      1.83062075     -0.01160499
      0.10124670      0.57028711
      0.03901771      0.59558017
      5.65108679     -0.02517829
      1.46524242     -0.12592982
      0.51654329     -0.24317606
      0.20564479     -0.11600774
 
          35   0
s              4   1.000000
     34.91607266     -0.01198412
      6.01283663     -0.05472053
      0.48315708      0.58055871
      0.18414312      0.47700799
p              4   1.000000
      5.62763728      0.05713170
      1.45916231      0.28574555
      0.51439987      0.55178730
      0.20479145      0.26323149
s              7   1.000000
      0.38350848     -0.19624898
      0.04707223      0.94820296
      0.02222627      0.24901250
     34.91607266      0.00551845
      6.01283663      0.02519773
      0.48315708     -0.26733594
      0.18414312     -0.21965286
p              7   1.000000
      1.83062075     -0.01161254
      0.10124670      0.57065820
      0.03901771      0.59596773
      5.62763728     -0.02527886
      1.45916231     -0.12643283
      0.51439987     -0.24414740
      0.20479145     -0.11647111
 
          36   0
s              4   1.000000
     34.92225999     -0.01198412
      6.01390214     -0.05472053
      0.48324270      0.58055871
      0.18417575      0.47700799
p              4   1.000000
      5.62863453      0.05713170
      1.45942088      0.28574555
      0.51449102      0.55178731
      0.20482774      0.26323149
s              7   1.000000
      0.38350848     -0.19624317
      0.04707223      0.94817490
      0.02222627      0.24900511
     34.92225999      0.00551752
      6.01390214      0.02519347
      0.48324270     -0.26729072
      0.18417575     -0.21961570
p              7   1.000000
      1.83062075     -0.01161222
      0.10124670      0.57064233
      0.03901771      0.59595115
      5.62863453     -0.02527457
      1.45942088     -0.12641136
      0.51449102     -0.24410593
      0.20482774     -0.11645133
 
          37   0
s              4   1.000000
     34.91547655     -0.01198412
      6.01273397     -0.05472052
      0.48314883      0.58055871
      0.18413998      0.47700799
p              4   1.000000
      5.62754120      0.05713170
      1.45913740      0.28574555
      0.51439109      0.55178730
      0.20478795      0.26323149
s              7   1.000000
      0.38350848     -0.19624954
      0.04707223      0.94820566
      0.02222627      0.24901321
     34.91547655      0.00551854
      6.01273397      0.02519814
      0.48314883     -0.26734030
      0.18413998     -0.21965644
p              7   1.000000
      1.83062075     -0.01161258
      0.10124670      0.57065972
      0.03901771      0.59596931
      5.62754120     -0.02527928
      1.45913740     -0.12643490
      0.51439109     -0.24415139
      0.20478795     -0.11647302
 
          38   0
s              4   1.000000
     35.07250798     -0.01198412
      6.03977609     -0.05472052
      0.48532178      0.58055871
      0.18496814      0.47700799
p              4   1.000000
      5.65285092      0.05713170
      1.46569983      0.28574555
      0.51670455      0.55178731
      0.20570898      0.26323149
s              7   1.000000
      0.38350848     -0.19610297
      0.04707223      0.94749751
      0.02222627      0.24882723
     35.07250798      0.00549494
      6.03977609      0.02509039
      0.48532178     -0.26619706
      0.18496814     -0.21871711
p              7   1.000000
      1.83062075     -0.01160443
      0.10124670      0.57025936
      0.03901771      0.59555120
      5.65285092     -0.02517076
      1.46569983     -0.12589214
      0.51670455     -0.24310329
      0.20570898     -0.11597302
 
          39   0
s              4   1.000000
     35.05645689     -0.01198412
      6.03701196     -0.05472052
      0.48509967      0.58055871
      0.18488349      0.47700799
p              4   1.000000
      5.65026386      0.05713170
      1.46502905      0.28574555
      0.51646808      0.55178730
      0.20561484      0.26323149
s              7   1.000000
      0.38350848     -0.19611788
      0.04707223      0.94756950
      0.02222627      0.24884614
     35.05645689      0.00549735
      6.03701196      0.02510136
      0.48509967     -0.26631347
      0.18488349     -0.21881276
p              7   1.000000
      1.83062075     -0.01160526
      0.10124670      0.57030005
      0.03901771      0.59559372
      5.65026386     -0.02518181
      1.46502905     -0.12594741
      0.51646808     -0.24321002
      0.20561484     -0.11602394
 
          40   0
s              4   1.000000
     35.00732733     -0.01198412
      6.02855144     -0.05472052
      0.48441983      0.58055871
      0.18462439      0.47700799
p              4   1.000000
      5.64234535      0.05713170
      1.46297590      0.28574555
      0.51574427      0.55178731
      0.20532668      0.26323149
s              7   1.000000
      0.38350848     -0.19616360
      0.04707223      0.94779043
      0.02222627      0.24890415
     35.00732733      0.00550471
      6.02855144      0.02513500
      0.48441983     -0.26667043
      0.18462439     -0.21910605
p              7   1.000000
      1.83062075     -0.01160780
      0.10124670      0.57042496
      0.03901771      0.59572415
      5.64234535     -0.02521569
      1.46297590     -0.12611688
      0.51574427     -0.24353727
      0.20532668     -0.11618006
 
          41   0
s              4   1.000000
     35.12576506     -0.01198412
      6.04894740     -0.05472053
      0.48605873      0.58055871
      0.18524901      0.47700799
p              4   1.000000
      5.66143469      0.05713170
      1.46792547      0.28574555
      0.51748916      0.55178731
      0.20602135      0.26323149
s              7   1.000000
      0.38350848     -0.19605366
      0.04707223      0.94725925
      0.02222627      0.24876466
     35.12576506      0.00548698
      6.04894740      0.02505405
      0.48605873     -0.26581150
      0.18524901     -0.21840032
p              7   1.000000
      1.83062075     -0.01160169
      0.10124670      0.57012465
      0.03901771      0.59541049
      5.66143469     -0.02513416
      1.46792547     -0.12570909
      0.51748916     -0.24274981
      0.20602135     -0.11580439
 
          42   0
s              4   1.000000
     35.23156247     -0.01198412
      6.06716659     -0.05472053
      0.48752272      0.58055871
      0.18580698      0.47700799
p              4   1.000000
      5.67848670      0.05713170
      1.47234681      0.28574555
      0.51904781      0.55178731
      0.20664188      0.26323149
s              7   1.000000
      0.38350848     -0.19595629
      0.04707223      0.94678879
      0.02222627      0.24864110
     35.23156247      0.00547124
      6.06716659      0.02498216
      0.48752272     -0.26504881
      0.18580698     -0.21777367
p              7   1.000000
      1.83062075     -0.01159627
      0.10124670      0.56985867
      0.03901771      0.59513272
      5.67848670     -0.02506176
      1.47234681     -0.12534698
      0.51904781     -0.24205057
      0.20664188     -0.11547082
 
          43   0
s              4   1.000000
      8.30944062      0.05675242
      1.52052526      0.26014135
      0.42241857      0.53284611
      0.14019693      0.29162544
s              7   1.000000
      0.92936822     -0.06732779
      0.05643440      0.66944908
      0.02166600      0.51460980
      8.30944062     -0.02902139
      1.52052526     -0.13302806
      0.42241857     -0.27248065
      0.14019693     -0.14912802
p              4   1.000000
      0.64737396      0.05713170
      0.16785440      0.28574555
      0.05917387      0.55178731
      0.02355814      0.26323150
 
          44   0
s              4   1.000000
      8.30890427      0.05675242
      1.52042711      0.26014135
      0.42239130      0.53284611
      0.14018787      0.29162544
s              7   1.000000
      0.92936822     -0.06732848
      0.05643440      0.66945595
      0.02166600      0.51461507
      8.30890427     -0.02902283
      1.52042711     -0.13303464
      0.42239130     -0.27249412
      0.14018787     -0.14913540
p              4   1.000000
      0.64737396      0.05713170
      0.16785440      0.28574555
      0.05917387      0.55178731
      0.02355814      0.26323150
 
          45   0
s              4   1.000000
      8.30881772      0.05675242
      1.52041127      0.26014135
      0.42238690      0.53284611
      0.14018642      0.29162544
s              7   1.000000
      0.92936822     -0.06732859
      0.05643440      0.66945706
      0.02166600      0.51461591
      8.30881772     -0.02902306
      1.52041127     -0.13303570
      0.42238690     -0.27249629
      0.14018642     -0.14913659
p              4   1.000000
      0.64737396      0.05713170
      0.16785440      0.28574555
      0.05917387      0.55178731
      0.02355814      0.26323150
 
          46   0
s              4   1.000000
      8.31063393      0.05675242
      1.52074362      0.26014135
      0.42247923      0.53284611
      0.14021706      0.29162544
s              7   1.000000
      0.92936822     -0.06732625
      0.05643440      0.66943382
      0.02166600      0.51459805
      8.31063393     -0.02901820
      1.52074362     -0.13301343
      0.42247923     -0.27245068
      0.14021706     -0.14911163
p              4   1.000000
      0.64737396      0.05713170
      0.16785440      0.28574555
      0.05917387      0.55178731
      0.02355814      0.26323150
 
          47   0
s              4   1.000000
      8.31067778      0.05675242
      1.52075164      0.26014135
      0.42248146      0.53284611
      0.14021780      0.29162544
s              7   1.000000
      0.92936822     -0.06732620
      0.05643440      0.66943327
      0.02166600      0.51459763
      8.31067778     -0.02901808
      1.52075164     -0.13301289
      0.42248146     -0.27244958
      0.14021780     -0.14911102
p              4   1.000000
      0.64737396      0.05713170
      0.16785440      0.28574555
      0.05917387      0.55178731
      0.02355814      0.26323150
 
          48   0
s              4   1.000000
      8.30942493      0.05675242
      1.52052239      0.26014135
      0.42241777      0.53284611
      0.14019666      0.29162544
s              7   1.000000
      0.92936822     -0.06732781
      0.05643440      0.66944929
      0.02166600      0.51460995
      8.30942493     -0.02902143
      1.52052239     -0.13302825
      0.42241777     -0.27248104
      0.14019666     -0.14912824
p              4   1.000000
      0.64737396      0.05713170
      0.16785440      0.28574555
      0.05917387      0.55178731
      0.02355814      0.26323150
 
          49   0
s              4   1.000000
      8.30946756      0.05675242
      1.52053019      0.26014135
      0.42241994      0.53284611
      0.14019738      0.29162544
s              7   1.000000
      0.92936822     -0.06732775
      0.05643440      0.66944874
      0.02166600      0.51460953
      8.30946756     -0.02902132
      1.52053019     -0.13302773
      0.42241994     -0.27247997
      0.14019738     -0.14912765
p              4   1.000000
      0.64737396      0.05713170
      0.16785440      0.28574555
      0.05917387      0.55178731
      0.02355814      0.26323150
 
          50   0
s              4   1.000000
      8.31040201      0.05675242
      1.52070118      0.26014135
      0.42246744      0.53284611
      0.14021315      0.29162544
s              7   1.000000
      0.92936822     -0.06732655
      0.05643440      0.66943679
      0.02166600      0.51460033
      8.31040201     -0.02901882
      1.52070118     -0.13301627
      0.42246744     -0.27245650
      0.14021315     -0.14911481
p              4   1.000000
      0.64737396      0.05713170
      0.16785440      0.28574555
      0.05917387      0.55178731
      0.02355814      0.26323150
 
          51   0
s              4   1.000000
      8.31028694      0.05675242
      1.52068012      0.26014135
      0.42246159      0.53284611
      0.14021120      0.29162544
s              7   1.000000
      0.92936822     -0.06732670
      0.05643440      0.66943826
      0.02166600      0.51460148
      8.31028694     -0.02901913
      1.52068012     -0.13301768
      0.42246159     -0.27245939
      0.14021120     -0.14911639
p              4   1.000000
      0.64737396      0.05713170
      0.16785440      0.28574555
      0.05917387      0.55178731
      0.02355814      0.26323150
 
          52   0
s              4   1.000000
      8.30881264      0.05675242
      1.52041035      0.26014135
      0.42238664      0.53284611
      0.14018633      0.29162544
s              7   1.000000
      0.92936822     -0.06732860
      0.05643440      0.66945712
      0.02166600      0.51461596
      8.30881264     -0.02902307
      1.52041035     -0.13303576
      0.42238664     -0.27249642
      0.14018633     -0.14913666
p              4   1.000000
      0.64737396      0.05713170
      0.16785440      0.28574555
      0.05917387      0.55178731
      0.02355814      0.26323150
 
          53   0
s              4   1.000000
      8.30875776      0.05675242
      1.52040030      0.26014135
      0.42238385      0.53284611
      0.14018540      0.29162544
s              7   1.000000
      0.92936822     -0.06732867
      0.05643440      0.66945782
      0.02166600      0.51461651
      8.30875776     -0.02902322
      1.52040030     -0.13303643
      0.42238385     -0.27249780
      0.14018540     -0.14913741
p              4   1.000000
      0.64737396      0.05713170
      0.16785440      0.28574555
      0.05917387      0.55178731
      0.02355814      0.26323150
 
          54   0
s              4   1.000000
      8.30882749      0.05675242
      1.52041306      0.26014135
      0.42238740      0.53284611
      0.14018658      0.29162544
s              7   1.000000
      0.92936822     -0.06732858
      0.05643440      0.66945693
      0.02166600      0.51461581
      8.30882749     -0.02902303
      1.52041306     -0.13303558
      0.42238740     -0.27249605
      0.14018658     -0.14913645
p              4   1.000000
      0.64737396      0.05713170
      0.16785440      0.28574555
      0.05917387      0.55178731
      0.02355814      0.26323150
 
          55   0
s              4   1.000000
      8.31035203      0.05675242
      1.52069203      0.26014135
      0.42246490      0.53284611
      0.14021230      0.29162544
s              7   1.000000
      0.92936822     -0.06732662
      0.05643440      0.66943742
      0.02166600      0.51460083
      8.31035203     -0.02901895
      1.52069203     -0.13301688
      0.42246490     -0.27245776
      0.14021230     -0.14911550
p              4   1.000000
      0.64737396      0.05713170
      0.16785440      0.28574555
      0.05917387      0.55178731
      0.02355814      0.26323150
 
          56   0
s              4   1.000000
      8.31034418      0.05675242
      1.52069060      0.26014135
      0.42246450      0.53284611
      0.14021217      0.29162544
s              7   1.000000
      0.92936822     -0.06732663
      0.05643440      0.66943753
      0.02166600      0.51460091
      8.31034418     -0.02901898
      1.52069060     -0.13301698
      0.42246450     -0.27245796
      0.14021217     -0.14911560
p              4   1.000000
      0.64737396      0.05713170
      0.16785440      0.28574555
      0.05917387      0.55178731
      0.02355814      0.26323150
 
          57   0
s              4   1.000000
      8.30882157      0.05675242
      1.52041198      0.26014135
      0.42238710      0.53284611
      0.14018648      0.29162544
s              7   1.000000
      0.92936822     -0.06732859
      0.05643440      0.66945701
      0.02166600      0.51461589
      8.30882157     -0.02902305
      1.52041198     -0.13303565
      0.42238710     -0.27249620
      0.14018648     -0.14913653
p              4   1.000000
      0.64737396      0.05713170
      0.16785440      0.28574555
      0.05917387      0.55178731
      0.02355814      0.26323150
 
          58   0
s              4   1.000000
      8.30875496      0.05675242
      1.52039979      0.26014135
      0.42238371      0.53284611
      0.14018536      0.29162544
s              7   1.000000
      0.92936822     -0.06732867
      0.05643440      0.66945785
      0.02166600      0.51461653
      8.30875496     -0.02902323
      1.52039979     -0.13303647
      0.42238371     -0.27249787
      0.14018536     -0.14913745
p              4   1.000000
      0.64737396      0.05713170
      0.16785440      0.28574555
      0.05917387      0.55178731
      0.02355814      0.26323150
 
          59   0
s              4   1.000000
      8.30881103      0.05675242
      1.52041005      0.26014135
      0.42238656      0.53284611
      0.14018630      0.29162544
s              7   1.000000
      0.92936822     -0.06732860
      0.05643440      0.66945714
      0.02166600      0.51461599
      8.30881103     -0.02902308
      1.52041005     -0.13303578
      0.42238656     -0.27249646
      0.14018630     -0.14913668
p              4   1.000000
      0.64737396      0.05713170
      0.16785440      0.28574555
      0.05917387      0.55178731
      0.02355814      0.26323150
 
          60   0
s              4   1.000000
      8.31027486      0.05675242
      1.52067791      0.26014135
      0.42246098      0.53284611
      0.14021100      0.29162544
s              7   1.000000
      0.92936822     -0.06732672
      0.05643440      0.66943842
      0.02166600      0.51460158
      8.31027486     -0.02901916
      1.52067791     -0.13301783
      0.42246098     -0.27245969
      0.14021100     -0.14911656
p              4   1.000000
      0.64737396      0.05713170
      0.16785440      0.28574555
      0.05917387      0.55178731
      0.02355814      0.26323150
 
          61   0
s              4   1.000000
      8.31034598      0.05675242
      1.52069093      0.26014135
      0.42246459      0.53284611
      0.14021220      0.29162543
s              7   1.000000
      0.92936822     -0.06732663
      0.05643440      0.66943751
      0.02166600      0.51460088
      8.31034598     -0.02901897
      1.52069093     -0.13301696
      0.42246459     -0.27245791
      0.14021220     -0.14911558
p              4   1.000000
      0.64737396      0.05713170
      0.16785440      0.28574555
      0.05917387      0.55178731
      0.02355814      0.26323150
 
          62   0
s              4   1.000000
      8.30882288      0.05675242
      1.52041222      0.26014135
      0.42238716      0.53284611
      0.14018650      0.29162544
s              7   1.000000
      0.92936822     -0.06732859
      0.05643440      0.66945698
      0.02166600      0.51461586
      8.30882288     -0.02902305
      1.52041222     -0.13303563
      0.42238716     -0.27249616
      0.14018650     -0.14913652
p              4   1.000000
      0.64737396      0.05713170
      0.16785440      0.28574555
      0.05917387      0.55178731
      0.02355814      0.26323150
 
          63   0
s              4   1.000000
      8.30875864      0.05675242
      1.52040046      0.26014135
      0.42238390      0.53284611
      0.14018542      0.29162544
s              7   1.000000
      0.92936822     -0.06732867
      0.05643440      0.66945781
      0.02166600      0.51461648
      8.30875864     -0.02902322
      1.52040046     -0.13303642
      0.42238390     -0.27249778
      0.14018542     -0.14913740
p              4   1.000000
      0.64737396      0.05713170
      0.16785440      0.28574555
      0.05917387      0.55178731
      0.02355814      0.26323150
 
          64   0
s              4   1.000000
      8.30881655      0.05675242
      1.52041106      0.26014135
      0.42238684      0.53284611
      0.14018639      0.29162544
s              7   1.000000
      0.92936822     -0.06732859
      0.05643440      0.66945707
      0.02166600      0.51461594
      8.30881655     -0.02902306
      1.52041106     -0.13303571
      0.42238684     -0.27249632
      0.14018639     -0.14913660
p              4   1.000000
      0.64737396      0.05713170
      0.16785440      0.28574555
      0.05917387      0.55178731
      0.02355814      0.26323150
 
          65   0
s              4   1.000000
      8.31028271      0.05675242
      1.52067935      0.26014135
      0.42246137      0.53284611
      0.14021113      0.29162544
s              7   1.000000
      0.92936822     -0.06732671
      0.05643440      0.66943832
      0.02166600      0.51460150
      8.31028271     -0.02901914
      1.52067935     -0.13301774
      0.42246137     -0.27245950
      0.14021113     -0.14911645
p              4   1.000000
      0.64737396      0.05713170
      0.16785440      0.28574555
      0.05917387      0.55178731
      0.02355814      0.26323150
 
          66   0
s              4   1.000000
      8.31046327      0.05675242
      1.52071239      0.26014135
      0.42247055      0.53284611
      0.14021418      0.29162544
s              7   1.000000
      0.92936822     -0.06732647
      0.05643440      0.66943601
      0.02166600      0.51459974
      8.31046327     -0.02901866
      1.52071239     -0.13301552
      0.42247055     -0.27245497
      0.14021418     -0.14911397
p              4   1.000000
      0.64737396      0.05713170
      0.16785440      0.28574555
      0.05917387      0.55178731
      0.02355814      0.26323150
 
          67   0
s              4   1.000000
      8.30941209      0.05675242
      1.52052004      0.26014135
      0.42241712      0.53284611
      0.14019644      0.29162544
s              7   1.000000
      0.92936822     -0.06732783
      0.05643440      0.66944945
      0.02166600      0.51461007
      8.30941209     -0.02902147
      1.52052004     -0.13302841
      0.42241712     -0.27248136
      0.14019644     -0.14912842
p              4   1.000000
      0.64737396      0.05713170
      0.16785440      0.28574555
      0.05917387      0.55178731
      0.02355814      0.26323150
 
          68   0
s              4   1.000000
      8.31005841      0.05675242
      1.52063831      0.26014135
      0.42244997      0.53284611
      0.14020735      0.29162544
s              7   1.000000
      0.92936822     -0.06732700
      0.05643440      0.66944118
      0.02166600      0.51460371
      8.31005841     -0.02901974
      1.52063831     -0.13302049
      0.42244997     -0.27246513
      0.14020735     -0.14911953
p              4   1.000000
      0.64737396      0.05713170
      0.16785440      0.28574555
      0.05917387      0.55178731
      0.02355814      0.26323150
 
 [MO]
 Sym= Hole
 Ene= -0.9617352    
 Spin= Alpha
 Occup= 0
           1  2.4713867E-04
           2 -4.9421307E-02
           3 -2.9712420E-02
           4 -1.1060243E-02
           5 -4.3939133E-04
           6 -3.4770630E-03
           7 -9.3374954E-04
           8  6.7433808E-04
           9 -7.8010355E-04
          10 -1.5801045E-03
          11  2.9363998E-03
          12  6.5822923E-03
          13  3.6654372E-05
          14 -6.9212904E-03
          15 -4.3435632E-03
          16 -1.3236358E-03
          17  5.3073571E-04
          18  0.1299208    
          19 -2.1700149E-03
          20 -0.3327694    
          21 -6.0946873E-04
          22  4.0598637E-03
          23  2.4028793E-03
          24 -7.0649004E-03
          25  5.4468354E-04
          26  6.3748226E-02
          27  5.2581136E-03
          28 -0.1720913    
          29 -2.4936914E-03
          30  2.1826073E-03
          31  3.3884486E-03
          32 -1.7828015E-03
          33 -1.7954602E-03
          34 -5.0160825E-02
          35  5.6716311E-04
          36  0.1356248    
          37 -3.5618956E-05
          38 -1.6345164E-03
          39  5.5593473E-04
          40  3.8701938E-03
          41 -2.6001800E-03
          42 -0.1028917    
          43  4.3786685E-03
          44  0.2755322    
          45  2.5030275E-04
          46 -2.0960809E-03
          47 -1.9175422E-04
          48  8.1093349E-03
          49  4.8806779E-03
          50 -5.1151168E-02
          51 -3.6016009E-03
          52  0.1004872    
          53 -1.1321538E-03
          54  5.6497823E-04
          55 -1.9355160E-03
          56  5.7525588E-03
          57 -1.9665141E-02
          58  9.1266595E-02
          59  3.3755146E-02
          60 -0.1824518    
          61  8.7017110E-03
          62  4.8689977E-03
          63 -1.6064234E-03
          64 -3.7916941E-03
          65  1.7342845E-04
          66 -1.4477845E-02
          67 -7.8306478E-03
          68 -2.9041355E-03
          69 -6.9307943E-04
          70  1.8199853E-04
          71  5.1016960E-04
          72  3.1068763E-03
          73  2.9693085E-03
          74 -7.1403742E-02
          75 -1.6013538E-02
          76  2.4939356E-03
          77  9.6960331E-04
          78 -1.5293390E-02
          79 -5.0236993E-03
          80 -1.7327709E-03
          81 -1.3801601E-03
          82  6.2924132E-02
          83  1.3335560E-02
          84 -3.2670829E-03
          85 -7.1573001E-04
          86  1.3908974E-03
          87 -2.6006671E-03
          88 -3.1370199E-03
          89  1.7244300E-02
          90  5.3738166E-02
          91  7.5453185E-02
          92  0.3576846    
          93 -7.5345398E-03
          94  2.1968388E-03
          95  4.1631535E-03
          96  3.4916126E-03
          97 -6.0859085E-03
          98 -5.2364757E-03
          99 -7.7671926E-03
         100  4.6434654E-03
         101  7.5593439E-04
         102 -6.1587617E-04
         103  2.1924765E-03
         104 -3.3300188E-03
         105  4.4104895E-03
         106 -1.4891520E-02
         107 -7.0961080E-02
         108 -0.3458912    
         109 -2.6254987E-03
         110  5.4918771E-04
         111 -2.0142852E-03
         112 -8.2421442E-03
         113  1.4465308E-03
         114 -9.9833226E-03
         115 -6.9853120E-02
         116 -0.2984741    
         117 -3.0816463E-04
         118  1.8955651E-04
         119 -1.1977602E-03
         120 -5.0808876E-03
         121  3.0073288E-04
         122  1.0077242E-02
         123  6.6563800E-02
         124  8.2932018E-02
         125 -3.6286397E-04
         126 -1.6493917E-03
         127 -5.0911559E-03
         128  7.1078232E-03
         129 -1.6825840E-02
         130 -2.6315406E-03
         131  0.1115446    
         132  4.7067400E-02
         133  6.5633934E-03
         134 -3.6791307E-03
         135  1.4065934E-03
         136  3.7749915E-03
         137  5.6964210E-03
         138  3.4021991E-03
         139 -2.5880562E-02
         140 -1.0003074E-02
         141 -1.5127986E-03
         142 -1.8841098E-03
         143  3.2782141E-04
         144  1.3717167E-03
         145 -3.2954887E-04
         146 -8.6001074E-03
         147 -8.8527031E-02
         148 -7.4684232E-02
         149  4.1179307E-04
         150  1.9688497E-04
         151 -1.2604451E-03
         152  1.0535880E-03
         153 -5.3580781E-04
         154 -2.4807143E-03
         155 -1.8651354E-03
         156 -1.0194064E-03
         157  8.7260050E-05
         158 -1.6792744E-04
         159 -2.3172975E-03
         160 -9.4816880E-04
         161 -9.0360306E-03
         162 -7.3470240E-03
         163 -9.2017138E-03
         164 -1.1985684E-02
         165  4.5892214E-03
         166 -7.4849668E-05
         167  1.3174630E-03
         168  1.2772337E-03
         169  1.6294149E-03
         170  3.2998701E-03
         171  1.2276206E-03
         172 -1.7369101E-04
         173 -1.2639671E-03
         174 -2.0353284E-03
         175 -5.1977363E-04
         176 -2.9957163E-04
         177 -1.6204949E-03
         178 -7.7145925E-04
         179 -1.9607358E-03
         180 -1.3127335E-03
         181  8.1156737E-05
         182 -4.2712415E-04
         183  1.6562954E-05
         184  9.4882897E-05
         185 -5.2486151E-04
         186 -4.2622027E-04
         187 -7.0256030E-04
         188  1.3651852E-04
         189 -1.5839991E-04
         190 -1.3294314E-04
         191 -1.7986089E-04
         192 -3.1392887E-04
         193 -9.1597298E-04
         194 -7.2644040E-04
         195 -1.1366657E-04
         196 -1.1320451E-03
         197 -2.9452509E-04
         198 -5.5931028E-05
         199 -3.5429513E-04
         200 -7.3682016E-04
         201 -1.1471962E-04
         202 -4.5869434E-03
         203  1.3674687E-03
         204  1.6580571E-03
         205  3.8158414E-06
         206  6.5597816E-04
         207 -1.0321623E-03
         208 -1.7823995E-03
         209  3.8607127E-03
         210  2.3709950E-03
         211  2.2548425E-03
         212 -7.0731426E-03
         213 -1.6971487E-03
         214  8.6563683E-05
         215  1.0862496E-03
         216  8.0091500E-04
         217 -5.8823399E-04
         218  3.1475106E-04
         219  8.1015925E-04
         220  1.3882840E-03
         221  6.6743355E-04
         222  8.3155994E-04
         223 -2.7567297E-04
         224 -1.1096728E-03
         225  6.0912612E-04
         226  1.2060850E-03
         227  4.5996363E-04
         228 -7.8615604E-04
         229  3.5631991E-05
         230  2.4638415E-04
         231 -5.7892907E-05
         232 -8.4432519E-05
         233  3.3611883E-05
         234 -1.2543827E-04
         235 -7.7786957E-05
         236 -4.3140313E-05
         237  2.3830190E-04
         238  1.8842203E-04
         239  1.0949645E-04
         240 -1.1610925E-04
         241  7.0874282E-04
         242  2.1739084E-04
         243  5.5299531E-04
         244 -1.5110292E-03
         245  1.8424072E-04
         246  9.3486778E-05
         247  3.9526954E-04
         248 -3.2236323E-05
         249 -1.0436260E-03
         250 -1.5989233E-04
         251 -1.5651033E-03
         252  1.2781443E-03
         253  7.7709975E-04
         254  1.0458846E-04
         255  7.6943357E-04
         256  2.4295926E-04
         257  5.9059649E-03
         258  5.5519175E-03
         259 -1.0422550E-02
         260 -1.7968654E-03
         261 -3.3038137E-03
         262  3.3788846E-04
         263  1.4643450E-03
         264  5.1182043E-04
         265 -1.2320195E-03
         266 -8.7163164E-05
         267  6.0269714E-04
         268 -3.9859628E-03
         269  6.2397565E-04
         270  8.7320991E-04
         271 -2.1425093E-04
         272  6.4298121E-04
         273  1.1399217E-03
         274 -1.6711702E-03
         275 -1.2700565E-03
         276  3.1035691E-03
         277 -1.4000678E-05
         278  3.9775006E-04
         279 -1.1232994E-04
         280  1.8290088E-04
         281  3.7777139E-04
         282 -3.3427835E-03
         283 -3.9514151E-05
         284  4.7763810E-03
         285  1.1401041E-04
         286  6.5643755E-05
         287 -3.6937406E-04
         288 -2.9360863E-05
         289  4.6228615E-04
         290 -2.3867302E-04
         291 -2.5308866E-04
         292  9.0463797E-04
         293  1.9355809E-04
         294  1.2785138E-04
         295 -6.8797672E-04
         296 -2.4131995E-04
         297  5.2832178E-04
         298  5.2119363E-03
         299  2.3890851E-05
         300 -1.7250661E-03
         301 -5.3587643E-04
         302 -4.1664482E-04
         303 -1.2726118E-03
         304 -3.3564944E-04
         305 -6.4500780E-03
         306 -1.5253936E-02
         307 -2.3630116E-02
         308 -1.2245529E-02
         309  2.2996748E-03
         310  2.3684744E-03
         311 -6.2736473E-04
         312  7.0720114E-04
         313  1.9313484E-02
         314  3.9355110E-02
         315  0.1021609    
         316  5.0175436E-02
         317 -7.1427156E-03
         318  6.0787424E-03
         319 -5.2925525E-04
         320  4.2830328E-03
         321 -5.5828607E-03
         322  1.0013045E-02
         323  3.8785249E-05
         324  1.3950827E-02
         325  4.8508584E-03
         326  4.2367293E-03
         327 -1.4711452E-03
         328  1.7260941E-04
         329  7.0295209E-04
         330  1.2010366E-02
         331  8.5953064E-02
         332  0.3663234    
         333  2.7057537E-04
         334  3.2069294E-03
         335  2.1995693E-03
         336  6.4144894E-03
         337  6.0576363E-03
         338 -1.9278661E-03
         339 -2.2010284E-03
         340  1.5875659E-03
         341  1.0915120E-02
         342 -7.4240827E-04
         343  1.6838062E-04
         344  1.2070531E-03
         345 -4.7030550E-04
         346 -3.7324205E-03
         347  4.3447767E-03
         348 -8.5171463E-04
         349  4.0395637E-03
         350 -3.5464496E-04
         351 -8.8563375E-03
         352  5.1595801E-03
         353 -6.8342668E-04
         354 -2.7351232E-06
         355 -3.7803513E-03
         356 -3.0111228E-03
         357 -2.0906986E-03
         358 -6.1026344E-04
         359 -3.8622930E-03
         360  8.5798813E-05
         361 -7.9408282E-04
         362 -3.4596992E-03
         363  2.0973604E-04
         364  1.1980990E-03
         365  2.2652163E-03
         366  9.7461091E-03
         367  1.0747959E-02
         368 -8.0672739E-04
         369  9.2419231E-04
         370  2.9351623E-03
         371 -9.7252015E-04
         372 -1.1942075E-02
         373 -1.3497184E-04
         374 -1.9725210E-03
         375 -3.0297604E-03
         376 -1.5598282E-03
         377  2.6359120E-03
         378 -1.6575726E-03
         379 -9.7871968E-04
         380  2.1727488E-04
         381  6.7013205E-04
         382  1.5671648E-03
         383 -5.9276703E-04
         384 -3.1198663E-04
         385 -1.8596809E-04
         386 -2.5343932E-06
         387  1.0041636E-04
         388 -9.2091657E-05
         389 -1.1742981E-05
         390 -1.6246825E-04
         391 -5.3127755E-05
         392  1.8549756E-03
         393 -8.9508673E-04
         394  7.8675483E-05
         395 -2.2318614E-04
         396 -3.2705080E-04
         397  1.9121825E-03
         398 -3.2779513E-04
         399  3.0989402E-03
         400  1.7288605E-04
         401  8.8837749E-04
         402 -1.4536037E-03
         403  1.1099873E-03
         404  3.8763761E-04
         405 -8.3681766E-04
         406 -7.1316783E-04
         407 -7.2414917E-04
         408  2.7384495E-04
         409 -9.2851988E-06
         410  1.1565909E-05
         411 -5.7773290E-05
         412  3.4357861E-04
         413  3.5962679E-05
         414 -5.5925288E-05
         415  9.1728049E-05
         416 -7.0465678E-05
         417 -1.1422749E-03
         418  1.7322801E-04
         419 -1.1625805E-04
         420  2.1309097E-04
         421 -8.4535226E-05
         422 -1.4925408E-03
         423  5.9238396E-04
         424 -2.1705635E-05
         425  4.4897859E-04
         426  5.7581963E-04
         427 -1.4397844E-03
         428  8.0784154E-04
         429  1.8099812E-04
         430  7.0781604E-04
         431  1.8791814E-04
         432 -1.1967588E-03
         433  5.1647896E-04
         434  2.6025265E-04
         435 -1.4299143E-04
         436  1.9032626E-04
         437 -1.8073170E-04
         438  1.5876332E-04
         439 -5.6275487E-05
         440 -9.1907597E-05
         441  1.4566835E-04
         442 -8.9616631E-04
         443  7.8961794E-04
         444  2.9520959E-05
         445 -2.5795412E-04
         446 -1.5730526E-04
         447 -1.0456175E-03
         448  5.1557974E-05
         449 -1.4977360E-03
         450  1.4319593E-03
         451 -4.4707707E-04
         452  1.2603181E-02
         453  2.7421507E-04
         454  7.9696975E-04
         455 -3.8456460E-03
         456 -2.2676298E-03
         457 -5.4633748E-03
         458  9.1042125E-04
         459  1.3820241E-03
         460  5.2445177E-03
         461 -3.5662837E-03
         462 -6.3138693E-03
         463  1.1304853E-03
         464  2.0404495E-06
         465 -5.4762617E-04
         466 -8.7727616E-03
 Sym= Particle
 Ene= -0.9617352    
 Spin= Alpha
 Occup= 2
           1 -9.9176997E-03
           2 -0.1208360    
           3  0.1613913    
           4  0.3367487    
           5  9.5040919E-03
           6  3.0390540E-02
           7 -4.5884825E-02
           8 -7.8971125E-02
           9  1.3268377E-02
          10  0.1437286    
          11 -0.1825260    
          12 -0.4325189    
          13  1.3215568E-04
          14 -4.1681413E-02
          15  5.2411001E-02
          16  0.1066207    
          17  5.0281011E-03
          18  6.4309381E-02
          19  3.5047454E-03
          20 -0.1859203    
          21 -2.5081921E-03
          22 -6.8429075E-03
          23 -6.0223574E-03
          24  4.0458988E-02
          25  8.2653426E-03
          26 -8.5556492E-02
          27 -2.2833252E-02
          28  0.2101002    
          29 -5.4203863E-03
          30  1.6715011E-02
          31  1.4623291E-02
          32 -3.7871417E-02
          33 -2.2761293E-03
          34 -2.1310244E-02
          35  7.1372674E-04
          36  6.0916778E-02
          37  1.4848663E-03
          38  6.3805194E-03
          39  7.0605514E-04
          40 -1.2322190E-02
          41 -2.9738459E-03
          42  9.7238690E-02
          43 -3.3489327E-04
          44 -0.2489621    
          45  2.0191914E-03
          46 -1.6145620E-02
          47  3.2566134E-03
          48  4.3905847E-02
          49  5.9162611E-03
          50 -3.1437974E-02
          51  7.5990561E-04
          52  5.4472394E-02
          53 -1.8035267E-03
          54  6.8493169E-03
          55  9.3446270E-04
          56 -7.1180835E-03
          57 -2.1203389E-02
          58 -6.5473087E-02
          59 -8.3442423E-03
          60  0.2313581    
          61  1.7125519E-02
          62  9.4616152E-03
          63 -4.6922360E-03
          64 -5.7304598E-02
          65  1.3531223E-03
          66 -5.2910228E-04
          67  2.6843720E-03
          68  1.4280247E-02
          69  1.3199837E-03
          70 -4.8415652E-03
          71  2.7557802E-03
          72  2.3924772E-02
          73  1.1783645E-02
          74 -2.4391258E-02
          75  3.0640999E-02
          76  4.1695308E-02
          77 -1.4999363E-02
          78  3.5367017E-03
          79  1.1055915E-03
          80 -1.5103968E-02
          81 -6.9378135E-03
          82  1.8153492E-02
          83 -3.3084176E-02
          84  2.7713930E-04
          85  1.2250973E-02
          86 -5.6408313E-03
          87  8.7917401E-03
          88 -9.6917828E-04
          89 -1.7351249E-02
          90  1.6764155E-02
          91  4.2913694E-02
          92  0.2977899    
          93  1.4861722E-02
          94  4.1968985E-03
          95 -9.5972912E-03
          96 -7.4388474E-02
          97  4.7023841E-03
          98  7.4337311E-03
          99  2.3673672E-02
         100  7.4760638E-02
         101 -3.2171560E-04
         102 -2.1236371E-03
         103 -4.6579698E-03
         104 -1.3215012E-02
         105 -3.7033441E-03
         106 -1.4715314E-02
         107 -7.1593307E-02
         108 -0.3393578    
         109  3.8424532E-03
         110 -2.7427406E-04
         111  1.5796287E-02
         112  7.0676439E-02
         113 -2.8187931E-03
         114  6.1690495E-03
         115  2.4880262E-02
         116  0.1235196    
         117  3.9978269E-03
         118 -4.2282706E-03
         119 -5.3088157E-03
         120 -3.2811619E-02
         121  3.8732346E-03
         122  1.0722824E-02
         123  3.1095855E-02
         124  2.2044554E-02
         125  1.0597268E-03
         126  1.9623588E-03
         127 -8.6286739E-03
         128 -8.2452199E-04
         129  9.2645278E-03
         130  3.2757707E-03
         131 -4.1195929E-02
         132 -2.5869679E-02
         133 -5.7219323E-03
         134 -2.7907691E-03
         135  8.6250929E-03
         136  6.9015725E-03
         137 -3.4447969E-03
         138 -6.3555762E-03
         139 -8.5077425E-03
         140 -6.5071676E-03
         141  2.2663614E-03
         142  1.7761514E-03
         143  2.9276431E-04
         144 -1.3709979E-05
         145  1.3048430E-03
         146  7.0319939E-03
         147  4.0480871E-02
         148  3.2743759E-02
         149 -7.8087760E-04
         150 -3.1958695E-03
         151 -6.6534313E-03
         152 -5.5550095E-03
         153 -4.7465548E-04
         154 -1.2803850E-03
         155  3.1936569E-03
         156  2.2418736E-03
         157  2.7716625E-04
         158  7.0209346E-05
         159  3.9038438E-04
         160  2.3119734E-04
         161  4.5621772E-03
         162  3.5207344E-03
         163  4.7656130E-03
         164  5.2261953E-03
         165 -3.7612719E-03
         166 -2.4615000E-03
         167 -1.1253032E-03
         168 -8.1392651E-04
         169 -9.4615849E-04
         170 -1.5968693E-03
         171 -1.2122630E-03
         172  4.3198382E-04
         173  5.3410756E-04
         174  1.0296167E-03
         175  5.8865082E-04
         176  2.9398466E-04
         177  7.0305140E-04
         178  3.9810353E-04
         179  1.0235388E-03
         180  6.7710649E-04
         181 -2.5432764E-04
         182 -1.2210859E-05
         183 -1.1152700E-04
         184  1.4952161E-04
         185  2.6916596E-04
         186  3.9741371E-05
         187  3.4533063E-04
         188 -2.5000898E-04
         189 -3.9467798E-04
         190 -1.3971375E-04
         191 -1.7554772E-05
         192  1.6652184E-04
         193  3.8235070E-04
         194  4.3809539E-04
         195  3.6587092E-04
         196  5.5367424E-04
         197 -3.6381945E-04
         198 -4.2995342E-04
         199 -3.3669930E-04
         200  2.1702645E-04
         201  3.4852954E-05
         202  1.5725377E-03
         203 -9.0888067E-04
         204 -4.7629772E-04
         205 -9.8497828E-04
         206 -2.4876569E-03
         207 -1.7785862E-05
         208 -2.5807918E-05
         209 -1.5582060E-03
         210 -8.0869260E-04
         211 -8.1201637E-04
         212  2.5712100E-03
         213  1.0149020E-03
         214  7.7365630E-04
         215  4.7153822E-04
         216 -8.3571713E-04
         217  2.2310976E-05
         218  2.3632805E-05
         219 -3.1961108E-04
         220 -7.5014024E-05
         221 -2.0530781E-05
         222  3.5757388E-04
         223  2.8087521E-05
         224  3.3975512E-04
         225 -1.8577064E-04
         226 -3.6129938E-04
         227 -1.4784801E-04
         228  1.4144607E-04
         229 -8.9955844E-05
         230 -9.5951371E-05
         231  7.4456921E-06
         232  1.1179424E-04
         233 -1.6344313E-05
         234 -7.9296995E-05
         235  4.9939146E-05
         236 -7.1180155E-05
         237 -1.1117598E-04
         238 -2.0537145E-05
         239 -1.1002299E-04
         240  6.2184859E-05
         241 -2.9632699E-04
         242  1.2161425E-04
         243 -7.8324330E-05
         244  5.2154867E-04
         245 -1.8809183E-04
         246 -1.4168279E-04
         247 -1.3036926E-05
         248  2.4442381E-04
         249  4.6348496E-04
         250  8.4891850E-05
         251  7.0512149E-04
         252 -2.3778321E-04
         253 -6.9504039E-04
         254 -3.9145548E-04
         255 -1.6720284E-04
         256  2.0865638E-04
         257 -2.7511464E-03
         258 -8.0312509E-04
         259  4.5734388E-03
         260 -1.1513894E-03
         261  2.0225623E-03
         262  7.5769733E-04
         263 -1.1732676E-03
         264  7.6577876E-04
         265  5.4237939E-04
         266  1.0069427E-03
         267 -2.5767394E-04
         268  4.4070167E-04
         269 -5.0638191E-04
         270 -4.7796039E-04
         271  4.6100773E-04
         272 -5.5816257E-04
         273 -4.8441024E-04
         274  5.3294556E-05
         275  6.1590807E-04
         276 -7.4729294E-05
         277  8.0789978E-05
         278 -8.8250119E-05
         279  1.0783607E-04
         280 -2.6286542E-04
         281 -1.1885563E-04
         282 -3.2537628E-04
         283 -5.5833483E-05
         284  2.7376326E-04
         285  9.7210519E-05
         286  3.8787437E-04
         287  1.3651620E-04
         288  5.3876291E-05
         289 -1.8583023E-04
         290  8.9450114E-05
         291  1.5836686E-04
         292 -2.4672848E-04
         293 -3.9199695E-05
         294 -2.2015805E-04
         295  5.6533422E-04
         296  1.9153485E-04
         297  4.0988725E-06
         298 -6.6786632E-04
         299 -2.6892018E-04
         300 -9.9692959E-04
         301  9.6542899E-05
         302 -2.7134625E-05
         303 -7.8515416E-07
         304  5.5944157E-04
         305  1.3222770E-03
         306 -3.1044826E-04
         307 -8.2148351E-03
         308 -7.0749950E-03
         309  4.2335709E-05
         310  1.3215034E-04
         311  4.8176723E-04
         312  2.0089869E-03
         313 -4.3566586E-03
         314 -1.0211502E-02
         315 -4.6465270E-02
         316 -1.5531989E-02
         317  4.7978624E-03
         318  5.0373217E-03
         319  1.1536667E-02
         320  1.7409475E-03
         321  5.8186743E-03
         322  3.7044413E-02
         323  4.1603588E-02
         324  0.2267944    
         325 -1.8624531E-03
         326 -1.8355360E-02
         327 -2.6513662E-03
         328 -4.3760721E-02
         329  2.7544808E-03
         330 -1.4674202E-02
         331 -5.0730605E-02
         332 -0.2578278    
         333  5.2333920E-04
         334  4.8285625E-03
         335  4.5358837E-03
         336  6.3459642E-02
         337 -2.2054217E-03
         338  2.4990784E-03
         339 -3.8948324E-02
         340  3.5425834E-03
         341  3.9440248E-02
         342  7.2909044E-03
         343 -1.5080199E-03
         344 -4.0466194E-03
         345 -1.0616917E-03
         346  9.3591874E-03
         347  3.9063366E-03
         348 -1.9776888E-04
         349  1.7169269E-02
         350  7.7350676E-04
         351 -4.4816185E-02
         352 -4.6891728E-03
         353  7.3772582E-04
         354 -3.2963052E-03
         355 -9.8938157E-04
         356  1.2187835E-02
         357 -4.4481731E-03
         358  1.5476671E-03
         359  1.2038983E-03
         360  2.8841698E-03
         361  1.7395444E-02
         362  5.7803001E-03
         363  4.5206206E-04
         364 -5.3844559E-03
         365 -1.3892315E-02
         366 -6.0362168E-02
         367 -2.6512577E-03
         368 -5.1619494E-03
         369 -1.3404083E-02
         370 -3.6600681E-03
         371 -1.8498169E-03
         372  1.5534868E-03
         373 -7.6813943E-04
         374 -6.6659495E-04
         375 -9.5370138E-04
         376 -2.4780636E-03
         377 -1.3789184E-03
         378  6.5799110E-04
         379  5.1083381E-04
         380 -2.5895741E-05
         381 -3.0038585E-05
         382 -7.8825495E-04
         383 -4.6402660E-05
         384 -4.8762510E-04
         385  1.7914965E-04
         386 -5.0950570E-05
         387  4.7358848E-05
         388 -4.6564656E-04
         389 -2.3323242E-04
         390  3.3346223E-05
         391 -3.0759114E-05
         392 -8.1339962E-04
         393 -2.8753182E-04
         394  4.9219212E-05
         395 -2.3659359E-04
         396 -1.8335963E-04
         397 -1.5657749E-03
         398 -7.3781371E-04
         399 -1.3865501E-03
         400 -8.1074529E-04
         401 -2.2176688E-03
         402  4.7540868E-04
         403 -2.7815191E-04
         404  4.2261032E-04
         405  1.4594609E-04
         406  3.4214853E-04
         407  2.9758015E-04
         408 -1.7600258E-04
         409 -2.4707415E-04
         410  4.2119918E-05
         411  5.8830941E-05
         412 -5.9964870E-05
         413  9.5847601E-05
         414 -2.2236280E-05
         415 -1.2112549E-04
         416 -4.5099710E-05
         417  4.4937694E-04
         418 -2.7391495E-04
         419 -2.2295455E-05
         420  1.0140952E-05
         421  4.6073055E-04
         422  5.9664052E-04
         423 -9.4559800E-04
         424 -6.9799449E-04
         425 -7.7251789E-05
         426 -4.8046419E-05
         427  9.3615404E-04
         428 -6.9657725E-04
         429 -2.6432445E-04
         430  1.6361404E-04
         431 -2.7471900E-04
         432  7.6624221E-04
         433 -1.9943209E-04
         434 -1.0422403E-04
         435 -3.7825885E-05
         436 -3.1809605E-04
         437  6.8378686E-05
         438  1.6302240E-04
         439  2.4260375E-04
         440 -1.9252269E-05
         441  2.6660605E-04
         442  7.9632719E-04
         443 -5.2318588E-04
         444 -6.6317944E-04
         445  4.0656904E-04
         446 -1.0086442E-04
         447  8.7072700E-04
         448 -9.6132752E-04
         449 -1.4319151E-03
         450 -1.9728635E-03
         451  3.2675618E-04
         452 -5.1259664E-03
         453  9.1408187E-04
         454 -2.0375795E-04
         455 -1.5114187E-03
         456 -4.7713649E-04
         457  5.9108424E-04
         458 -2.7352695E-03
         459 -9.0605328E-03
         460 -4.2052767E-03
         461 -3.3777799E-03
         462  2.0974662E-04
         463  3.3821869E-03
         464  9.9888640E-03
         465  3.0713664E-02
         466  4.3537002E-02
 Sym= Hole
 Ene= -0.1028178    
 Spin= Alpha
 Occup= 0
           1 -7.1954145E-03
           2 -0.1086559    
           3  7.6184794E-02
           4  0.1684262    
           5  1.3739404E-03
           6 -2.1901263E-03
           7 -6.0272415E-04
           8  6.2436312E-03
           9  1.0307500E-02
          10  3.8266141E-02
          11 -4.5088004E-02
          12 -8.5300960E-02
          13  6.6735921E-04
          14 -6.6320770E-03
          15  4.4453647E-03
          16  1.7437918E-02
          17  1.2075108E-02
          18  0.1253181    
          19 -3.0261700E-03
          20 -0.4008882    
          21 -5.4722638E-03
          22  3.6669350E-03
          23 -3.5844345E-03
          24 -3.9833455E-04
          25 -6.3033035E-04
          26  6.9033779E-02
          27  2.1272697E-03
          28 -0.1651606    
          29 -4.0091909E-05
          30  2.9938179E-03
          31  1.5765496E-03
          32 -4.3483740E-03
          33  1.3315165E-03
          34 -8.0839254E-02
          35  1.8915659E-03
          36  0.1913584    
          37  4.7622427E-05
          38 -2.1800608E-03
          39  5.2514602E-04
          40  2.6338561E-03
          41  2.7504412E-04
          42 -0.1389650    
          43 -5.0104866E-03
          44  0.3652157    
          45 -1.0242758E-04
          46 -3.1002632E-03
          47 -5.7919387E-04
          48  9.9526737E-03
          49  2.8087597E-03
          50 -7.7390805E-02
          51 -4.8035238E-04
          52  0.1798810    
          53  1.2406542E-03
          54 -3.9616316E-03
          55 -7.3053397E-04
          56  4.1708350E-03
          57 -6.7177494E-03
          58  7.7714585E-02
          59  1.7445775E-03
          60 -0.1763156    
          61  2.7739804E-03
          62  1.1710689E-03
          63  2.0647570E-03
          64 -2.4128045E-04
          65 -3.1244203E-03
          66 -8.7023210E-03
          67 -6.9819563E-03
          68 -6.4073730E-04
          69  1.3004260E-03
          70  4.9212750E-04
          71  7.7134662E-04
          72 -4.3800734E-03
          73 -1.2371497E-02
          74  3.0508975E-02
          75 -3.0337900E-02
          76 -1.9638862E-02
          77 -3.5137900E-03
          78  4.9610380E-03
          79 -1.1100028E-02
          80  5.0116039E-04
          81  5.5106841E-03
          82 -2.0252189E-03
          83  3.9563335E-02
          84  1.4734794E-02
          85  1.1446088E-03
          86 -6.2565897E-03
          87  4.7616879E-03
          88  8.2962569E-03
          89  2.5031706E-03
          90  1.8259818E-03
          91 -5.5003319E-02
          92 -0.2176397    
          93 -2.2797487E-03
          94 -9.0388645E-04
          95  2.4004111E-03
          96  3.0469570E-05
          97  1.3158049E-03
          98 -8.2553737E-03
          99  2.5712783E-03
         100 -4.7241976E-03
         101 -4.0321529E-04
         102  2.6800431E-04
         103  3.1015062E-04
         104 -1.4955739E-03
         105 -4.8420415E-03
         106  2.5934935E-02
         107  4.6581049E-02
         108  0.2587991    
         109  3.5510391E-03
         110  3.3481600E-04
         111  1.4489432E-03
         112  3.6215626E-03
         113  1.5734391E-03
         114  1.4425141E-02
         115  7.3395908E-02
         116  0.2799867    
         117 -3.3202567E-04
         118 -1.8727702E-04
         119 -3.5213935E-04
         120  1.0357038E-03
         121  1.1390322E-03
         122 -1.4448041E-02
         123 -0.1019527    
         124 -0.1139907    
         125 -5.4433499E-04
         126  3.4449168E-04
         127  5.5938759E-03
         128 -9.9373292E-03
         129  1.7799487E-02
         130  5.5833315E-03
         131 -0.1214662    
         132 -5.7023909E-02
         133 -4.7542443E-03
         134  7.6042432E-03
         135 -3.4262680E-03
         136 -1.1104166E-03
         137 -6.7245592E-03
         138 -4.3526990E-03
         139  4.4392768E-02
         140  2.8537838E-02
         141  1.8036113E-03
         142  6.5588718E-04
         143  5.4415216E-04
         144  3.7574527E-04
         145  7.9279416E-04
         146  1.4200800E-02
         147  0.1196914    
         148  9.1959365E-02
         149 -1.8986786E-04
         150  8.9121982E-04
         151  3.4464444E-03
         152 -1.0239487E-03
         153  8.6308719E-04
         154  9.9555403E-04
         155 -5.3766427E-05
         156 -7.9645764E-04
         157  3.6145744E-04
         158  4.0779068E-04
         159  2.4471695E-03
         160  9.4682601E-04
         161  1.2392181E-02
         162  1.0920358E-02
         163  1.3683151E-02
         164  1.8323056E-02
         165 -5.5432492E-03
         166  1.4383602E-03
         167 -1.5437618E-03
         168 -7.8876753E-04
         169 -2.4643571E-03
         170 -5.3620376E-03
         171 -2.0987513E-03
         172  5.1703939E-04
         173  1.5890208E-03
         174  2.3516812E-03
         175  3.1115767E-04
         176  1.4331636E-04
         177  2.5211463E-03
         178  9.4143220E-04
         179  2.7487122E-03
         180  2.2924433E-03
         181 -1.4533060E-04
         182  8.4045500E-04
         183  3.4222841E-05
         184 -3.1094672E-04
         185  9.0483198E-04
         186  3.8827609E-04
         187  7.3321926E-04
         188 -5.9173477E-04
         189  2.1573817E-04
         190  3.3948023E-04
         191  4.6703033E-04
         192  5.4220267E-04
         193  1.4806505E-03
         194  1.3251049E-03
         195  6.3851557E-04
         196  1.5957259E-03
         197  3.9970307E-04
         198  3.4070908E-05
         199  6.7173090E-04
         200  1.1117136E-03
         201  8.6968619E-05
         202  7.2219567E-03
         203 -2.2978084E-03
         204 -3.2059290E-03
         205  2.7332452E-04
         206  1.5404428E-04
         207  1.4092542E-03
         208  2.3516600E-03
         209 -4.7273566E-03
         210 -3.7274736E-03
         211 -2.5323643E-03
         212  8.5360622E-03
         213  2.1855943E-03
         214  1.0794249E-04
         215 -1.5143921E-03
         216 -9.2906569E-04
         217  5.5089820E-04
         218 -3.6791267E-04
         219 -1.3759533E-03
         220 -2.2170281E-03
         221 -8.0873276E-04
         222 -1.1339439E-03
         223  5.2637904E-04
         224  1.2395269E-03
         225 -6.4773299E-04
         226 -1.2195595E-03
         227 -1.2712287E-03
         228  1.3051673E-03
         229  2.2676201E-04
         230 -3.5422517E-04
         231 -4.4315067E-05
         232  2.3025111E-04
         233 -3.3834224E-04
         234  1.2171363E-03
         235  4.8761629E-04
         236 -1.3596035E-03
         237 -5.8769649E-05
         238 -1.7396300E-04
         239 -7.6392818E-05
         240  3.2710501E-05
         241 -7.0579367E-04
         242 -1.7571308E-04
         243 -1.1459057E-04
         244  2.2480641E-03
         245  4.8817105E-06
         246 -2.6430094E-04
         247 -4.4901174E-04
         248  3.2171200E-04
         249  7.2612800E-04
         250  3.4165456E-05
         251  2.0948602E-03
         252 -1.5545223E-03
         253 -4.9282232E-04
         254  3.1918130E-04
         255 -8.4911013E-04
         256 -4.6480171E-04
         257 -8.0909943E-03
         258 -4.7509633E-03
         259  1.4720888E-02
         260  5.0937792E-04
         261  3.8752614E-03
         262 -5.3896493E-04
         263 -1.1124631E-03
         264 -6.1178126E-04
         265  1.9867485E-03
         266 -2.4458556E-04
         267 -9.4166084E-04
         268  3.5982034E-03
         269 -9.7883958E-04
         270 -9.8691322E-04
         271  5.3138653E-04
         272 -7.2975847E-04
         273 -1.4475039E-03
         274 -2.2245885E-04
         275  1.1904000E-03
         276 -3.3065905E-03
         277 -3.0958327E-04
         278 -6.1724690E-04
         279 -5.6889240E-04
         280 -2.7194212E-04
         281 -1.7635342E-04
         282  2.5150359E-03
         283  2.5561578E-03
         284 -3.9049156E-03
         285 -5.1557738E-04
         286  1.4397090E-04
         287  6.5248250E-04
         288  1.5370494E-04
         289 -7.7567709E-04
         290  3.2413550E-04
         291  2.0782906E-03
         292 -8.7011031E-05
         293 -5.2345172E-04
         294 -1.5265706E-04
         295  8.4908801E-04
         296  1.7464136E-04
         297  1.9020791E-04
         298 -5.4864804E-03
         299 -1.8517154E-03
         300  8.4192812E-04
         301  2.7140626E-04
         302 -2.9036021E-04
         303  1.3628093E-03
         304 -6.6660473E-06
         305  5.6266086E-03
         306  1.9234085E-02
         307  3.3663046E-02
         308  2.2421874E-02
         309 -9.4878447E-04
         310  1.3764299E-03
         311  4.0236261E-04
         312  9.6506224E-04
         313 -1.7326495E-02
         314 -4.3218289E-02
         315 -0.1214935    
         316 -6.3523047E-02
         317  6.1301538E-03
         318 -7.0562153E-03
         319 -6.6625513E-04
         320 -2.2043497E-03
         321  5.0604460E-03
         322  5.0803083E-03
         323  1.5118049E-02
         324  0.1461215    
         325 -1.2367712E-03
         326  2.4748421E-03
         327  1.4169106E-03
         328 -1.7445841E-03
         329  1.3129277E-03
         330 -2.4946136E-03
         331 -2.7819932E-02
         332 -0.1689599    
         333 -7.1512169E-04
         334  1.4509154E-05
         335 -4.6088433E-04
         336  4.3217293E-03
         337 -3.9664945E-03
         338  2.1062545E-03
         339 -7.7039930E-03
         340 -2.5274884E-03
         341  9.8983105E-03
         342 -1.2043256E-03
         343  3.1968261E-04
         344  4.5109810E-03
         345 -7.8875903E-04
         346 -9.2856754E-03
         347  2.9316070E-03
         348  3.3410723E-04
         349  5.9245927E-03
         350  2.7033748E-04
         351 -1.6401239E-02
         352 -5.2267727E-03
         353  8.8992878E-04
         354  2.1716729E-03
         355 -1.4086663E-03
         356 -9.4408877E-03
         357 -1.0785785E-02
         358 -6.3565996E-05
         359 -1.7080249E-03
         360 -4.7879110E-04
         361 -4.5182882E-03
         362 -1.5323083E-03
         363 -4.1205026E-04
         364 -1.7162337E-03
         365 -2.3565905E-03
         366 -1.0641366E-02
         367 -7.8932485E-03
         368  1.1288840E-03
         369 -1.7117091E-03
         370 -2.6622789E-03
         371  4.6584592E-03
         372  9.1443928E-03
         373 -3.2200417E-04
         374  3.4807243E-03
         375  2.7532966E-03
         376 -6.5627887E-06
         377 -3.2695478E-03
         378  2.4165418E-03
         379  1.1464962E-03
         380 -3.9574501E-04
         381 -8.8635401E-04
         382 -1.9327343E-03
         383  1.0125475E-03
         384  5.8517302E-04
         385  2.3415788E-04
         386 -9.0516922E-05
         387  5.7791057E-04
         388  3.4409395E-04
         389  1.7434599E-04
         390  2.5750085E-04
         391  1.7179837E-04
         392 -2.5689062E-03
         393  1.2719780E-03
         394 -3.4890082E-04
         395  3.3378327E-04
         396  3.7448615E-04
         397 -1.8548995E-03
         398  1.2084120E-03
         399 -3.6779484E-03
         400  7.7481155E-04
         401  1.2602402E-05
         402  1.5045742E-03
         403 -1.6018571E-03
         404 -6.8393903E-04
         405  8.3378580E-04
         406  1.0926047E-03
         407  8.2995382E-04
         408 -3.2786213E-04
         409  9.1452108E-05
         410 -3.6672511E-05
         411  4.0635812E-05
         412 -2.2031390E-03
         413 -4.7798129E-04
         414 -3.0327114E-06
         415 -1.6364154E-04
         416  2.3410642E-04
         417  1.2041862E-03
         418 -2.0264355E-04
         419  6.6592176E-05
         420 -2.2342862E-04
         421  8.1925449E-05
         422  1.5842727E-03
         423 -4.9251301E-04
         424  5.9234537E-04
         425 -2.1636572E-04
         426 -4.7634056E-04
         427  2.8075802E-03
         428 -9.0026046E-04
         429 -1.9009427E-04
         430 -1.4201036E-03
         431 -8.2878287E-05
         432  2.3618410E-03
         433 -5.5216963E-04
         434 -3.6655302E-04
         435  3.2652929E-04
         436 -3.4539468E-04
         437  2.1004514E-03
         438  2.3067744E-04
         439 -1.0179738E-04
         440  2.6972675E-05
         441 -3.9055591E-04
         442  2.3949130E-03
         443 -9.0496591E-04
         444  1.8349686E-04
         445  1.5084064E-04
         446  3.2730249E-04
         447  2.0478715E-03
         448 -1.4379696E-04
         449  1.4333222E-03
         450 -7.9822214E-04
         451  8.1193575E-04
         452 -1.1992653E-02
         453  3.1769302E-04
         454 -1.0503387E-03
         455  4.0543326E-03
         456  8.2682515E-04
         457  4.9924590E-03
         458 -6.1259564E-04
         459  9.4181526E-04
         460 -3.1929729E-03
         461  4.6408414E-03
         462 -1.2566413E-02
         463  1.5482011E-03
         464  7.4128853E-03
         465  1.7259289E-03
         466 -3.4555239E-03
 Sym= Particle
 Ene= -0.1028178    
 Spin= Alpha
 Occup= 2
           1 -1.0019687E-03
           2 -2.6508061E-02
           3  2.4206497E-02
           4  6.0021304E-02
           5 -8.2344521E-04
           6  1.9926257E-02
           7 -2.0227428E-03
           8 -1.5447598E-02
           9  4.5573344E-03
          10  2.5295191E-02
          11 -4.0981010E-02
          12 -8.6391658E-02
          13 -2.5682801E-03
          14  5.3381994E-03
          15  2.1865953E-02
          16  3.4181196E-02
          17 -1.5536335E-02
          18  0.1605014    
          19  5.6737033E-03
          20 -0.3762746    
          21  1.5458427E-02
          22 -5.8235206E-02
          23 -8.9437887E-03
          24  0.1256144    
          25  6.2220725E-03
          26 -8.9783549E-02
          27 -1.5344257E-02
          28  0.2240196    
          29  6.4340442E-05
          30  2.6408255E-02
          31  5.2856845E-03
          32 -6.7798689E-02
          33 -2.2574838E-03
          34 -4.9615175E-02
          35 -2.1901557E-03
          36  0.1398566    
          37  1.5467922E-03
          38  1.6169248E-02
          39  1.0156425E-03
          40 -3.9601203E-02
          41 -3.1647980E-04
          42  0.1373097    
          43 -1.1968368E-03
          44 -0.3566688    
          45  1.3222095E-03
          46 -3.7381507E-02
          47 -4.5121563E-04
          48  9.8501995E-02
          49 -2.1524446E-03
          50 -6.5083586E-02
          51 -1.7492747E-03
          52  0.1875513    
          53  2.1957201E-03
          54  1.4663708E-02
          55 -1.2460507E-03
          56 -5.2194446E-02
          57  1.1820380E-02
          58 -8.2150847E-02
          59 -2.5129378E-02
          60  0.1933453    
          61 -6.3829375E-03
          62  2.6717255E-02
          63  8.3949212E-03
          64 -6.6545203E-02
          65  3.9138617E-03
          66 -1.6293358E-02
          67 -6.5250029E-03
          68 -2.5168234E-03
          69 -8.6841936E-04
          70  4.8844256E-03
          71  1.2023051E-03
          72 -3.4324995E-03
          73 -2.4516179E-04
          74  2.4283633E-02
          75  1.0984188E-02
          76 -1.1814714E-03
          77  2.5709530E-03
          78 -1.7108986E-02
          79 -5.3662965E-03
          80 -9.0642006E-04
          81  7.0543232E-04
          82 -1.6092239E-03
          83 -1.8774257E-03
          84 -3.6247380E-04
          85 -6.4780907E-04
          86  7.3263608E-03
          87  3.1524785E-03
          88  7.5772681E-05
          89 -1.7346786E-02
          90 -3.5317127E-02
          91 -5.1799040E-02
          92 -0.2224295    
          93  1.0170593E-02
          94  1.3517724E-02
          95  1.3914378E-02
          96  6.8112493E-02
          97  5.2370746E-03
          98 -4.0228437E-03
          99 -2.4210332E-02
         100 -0.1450595    
         101 -4.8966487E-03
         102 -2.9124911E-03
         103  4.6863938E-03
         104  4.7007822E-02
         105 -2.5162224E-03
         106  1.8412346E-02
         107  7.0224449E-02
         108  0.3750966    
         109 -1.0247800E-03
         110 -7.2687357E-03
         111 -2.1229507E-02
         112 -0.1164624    
         113  7.8807678E-04
         114 -1.3892300E-02
         115 -5.0706845E-02
         116 -0.2450818    
         117 -3.1265505E-03
         118  5.7638725E-03
         119  1.1188739E-02
         120  7.8732595E-02
         121 -9.5755683E-04
         122 -1.5976576E-02
         123 -9.7337671E-02
         124 -7.3916875E-02
         125 -1.1539680E-03
         126  1.6652518E-03
         127  2.6287427E-02
         128  4.2215553E-03
         129 -1.4282648E-02
         130  1.5201435E-03
         131  0.1001915    
         132  5.5569291E-02
         133  1.1759859E-02
         134  7.3755300E-03
         135 -2.8009441E-02
         136 -1.9757651E-02
         137  5.3060469E-03
         138  1.1435206E-02
         139  2.9755583E-02
         140  2.3026481E-02
         141 -2.3313891E-03
         142 -1.7274042E-03
         143 -3.6225729E-03
         144 -4.4373912E-03
         145 -1.7708386E-03
         146 -1.3672233E-02
         147 -0.1035865    
         148 -8.2630292E-02
         149  2.0276706E-03
         150  5.0269994E-03
         151  2.0873919E-02
         152  1.7100597E-02
         153  1.1100040E-03
         154  1.1227053E-03
         155 -8.9505296E-03
         156 -6.3341702E-03
         157 -6.5394022E-05
         158  3.3259750E-04
         159 -7.6305110E-04
         160 -3.2273313E-04
         161 -1.1811527E-02
         162 -8.8082906E-03
         163 -1.0973023E-02
         164 -1.3709919E-02
         165  1.0232348E-02
         166  6.9273999E-03
         167  2.3495781E-03
         168  4.0214313E-03
         169  2.3579209E-03
         170  3.7789179E-03
         171  1.9102268E-03
         172 -6.0722587E-04
         173 -1.3703923E-03
         174 -2.6394613E-03
         175 -1.2639745E-03
         176 -1.2292602E-03
         177 -2.0294357E-03
         178 -8.1965397E-04
         179 -1.4986217E-03
         180 -2.2703998E-03
         181  1.0764702E-03
         182 -2.8589580E-04
         183 -2.9674580E-04
         184  1.3283841E-04
         185 -4.4314459E-04
         186  4.9139908E-05
         187 -1.7512849E-03
         188  1.0817325E-03
         189  7.1319233E-04
         190  3.9669627E-04
         191  6.4832554E-04
         192 -5.7142437E-04
         193 -1.1499268E-03
         194 -1.3077061E-03
         195  6.9348163E-05
         196 -1.9508245E-03
         197  9.3064120E-04
         198  9.6264336E-04
         199  9.6077623E-05
         200 -4.9600413E-04
         201  1.3553382E-04
         202 -3.4830591E-03
         203  1.2990976E-03
         204  1.6100333E-03
         205  2.0372537E-03
         206  4.8242025E-03
         207  1.2333156E-04
         208  5.6720906E-05
         209  3.6985972E-03
         210  1.8966327E-03
         211  1.8440712E-03
         212 -5.7811621E-03
         213 -2.2458190E-03
         214 -1.2365995E-03
         215 -1.3193903E-03
         216  1.6575254E-03
         217 -1.1719177E-04
         218 -1.1436873E-04
         219  5.2528904E-04
         220  3.2807281E-04
         221 -2.0813570E-05
         222 -2.7844324E-04
         223  3.3509999E-04
         224 -2.1357439E-04
         225  4.1692887E-04
         226  1.0054712E-03
         227  7.2505172E-05
         228 -3.5963274E-04
         229 -7.9185105E-05
         230 -2.0769625E-05
         231  4.4149772E-04
         232 -1.9026287E-04
         233  4.2054268E-07
         234 -2.2090670E-04
         235  1.5098637E-04
         236 -3.6456570E-04
         237  6.7672801E-05
         238 -5.3912075E-04
         239 -3.8124868E-04
         240  6.0277122E-05
         241  8.3671173E-04
         242  2.5097525E-04
         243  2.7832089E-04
         244 -1.2910455E-03
         245 -1.0900159E-04
         246 -5.1939301E-04
         247  5.1593863E-05
         248  1.3083566E-04
         249 -1.3406109E-03
         250 -2.5592966E-04
         251 -1.7100531E-03
         252  1.0297346E-03
         253  1.4791292E-03
         254  1.3805128E-03
         255  4.0252387E-04
         256 -8.6544111E-04
         257  6.8283468E-03
         258  2.0884601E-03
         259 -1.1189302E-02
         260  2.5337103E-03
         261 -5.3582070E-03
         262 -2.0043789E-03
         263  2.9006593E-03
         264 -1.6880240E-03
         265 -1.6374397E-03
         266 -2.4794699E-03
         267  8.9937769E-04
         268 -9.2202262E-04
         269  1.1624240E-03
         270  8.0220081E-04
         271 -1.3373570E-03
         272  9.4158674E-04
         273  1.3031828E-03
         274 -4.4709924E-07
         275 -1.4969037E-03
         276  3.1258375E-04
         277 -7.4700173E-04
         278 -1.7010342E-04
         279 -4.9918483E-04
         280  4.3817691E-04
         281  1.7019625E-04
         282  9.0451707E-04
         283 -2.1448206E-04
         284 -9.9457242E-04
         285 -3.6321781E-04
         286 -5.6814787E-04
         287  3.0474935E-04
         288  2.4710744E-04
         289  5.4697826E-04
         290 -2.1350807E-04
         291 -2.4429976E-04
         292  1.0246498E-03
         293 -4.1189746E-04
         294 -1.9216769E-04
         295 -7.5602555E-04
         296 -1.0444357E-03
         297  2.2217483E-04
         298  1.7674979E-03
         299  6.0259993E-04
         300  2.4508359E-03
         301 -9.0634933E-04
         302 -1.5281662E-03
         303 -1.1693440E-04
         304 -1.8516759E-03
         305 -2.9972517E-03
         306  2.8859165E-03
         307  3.0466018E-02
         308  2.1804422E-02
         309  1.4212548E-03
         310 -1.3305871E-03
         311 -3.5307403E-03
         312 -4.9857232E-03
         313  9.0020187E-03
         314  2.2050664E-02
         315  0.1033446    
         316  4.6510663E-02
         317 -8.4629487E-03
         318 -1.1333577E-02
         319 -2.9619215E-02
         320 -9.9620093E-03
         321  5.1319362E-03
         322 -1.4188753E-02
         323 -2.3363931E-02
         324 -7.3180489E-02
         325 -9.5316377E-03
         326  4.5332289E-03
         327  7.5747543E-03
         328  3.0826909E-02
         329  1.2164846E-02
         330  3.0338969E-02
         331  8.7818205E-02
         332  0.3645822    
         333 -1.4436401E-02
         334 -1.6488349E-02
         335 -3.4264397E-02
         336 -0.1324109    
         337  8.1260246E-04
         338  5.0259911E-04
         339 -2.4177672E-02
         340  4.5791231E-03
         341  5.0313935E-02
         342  4.4524078E-03
         343 -2.2027623E-03
         344 -1.1018782E-02
         345  9.4810477E-04
         346  3.2429952E-02
         347 -1.3868541E-03
         348  6.4298185E-04
         349  3.2568175E-02
         350  8.1191094E-05
         351 -8.0399089E-02
         352 -5.7745613E-03
         353  3.7898535E-03
         354 -1.8410193E-02
         355  2.1186988E-03
         356  4.0142901E-02
         357  3.3271057E-04
         358 -2.9943322E-03
         359 -1.9523735E-03
         360 -1.0788794E-02
         361 -3.3544701E-02
         362 -6.2605873E-04
         363 -1.5115588E-03
         364  9.1022914E-03
         365  2.1520223E-02
         366  8.3278991E-02
         367  5.5372072E-03
         368  4.6808738E-03
         369  1.4109466E-02
         370  9.1843745E-03
         371  9.8410249E-03
         372 -4.1878382E-03
         373  2.6638485E-03
         374  3.0299046E-03
         375  5.0616260E-03
         376  5.6699784E-03
         377  3.0765973E-03
         378 -2.0027505E-03
         379 -1.3772028E-03
         380 -3.8864609E-04
         381 -4.5571855E-04
         382  2.0837029E-03
         383  1.5814102E-04
         384  9.5431700E-05
         385 -2.3705742E-04
         386 -4.3937616E-05
         387 -3.1570302E-04
         388  9.7943249E-04
         389  8.1732636E-04
         390  1.1760962E-05
         391  5.8309507E-04
         392  2.1062901E-03
         393  3.4761359E-04
         394 -1.7496596E-04
         395  9.0506353E-04
         396 -5.9212698E-04
         397  3.4415347E-03
         398  7.2253472E-04
         399  1.5101563E-03
         400  1.4700725E-03
         401  5.4743025E-03
         402 -8.1786927E-04
         403  4.6238376E-05
         404 -9.6066087E-04
         405 -3.0927567E-04
         406 -1.2173534E-05
         407 -1.2940592E-04
         408 -1.6501640E-04
         409  5.3006120E-04
         410  4.5564704E-04
         411 -4.9361901E-04
         412  5.6460506E-04
         413 -3.2994617E-04
         414 -9.1345585E-04
         415 -7.5788400E-04
         416 -3.3174886E-04
         417 -6.9575675E-04
         418  1.0111956E-04
         419 -7.9754088E-04
         420  6.0826965E-04
         421  3.7292979E-05
         422 -7.9577608E-04
         423  1.2748621E-03
         424  1.7292799E-03
         425  6.3504395E-04
         426 -7.4296742E-04
         427 -1.8699744E-03
         428  1.2306379E-03
         429 -2.1874350E-04
         430 -3.8744262E-04
         431 -2.9186163E-05
         432 -1.5406955E-03
         433 -1.9690185E-04
         434 -3.1503968E-04
         435 -7.0016133E-04
         436  7.5852260E-04
         437  1.3576576E-05
         438 -5.9917103E-04
         439  6.0931467E-05
         440  8.8922167E-04
         441 -1.8532816E-04
         442 -1.9079028E-03
         443 -5.2735035E-05
         444 -3.7512821E-04
         445 -6.0923496E-05
         446 -9.7794295E-04
         447 -2.5395462E-03
         448 -2.8727052E-04
         449 -2.1127117E-04
         450  4.1310419E-03
         451 -2.2297269E-03
         452  8.6575607E-03
         453 -2.2489135E-03
         454 -2.9678029E-04
         455  6.1513218E-03
         456  3.3438241E-03
         457  2.5350318E-04
         458  2.1326735E-03
         459  1.2447767E-02
         460  1.0956482E-02
         461  1.1021525E-02
         462 -4.3053739E-03
         463 -1.1596823E-03
         464  3.8245472E-03
         465 -2.3058238E-03
         466 -2.0446066E-02
