 [Molden Format]
 [Atoms] Angs
C       1      6      0.23440494      3.25757228     -1.67249722
C       2      6     -0.50545047      2.62702245     -0.54803146
S       3     16     -2.05546799      3.28856778     -0.12594191
C       4      6     -2.29437601      2.08531795      1.10850390
C       5      6     -3.38628743      1.96639600      1.95490777
C       6      6     -3.37900979      0.95435262      2.89266843
C       7      6     -2.28587619      0.09641183      3.00260958
C       8      6     -1.19970368      0.22058738      2.16407424
C       9      6     -1.20173263      1.20675143      1.17794756
C      10      6     -0.18717957      1.52967210      0.20338607
C      11      6      0.99973487      0.69880200      0.06443949
C      12      6      1.01883353     -0.65613547     -0.02234247
C      13      6     -0.11922409     -1.52945924     -0.23100033
C      14      6     -0.36032173     -2.69464746      0.45170583
C      15      6      0.46075343     -3.36536926      1.49319234
S      16     16     -1.88938357     -3.39739057      0.04058135
C      17      6     -2.21737634     -2.14245270     -1.12018466
C      18      6     -3.33221796     -2.04089585     -1.93818867
C      19      6     -3.38565111     -1.00040392     -2.84262642
C      20      6     -2.32504902     -0.10290391     -2.95201374
C      21      6     -1.21933070     -0.20581978     -2.13601909
C      22      6     -1.16623865     -1.21301376     -1.17254686
C      23      6      2.43392019     -1.17045897      0.07573949
F      24      9      2.69865802     -2.24075305     -0.70650993
F      25      9      2.78695017     -1.55030150      1.33900115
C      26      6      3.28010703      0.06949553     -0.30447768
F      27      9      4.53218837      0.05300735      0.18939569
F      28      9      3.39500721      0.15629194     -1.65149589
C      29      6      2.40301949      1.23470605      0.21504329
F      30      9      2.70607815      1.47754797      1.52676114
F      31      9      2.67921699      2.39328356     -0.42105247
H      32      1      0.84158586      4.08643679     -1.30632640
H      33      1     -0.46673882      3.65308506     -2.40410966
H      34      1      0.89954204      2.54816844     -2.15948991
H      35      1     -4.21271260      2.65530496      1.87865080
H      36      1     -4.21985151      0.83621376      3.55869804
H      37      1     -2.28799818     -0.67235234      3.76038147
H      38      1     -0.34301496     -0.42497944      2.27440178
H      39      1      1.36832091     -3.78157560      1.05421332
H      40      1     -0.10279075     -4.17651650      1.94684650
H      41      1      0.76119517     -2.66671611      2.27311049
H      42      1     -4.12722551     -2.76651446     -1.86819327
H      43      1     -4.24475312     -0.89508575     -3.48712622
H      44      1     -2.36769334      0.68079131     -3.69298329
H      45      1     -0.38723930      0.46814861     -2.25229570
 [GTO]
           1   0
s              4   1.000000
     37.01559677     -0.01198412
      6.37439206     -0.05472053
      0.51220960      0.58055871
      0.19521576      0.47700800
p              4   1.000000
      5.96603044      0.05713170
      1.54690261      0.28574555
      0.54533104      0.55178731
      0.21710568      0.26323149
s              7   1.000000
      0.38350848     -0.19442484
      0.04707223      0.93938939
      0.02222627      0.24669792
     37.01559677      0.00521846
      6.37439206      0.02382795
      0.51220960     -0.25280319
      0.19521576     -0.20771223
p              7   1.000000
      1.83062075     -0.01151115
      0.10124670      0.56567574
      0.03901771      0.59076429
      5.96603044     -0.02389901
      1.54690261     -0.11953148
      0.54533104     -0.23082059
      0.21710568     -0.11011353
 
           2   0
s              4   1.000000
     34.99650550     -0.01198412
      6.02668783     -0.05472053
      0.48427008      0.58055871
      0.18456732      0.47700799
p              4   1.000000
      5.64060113      0.05713170
      1.46252365      0.28574555
      0.51558484      0.55178731
      0.20526321      0.26323149
s              7   1.000000
      0.38350848     -0.19617369
      0.04707223      0.94783920
      0.02222627      0.24891695
     34.99650550      0.00550634
      6.02668783      0.02514243
      0.48427008     -0.26674918
      0.18456732     -0.21917075
p              7   1.000000
      1.83062075     -0.01160836
      0.10124670      0.57045253
      0.03901771      0.59575295
      5.64060113     -0.02522317
      1.46252365     -0.12615427
      0.51558484     -0.24360947
      0.20526321     -0.11621450
 
           3   0
s              4   1.000000
     12.28257102     -0.03295496
      3.45969859     -0.17245169
      0.62037776      0.75185111
      0.30522839      0.35896273
p              4   1.000000
      7.09240043     -0.01434249
      0.73292838      0.27551776
      0.33125858      0.58467508
      0.16013771      0.21449865
s              7   1.000000
      0.16124732     -0.33760079
      0.03162593      1.06525139
      0.01560824      0.12667776
     12.28257102      0.00418991
      3.45969859      0.02192558
      0.62037776     -0.09559068
      0.30522839     -0.04563868
p              7   1.000000
      0.34551743     -0.06462898
      0.05282782      0.69426343
      0.02597475      0.41341867
      7.09240043      0.00465029
      0.73292838     -0.08933153
      0.33125858     -0.18957007
      0.16013771     -0.06954722
 
           4   0
s              4   1.000000
     35.19653374     -0.01198412
      6.06113435     -0.05472052
      0.48703801      0.58055871
      0.18562224      0.47700799
p              4   1.000000
      5.67284091      0.05713170
      1.47088294      0.28574555
      0.51853175      0.55178731
      0.20643643      0.26323149
s              7   1.000000
      0.38350848     -0.19598844
      0.04707223      0.94694414
      0.02222627      0.24868191
     35.19653374      0.00547644
      6.06113435      0.02500592
      0.48703801     -0.26530085
      0.18562224     -0.21798076
p              7   1.000000
      1.83062075     -0.01159806
      0.10124670      0.56994650
      0.03901771      0.59522448
      5.67284091     -0.02508569
      1.47088294     -0.12546665
      0.51853175     -0.24228165
      0.20643643     -0.11558106
 
           5   0
s              4   1.000000
     35.03779406     -0.01198412
      6.03379806     -0.05472052
      0.48484142      0.58055871
      0.18478507      0.47700800
p              4   1.000000
      5.64725586      0.05713170
      1.46424912      0.28574555
      0.51619313      0.55178731
      0.20550538      0.26323149
s              7   1.000000
      0.38350848     -0.19613523
      0.04707223      0.94765333
      0.02222627      0.24886815
     35.03779406      0.00550014
      6.03379806      0.02511413
      0.48484142     -0.26644896
      0.18478507     -0.21892408
p              7   1.000000
      1.83062075     -0.01160622
      0.10124670      0.57034745
      0.03901771      0.59564320
      5.64725586     -0.02519467
      1.46424912     -0.12601173
      0.51619313     -0.24333424
      0.20550538     -0.11608319
 
           6   0
s              4   1.000000
     34.93310450     -0.01198412
      6.01576965     -0.05472052
      0.48339276      0.58055871
      0.18423295      0.47700800
p              4   1.000000
      5.63038240      0.05713170
      1.45987408      0.28574555
      0.51465079      0.55178731
      0.20489135      0.26323149
s              7   1.000000
      0.38350848     -0.19623300
      0.04707223      0.94812574
      0.02222627      0.24899222
     34.93310450      0.00551588
      6.01576965      0.02518600
      0.48339276     -0.26721149
      0.18423295     -0.21955060
p              7   1.000000
      1.83062075     -0.01161166
      0.10124670      0.57061454
      0.03901771      0.59592214
      5.63038240     -0.02526705
      1.45987408     -0.12637375
      0.51465079     -0.24403330
      0.20489135     -0.11641668
 
           7   0
s              4   1.000000
     34.92425716     -0.01198412
      6.01424607     -0.05472053
      0.48327033      0.58055871
      0.18418629      0.47700799
p              4   1.000000
      5.62895643      0.05713170
      1.45950435      0.28574555
      0.51452045      0.55178731
      0.20483946      0.26323149
s              7   1.000000
      0.38350848     -0.19624130
      0.04707223      0.94816584
      0.02222627      0.24900275
     34.92425716      0.00551722
      6.01424607      0.02519209
      0.48327033     -0.26727612
      0.18418629     -0.21960371
p              7   1.000000
      1.83062075     -0.01161212
      0.10124670      0.57063721
      0.03901771      0.59594581
      5.62895643     -0.02527319
      1.45950435     -0.12640443
      0.51452045     -0.24409255
      0.20483946     -0.11644495
 
           8   0
s              4   1.000000
     34.98820026     -0.01198412
      6.02525760     -0.05472052
      0.48415516      0.58055871
      0.18452351      0.47700799
p              4   1.000000
      5.63926253      0.05713170
      1.46217657      0.28574555
      0.51546249      0.55178731
      0.20521450      0.26323149
s              7   1.000000
      0.38350848     -0.19618145
      0.04707223      0.94787666
      0.02222627      0.24892680
     34.98820026      0.00550759
      6.02525760      0.02514813
      0.48415516     -0.26680965
      0.18452351     -0.21922044
p              7   1.000000
      1.83062075     -0.01160879
      0.10124670      0.57047371
      0.03901771      0.59577504
      5.63926253     -0.02522891
      1.46217657     -0.12618298
      0.51546249     -0.24366491
      0.20521450     -0.11624094
 
           9   0
s              4   1.000000
     35.58694858     -0.01198412
      6.12836701     -0.05472052
      0.49244044      0.58055871
      0.18768124      0.47700800
p              4   1.000000
      5.73576646      0.05713170
      1.48719859      0.28574555
      0.52428353      0.55178731
      0.20872631      0.26323149
s              7   1.000000
      0.38350848     -0.19563484
      0.04707223      0.94523565
      0.02222627      0.24823324
     35.58694858      0.00541900
      6.12836701      0.02474361
      0.49244044     -0.26251795
      0.18768124     -0.21569422
p              7   1.000000
      1.83062075     -0.01157841
      0.10124670      0.56898060
      0.03901771      0.59421571
      5.73576646     -0.02482150
      1.48719859     -0.12414530
      0.52428353     -0.23973006
      0.20872631     -0.11436382
 
          10   0
s              4   1.000000
     35.48818178     -0.01198412
      6.11135855     -0.05472052
      0.49107374      0.58055871
      0.18716036      0.47700799
p              4   1.000000
      5.71984761      0.05713170
      1.48307107      0.28574555
      0.52282845      0.55178731
      0.20814701      0.26323149
s              7   1.000000
      0.38350848     -0.19572331
      0.04707223      0.94566312
      0.02222627      0.24834549
     35.48818178      0.00543342
      6.11135855      0.02480946
      0.49107374     -0.26321655
      0.18716036     -0.21626822
p              7   1.000000
      1.83062075     -0.01158332
      0.10124670      0.56922227
      0.03901771      0.59446811
      5.71984761     -0.02488782
      1.48307107     -0.12447701
      0.52282845     -0.24037062
      0.20814701     -0.11466940
 
          11   0
s              4   1.000000
     35.29895193     -0.01198412
      6.07877161     -0.05472052
      0.48845524      0.58055871
      0.18616238      0.47700799
p              4   1.000000
      5.68934828      0.05713170
      1.47516305      0.28574555
      0.52004063      0.55178731
      0.20703713      0.26323149
s              7   1.000000
      0.38350848     -0.19589467
      0.04707223      0.94649107
      0.02222627      0.24856293
     35.29895193      0.00546126
      6.07877161      0.02493658
      0.48845524     -0.26456524
      0.18616238     -0.21737635
p              7   1.000000
      1.83062075     -0.01159285
      0.10124670      0.56969036
      0.03901771      0.59495694
      5.68934828     -0.02501585
      1.47516305     -0.12511738
      0.52004063     -0.24160720
      0.20703713     -0.11525931
 
          12   0
s              4   1.000000
     35.30456201     -0.01198412
      6.07973771     -0.05472053
      0.48853287      0.58055871
      0.18619197      0.47700799
p              4   1.000000
      5.69025249      0.05713170
      1.47539750      0.28574555
      0.52012327      0.55178731
      0.20707004      0.26323149
s              7   1.000000
      0.38350848     -0.19588956
      0.04707223      0.94646636
      0.02222627      0.24855642
     35.30456201      0.00546043
      6.07973771      0.02493279
      0.48853287     -0.26452506
      0.18619197     -0.21734333
p              7   1.000000
      1.83062075     -0.01159256
      0.10124670      0.56967638
      0.03901771      0.59494238
      5.69025249     -0.02501204
      1.47539750     -0.12509831
      0.52012327     -0.24157037
      0.20707004     -0.11524174
 
          13   0
s              4   1.000000
     35.48630713     -0.01198412
      6.11103572     -0.05472052
      0.49104780      0.58055871
      0.18715047      0.47700800
p              4   1.000000
      5.71954546      0.05713170
      1.48299273      0.28574555
      0.52280083      0.55178731
      0.20813602      0.26323149
s              7   1.000000
      0.38350848     -0.19572500
      0.04707223      0.94567127
      0.02222627      0.24834763
     35.48630713      0.00543369
      6.11103572      0.02481071
      0.49104780     -0.26322985
      0.18715047     -0.21627914
p              7   1.000000
      1.83062075     -0.01158342
      0.10124670      0.56922688
      0.03901771      0.59447293
      5.71954546     -0.02488908
      1.48299273     -0.12448333
      0.52280083     -0.24038281
      0.20813602     -0.11467521
 
          14   0
s              4   1.000000
     35.00276476     -0.01198412
      6.02776573     -0.05472052
      0.48435670      0.58055871
      0.18460033      0.47700799
p              4   1.000000
      5.64160997      0.05713170
      1.46278522      0.28574555
      0.51567706      0.55178731
      0.20529992      0.26323149
s              7   1.000000
      0.38350848     -0.19616786
      0.04707223      0.94781097
      0.02222627      0.24890954
     35.00276476      0.00550540
      6.02776573      0.02513813
      0.48435670     -0.26670362
      0.18460033     -0.21913333
p              7   1.000000
      1.83062075     -0.01160803
      0.10124670      0.57043658
      0.03901771      0.59573628
      5.64160997     -0.02521884
      1.46278522     -0.12613264
      0.51567706     -0.24356771
      0.20529992     -0.11619458
 
          15   0
s              4   1.000000
     37.01740796     -0.01198412
      6.37470396     -0.05472052
      0.51223466      0.58055871
      0.19522531      0.47700800
p              4   1.000000
      5.96632236      0.05713170
      1.54697830      0.28574555
      0.54535772      0.55178731
      0.21711631      0.26323149
s              7   1.000000
      0.38350848     -0.19442339
      0.04707223      0.93938235
      0.02222627      0.24669607
     37.01740796      0.00521822
      6.37470396      0.02382683
      0.51223466     -0.25279132
      0.19522531     -0.20770247
p              7   1.000000
      1.83062075     -0.01151107
      0.10124670      0.56567177
      0.03901771      0.59076012
      5.96632236     -0.02389789
      1.54697830     -0.11952584
      0.54535772     -0.23080970
      0.21711631     -0.11010833
 
          16   0
s              4   1.000000
     12.28269924     -0.03295496
      3.45973471     -0.17245169
      0.62038423      0.75185111
      0.30523157      0.35896273
p              4   1.000000
      7.09247447     -0.01434249
      0.73293603      0.27551776
      0.33126204      0.58467508
      0.16013938      0.21449865
s              7   1.000000
      0.16124732     -0.33760072
      0.03162593      1.06525115
      0.01560824      0.12667776
     12.28269924      0.00418985
      3.45973471      0.02192528
      0.62038423     -0.09558934
      0.30523157     -0.04563804
p              7   1.000000
      0.34551743     -0.06462890
      0.05282782      0.69426265
      0.02597475      0.41341813
      7.09247447      0.00465023
      0.73293603     -0.08933045
      0.33126204     -0.18956778
      0.16013938     -0.06954638
 
          17   0
s              4   1.000000
     35.20000425     -0.01198412
      6.06173200     -0.05472052
      0.48708603      0.58055871
      0.18564054      0.47700800
p              4   1.000000
      5.67340027      0.05713170
      1.47102797      0.28574555
      0.51858288      0.55178731
      0.20645678      0.26323149
s              7   1.000000
      0.38350848     -0.19598526
      0.04707223      0.94692873
      0.02222627      0.24867786
     35.20000425      0.00547593
      6.06173200      0.02500356
      0.48708603     -0.26527586
      0.18564054     -0.21796023
p              7   1.000000
      1.83062075     -0.01159788
      0.10124670      0.56993779
      0.03901771      0.59521537
      5.67340027     -0.02508331
      1.47102797     -0.12545478
      0.51858288     -0.24225874
      0.20645678     -0.11557012
 
          18   0
s              4   1.000000
     35.03922882     -0.01198412
      6.03404514     -0.05472052
      0.48486127      0.58055871
      0.18479263      0.47700799
p              4   1.000000
      5.64748711      0.05713170
      1.46430908      0.28574555
      0.51621426      0.55178730
      0.20551379      0.26323149
s              7   1.000000
      0.38350848     -0.19613389
      0.04707223      0.94764688
      0.02222627      0.24886645
     35.03922882      0.00549993
      6.03404514      0.02511315
      0.48486127     -0.26643854
      0.18479263     -0.21891552
p              7   1.000000
      1.83062075     -0.01160615
      0.10124670      0.57034381
      0.03901771      0.59563939
      5.64748711     -0.02519368
      1.46430908     -0.12600679
      0.51621426     -0.24332468
      0.20551379     -0.11607864
 
          19   0
s              4   1.000000
     34.93279466     -0.01198412
      6.01571630     -0.05472052
      0.48338847      0.58055871
      0.18423131      0.47700799
p              4   1.000000
      5.63033247      0.05713170
      1.45986113      0.28574555
      0.51464623      0.55178731
      0.20488953      0.26323149
s              7   1.000000
      0.38350848     -0.19623329
      0.04707223      0.94812714
      0.02222627      0.24899259
     34.93279466      0.00551593
      6.01571630      0.02518621
      0.48338847     -0.26721375
      0.18423131     -0.21955246
p              7   1.000000
      1.83062075     -0.01161167
      0.10124670      0.57061533
      0.03901771      0.59592295
      5.63033247     -0.02526727
      1.45986113     -0.12637482
      0.51464623     -0.24403537
      0.20488953     -0.11641767
 
          20   0
s              4   1.000000
     34.92582679     -0.01198412
      6.01451637     -0.05472052
      0.48329205      0.58055871
      0.18419456      0.47700800
p              4   1.000000
      5.62920941      0.05713170
      1.45956994      0.28574555
      0.51454357      0.55178731
      0.20484866      0.26323149
s              7   1.000000
      0.38350848     -0.19623983
      0.04707223      0.94815873
      0.02222627      0.24900087
     34.92582679      0.00551698
      6.01451637      0.02519101
      0.48329205     -0.26726465
      0.18419456     -0.21959429
p              7   1.000000
      1.83062075     -0.01161204
      0.10124670      0.57063319
      0.03901771      0.59594160
      5.62920941     -0.02527210
      1.45956994     -0.12639899
      0.51454357     -0.24408204
      0.20484866     -0.11643993
 
          21   0
s              4   1.000000
     34.99167977     -0.01198412
      6.02585680     -0.05472053
      0.48420330      0.58055871
      0.18454186      0.47700799
p              4   1.000000
      5.63982334      0.05713170
      1.46232198      0.28574555
      0.51551375      0.55178731
      0.20523491      0.26323149
s              7   1.000000
      0.38350848     -0.19617820
      0.04707223      0.94786096
      0.02222627      0.24892268
     34.99167977      0.00550706
      6.02585680      0.02514574
      0.48420330     -0.26678431
      0.18454186     -0.21919962
p              7   1.000000
      1.83062075     -0.01160861
      0.10124670      0.57046484
      0.03901771      0.59576578
      5.63982334     -0.02522650
      1.46232198     -0.12617095
      0.51551375     -0.24364168
      0.20523491     -0.11622986
 
          22   0
s              4   1.000000
     35.57904916     -0.01198412
      6.12700667     -0.05472053
      0.49233113      0.58055871
      0.18763958      0.47700800
p              4   1.000000
      5.73449326      0.05713170
      1.48686847      0.28574555
      0.52416715      0.55178731
      0.20867997      0.26323149
s              7   1.000000
      0.38350848     -0.19564189
      0.04707223      0.94526972
      0.02222627      0.24824218
     35.57904916      0.00542015
      6.12700667      0.02474887
      0.49233113     -0.26257369
      0.18763958     -0.21574002
p              7   1.000000
      1.83062075     -0.01157880
      0.10124670      0.56899986
      0.03901771      0.59423585
      5.73449326     -0.02482679
      1.48686847     -0.12417176
      0.52416715     -0.23978117
      0.20867997     -0.11438820
 
          23   0
s              4   1.000000
     37.25572583     -0.01198412
      6.41574427     -0.05472053
      0.51553243      0.58055871
      0.19648217      0.47700800
p              4   1.000000
      6.00473351      0.05713170
      1.55693773      0.28574555
      0.54886873      0.55178731
      0.21851410      0.26323149
s              7   1.000000
      0.38350848     -0.19423356
      0.04707223      0.93846517
      0.02222627      0.24645520
     37.25572583      0.00518617
      6.41574427      0.02368049
      0.51553243     -0.25123869
      0.19648217     -0.20642677
p              7   1.000000
      1.83062075     -0.01150052
      0.10124670      0.56515334
      0.03901771      0.59021870
      6.00473351     -0.02375042
      1.55693773     -0.11878829
      0.54886873     -0.22938545
      0.21851410     -0.10942889
 
          24   0
s              4   1.000000
     47.22538996     -0.01198412
      8.13260293     -0.05472052
      0.65348935      0.58055871
      0.24906096      0.47700799
p              4   1.000000
     12.60328929      0.05713170
      3.26784471      0.28574555
      1.15201639      0.55178731
      0.45863757      0.26323149
s              7   1.000000
      0.68659740     -0.20793543
      0.08427369      1.00466760
      0.03979181      0.26384097
     47.22538996      0.00719738
      8.13260293      0.03286387
      0.65348935     -0.34867002
      0.24906096     -0.28647988
p              7   1.000000
      3.27737070     -0.01127253
      0.18126254      0.55394954
      0.06985363      0.57851799
     12.60328929     -0.02034225
      3.26784471     -0.10174225
      1.15201639     -0.19646879
      0.45863757     -0.09372592
 
          25   0
s              4   1.000000
     47.25937684     -0.01198412
      8.13845575     -0.05472053
      0.65395965      0.58055871
      0.24924021      0.47700799
p              4   1.000000
     12.61235955      0.05713170
      3.27019650      0.28574555
      1.15284546      0.55178731
      0.45896764      0.26323149
s              7   1.000000
      0.68659740     -0.20789805
      0.08427369      1.00448697
      0.03979181      0.26379352
     47.25937684      0.00719250
      8.13845575      0.03284157
      0.65395965     -0.34843347
      0.24924021     -0.28628552
p              7   1.000000
      3.27737070     -0.01127164
      0.18126254      0.55390544
      0.06985363      0.57847194
     12.61235955     -0.02032785
      3.27019650     -0.10167024
      1.15284546     -0.19632974
      0.45896764     -0.09365959
 
          26   0
s              4   1.000000
     37.28738289     -0.01198412
      6.42119587     -0.05472052
      0.51597049      0.58055871
      0.19664912      0.47700799
p              4   1.000000
      6.00983587      0.05713170
      1.55826070      0.28574555
      0.54933512      0.55178731
      0.21869978      0.26323149
s              7   1.000000
      0.38350848     -0.19420859
      0.04707223      0.93834452
      0.02222627      0.24642351
     37.28738289      0.00518194
      6.42119587      0.02366118
      0.51597049     -0.25103384
      0.19664912     -0.20625846
p              7   1.000000
      1.83062075     -0.01149914
      0.10124670      0.56508514
      0.03901771      0.59014749
      6.00983587     -0.02373096
      1.55826070     -0.11869098
      0.54933512     -0.22919753
      0.21869978     -0.10933925
 
          27   0
s              4   1.000000
     47.20536645     -0.01198412
      8.12915471     -0.05472053
      0.65321227      0.58055871
      0.24895536      0.47700799
p              4   1.000000
     12.59794551      0.05713170
      3.26645915      0.28574555
      1.15152793      0.55178731
      0.45844311      0.26323149
s              7   1.000000
      0.68659740     -0.20795749
      0.08427369      1.00477419
      0.03979181      0.26386896
     47.20536645      0.00720026
      8.12915471      0.03287702
      0.65321227     -0.34880955
      0.24895536     -0.28659451
p              7   1.000000
      3.27737070     -0.01127306
      0.18126254      0.55397556
      0.06985363      0.57854516
     12.59794551     -0.02035074
      3.26645915     -0.10178472
      1.15152793     -0.19655079
      0.45844311     -0.09376504
 
          28   0
s              4   1.000000
     47.25712031     -0.01198412
      8.13806715     -0.05472052
      0.65392842      0.58055871
      0.24922831      0.47700799
p              4   1.000000
     12.61175733      0.05713170
      3.27004035      0.28574555
      1.15279041      0.55178731
      0.45894573      0.26323149
s              7   1.000000
      0.68659740     -0.20790053
      0.08427369      1.00449895
      0.03979181      0.26379667
     47.25712031      0.00719282
      8.13806715      0.03284305
      0.65392842     -0.34844917
      0.24922831     -0.28629841
p              7   1.000000
      3.27737070     -0.01127170
      0.18126254      0.55390836
      0.06985363      0.57847499
     12.61175733     -0.02032881
      3.27004035     -0.10167502
      1.15279041     -0.19633897
      0.45894573     -0.09366399
 
          29   0
s              4   1.000000
     37.25153002     -0.01198412
      6.41502171     -0.05472052
      0.51547437      0.58055871
      0.19646004      0.47700799
p              4   1.000000
      6.00405725      0.05713170
      1.55676239      0.28574555
      0.54880692      0.55178731
      0.21848949      0.26323149
s              7   1.000000
      0.38350848     -0.19423687
      0.04707223      0.93848118
      0.02222627      0.24645942
     37.25153002      0.00518673
      6.41502171      0.02368305
      0.51547437     -0.25126586
      0.19646004     -0.20644910
p              7   1.000000
      1.83062075     -0.01150071
      0.10124670      0.56516239
      0.03901771      0.59022816
      6.00405725     -0.02375300
      1.55676239     -0.11880120
      0.54880692     -0.22941038
      0.21848949     -0.10944078
 
          30   0
s              4   1.000000
     47.25415088     -0.01198412
      8.13755579     -0.05472052
      0.65388733      0.58055871
      0.24921265      0.47700799
p              4   1.000000
     12.61096486      0.05713170
      3.26983488      0.28574555
      1.15271798      0.55178731
      0.45891689      0.26323149
s              7   1.000000
      0.68659740     -0.20790379
      0.08427369      1.00451472
      0.03979181      0.26380081
     47.25415088      0.00719325
      8.13755579      0.03284500
      0.65388733     -0.34846982
      0.24921265     -0.28631538
p              7   1.000000
      3.27737070     -0.01127177
      0.18126254      0.55391221
      0.06985363      0.57847902
     12.61096486     -0.02033007
      3.26983488     -0.10168131
      1.15271798     -0.19635111
      0.45891689     -0.09366978
 
          31   0
s              4   1.000000
     47.23420876     -0.01198412
      8.13412159     -0.05472052
      0.65361138      0.58055871
      0.24910747      0.47700799
p              4   1.000000
     12.60564281      0.05713170
      3.26845495      0.28574555
      1.15223151      0.55178731
      0.45872322      0.26323149
s              7   1.000000
      0.68659740     -0.20792573
      0.08427369      1.00462070
      0.03979181      0.26382864
     47.23420876      0.00719611
      8.13412159      0.03285808
      0.65361138     -0.34860861
      0.24910747     -0.28642942
p              7   1.000000
      3.27737070     -0.01127230
      0.18126254      0.55393808
      0.06985363      0.57850603
     12.60564281     -0.02033851
      3.26845495     -0.10172356
      1.15223151     -0.19643269
      0.45872322     -0.09370870
 
          32   0
s              4   1.000000
      8.30654621      0.05675242
      1.51999562      0.26014135
      0.42227143      0.53284611
      0.14014809      0.29162544
s              7   1.000000
      0.92936822     -0.06733152
      0.05643440      0.66948613
      0.02166600      0.51463825
      8.30654621     -0.02902914
      1.51999562     -0.13306356
      0.42227143     -0.27255336
      0.14014809     -0.14916782
p              4   1.000000
      0.64737396      0.05713170
      0.16785440      0.28574555
      0.05917387      0.55178731
      0.02355814      0.26323150
 
          33   0
s              4   1.000000
      8.30787760      0.05675242
      1.52023924      0.26014135
      0.42233911      0.53284611
      0.14017055      0.29162544
s              7   1.000000
      0.92936822     -0.06732980
      0.05643440      0.66946909
      0.02166600      0.51462515
      8.30787760     -0.02902557
      1.52023924     -0.13304723
      0.42233911     -0.27251991
      0.14017055     -0.14914951
p              4   1.000000
      0.64737396      0.05713170
      0.16785440      0.28574555
      0.05917387      0.55178731
      0.02355814      0.26323150
 
          34   0
s              4   1.000000
      8.30686250      0.05675242
      1.52005349      0.26014135
      0.42228751      0.53284611
      0.14015343      0.29162544
s              7   1.000000
      0.92936822     -0.06733111
      0.05643440      0.66948208
      0.02166600      0.51463514
      8.30686250     -0.02902829
      1.52005349     -0.13305968
      0.42228751     -0.27254541
      0.14015343     -0.14916347
p              4   1.000000
      0.64737396      0.05713170
      0.16785440      0.28574555
      0.05917387      0.55178731
      0.02355814      0.26323150
 
          35   0
s              4   1.000000
      8.30957181      0.05675242
      1.52054926      0.26014135
      0.42242524      0.53284611
      0.14019914      0.29162544
s              7   1.000000
      0.92936822     -0.06732762
      0.05643440      0.66944741
      0.02166600      0.51460851
      8.30957181     -0.02902104
      1.52054926     -0.13302645
      0.42242524     -0.27247735
      0.14019914     -0.14912622
p              4   1.000000
      0.64737396      0.05713170
      0.16785440      0.28574555
      0.05917387      0.55178731
      0.02355814      0.26323150
 
          36   0
s              4   1.000000
      8.30897184      0.05675242
      1.52043948      0.26014135
      0.42239474      0.53284611
      0.14018902      0.29162544
s              7   1.000000
      0.92936822     -0.06732839
      0.05643440      0.66945508
      0.02166600      0.51461440
      8.30897184     -0.02902265
      1.52043948     -0.13303381
      0.42239474     -0.27249242
      0.14018902     -0.14913447
p              4   1.000000
      0.64737396      0.05713170
      0.16785440      0.28574555
      0.05917387      0.55178731
      0.02355814      0.26323150
 
          37   0
s              4   1.000000
      8.30908603      0.05675242
      1.52046037      0.26014135
      0.42240054      0.53284611
      0.14019094      0.29162544
s              7   1.000000
      0.92936822     -0.06732825
      0.05643440      0.66945363
      0.02166600      0.51461328
      8.30908603     -0.02902234
      1.52046037     -0.13303241
      0.42240054     -0.27248955
      0.14019094     -0.14913290
p              4   1.000000
      0.64737396      0.05713170
      0.16785440      0.28574555
      0.05917387      0.55178731
      0.02355814      0.26323150
 
          38   0
s              4   1.000000
      8.31033800      0.05675242
      1.52068947      0.26014135
      0.42246418      0.53284611
      0.14021206      0.29162544
s              7   1.000000
      0.92936822     -0.06732664
      0.05643440      0.66943761
      0.02166600      0.51460095
      8.31033800     -0.02901899
      1.52068947     -0.13301706
      0.42246418     -0.27245811
      0.14021206     -0.14911569
p              4   1.000000
      0.64737396      0.05713170
      0.16785440      0.28574555
      0.05917387      0.55178731
      0.02355814      0.26323150
 
          39   0
s              4   1.000000
      8.30661154      0.05675242
      1.52000757      0.26014135
      0.42227475      0.53284611
      0.14014919      0.29162544
s              7   1.000000
      0.92936822     -0.06733143
      0.05643440      0.66948529
      0.02166600      0.51463763
      8.30661154     -0.02902896
      1.52000757     -0.13306276
      0.42227475     -0.27255172
      0.14014919     -0.14916692
p              4   1.000000
      0.64737396      0.05713170
      0.16785440      0.28574555
      0.05917387      0.55178731
      0.02355814      0.26323150
 
          40   0
s              4   1.000000
      8.30845588      0.05675242
      1.52034506      0.26014135
      0.42236851      0.53284611
      0.14018031      0.29162544
s              7   1.000000
      0.92936822     -0.06732906
      0.05643440      0.66946168
      0.02166600      0.51461947
      8.30845588     -0.02902403
      1.52034506     -0.13304014
      0.42236851     -0.27250538
      0.14018031     -0.14914156
p              4   1.000000
      0.64737396      0.05713170
      0.16785440      0.28574555
      0.05917387      0.55178731
      0.02355814      0.26323150
 
          41   0
s              4   1.000000
      8.30663784      0.05675242
      1.52001238      0.26014135
      0.42227608      0.53284611
      0.14014964      0.29162544
s              7   1.000000
      0.92936822     -0.06733140
      0.05643440      0.66948495
      0.02166600      0.51463735
      8.30663784     -0.02902889
      1.52001238     -0.13306244
      0.42227608     -0.27255106
      0.14014964     -0.14916656
p              4   1.000000
      0.64737396      0.05713170
      0.16785440      0.28574555
      0.05917387      0.55178731
      0.02355814      0.26323150
 
          42   0
s              4   1.000000
      8.30957886      0.05675242
      1.52055055      0.26014135
      0.42242559      0.53284611
      0.14019926      0.29162544
s              7   1.000000
      0.92936822     -0.06732761
      0.05643440      0.66944731
      0.02166600      0.51460843
      8.30957886     -0.02902102
      1.52055055     -0.13302636
      0.42242559     -0.27247717
      0.14019926     -0.14912613
p              4   1.000000
      0.64737396      0.05713170
      0.16785440      0.28574555
      0.05917387      0.55178731
      0.02355814      0.26323150
 
          43   0
s              4   1.000000
      8.30896613      0.05675242
      1.52043843      0.26014135
      0.42239445      0.53284611
      0.14018892      0.29162544
s              7   1.000000
      0.92936822     -0.06732840
      0.05643440      0.66945515
      0.02166600      0.51461445
      8.30896613     -0.02902266
      1.52043843     -0.13303388
      0.42239445     -0.27249256
      0.14018892     -0.14913454
p              4   1.000000
      0.64737396      0.05713170
      0.16785440      0.28574555
      0.05917387      0.55178731
      0.02355814      0.26323150
 
          44   0
s              4   1.000000
      8.30912456      0.05675242
      1.52046742      0.26014135
      0.42240250      0.53284611
      0.14019159      0.29162544
s              7   1.000000
      0.92936822     -0.06732820
      0.05643440      0.66945313
      0.02166600      0.51461291
      8.30912456     -0.02902224
      1.52046742     -0.13303194
      0.42240250     -0.27248858
      0.14019159     -0.14913237
p              4   1.000000
      0.64737396      0.05713170
      0.16785440      0.28574555
      0.05917387      0.55178731
      0.02355814      0.26323150
 
          45   0
s              4   1.000000
      8.31060044      0.05675242
      1.52073749      0.26014135
      0.42247753      0.53284611
      0.14021649      0.29162544
s              7   1.000000
      0.92936822     -0.06732630
      0.05643440      0.66943425
      0.02166600      0.51459840
      8.31060044     -0.02901829
      1.52073749     -0.13301384
      0.42247753     -0.27245152
      0.14021649     -0.14911208
p              4   1.000000
      0.64737396      0.05713170
      0.16785440      0.28574555
      0.05917387      0.55178731
      0.02355814      0.26323150
 
 [MO]
 Sym= Hole
 Ene= -0.5460879    
 Spin= Alpha
 Occup= 0
           1 -3.5137224E-03
           2 -1.2982014E-02
           3 -2.0422451E-02
           4 -1.4951796E-02
           5  2.7332939E-03
           6 -4.0495896E-04
           7  4.4848671E-04
           8 -2.6999908E-03
           9 -1.1960875E-02
          10  0.1328601    
          11  0.2152150    
          12  0.1946586    
          13  8.4259007E-03
          14 -8.9066122E-03
          15 -2.1600239E-02
          16 -1.5637288E-02
          17 -6.9080922E-03
          18 -0.1429385    
          19 -0.2181845    
          20 -0.2458643    
          21  1.9577486E-03
          22  1.1712316E-02
          23  1.6362963E-02
          24  2.2067202E-02
          25  4.2082849E-03
          26 -4.2507995E-02
          27 -4.9950909E-02
          28 -6.5473288E-02
          29 -2.7865579E-03
          30 -6.7283395E-03
          31 -1.4387918E-02
          32 -1.0308675E-02
          33  1.4027414E-03
          34  0.1083678    
          35  0.1455098    
          36  0.1563625    
          37 -6.9454382E-04
          38 -3.1098269E-03
          39 -6.1304658E-03
          40 -5.2494109E-03
          41  1.1226799E-03
          42  9.9480532E-02
          43  0.1407983    
          44  0.1494928    
          45 -4.4080053E-04
          46  8.7746506E-04
          47  1.4203723E-03
          48 -2.3206865E-04
          49  1.1337079E-03
          50 -4.9185738E-02
          51 -7.4395850E-02
          52 -7.9747967E-02
          53 -9.6016866E-04
          54  1.5158509E-03
          55  3.6530809E-03
          56  2.0774300E-03
          57 -1.8253839E-03
          58 -0.1200987    
          59 -0.1980924    
          60 -0.1788691    
          61  1.0338010E-03
          62  1.6279106E-03
          63  4.5861369E-03
          64  6.3885155E-04
          65  1.2014938E-02
          66  1.2517291E-03
          67 -2.1893559E-02
          68 -4.5990810E-02
          69 -4.3752524E-03
          70 -3.6243882E-03
          71 -3.0434071E-03
          72 -1.7817967E-03
          73  4.6243994E-03
          74  0.1858882    
          75  0.2136461    
          76  0.2716975    
          77  2.0504189E-03
          78 -6.1887959E-03
          79 -6.7417449E-03
          80 -7.0500472E-03
          81 -1.2002157E-03
          82 -3.8945694E-03
          83  2.7915787E-02
          84 -0.2117188    
          85  7.8447955E-03
          86  4.0073791E-03
          87  3.8395200E-03
          88  1.4575352E-02
          89  1.7051227E-02
          90  3.2184318E-02
          91  5.0363887E-02
          92 -0.2386447    
          93 -8.2543064E-03
          94 -7.1528391E-04
          95  1.2119282E-03
          96  1.3616799E-02
          97 -1.0164997E-02
          98 -0.1263489    
          99  9.8563932E-02
         100  0.1769334    
         101  3.6199563E-03
         102  8.8218916E-03
         103 -4.0432713E-03
         104 -7.2951177E-03
         105  1.5097970E-02
         106 -8.5572630E-02
         107  0.1407086    
         108  0.1396893    
         109 -7.3790420E-03
         110  5.8559817E-03
         111 -1.6061254E-02
         112 -1.0954831E-02
         113  1.1870411E-03
         114  9.0504922E-03
         115 -1.3706462E-02
         116 -1.3166845E-02
         117 -9.4671635E-04
         118  6.5702840E-04
         119  6.6789804E-04
         120  5.8715307E-04
         121  4.0989034E-03
         122  7.6448627E-02
         123 -0.1232392    
         124 -0.1615656    
         125  5.2535109E-04
         126 -6.8079745E-03
         127  1.0060228E-02
         128  1.7701907E-02
         129 -4.2997394E-03
         130  2.7323836E-02
         131 -2.7228914E-02
         132 -4.2813111E-02
         133  3.0305558E-03
         134  2.6037346E-03
         135 -1.0429740E-02
         136 -7.0962547E-03
         137 -1.8407550E-03
         138 -5.7919234E-02
         139  6.9722287E-02
         140  8.1834175E-02
         141  3.8902398E-04
         142  1.5291375E-03
         143 -5.0284602E-03
         144 -4.3887002E-03
         145  2.7962509E-04
         146 -5.4280821E-02
         147  7.3870853E-02
         148  8.6509690E-02
         149 -3.1724901E-04
         150 -9.6473901E-04
         151  3.4910228E-04
         152 -1.2344547E-03
         153 -3.8505478E-03
         154  2.0477278E-02
         155 -3.5860937E-02
         156 -4.4488963E-02
         157  2.5063327E-03
         158 -2.6884871E-03
         159  3.3217410E-03
         160  1.7630631E-03
         161  6.8497304E-03
         162  7.3890582E-02
         163 -0.1009039    
         164 -9.5439330E-02
         165 -1.8464085E-03
         166 -2.8803458E-03
         167  4.5403251E-03
         168  8.7121931E-05
         169 -1.1952411E-02
         170 -2.3057161E-02
         171  6.1829216E-03
         172 -1.4594249E-02
         173  6.1178734E-03
         174  3.9435863E-03
         175 -3.2185435E-03
         176 -2.6743815E-03
         177  9.3099996E-03
         178 -2.9626075E-02
         179  1.2386286E-03
         180 -1.6071094E-02
         181 -6.1365752E-03
         182  1.0708370E-02
         183  2.0670707E-03
         184 -2.7211572E-03
         185 -1.5487707E-02
         186  1.6398758E-02
         187 -1.5544866E-02
         188 -2.2964708E-03
         189  1.0068649E-02
         190 -1.3739166E-03
         191  4.8433994E-03
         192  1.1508675E-02
         193  2.2548148E-02
         194 -9.5816916E-03
         195  1.5391759E-02
         196 -2.6259836E-02
         197 -9.6834637E-03
         198 -6.9670528E-03
         199  6.4812847E-03
         200  5.4647578E-03
         201 -1.1119496E-02
         202  5.6062504E-03
         203  3.7202921E-02
         204 -4.3008542E-03
         205  9.4829239E-03
         206 -7.3776231E-03
         207 -1.3099744E-02
         208  3.4617432E-03
         209  4.3798494E-03
         210 -7.2874338E-03
         211 -1.3844368E-02
         212 -8.8603643E-04
         213 -4.2512221E-03
         214  2.8235416E-03
         215  6.0680893E-04
         216  7.2887610E-03
         217 -6.5586553E-03
         218  5.2891849E-03
         219 -1.1205436E-02
         220 -1.9495309E-03
         221 -3.1405960E-03
         222  1.2108070E-02
         223  1.1239880E-03
         224 -2.3738213E-03
         225 -3.6978390E-02
         226  6.3328147E-02
         227  1.6455894E-02
         228 -1.0590082E-02
         229  2.4504781E-02
         230 -2.2064930E-02
         231  8.1366616E-06
         232 -2.5052186E-03
         233  2.6941713E-02
         234 -3.8023233E-02
         235 -1.5827809E-02
         236 -2.8613249E-02
         237 -1.7641455E-02
         238  2.2144169E-03
         239 -3.8109205E-03
         240  1.2941225E-02
         241 -1.3812809E-02
         242 -1.0374824E-02
         243  1.5525340E-02
         244 -3.5093541E-03
         245  2.7982800E-03
         246  1.1822578E-02
         247  7.1670655E-03
         248  7.2007682E-03
         249 -8.1390686E-02
         250  9.8180883E-03
         251  1.8540381E-03
         252 -5.9878584E-03
         253 -4.7194427E-03
         254  4.1398149E-02
         255 -5.0541591E-03
         256 -1.1875233E-02
         257 -3.2966128E-03
         258 -4.7269445E-03
         259  4.1671779E-02
         260 -6.7763804E-03
         261  2.1897019E-03
         262 -4.0776073E-03
         263 -2.7164684E-03
         264 -4.1179247E-03
         265  4.2123464E-04
         266 -1.1373854E-04
         267 -1.3301824E-03
         268 -4.1286784E-04
         269 -5.1693547E-05
         270 -6.9361937E-04
         271  2.8688891E-03
         272  4.9272864E-03
         273  5.3265961E-03
         274 -7.4057388E-03
         275 -6.5365521E-04
         276 -1.1835733E-04
         277 -4.0300449E-04
         278  3.7549899E-04
         279 -4.0959073E-03
         280  1.1555357E-04
         281 -7.6376619E-03
         282 -3.0666508E-03
         283 -3.8434942E-03
         284  4.8070304E-02
         285 -8.1523079E-03
         286  8.3858788E-04
         287 -2.6362224E-03
         288  2.3419859E-03
         289 -2.9251045E-03
         290 -3.9094072E-04
         291  4.4252658E-03
         292 -2.8791060E-03
         293 -6.3722422E-03
         294 -4.6966866E-02
         295  6.9648945E-03
         296 -3.4735550E-04
         297 -1.3334391E-03
         298 -3.5542692E-03
         299  3.3566745E-03
         300 -1.7889157E-03
         301 -1.3128702E-04
         302 -1.8886551E-03
         303 -5.2694423E-04
         304 -2.3718395E-03
         305 -6.5876549E-04
         306 -2.3518410E-03
         307  3.2985932E-03
         308  3.5814368E-03
         309  5.1282737E-03
         310  3.4055710E-04
         311 -1.3901704E-03
         312  1.2672814E-03
         313  1.7798834E-03
         314  1.0496989E-02
         315 -1.7739484E-03
         316  7.6067951E-03
         317 -3.8712637E-03
         318 -3.5931447E-03
 Sym= Particle
 Ene= -0.5460879    
 Spin= Alpha
 Occup= 2
           1 -2.1805952E-03
           2 -2.2676287E-02
           3 -8.4684184E-03
           4  1.0398094E-03
           5  1.0652190E-02
           6  6.4546238E-03
           7 -7.5868573E-03
           8 -8.8246278E-03
           9 -3.3723157E-02
          10 -0.1260709    
          11 -0.1208968    
          12 -0.1819159    
          13  3.9886534E-02
          14  5.7209063E-02
          15  4.1903034E-02
          16  6.9890164E-02
          17 -1.5495937E-04
          18  6.8144687E-02
          19  8.0195487E-02
          20  7.1319103E-02
          21  2.8264055E-03
          22 -1.9425701E-02
          23 -2.3927502E-02
          24 -2.3545429E-02
          25 -8.3371176E-04
          26 -5.7327628E-02
          27 -5.6608301E-02
          28 -8.1329085E-02
          29 -3.9150836E-03
          30  2.1924987E-02
          31  2.7713610E-02
          32  3.6761660E-02
          33  5.9812348E-03
          34 -0.1154690    
          35 -0.1606744    
          36 -0.1797247    
          37 -6.0967077E-03
          38  3.1997457E-02
          39  4.2976871E-02
          40  4.7875538E-02
          41 -3.2853786E-04
          42  0.1413511    
          43  0.2052784    
          44  0.2181183    
          45 -3.3384096E-03
          46 -3.7649728E-02
          47 -5.4555368E-02
          48 -5.8517169E-02
          49  6.1427718E-03
          50  5.0190452E-04
          51 -6.7303781E-03
          52 -8.4704831E-03
          53 -9.0482179E-03
          54 -2.7240592E-03
          55 -2.8427478E-04
          56  1.3512959E-03
          57  5.7796682E-05
          58 -0.1360192    
          59 -0.2123677    
          60 -0.2052733    
          61 -8.6475350E-03
          62  3.5736427E-02
          63  6.1490092E-02
          64  6.4465337E-02
          65  2.2184858E-02
          66  0.1779135    
          67  0.2038228    
          68  0.1773649    
          69 -2.1262834E-02
          70 -6.4029798E-02
          71 -5.6750458E-02
          72 -4.5800298E-02
          73 -1.1703018E-02
          74  6.1840009E-02
          75  0.1149329    
          76  0.1102008    
          77  1.4556202E-02
          78 -8.7520713E-03
          79 -2.9631542E-02
          80 -4.5173127E-02
          81  2.4381304E-02
          82  1.5411512E-02
          83  4.5366637E-02
          84 -0.3638435    
          85 -1.5235360E-02
          86  4.4610454E-03
          87 -6.0504130E-03
          88  0.1370737    
          89  1.1884165E-02
          90 -3.7394378E-02
          91 -2.3046998E-02
          92  0.3477138    
          93 -1.1316516E-02
          94  1.9724214E-02
          95  7.5817737E-03
          96 -0.1307910    
          97 -5.2239420E-03
          98  2.6303038E-02
          99 -4.4541888E-02
         100 -4.8381224E-02
         101  5.6277313E-03
         102 -6.8469727E-03
         103  4.1443370E-03
         104  3.1323206E-02
         105 -2.7709352E-02
         106 -3.2872051E-02
         107  2.0246587E-03
         108  5.3243324E-02
         109  3.1141862E-02
         110  2.1415822E-02
         111  9.9594018E-04
         112 -2.4904860E-02
         113  4.2729024E-04
         114 -8.7955836E-03
         115  5.6357780E-03
         116 -2.6781783E-03
         117  4.9704220E-03
         118  3.1105108E-03
         119  2.9585331E-03
         120  3.9031615E-03
         121 -3.5556633E-04
         122  3.1283576E-02
         123 -2.3432521E-02
         124 -1.6224178E-02
         125  1.5104431E-04
         126 -8.4826834E-03
         127  1.2484885E-02
         128  9.2286868E-03
         129  1.2977633E-03
         130 -4.0509213E-02
         131  3.2791886E-02
         132  6.1292913E-02
         133 -5.8639888E-03
         134  1.4434325E-02
         135 -1.4531294E-02
         136 -2.6583616E-02
         137  4.9540293E-03
         138 -6.6762678E-02
         139  8.4607191E-02
         140  0.1073086    
         141 -5.5324859E-03
         142  1.8880993E-02
         143 -2.1766135E-02
         144 -2.8749377E-02
         145 -7.8191696E-04
         146  8.9544713E-02
         147 -0.1229995    
         148 -0.1433688    
         149 -2.4489744E-03
         150 -2.2781277E-02
         151  3.3362806E-02
         152  3.9263833E-02
         153  5.8784881E-03
         154 -7.5698360E-03
         155  1.7644459E-02
         156  2.1774752E-02
         157 -8.7310802E-03
         158  9.9992484E-04
         159 -3.1450093E-03
         160 -4.7100922E-03
         161 -1.6432345E-03
         162 -8.5570797E-02
         163  0.1174374    
         164  0.1265163    
         165 -8.3309915E-03
         166  2.4192020E-02
         167 -3.3214208E-02
         168 -4.8880409E-02
         169  1.8039607E-02
         170  0.1345640    
         171 -0.1333757    
         172 -0.1302174    
         173 -2.0566773E-02
         174 -5.2298419E-02
         175  3.1307448E-02
         176  3.0132141E-02
         177  1.4262737E-03
         178  1.9760171E-02
         179  4.6638977E-03
         180  5.8782399E-02
         181 -9.4966468E-04
         182 -1.8582258E-02
         183  1.5662211E-03
         184  4.8907492E-03
         185  1.8680668E-02
         186 -1.4066213E-02
         187  2.8844159E-02
         188  4.0209517E-03
         189 -3.2730833E-02
         190  1.5140062E-02
         191 -2.0277658E-02
         192 -1.3188268E-02
         193 -3.6746338E-02
         194  2.3737008E-02
         195 -2.3360819E-02
         196  4.7796071E-02
         197  4.3134991E-02
         198 -1.3442864E-02
         199  1.5949564E-02
         200 -2.2122718E-02
         201  8.2944613E-03
         202 -1.2044206E-04
         203 -3.4394979E-02
         204  4.1851844E-03
         205 -8.4751518E-03
         206 -8.3395222E-04
         207  2.3873491E-02
         208 -1.6617236E-03
         209 -1.3595787E-03
         210  8.7515227E-03
         211  8.8216513E-03
         212  2.5025385E-03
         213 -2.9702736E-03
         214  3.3111486E-03
         215 -7.0018577E-03
         216  3.8098989E-04
         217 -2.0078735E-03
         218  2.3620259E-03
         219  1.8703053E-03
         220  2.7562788E-04
         221 -3.3698061E-03
         222  5.3440244E-03
         223 -1.2056003E-02
         224 -1.3786499E-04
         225 -3.2449178E-02
         226  3.1313494E-02
         227  1.9255145E-02
         228 -5.8947522E-02
         229  2.5984358E-02
         230 -2.7819855E-02
         231 -5.8313040E-03
         232 -4.5283688E-03
         233  3.9301530E-02
         234 -3.0945439E-02
         235 -2.2145435E-02
         236 -5.4936659E-02
         237 -5.2518718E-02
         238  2.2623517E-02
         239  1.1497580E-02
         240  4.2444993E-02
         241 -2.5566760E-02
         242  1.0298967E-02
         243  2.4974162E-02
         244  1.3552735E-03
         245  2.7167810E-02
         246  5.9221280E-03
         247 -2.5110135E-02
         248  8.5277883E-03
         249  6.0360063E-02
         250 -2.3463318E-02
         251  1.6586646E-02
         252  2.8238840E-02
         253 -8.4717004E-03
         254 -3.7092749E-02
         255  1.8343152E-02
         256  3.5159027E-03
         257 -2.9499009E-03
         258  1.1939547E-02
         259 -1.8346304E-02
         260  1.4903900E-02
         261 -3.1758654E-03
         262 -1.9030606E-02
         263  1.3441408E-02
         264 -1.0237229E-02
         265  1.1427671E-03
         266 -2.1746624E-02
         267 -3.5243582E-02
         268 -3.6717560E-02
         269 -4.8954884E-04
         270 -2.7362281E-03
         271  3.1149304E-02
         272  4.6548363E-02
         273  4.9340978E-02
         274 -7.6436987E-03
         275 -1.8189957E-03
         276 -3.0822438E-04
         277  1.8601045E-03
         278 -3.9009668E-04
         279 -1.2644214E-02
         280  9.4644033E-04
         281 -2.3983205E-02
         282 -4.9205329E-02
         283 -4.9559288E-02
         284  1.3964742E-02
         285 -8.7556224E-03
         286  5.2138027E-03
         287 -6.8702414E-03
         288  4.2705038E-03
         289 -5.8881426E-03
         290  2.9675276E-03
         291 -8.6598325E-04
         292 -4.0885867E-03
         293 -1.8584668E-03
         294 -7.5031747E-03
         295  7.7613345E-03
         296 -3.2375003E-03
         297  8.3075184E-03
         298 -8.4334398E-03
         299 -8.2537718E-03
         300  5.9147924E-04
         301 -1.3890859E-02
         302  2.1669978E-02
         303  2.3423187E-02
         304  7.5236741E-05
         305 -1.9097830E-03
         306  2.1049650E-02
         307 -2.8099118E-02
         308 -3.3107474E-02
         309 -5.6809979E-03
         310 -1.5725822E-03
         311 -1.1819324E-03
         312 -7.6928653E-04
         313  5.0220308E-03
         314 -6.1120600E-03
         315  2.1304876E-04
         316 -1.0394508E-02
         317  4.2104252E-02
         318  3.2627042E-02
 Sym= Hole
 Ene= -0.4672003    
 Spin= Alpha
 Occup= 0
           1  3.6912505E-03
           2  1.3352706E-03
           3  8.6592417E-03
           4  1.6926849E-02
           5 -2.9694163E-03
           6 -1.3837915E-04
           7  7.9119689E-04
           8 -7.5355323E-04
           9 -1.4111846E-02
          10 -7.4606031E-02
          11 -7.1043819E-02
          12 -0.1078139    
          13  3.5952958E-03
          14  5.2005840E-03
          15  4.8553594E-03
          16  8.4564034E-03
          17 -2.0179600E-03
          18  9.8922603E-02
          19  0.1226980    
          20  0.1372505    
          21 -2.9704729E-03
          22 -6.9912509E-03
          23 -6.2623187E-03
          24 -6.4728195E-03
          25 -5.2564167E-03
          26  1.2276847E-02
          27  4.2160589E-02
          28  3.4099735E-02
          29  6.1485381E-04
          30  6.7752195E-03
          31  2.8076435E-03
          32  7.3633525E-03
          33  3.6023981E-03
          34 -7.6174811E-02
          35 -0.1100861    
          36 -0.1244836    
          37 -3.6906594E-04
          38  2.8743630E-03
          39  9.2958374E-04
          40  1.9073385E-03
          41 -3.8074359E-04
          42 -7.3222674E-02
          43 -9.8480210E-02
          44 -0.1072224    
          45  2.6397925E-04
          46  2.0242557E-04
          47 -1.2735242E-03
          48 -1.6091192E-03
          49  5.0699338E-03
          50  4.5408789E-02
          51  5.4224640E-02
          52  5.2521277E-02
          53 -2.3906627E-03
          54  1.0677681E-03
          55  4.5221171E-04
          56 -1.2710447E-03
          57 -6.1951531E-03
          58  7.7140458E-02
          59  0.1422034    
          60  0.1371070    
          61  9.0406626E-04
          62 -1.0256888E-03
          63  5.0540798E-04
          64 -2.5321981E-03
          65  1.6168740E-02
          66  6.2747598E-02
          67  4.6751387E-02
          68  2.9814044E-02
          69 -9.6862959E-03
          70 -3.8241651E-03
          71 -1.8426805E-03
          72  4.4300896E-04
          73  3.6986175E-03
          74 -0.1175717    
          75 -0.1441514    
          76 -0.1482280    
          77 -3.9403746E-03
          78 -2.4832999E-03
          79  7.4795238E-04
          80  2.0089147E-04
          81 -1.1765318E-02
          82  1.5287978E-02
          83  6.7994684E-02
          84 -0.1799098    
          85  4.3727262E-03
          86 -4.5318715E-03
          87 -9.9097788E-03
          88  1.0065373E-02
          89 -1.5924994E-02
          90  7.8380778E-03
          91 -4.6780530E-02
          92  6.2361762E-02
          93  4.1760025E-03
          94 -6.6413535E-03
          95  1.1460835E-02
          96  8.7982992E-04
          97  2.1894195E-03
          98 -0.1955760    
          99  0.1962073    
         100  0.2640761    
         101 -4.5491764E-03
         102  1.3632566E-03
         103 -2.5717418E-03
         104 -5.1962263E-03
         105 -7.4311257E-03
         106 -0.1231487    
         107  0.1349073    
         108  0.1961625    
         109 -1.5845681E-03
         110  9.1077099E-03
         111 -1.4498504E-02
         112 -1.6081350E-02
         113  5.4912097E-03
         114  9.9896016E-03
         115 -1.1635598E-02
         116 -2.6387047E-02
         117 -4.7297929E-03
         118 -8.3305349E-04
         119 -9.9413854E-04
         120  3.5578726E-04
         121 -1.5824834E-03
         122  0.1535388    
         123 -0.1861769    
         124 -0.2532835    
         125 -3.2379783E-03
         126 -1.1285433E-02
         127  1.1987116E-02
         128  1.7528009E-02
         129 -7.9560839E-03
         130  2.8888866E-02
         131 -5.9668366E-02
         132 -6.1384819E-02
         133  2.0316604E-03
         134  8.0753928E-03
         135 -7.6442352E-03
         136 -1.2348933E-02
         137  2.4615061E-03
         138 -0.1249091    
         139  0.1603007    
         140  0.1981273    
         141  1.8977986E-04
         142  3.7284091E-03
         143 -3.1888294E-03
         144 -4.4854465E-03
         145 -4.9432757E-04
         146 -0.1174314    
         147  0.1478624    
         148  0.1783614    
         149  3.3202666E-04
         150 -2.6324810E-04
         151  2.0961377E-03
         152  1.2679886E-03
         153  4.8236698E-03
         154  6.6164352E-02
         155 -7.8661270E-02
         156 -8.6150654E-02
         157 -2.4688621E-03
         158 -3.1487711E-04
         159  1.4449558E-03
         160  1.3097262E-03
         161 -6.0192510E-03
         162  0.1269342    
         163 -0.2179269    
         164 -0.2144756    
         165  1.2918009E-03
         166 -1.5013916E-03
         167  1.6020534E-03
         168  2.1497374E-03
         169  8.6316662E-03
         170  6.4556137E-02
         171 -5.1652782E-02
         172 -5.6985818E-02
         173 -6.1428784E-03
         174 -1.3019446E-03
         175  7.4198574E-04
         176 -1.7739802E-03
         177  3.8345791E-02
         178 -6.2589586E-02
         179  8.7514948E-03
         180 -1.1835017E-03
         181 -1.9953964E-02
         182  2.1738067E-02
         183 -7.5611012E-04
         184  3.6112242E-03
         185 -1.4653888E-03
         186  1.3584649E-02
         187 -6.8092002E-03
         188 -5.1534660E-03
         189  5.2186362E-03
         190 -1.3182378E-02
         191  3.7709712E-03
         192 -3.5127244E-04
         193 -1.1620063E-02
         194  2.2350512E-02
         195 -5.6767357E-03
         196  9.0848990E-03
         197  9.3417019E-03
         198 -6.1076940E-03
         199 -2.9276940E-04
         200 -5.7827714E-03
         201 -1.5888294E-02
         202  6.9490117E-03
         203 -8.4376819E-03
         204 -1.0432500E-02
         205  9.9075809E-03
         206 -2.5217251E-03
         207  1.5410588E-03
         208  5.0529293E-03
         209  8.0685122E-03
         210 -1.5626548E-02
         211  3.4895486E-03
         212 -8.4981805E-04
         213 -1.3077531E-03
         214 -1.7125397E-03
         215  5.0750392E-04
         216  3.5514254E-03
         217  1.6294619E-04
         218 -2.0554880E-04
         219  1.7671810E-03
         220 -5.6331494E-04
         221  1.9740225E-03
         222  3.9892655E-04
         223 -3.1802140E-03
         224 -1.0942658E-03
         225  2.2239927E-02
         226 -5.0306890E-02
         227  1.4151880E-03
         228 -1.3597054E-02
         229 -1.1154658E-02
         230  1.6399197E-02
         231 -1.5904937E-03
         232 -3.9506536E-03
         233  1.6269773E-02
         234 -5.1993399E-04
         235 -1.0399549E-02
         236 -1.5138161E-02
         237 -6.6647721E-03
         238 -8.9931600E-03
         239 -6.2523317E-04
         240  3.6231522E-03
         241 -1.5801175E-02
         242  2.4409695E-02
         243  1.9292843E-02
         244 -6.3766411E-04
         245  1.3422035E-02
         246 -5.3281779E-03
         247 -4.6034185E-03
         248  9.5824441E-03
         249  3.8185958E-02
         250 -3.5603095E-03
         251 -2.3238650E-03
         252  3.5926586E-03
         253  8.7444385E-04
         254 -2.4987148E-02
         255  2.7402344E-03
         256  7.2101764E-03
         257  3.2185353E-03
         258  1.6749527E-03
         259 -1.4154970E-02
         260  2.6743684E-03
         261  1.8523718E-03
         262 -1.7454390E-03
         263 -1.1273994E-04
         264 -5.0261882E-03
         265  2.1588015E-03
         266  5.3598004E-04
         267 -5.7464303E-04
         268  6.3144317E-04
         269  3.0014096E-03
         270  9.8385720E-04
         271 -1.1721960E-03
         272 -1.9540058E-03
         273 -2.6782136E-03
         274  1.4758216E-03
         275  5.9688628E-05
         276  2.0919202E-03
         277  2.6084017E-03
         278  2.5211566E-03
         279 -1.4984217E-02
         280  3.3599283E-03
         281 -3.3527252E-03
         282 -1.9374889E-03
         283 -9.6964731E-04
         284  6.4451635E-02
         285 -8.1680715E-03
         286 -4.5457392E-04
         287 -4.1666492E-03
         288 -3.7488906E-04
         289 -1.3381499E-02
         290  1.4769672E-03
         291  7.9860073E-03
         292 -4.8787887E-03
         293 -7.6505365E-03
         294 -5.3505179E-02
         295  7.6620122E-03
         296 -7.9259620E-04
         297 -1.4391505E-03
         298 -1.2937780E-03
         299 -3.6181922E-03
         300  1.6929054E-03
         301  6.4740592E-04
         302 -2.9420460E-04
         303 -1.3533229E-03
         304  2.7736684E-03
         305  1.2449597E-03
         306 -1.8936641E-03
         307  3.8058572E-03
         308  4.8351120E-03
         309  6.4976560E-03
         310 -5.2450737E-04
         311  1.9225911E-03
         312 -2.4646821E-03
         313 -2.8854795E-03
         314 -1.5198661E-02
         315  3.7608449E-03
         316  2.8838695E-03
         317  1.2008441E-03
         318  7.0339348E-04
 Sym= Particle
 Ene= -0.4672003    
 Spin= Alpha
 Occup= 2
           1 -2.6705775E-03
           2  1.1308991E-02
           3  9.8847114E-03
           4  5.7662772E-03
           5  3.2592134E-03
           6 -6.3847314E-04
           7  3.3160715E-04
           8  3.3417775E-03
           9  5.3958185E-03
          10  0.1236391    
          11  0.1668076    
          12  0.1810837    
          13  3.3424397E-03
          14 -4.8944049E-02
          15 -6.8406299E-02
          16 -7.0195556E-02
          17 -4.9773534E-03
          18 -5.8002226E-02
          19 -7.3345870E-02
          20 -7.7803232E-02
          21  4.6427371E-03
          22  1.7811004E-02
          23  1.7637542E-02
          24  1.9961173E-02
          25 -3.0533334E-03
          26  2.0599185E-02
          27  3.5257053E-02
          28  3.4357436E-02
          29  3.9172620E-03
          30 -1.2136047E-02
          31 -1.7664755E-02
          32 -1.6924201E-02
          33 -1.0729611E-03
          34  8.2702957E-02
          35  0.1131569    
          36  0.1224304    
          37  1.6549688E-03
          38 -2.3037188E-02
          39 -3.2370720E-02
          40 -3.2192629E-02
          41  1.0464102E-03
          42 -8.7111413E-02
          43 -0.1232720    
          44 -0.1331144    
          45 -5.5946995E-05
          46  2.3958279E-02
          47  3.1163588E-02
          48  3.4873165E-02
          49 -8.3868590E-04
          50 -8.6358553E-03
          51 -1.5403172E-02
          52 -1.5309523E-02
          53  8.0302070E-06
          54  5.3697145E-03
          55  3.3003923E-03
          56  3.9656251E-03
          57 -1.7645655E-03
          58  8.7845311E-02
          59  0.1386076    
          60  0.1343426    
          61 -2.9768040E-03
          62 -1.9561466E-02
          63 -4.3414470E-02
          64 -2.5600923E-02
          65  5.4471181E-03
          66 -7.3106602E-02
          67 -0.1061239    
          68 -0.1068744    
          69 -5.5571930E-03
          70  2.0258926E-02
          71  3.8385030E-02
          72  3.9334439E-02
          73 -6.8408544E-03
          74 -6.7675650E-02
          75 -8.1084408E-02
          76 -9.0088345E-02
          77  6.4338511E-03
          78  1.5642839E-02
          79  2.2736788E-02
          80  1.5923431E-02
          81  9.6427510E-03
          82 -5.9366920E-03
          83 -1.8659018E-02
          84 -1.5859229E-02
          85 -9.3044313E-03
          86  2.5748163E-03
          87  1.9378518E-03
          88  9.8315738E-03
          89 -4.1782912E-03
          90 -3.7300095E-03
          91 -2.5142666E-02
          92  0.1012128    
          93  1.1409754E-03
          94  4.3435367E-03
          95  1.8469972E-03
          96 -3.9199688E-02
          97  6.3776844E-03
          98  0.1031828    
          99 -0.1072932    
         100 -0.1408799    
         101 -6.7165601E-03
         102 -2.4352711E-02
         103  2.7047610E-02
         104  3.8392503E-02
         105 -1.8590907E-02
         106 -0.1737606    
         107  0.1963512    
         108  0.2823111    
         109  1.1095609E-02
         110  6.8750784E-02
         111 -7.3742092E-02
         112 -0.1060131    
         113  3.5853994E-03
         114 -1.3516737E-02
         115  1.2372459E-02
         116  8.6392770E-03
         117 -1.6138962E-03
         118 -1.7282869E-03
         119  4.5730523E-03
         120  6.3951574E-03
         121  5.5977213E-03
         122  9.4837353E-02
         123 -0.1016142    
         124 -0.1212507    
         125 -7.0718862E-03
         126 -2.6057191E-02
         127  2.7465416E-02
         128  3.4657683E-02
         129  8.2729449E-03
         130 -3.9162014E-02
         131  5.4952439E-02
         132  7.1043514E-02
         133 -1.0905260E-02
         134  2.0867493E-02
         135 -2.7383314E-02
         136 -3.4504686E-02
         137  4.1838889E-03
         138 -0.1427190    
         139  0.1766027    
         140  0.2155601    
         141 -6.1524757E-03
         142  4.0238101E-02
         143 -4.9519502E-02
         144 -5.7751298E-02
         145 -1.3654407E-03
         146  0.1536439    
         147 -0.2028158    
         148 -0.2425780    
         149 -1.9579157E-03
         150 -4.1660793E-02
         151  5.2106563E-02
         152  6.5852091E-02
         153  4.4263303E-03
         154  9.0168193E-03
         155 -1.3905676E-02
         156 -1.5120881E-02
         157 -6.3312375E-03
         158 -5.5337125E-03
         159  3.3743945E-03
         160  4.0312316E-03
         161  5.9709111E-03
         162 -0.1492180    
         163  0.2294784    
         164  0.2358828    
         165 -6.3110087E-03
         166  3.7536904E-02
         167 -7.1543664E-02
         168 -5.7897635E-02
         169 -1.4825122E-03
         170  0.1551290    
         171 -0.1858313    
         172 -0.1977829    
         173 -3.0492190E-03
         174 -5.0232258E-02
         175  6.0681075E-02
         176  6.4843275E-02
         177 -1.1555226E-02
         178  2.0996459E-02
         179 -4.5471271E-03
         180  2.2545164E-02
         181  1.1848503E-02
         182 -1.4409847E-02
         183 -1.0062490E-03
         184  2.8023438E-04
         185  6.5083918E-03
         186 -5.8351378E-03
         187  1.5007637E-02
         188 -4.0276666E-04
         189 -9.3760360E-03
         190  9.4104894E-03
         191  5.8162009E-04
         192 -9.9366428E-03
         193 -8.1866225E-03
         194  1.5925408E-03
         195 -5.2476409E-03
         196  1.6187478E-02
         197  1.2438471E-02
         198 -8.1736250E-03
         199  4.2602946E-03
         200 -4.4246810E-03
         201  3.7384667E-03
         202 -2.2560320E-04
         203 -1.9564547E-02
         204  3.5653473E-03
         205 -4.3663438E-03
         206  3.3444890E-03
         207  1.1582080E-02
         208  7.4090896E-04
         209 -2.0267842E-03
         210  4.0234360E-03
         211  4.3533971E-03
         212  6.0220042E-05
         213  1.5373032E-03
         214 -1.1065906E-03
         215 -3.9820606E-03
         216 -2.7910380E-03
         217  2.9828034E-03
         218 -1.7321326E-03
         219  3.2421972E-03
         220  1.6296002E-03
         221 -2.3834093E-03
         222 -1.7277488E-03
         223 -7.6994690E-04
         224 -4.7940942E-03
         225  7.9815537E-03
         226 -1.3892203E-02
         227 -6.8293256E-03
         228 -3.9357850E-03
         229 -8.7817423E-03
         230  9.2836916E-03
         231  2.0200408E-03
         232 -2.0299940E-03
         233 -1.2688943E-03
         234  2.5902761E-03
         235  1.4458586E-03
         236 -1.8204872E-03
         237 -2.0424500E-03
         238  2.5256798E-03
         239 -2.0438034E-04
         240 -4.4514299E-03
         241  3.4857199E-05
         242  2.0053659E-03
         243  9.8932779E-04
         244  2.4119150E-03
         245  2.4095068E-03
         246 -5.6379684E-03
         247  1.8598293E-03
         248 -3.9684415E-04
         249 -6.5172642E-02
         250  2.6710300E-02
         251 -1.3839385E-02
         252 -1.6113583E-02
         253  1.0022875E-02
         254  3.5946127E-02
         255 -1.3439010E-02
         256 -6.6933716E-03
         257  5.8412054E-03
         258 -1.3643690E-02
         259  2.8303895E-02
         260 -1.2426570E-02
         261  8.0215670E-03
         262  1.4826144E-03
         263 -6.3097319E-03
         264  4.2350806E-04
         265  9.4165496E-04
         266  1.5303429E-02
         267  2.2563551E-02
         268  2.3729837E-02
         269 -1.2928568E-04
         270  8.9941605E-04
         271 -1.8279135E-02
         272 -2.7679723E-02
         273 -2.9559372E-02
         274  2.7125145E-03
         275  3.5165492E-04
         276  1.2312054E-04
         277 -3.3792581E-03
         278 -5.3965175E-03
         279  7.3592127E-03
         280 -1.9129911E-03
         281  2.1207647E-02
         282  1.3469887E-02
         283  2.5788980E-02
         284  8.4753752E-02
         285 -3.3986170E-02
         286  2.6290350E-02
         287 -1.4214706E-02
         288  1.3277356E-02
         289 -1.3995223E-02
         290  6.8495111E-03
         291  1.9671724E-03
         292  1.4555589E-03
         293 -7.7620712E-03
         294 -6.9901064E-02
         295  3.2698922E-02
         296 -1.4394872E-02
         297  3.2074144E-03
         298 -2.5315247E-02
         299 -4.6069426E-03
         300 -4.5901121E-04
         301 -2.4880243E-02
         302  3.8493093E-02
         303  4.1614857E-02
         304 -5.4308900E-04
         305 -1.5520817E-03
         306  3.3300612E-02
         307 -4.6101611E-02
         308 -5.3038448E-02
         309 -8.4091453E-03
         310  1.6547181E-04
         311  9.4296841E-04
         312 -6.1564869E-03
         313 -5.2294782E-03
         314 -1.3710189E-02
         315  1.6189163E-03
         316 -3.4974620E-02
         317  3.0258270E-02
         318  5.0180044E-02
 Sym= Hole
 Ene= -6.4641044E-02
 Spin= Alpha
 Occup= 0
           1 -2.6399733E-03
           2  1.8410400E-02
           3  2.1571418E-02
           4 -4.2838622E-03
           5  1.1313298E-03
           6  6.0267717E-04
           7 -3.5449970E-03
           8  4.5357370E-03
           9  3.3814702E-02
          10 -2.6940133E-02
          11 -0.1371823    
          12 -4.7263779E-02
          13 -1.1591836E-02
          14  6.1813515E-04
          15 -4.6647056E-03
          16 -2.2512691E-03
          17  2.4872990E-02
          18 -9.7644471E-02
          19 -7.5373106E-02
          20 -0.1014289    
          21 -5.9983563E-03
          22  3.7783096E-03
          23  4.0318659E-03
          24  3.1117670E-04
          25  3.1010192E-03
          26  5.2532539E-02
          27  1.8928386E-02
          28  5.5397894E-02
          29  6.3654600E-04
          30  9.8640204E-04
          31  2.3098993E-03
          32 -6.0323258E-03
          33 -6.9518522E-03
          34  0.1003534    
          35  0.1541650    
          36  0.1739522    
          37  2.2634481E-04
          38  8.4969954E-04
          39  6.2003164E-03
          40  3.6110347E-03
          41 -4.4373949E-03
          42  6.5607674E-02
          43  9.7460285E-02
          44  0.1059817    
          45 -1.2328028E-04
          46  1.1301778E-03
          47  3.3965469E-03
          48  5.5608233E-03
          49 -2.7861570E-03
          50 -3.8463149E-02
          51 -4.9795583E-02
          52 -4.4650767E-02
          53 -1.0390253E-03
          54  2.2923786E-04
          55 -2.5667702E-03
          56 -1.4769088E-04
          57 -6.0485550E-03
          58 -9.2809379E-02
          59 -0.1120244    
          60 -0.1378768    
          61 -6.5957638E-04
          62 -7.3872698E-03
          63 -3.8012704E-03
          64  1.6383320E-03
          65 -3.0719187E-02
          66 -0.1244681    
          67 -8.1502065E-02
          68 -3.6703557E-02
          69  8.8845026E-03
          70 -1.0743373E-02
          71  2.5694005E-03
          72 -2.5811370E-03
          73 -4.9127345E-03
          74  3.2889009E-03
          75  3.0219922E-02
          76 -5.5189736E-02
          77 -4.9957493E-04
          78  4.7333897E-03
          79  1.3216887E-02
          80 -1.1834738E-02
          81 -2.4563203E-02
          82  8.7443125E-03
          83 -4.2104278E-02
          84  0.4785540    
          85  2.5066908E-03
          86  3.1424747E-03
          87 -2.7469776E-03
          88  1.5892174E-02
          89  7.6443767E-03
          90 -8.0389574E-02
          91 -3.1409096E-02
          92  0.4706200    
          93 -4.8227059E-03
          94 -6.2489645E-03
          95 -8.5808877E-03
          96  1.6996281E-02
          97  1.0595661E-02
          98  5.8166049E-03
          99  4.5222022E-02
         100 -4.0592201E-02
         101 -2.4747273E-03
         102 -2.0550143E-03
         103  1.4415728E-02
         104 -6.0940711E-03
         105 -3.1383809E-02
         106  2.9021911E-02
         107 -0.1275330    
         108 -5.9066657E-02
         109  1.0997517E-02
         110  1.1193744E-03
         111 -1.9248634E-03
         112 -7.2658306E-04
         113  2.6053281E-03
         114 -1.2011199E-02
         115  2.2030685E-02
         116  1.2947584E-03
         117 -6.1185157E-04
         118 -5.9711706E-04
         119 -2.6151752E-03
         120  9.9481514E-04
         121 -2.0313865E-02
         122  9.1647625E-02
         123 -4.9892880E-02
         124 -9.2765890E-02
         125  4.9209604E-03
         126 -3.0386723E-03
         127  3.1976053E-03
         128 -5.8674603E-04
         129 -7.7769932E-05
         130 -3.7334241E-02
         131  7.1795830E-03
         132  4.2792171E-02
         133 -1.2835177E-03
         134 -1.1786197E-03
         135  2.7894897E-03
         136 -3.9363266E-03
         137  5.2153980E-03
         138 -9.5373034E-02
         139  0.1318496    
         140  0.1656367    
         141  1.8379734E-04
         142 -1.1943625E-03
         143  5.7765301E-03
         144  5.0058505E-03
         145  3.3406077E-03
         146 -6.5995947E-02
         147  9.0367317E-02
         148  0.1079428    
         149  7.2020508E-04
         150 -1.3587337E-03
         151  3.1270015E-03
         152  5.9240926E-03
         153  3.8495469E-03
         154  3.3903096E-02
         155 -3.9512027E-02
         156 -3.7955023E-02
         157  1.5274815E-03
         158  4.9404643E-04
         159 -2.5571450E-03
         160  2.7035619E-04
         161  3.1028695E-03
         162  8.8097729E-02
         163 -0.1088694    
         164 -0.1382346    
         165  6.3270837E-04
         166  8.3459290E-03
         167 -5.1810709E-03
         168  2.0276212E-04
         169  2.1942519E-02
         170  0.1230319    
         171 -8.5585259E-02
         172 -6.4047515E-02
         173 -7.2979284E-03
         174  1.0180916E-02
         175  1.9141649E-03
         176 -2.0611279E-03
         177  2.0090092E-03
         178  3.6685187E-02
         179  1.4510212E-02
         180  8.2648639E-03
         181 -2.3103470E-03
         182 -5.3227795E-03
         183 -5.1613529E-03
         184 -6.9338637E-03
         185  3.2029960E-02
         186 -4.2474784E-02
         187  2.6986307E-02
         188  1.2898625E-02
         189 -8.0912858E-03
         190 -1.5085027E-02
         191  6.1602630E-03
         192 -1.1389904E-02
         193 -4.7529280E-02
         194  2.7288008E-02
         195 -3.7138835E-02
         196  5.4123830E-02
         197  9.4625074E-03
         198  2.3959855E-02
         199 -1.4967517E-02
         200 -3.1095650E-03
         201  3.4725677E-02
         202 -2.3127802E-02
         203 -3.3572409E-02
         204  1.5918102E-02
         205 -1.7936999E-02
         206  7.8467578E-03
         207  1.0307158E-03
         208 -1.9857444E-02
         209 -1.0411226E-02
         210  2.4588630E-02
         211  1.9145884E-02
         212  2.0495192E-03
         213  4.9800826E-03
         214 -5.5274118E-05
         215  3.6867429E-03
         216 -1.1551761E-02
         217  5.0513712E-03
         218 -6.3327509E-03
         219  1.7370543E-02
         220  1.7979873E-03
         221  1.5400297E-02
         222 -2.8638566E-02
         223 -4.7094058E-05
         224  1.7054079E-02
         225  1.4858613E-02
         226 -2.8356543E-02
         227 -9.5839798E-03
         228  1.2184835E-02
         229 -1.0005348E-02
         230  2.7304229E-03
         231  4.7173319E-04
         232 -6.9957008E-03
         233 -5.1098716E-02
         234  6.5766603E-02
         235  3.0603876E-02
         236  5.4997504E-02
         237  1.0754167E-02
         238  2.2362372E-02
         239  1.5394902E-02
         240  9.4307057E-04
         241  3.1250067E-02
         242 -5.1543331E-03
         243 -4.0123820E-02
         244  7.7336375E-03
         245 -9.4868019E-03
         246 -1.0280066E-02
         247 -8.2947258E-03
         248 -1.4413489E-02
         249  4.1526001E-02
         250  6.6127128E-04
         251  1.8385522E-03
         252 -8.2769322E-05
         253  3.6921373E-03
         254 -5.6215711E-03
         255  3.8374190E-03
         256 -2.4753429E-03
         257  1.0019002E-03
         258  1.1935513E-03
         259 -2.8490517E-02
         260  5.9215678E-03
         261 -3.4287202E-03
         262  3.6715218E-03
         263  4.1038897E-03
         264  1.2281175E-02
         265 -1.9214128E-03
         266 -4.7374237E-03
         267 -2.2829899E-03
         268 -6.8647116E-03
         269  4.3101941E-04
         270 -1.3852225E-03
         271 -6.6192849E-03
         272 -5.3980029E-03
         273 -4.6565970E-03
         274  7.5687449E-03
         275 -2.2576703E-03
         276 -6.0280494E-05
         277 -1.6922080E-03
         278 -8.7715255E-04
         279  5.9171012E-03
         280 -4.2261533E-03
         281  7.3330877E-03
         282  3.0534999E-03
         283  1.7606510E-02
         284 -3.0828208E-02
         285  1.5431825E-03
         286  4.4703079E-04
         287  7.6017983E-04
         288 -4.2962581E-03
         289 -1.2753389E-02
         290 -8.0994325E-04
         291  2.5650656E-03
         292  5.3457548E-05
         293  2.8480040E-03
         294  3.8626440E-02
         295 -6.2035806E-03
         296 -1.6306137E-03
         297  1.6368424E-03
         298  3.2672840E-03
         299 -9.8102251E-03
         300  2.2011204E-03
         301  4.6510519E-03
         302 -1.0997340E-03
         303 -6.0123322E-03
         304 -1.7858883E-04
         305  1.8650403E-03
         306  6.7909695E-03
         307 -5.0982768E-03
         308 -4.7756862E-03
         309 -5.1101814E-03
         310  2.9258074E-03
         311 -4.5535044E-04
         312 -9.5562800E-04
         313  3.9222164E-04
         314 -8.3444305E-03
         315  3.0013919E-03
         316 -6.1637517E-03
         317  2.7525846E-03
         318  1.4680794E-02
 Sym= Particle
 Ene= -6.4641044E-02
 Spin= Alpha
 Occup= 2
           1  4.5330413E-03
           2  1.1516218E-02
           3  1.5605352E-04
           4 -8.9632766E-03
           5 -9.3746316E-03
           6 -1.0237707E-02
           7 -5.0986009E-03
           8 -1.5101435E-03
           9  2.5737954E-02
          10 -0.1050992    
          11 -0.2018805    
          12 -0.1548603    
          13 -2.8761718E-02
          14  1.1764990E-02
          15  5.5347450E-02
          16  4.0066861E-02
          17  2.9899704E-03
          18  4.6661086E-02
          19  7.6323293E-02
          20  9.8571464E-02
          21 -4.5122695E-03
          22 -9.5761865E-03
          23 -1.9934975E-02
          24 -2.2136090E-02
          25  7.9657352E-03
          26  2.8139627E-02
          27 -7.0708939E-03
          28  2.5466606E-02
          29 -4.1376734E-03
          30 -7.2328718E-03
          31  3.7334117E-03
          32 -7.8366939E-03
          33 -3.6636286E-03
          34 -0.1060889    
          35 -0.1356579    
          36 -0.1396984    
          37  1.8461575E-04
          38  3.2766249E-02
          39  4.3656588E-02
          40  4.7761779E-02
          41 -1.4881257E-03
          42  8.0507495E-02
          43  0.1137999    
          44  0.1271922    
          45  5.1788293E-04
          46 -2.4337340E-02
          47 -3.3910464E-02
          48 -4.0060975E-02
          49 -4.0625134E-03
          50  5.3724656E-03
          51  2.2866916E-02
          52  2.7473075E-02
          53 -6.7519635E-05
          54  3.3752338E-03
          55 -1.7316113E-03
          56 -1.3777532E-03
          57  8.2615977E-03
          58 -6.9510296E-02
          59 -0.1132955    
          60 -0.1200926    
          61 -4.8501077E-03
          62  2.4667040E-02
          63  2.5853137E-02
          64  2.9964624E-02
          65 -4.1671015E-02
          66 -8.3552711E-03
          67  5.7873547E-02
          68  0.1062300    
          69  2.8803011E-02
          70  1.1872648E-02
          71 -2.2132132E-02
          72 -3.9615009E-02
          73  2.0869451E-02
          74  3.8325470E-02
          75  4.9784184E-03
          76  2.6356185E-02
          77 -2.0049529E-02
          78 -7.4046310E-03
          79  1.0945529E-02
          80  2.1527849E-02
          81 -2.3223149E-02
          82 -1.4654473E-02
          83 -6.6931628E-02
          84  0.5022786    
          85  1.0609536E-02
          86  4.0738988E-03
          87  1.7613936E-02
          88 -0.1630728    
          89 -4.7815332E-04
          90  5.3076666E-02
          91  5.8900986E-02
          92 -0.5090007    
          93  1.8736515E-04
          94 -1.3062882E-02
          95 -2.3614405E-02
          96  0.1687209    
          97  9.4439844E-03
          98  1.1483385E-02
          99  2.1047583E-03
         100 -1.2795879E-02
         101 -7.3596956E-03
         102  7.7041127E-03
         103 -6.2666680E-03
         104 -2.7425960E-02
         105  2.5730258E-02
         106 -0.1061136    
         107  0.1776998    
         108  0.1695669    
         109 -2.1880165E-02
         110  9.6062105E-03
         111 -4.4437923E-02
         112 -3.8289748E-02
         113 -6.0066878E-04
         114  7.8074345E-03
         115 -5.0613475E-03
         116  2.7516908E-03
         117 -2.4489593E-03
         118 -8.7527186E-03
         119  5.0312774E-03
         120  5.6012846E-03
         121 -2.9072905E-04
         122  4.0988602E-02
         123 -7.0732974E-02
         124 -0.1039721    
         125 -9.4639364E-04
         126 -7.8007812E-03
         127  1.8880563E-02
         128  2.3038974E-02
         129  5.5736033E-03
         130  3.1517740E-02
         131 -5.1981178E-03
         132 -3.5967134E-02
         133 -1.6911529E-03
         134 -1.0344366E-02
         135 -5.4693496E-04
         136  1.0207027E-02
         137 -3.0305553E-03
         138 -9.2171282E-02
         139  0.1077484    
         140  0.1234968    
         141  2.6576291E-04
         142  2.9193562E-02
         143 -3.5964601E-02
         144 -4.2992163E-02
         145 -1.5873413E-03
         146  6.0703568E-02
         147 -7.9762936E-02
         148 -9.8618187E-02
         149  2.2358863E-04
         150 -1.9899487E-02
         151  2.5495827E-02
         152  3.3274323E-02
         153 -3.5679617E-03
         154  8.6475927E-03
         155 -2.5476249E-02
         156 -3.1592242E-02
         157 -5.8063457E-04
         158  4.9420004E-03
         159  2.1717984E-03
         160  1.2829273E-03
         161  8.3795283E-03
         162 -5.1115677E-02
         163  7.9635985E-02
         164  9.2867568E-02
         165 -5.5399565E-03
         166  2.1792592E-02
         167 -1.4294679E-02
         168 -2.3854889E-02
         169 -3.5221122E-02
         170 -2.3211529E-02
         171 -2.5248576E-02
         172 -6.6883929E-02
         173  2.6741737E-02
         174  1.7286636E-02
         175  1.3943422E-02
         176  2.4355032E-02
         177 -1.6814733E-02
         178 -3.8676034E-03
         179 -5.9391796E-03
         180 -8.0615841E-02
         181  7.4952818E-03
         182  1.6535457E-02
         183 -5.5610330E-04
         184 -8.8433092E-03
         185 -2.6397854E-02
         186  1.5463288E-02
         187 -3.4946539E-02
         188 -3.8653489E-03
         189  4.1503083E-02
         190 -1.1849449E-02
         191  3.5103288E-02
         192  1.2355516E-02
         193  5.6896970E-02
         194 -4.1860338E-02
         195  3.5372205E-02
         196 -6.7848802E-02
         197 -6.2020548E-02
         198  2.0495221E-02
         199 -1.4859424E-02
         200  4.1498374E-02
         201 -6.3586044E-03
         202  1.1904598E-03
         203  5.7570606E-02
         204 -1.9175020E-03
         205  6.6261506E-03
         206  2.1094528E-03
         207 -3.7390046E-02
         208  3.9328134E-04
         209  1.0135047E-03
         210 -4.9794819E-03
         211 -1.4969265E-02
         212 -2.2161417E-03
         213  1.8491328E-03
         214 -3.0421230E-03
         215  1.0150186E-02
         216 -8.6553226E-04
         217  3.9092447E-03
         218 -4.0463884E-03
         219 -4.9515734E-03
         220 -2.4629734E-03
         221  5.2055768E-03
         222 -1.2756584E-02
         223  1.7713774E-02
         224 -5.2622529E-03
         225  1.7355174E-02
         226  1.1464542E-03
         227 -1.8184436E-02
         228  7.9191796E-02
         229 -1.6031785E-02
         230  1.4268582E-02
         231  3.1876848E-03
         232  1.3076230E-02
         233 -4.8401378E-02
         234  3.0746467E-02
         235  2.7663790E-02
         236  7.3686063E-02
         237  6.9599234E-02
         238 -3.5647523E-02
         239 -1.3916026E-02
         240 -3.8587004E-02
         241  3.6428127E-02
         242 -2.2219608E-02
         243 -4.0900819E-02
         244 -2.1711495E-03
         245 -4.1083325E-02
         246  1.3845948E-02
         247  2.3174809E-02
         248 -1.3389481E-02
         249  5.9802867E-02
         250 -2.2429777E-02
         251  8.1971092E-03
         252  7.8973118E-03
         253 -6.5472652E-03
         254 -3.4410335E-02
         255  1.0343608E-02
         256  7.7770501E-03
         257 -8.4243743E-03
         258  1.1299908E-02
         259 -3.7766110E-02
         260  6.1664465E-03
         261 -1.0878101E-02
         262  1.7419090E-02
         263 -2.1789011E-03
         264  8.0272509E-03
         265  1.3896520E-03
         266 -1.8031050E-02
         267 -2.8965408E-02
         268 -2.6612459E-02
         269 -2.5572460E-03
         270  4.8889974E-03
         271  2.1616174E-02
         272  2.8530449E-02
         273  2.6790086E-02
         274  2.2455032E-03
         275  3.2645653E-04
         276  1.1711229E-03
         277  6.3124360E-03
         278  7.8538596E-04
         279  1.1775191E-02
         280 -6.1729387E-03
         281 -2.3229521E-02
         282 -1.5658593E-02
         283 -1.9258702E-02
         284  5.2679382E-02
         285 -1.6777979E-02
         286  1.6377956E-02
         287 -7.2022947E-03
         288  3.0599972E-03
         289 -4.8115603E-03
         290 -3.8235862E-04
         291  5.6028352E-03
         292  1.8178803E-03
         293 -4.2609964E-03
         294 -5.3250078E-02
         295  1.5236851E-02
         296 -1.1135834E-02
         297 -4.6886597E-03
         298 -7.9381391E-03
         299  5.9356182E-03
         300  1.4928979E-03
         301 -1.3443797E-02
         302  2.2780178E-02
         303  2.3309825E-02
         304 -1.5454027E-03
         305  3.0688476E-03
         306  1.5814785E-02
         307 -1.8922437E-02
         308 -1.9809183E-02
         309  2.3428390E-03
         310 -5.5000745E-04
         311  2.0463914E-03
         312 -7.0701241E-03
         313 -1.4019957E-03
         314  9.3503669E-03
         315 -5.5203694E-03
         316 -2.0449335E-02
         317  8.1697488E-03
         318  1.4430346E-02
