 [Molden Format]
 [Atoms] Angs
F       1      9     -2.51645646     -5.92941339      1.23879550
C       2      6     -1.61015562     -4.93934088      1.12741349
F       3      9     -1.35741525     -4.52388299      2.37886933
F       4      9     -0.47550413     -5.53507045      0.69930662
C       5      6     -2.05657368     -3.84169786      0.20734230
C       6      6     -2.68477898     -4.17512863     -0.98729334
C       7      6     -3.06874018     -3.16526818     -1.85259687
C       8      6     -2.82331353     -1.84072965     -1.53800109
C       9      6     -2.19646778     -1.51381166     -0.33842525
N      10      7     -1.95373828     -0.17553701     -0.00274603
C      11      6     -0.77010359      0.37575353      0.43132306
C      12      6      0.48794376     -0.34577804      0.53004632
C      13      6      0.85231049     -1.33162810     -0.38851672
C      14      6      2.06042365     -1.97822842     -0.27458280
C      15      6      2.94976654     -1.66140756      0.75557902
O      16      8      4.10189555     -2.38425770      0.76708986
C      17      6      5.18517008     -1.99549760      1.59550391
C      18      6      5.82054594     -0.67579917      1.15010304
C      19      6      6.25489648     -0.72425389     -0.31704885
C      20      6      6.24425733      0.66701183     -0.96561346
N      21      7      4.91454078      1.21812638     -1.00361023
C      22      6      4.36673864      2.08596556     -0.08505890
C      23      6      4.96910130      2.78380908      0.95528541
C      24      6      4.17228981      3.59439910      1.74084586
C      25      6      2.80161524      3.70908750      1.51492866
C      26      6      2.19640898      3.02950906      0.47716029
C      27      6      2.98124688      2.22549053     -0.33822608
C      28      6      2.69303863      1.40395924     -1.47698316
C      29      6      1.53780017      1.15342587     -2.20426219
C      30      6      1.60710156      0.28882415     -3.27815974
C      31      6      2.80979621     -0.32182719     -3.62800938
C      32      6      3.97353956     -0.08322349     -2.92272394
C      33      6      3.91314419      0.78804364     -1.84305782
C      34      6      2.59264670     -0.67519893      1.67101230
C      35      6      1.37947520     -0.02522356      1.54924307
N      36      7     -0.91959722      1.64701674      0.69956846
C      37      6     -2.22380395      1.96406546      0.44809769
C      38      6     -2.73347697      3.30469726      0.70425534
C      39      6     -1.87300707      4.39763288      0.61370831
C      40      6     -2.33180084      5.67650852      0.86517425
C      41      6     -3.65667364      5.88483415      1.21291131
C      42      6     -4.51651298      4.80316881      1.31816129
C      43      6     -4.06110610      3.52177662      1.07052095
C      44      6     -2.89031616      0.84134776     -0.00621781
C      45      6     -4.27397360      0.64963546     -0.42405580
C      46      6     -5.04417085     -0.39105108      0.09270488
C      47      6     -6.35438650     -0.55866443     -0.31683430
C      48      6     -6.91186201      0.30639083     -1.24389002
C      49      6     -6.15417420      1.34695444     -1.75825588
C      50      6     -4.84413930      1.51922584     -1.35374022
C      51      6     -1.81387565     -2.51996368      0.54419702
H      52      1     -2.86962243     -5.21036271     -1.22735010
H      53      1     -3.55681931     -3.41282348     -2.78166049
H      54      1     -3.11120754     -1.05507972     -2.21934587
H      55      1      0.20426015     -1.57588100     -1.21589256
H      56      1      2.34849412     -2.73748836     -0.98462982
H      57      1      5.90006336     -2.81626304      1.49120889
H      58      1      4.87041181     -1.93713173      2.64442729
H      59      1      5.08634516      0.12018695      1.27700379
H      60      1      6.66966535     -0.46213095      1.80018545
H      61      1      7.25291257     -1.15520549     -0.40540706
H      62      1      5.55941575     -1.36308211     -0.86529298
H      63      1      6.62596204      0.59824428     -1.98900615
H      64      1      6.88687621      1.34945275     -0.40620404
H      65      1      6.02633427      2.69885682      1.15844415
H      66      1      4.62153513      4.14439042      2.55556869
H      67      1      2.20895050      4.33682911      2.16453089
H      68      1      1.13164377      3.08556561      0.31499233
H      69      1      0.60873544      1.62992255     -1.92779036
H      70      1      0.72053172      0.07980300     -3.85994216
H      71      1      2.83271074     -0.99565074     -4.47271064
H      72      1      4.89708685     -0.56059548     -3.21390175
H      73      1      3.24451573     -0.40630938      2.48694048
H      74      1      1.10836934      0.74586973      2.25344834
H      75      1     -0.84270936      4.22806634      0.34196303
H      76      1     -1.65371417      6.51445488      0.78828478
H      77      1     -4.01681458      6.88460004      1.40753398
H      78      1     -5.54785906      4.95802383      1.60149326
H      79      1     -4.73319029      2.68279789      1.17368903
H      80      1     -4.62002645     -1.05855021      0.82949263
H      81      1     -6.94260549     -1.36631143      0.09370834
H      82      1     -7.93501643      0.17253695     -1.56205553
H      83      1     -6.58525836      2.02596647     -2.47919857
H      84      1     -4.24952150      2.32835093     -1.75250277
H      85      1     -1.33330022     -2.26914110      1.47735764
 [GTO]
           1   0
s              4   1.000000
     47.27077280     -0.01198412
      8.14041823     -0.05472052
      0.65411734      0.58055871
      0.24930031      0.47700800
p              4   1.000000
     12.61540085      0.05713170
      3.27098506      0.28574555
      1.15312345      0.55178731
      0.45907832      0.26323149
s              7   1.000000
      0.68659740     -0.20788553
      0.08427369      1.00442647
      0.03979181      0.26377764
     47.27077280      0.00719086
      8.14041823      0.03283411
      0.65411734     -0.34835423
      0.24930031     -0.28622041
p              7   1.000000
      3.27737070     -0.01127134
      0.18126254      0.55389067
      0.06985363      0.57845651
     12.61540085     -0.02032303
      3.27098506     -0.10164612
      1.15312345     -0.19628316
      0.45907832     -0.09363736
 
           2   0
s              4   1.000000
     36.95344513     -0.01198412
      6.36368903     -0.05472052
      0.51134957      0.58055871
      0.19488798      0.47700799
p              4   1.000000
      5.95601308      0.05713170
      1.54430525      0.28574555
      0.54441539      0.55178731
      0.21674115      0.26323149
s              7   1.000000
      0.38350848     -0.19447489
      0.04707223      0.93963123
      0.02222627      0.24676142
     36.95344513      0.00522688
      6.36368903      0.02386641
      0.51134957     -0.25321121
      0.19488798     -0.20804747
p              7   1.000000
      1.83062075     -0.01151394
      0.10124670      0.56581244
      0.03901771      0.59090706
      5.95601308     -0.02393777
      1.54430525     -0.11972530
      0.54441539     -0.23119486
      0.21674115     -0.11029208
 
           3   0
s              4   1.000000
     47.27224529     -0.01198412
      8.14067180     -0.05472052
      0.65413771      0.58055871
      0.24930807      0.47700799
p              4   1.000000
     12.61579382      0.05713170
      3.27108695      0.28574555
      1.15315937      0.55178731
      0.45909262      0.26323149
s              7   1.000000
      0.68659740     -0.20788391
      0.08427369      1.00441866
      0.03979181      0.26377558
     47.27224529      0.00719065
      8.14067180      0.03283314
      0.65413771     -0.34834399
      0.24930807     -0.28621200
p              7   1.000000
      3.27737070     -0.01127130
      0.18126254      0.55388877
      0.06985363      0.57845452
     12.61579382     -0.02032241
      3.27108695     -0.10164301
      1.15315937     -0.19627714
      0.45909262     -0.09363449
 
           4   0
s              4   1.000000
     47.26684507     -0.01198412
      8.13974184     -0.05472052
      0.65406299      0.58055871
      0.24927959      0.47700799
p              4   1.000000
     12.61435263      0.05713170
      3.27071327      0.28574555
      1.15302764      0.55178731
      0.45904017      0.26323149
s              7   1.000000
      0.68659740     -0.20788984
      0.08427369      1.00444732
      0.03979181      0.26378311
     47.26684507      0.00719143
      8.13974184      0.03283668
      0.65406299     -0.34838153
      0.24927959     -0.28624284
p              7   1.000000
      3.27737070     -0.01127144
      0.18126254      0.55389576
      0.06985363      0.57846182
     12.61435263     -0.02032469
      3.27071327     -0.10165443
      1.15302764     -0.19629921
      0.45904017     -0.09364502
 
           5   0
s              4   1.000000
     35.12336153     -0.01198412
      6.04853349     -0.05472053
      0.48602547      0.58055871
      0.18523634      0.47700799
p              4   1.000000
      5.66104730      0.05713170
      1.46782503      0.28574555
      0.51745374      0.55178731
      0.20600725      0.26323149
s              7   1.000000
      0.38350848     -0.19605588
      0.04707223      0.94726998
      0.02222627      0.24876748
     35.12336153      0.00548734
      6.04853349      0.02505568
      0.48602547     -0.26582888
      0.18523634     -0.21841460
p              7   1.000000
      1.83062075     -0.01160181
      0.10124670      0.57013072
      0.03901771      0.59541684
      5.66104730     -0.02513581
      1.46782503     -0.12571734
      0.51745374     -0.24276575
      0.20600725     -0.11581200
 
           6   0
s              4   1.000000
     34.99695815     -0.01198412
      6.02676578     -0.05472053
      0.48427635      0.58055871
      0.18456970      0.47700799
p              4   1.000000
      5.64067409      0.05713170
      1.46254256      0.28574555
      0.51559151      0.55178731
      0.20526586      0.26323149
s              7   1.000000
      0.38350848     -0.19617327
      0.04707223      0.94783716
      0.02222627      0.24891641
     34.99695815      0.00550627
      6.02676578      0.02514212
      0.48427635     -0.26674589
      0.18456970     -0.21916805
p              7   1.000000
      1.83062075     -0.01160834
      0.10124670      0.57045138
      0.03901771      0.59575174
      5.64067409     -0.02522286
      1.46254256     -0.12615270
      0.51559151     -0.24360645
      0.20526586     -0.11621306
 
           7   0
s              4   1.000000
     34.92641112     -0.01198412
      6.01461700     -0.05472053
      0.48330014      0.58055871
      0.18419765      0.47700799
p              4   1.000000
      5.62930359      0.05713170
      1.45959436      0.28574555
      0.51455218      0.55178730
      0.20485209      0.26323149
s              7   1.000000
      0.38350848     -0.19623928
      0.04707223      0.94815608
      0.02222627      0.24900019
     34.92641112      0.00551689
      6.01461700      0.02519061
      0.48330014     -0.26726038
      0.18419765     -0.21959078
p              7   1.000000
      1.83062075     -0.01161200
      0.10124670      0.57063169
      0.03901771      0.59594002
      5.62930359     -0.02527169
      1.45959436     -0.12639696
      0.51455218     -0.24407812
      0.20485209     -0.11643807
 
           8   0
s              4   1.000000
     35.01834485     -0.01198412
      6.03044875     -0.05472053
      0.48457229      0.58055871
      0.18468249      0.47700799
p              4   1.000000
      5.64412111      0.05713170
      1.46343632      0.28574555
      0.51590659      0.55178731
      0.20539130      0.26323149
s              7   1.000000
      0.38350848     -0.19615333
      0.04707223      0.94774080
      0.02222627      0.24889111
     35.01834485      0.00550306
      6.03044875      0.02512745
      0.48457229     -0.26659030
      0.18468249     -0.21904021
p              7   1.000000
      1.83062075     -0.01160723
      0.10124670      0.57039691
      0.03901771      0.59569486
      5.64412111     -0.02520809
      1.46343632     -0.12607884
      0.51590659     -0.24346381
      0.20539130     -0.11614501
 
           9   0
s              4   1.000000
     35.15651970     -0.01198412
      6.05424360     -0.05472052
      0.48648431      0.58055871
      0.18541121      0.47700799
p              4   1.000000
      5.66639160      0.05713170
      1.46921073      0.28574555
      0.51794225      0.55178731
      0.20620173      0.26323149
s              7   1.000000
      0.38350848     -0.19602528
      0.04707223      0.94712210
      0.02222627      0.24872863
     35.15651970      0.00548240
      6.05424360      0.02503311
      0.48648431     -0.26558935
      0.18541121     -0.21821779
p              7   1.000000
      1.83062075     -0.01160011
      0.10124670      0.57004712
      0.03901771      0.59532954
      5.66639160     -0.02511307
      1.46921073     -0.12560362
      0.51794225     -0.24254614
      0.20620173     -0.11570723
 
          10   0
s              4   1.000000
     61.64511601     -0.01198412
     10.61579907     -0.05472052
      0.85302475      0.58055871
      0.32510885      0.47700799
p              4   1.000000
      7.26623163      0.05713170
      1.88402536      0.28574555
      0.66417724      0.55178731
      0.26442040      0.26323149
s              7   1.000000
      0.47894987     -0.18765078
      0.05878681      0.90665960
      0.02775758      0.23810258
     61.64511601      0.00394135
     10.61579907      0.01799657
      0.85302475     -0.19093503
      0.32510885     -0.15687911
p              7   1.000000
      2.28619608     -0.01155349
      0.12644335      0.56775619
      0.04872781      0.59293698
      7.26623163     -0.02448316
      1.88402536     -0.12245309
      0.66417724     -0.23646233
      0.26442040     -0.11280494
 
          11   0
s              4   1.000000
     35.81805510     -0.01198412
      6.16816547     -0.05472052
      0.49563841      0.58055871
      0.18890007      0.47700799
p              4   1.000000
      5.77301531      0.05713170
      1.49685666      0.28574555
      0.52768830      0.55178731
      0.21008180      0.26323149
s              7   1.000000
      0.38350848     -0.19543035
      0.04707223      0.94424762
      0.02222627      0.24797377
     35.81805510      0.00538554
      6.16816547      0.02459086
      0.49563841     -0.26089736
      0.18890007     -0.21436269
p              7   1.000000
      1.83062075     -0.01156704
      0.10124670      0.56842204
      0.03901771      0.59363237
      5.77301531     -0.02466764
      1.49685666     -0.12337576
      0.52768830     -0.23824405
      0.21008180     -0.11365491
 
          12   0
s              4   1.000000
     35.08035033     -0.01198412
      6.04112660     -0.05472053
      0.48543030      0.58055871
      0.18500950      0.47700799
p              4   1.000000
      5.65411492      0.05713170
      1.46602757      0.28574555
      0.51682008      0.55178731
      0.20575498      0.26323149
s              7   1.000000
      0.38350848     -0.19609570
      0.04707223      0.94746236
      0.02222627      0.24881799
     35.08035033      0.00549377
      6.04112660      0.02508503
      0.48543030     -0.26614021
      0.18500950     -0.21867040
p              7   1.000000
      1.83062075     -0.01160402
      0.10124670      0.57023948
      0.03901771      0.59553044
      5.65411492     -0.02516536
      1.46602757     -0.12586515
      0.51682008     -0.24305118
      0.20575498     -0.11594816
 
          13   0
s              4   1.000000
     35.03617923     -0.01198412
      6.03351998     -0.05472052
      0.48481907      0.58055871
      0.18477655      0.47700800
p              4   1.000000
      5.64699559      0.05713170
      1.46418163      0.28574555
      0.51616933      0.55178731
      0.20549591      0.26323149
s              7   1.000000
      0.38350848     -0.19613673
      0.04707223      0.94766058
      0.02222627      0.24887005
     35.03617923      0.00550038
      6.03351998      0.02511524
      0.48481907     -0.26646069
      0.18477655     -0.21893372
p              7   1.000000
      1.83062075     -0.01160630
      0.10124670      0.57035155
      0.03901771      0.59564748
      5.64699559     -0.02519578
      1.46418163     -0.12601730
      0.51616933     -0.24334499
      0.20549591     -0.11608832
 
          14   0
s              4   1.000000
     34.99589980     -0.01198412
      6.02658352     -0.05472052
      0.48426170      0.58055871
      0.18456412      0.47700799
p              4   1.000000
      5.64050351      0.05713170
      1.46249833      0.28574555
      0.51557592      0.55178731
      0.20525966      0.26323149
s              7   1.000000
      0.38350848     -0.19617426
      0.04707223      0.94784192
      0.02222627      0.24891768
     34.99589980      0.00550643
      6.02658352      0.02514284
      0.48426170     -0.26675359
      0.18456412     -0.21917438
p              7   1.000000
      1.83062075     -0.01160839
      0.10124670      0.57045408
      0.03901771      0.59575453
      5.64050351     -0.02522359
      1.46249833     -0.12615636
      0.51557592     -0.24361352
      0.20525966     -0.11621643
 
          15   0
s              4   1.000000
     35.06362021     -0.01198412
      6.03824554     -0.05472052
      0.48519879      0.58055871
      0.18492127      0.47700800
p              4   1.000000
      5.65141842      0.05713170
      1.46532841      0.28574555
      0.51657361      0.55178731
      0.20565685      0.26323149
s              7   1.000000
      0.38350848     -0.19611123
      0.04707223      0.94753736
      0.02222627      0.24883771
     35.06362021      0.00549627
      6.03824554      0.02509646
      0.48519879     -0.26626151
      0.18492127     -0.21877007
p              7   1.000000
      1.83062075     -0.01160489
      0.10124670      0.57028189
      0.03901771      0.59557470
      5.65141842     -0.02517688
      1.46532841     -0.12592274
      0.51657361     -0.24316238
      0.20565685     -0.11600121
 
          16   0
s              4   1.000000
     77.93331820     -0.01198412
     13.42076227     -0.05472052
      1.07841551      0.58055871
      0.41101085      0.47700799
p              4   1.000000
      8.03670035      0.05713170
      2.08379639      0.28574555
      0.73460271      0.55178731
      0.29245800      0.26323149
s              7   1.000000
      0.57971233     -0.18688886
      0.07115450      0.90297827
      0.03359728      0.23713579
     77.93331820      0.00377419
     13.42076227      0.01723326
      1.07841551     -0.18283669
      0.41101085     -0.15022523
p              7   1.000000
      2.76717072     -0.01172118
      0.15304476      0.57599658
      0.05897927      0.60154287
      8.03670035     -0.02669058
      2.08379639     -0.13349356
      0.73460271     -0.25778197
      0.29245800     -0.12297552
 
          17   0
s              4   1.000000
     36.98029103     -0.01198412
      6.36831211     -0.05472052
      0.51172105      0.58055871
      0.19502956      0.47700799
p              4   1.000000
      5.96034000      0.05713170
      1.54542716      0.28574555
      0.54481090      0.55178731
      0.21689861      0.26323149
s              7   1.000000
      0.38350848     -0.19445325
      0.04707223      0.93952662
      0.02222627      0.24673395
     36.98029103      0.00522324
      6.36831211      0.02384978
      0.51172105     -0.25303481
      0.19502956     -0.20790254
p              7   1.000000
      1.83062075     -0.01151273
      0.10124670      0.56575332
      0.03901771      0.59084532
      5.96034000     -0.02392101
      1.54542716     -0.11964151
      0.54481090     -0.23103305
      0.21689861     -0.11021488
 
          18   0
s              4   1.000000
     36.91155873     -0.01198412
      6.35647584     -0.05472052
      0.51076996      0.58055871
      0.19466707      0.47700799
p              4   1.000000
      5.94926199      0.05713170
      1.54255480      0.28574555
      0.54379830      0.55178731
      0.21649547      0.26323149
s              7   1.000000
      0.38350848     -0.19450875
      0.04707223      0.93979481
      0.02222627      0.24680439
     36.91155873      0.00523257
      6.35647584      0.02389239
      0.51076996     -0.25348692
      0.19466707     -0.20827400
p              7   1.000000
      1.83062075     -0.01151582
      0.10124670      0.56590491
      0.03901771      0.59100362
      5.94926199     -0.02396395
      1.54255480     -0.11985626
      0.54379830     -0.23144775
      0.21649547     -0.11041272
 
          19   0
s              4   1.000000
     36.94164164     -0.01198412
      6.36165637     -0.05472053
      0.51118623      0.58055871
      0.19482573      0.47700799
p              4   1.000000
      5.95411064      0.05713170
      1.54381198      0.28574555
      0.54424150      0.55178730
      0.21667192      0.26323149
s              7   1.000000
      0.38350848     -0.19448443
      0.04707223      0.93967726
      0.02222627      0.24677351
     36.94164164      0.00522849
      6.36165637      0.02387372
      0.51118623     -0.25328885
      0.19482573     -0.20811126
p              7   1.000000
      1.83062075     -0.01151447
      0.10124670      0.56583847
      0.03901771      0.59093424
      5.95411064     -0.02394514
      1.54381198     -0.11976218
      0.54424150     -0.23126607
      0.21667192     -0.11032605
 
          20   0
s              4   1.000000
     37.02418390     -0.01198412
      6.37587083     -0.05472052
      0.51232843      0.58055871
      0.19526104      0.47700799
p              4   1.000000
      5.96741448      0.05713170
      1.54726147      0.28574555
      0.54545755      0.55178731
      0.21715605      0.26323149
s              7   1.000000
      0.38350848     -0.19441794
      0.04707223      0.93935606
      0.02222627      0.24668917
     37.02418390      0.00521730
      6.37587083      0.02382264
      0.51232843     -0.25274692
      0.19526104     -0.20766599
p              7   1.000000
      1.83062075     -0.01151077
      0.10124670      0.56565690
      0.03901771      0.59074462
      5.96741448     -0.02389367
      1.54726147     -0.11950475
      0.54545755     -0.23076897
      0.21715605     -0.11008890
 
          21   0
s              4   1.000000
     61.28811798     -0.01198412
     10.55432105     -0.05472052
      0.84808473      0.58055871
      0.32322608      0.47700799
p              4   1.000000
      7.22415157      0.05713170
      1.87311463      0.28574555
      0.66033087      0.55178731
      0.26288910      0.26323149
s              7   1.000000
      0.47894987     -0.18775693
      0.05878681      0.90717248
      0.02775758      0.23823726
     61.28811798      0.00396414
     10.55432105      0.01810060
      0.84808473     -0.19203874
      0.32322608     -0.15778596
p              7   1.000000
      2.28619608     -0.01156355
      0.12644335      0.56825059
      0.04872781      0.59345333
      7.22415157     -0.02462025
      1.87311463     -0.12313874
      0.66033087     -0.23778635
      0.26288910     -0.11343656
 
          22   0
s              4   1.000000
     35.62433585     -0.01198412
      6.13480541     -0.05472052
      0.49295779      0.58055871
      0.18787842      0.47700799
p              4   1.000000
      5.74179240      0.05713170
      1.48876103      0.28574555
      0.52483433      0.55178731
      0.20894559      0.26323149
s              7   1.000000
      0.38350848     -0.19560152
      0.04707223      0.94507465
      0.02222627      0.24819095
     35.62433585      0.00541356
      6.13480541      0.02471878
      0.49295779     -0.26225445
      0.18787842     -0.21547772
p              7   1.000000
      1.83062075     -0.01157655
      0.10124670      0.56888959
      0.03901771      0.59412068
      5.74179240     -0.02479648
      1.48876103     -0.12402017
      0.52483433     -0.23948845
      0.20894559     -0.11424855
 
          23   0
s              4   1.000000
     34.94065745     -0.01198412
      6.01707033     -0.05472053
      0.48349728      0.58055871
      0.18427278      0.47700800
p              4   1.000000
      5.63159976      0.05713170
      1.46018972      0.28574555
      0.51476206      0.55178731
      0.20493565      0.26323149
s              7   1.000000
      0.38350848     -0.19622592
      0.04707223      0.94809153
      0.02222627      0.24898323
     34.94065745      0.00551474
      6.01707033      0.02518080
      0.48349728     -0.26715633
      0.18427278     -0.21950528
p              7   1.000000
      1.83062075     -0.01161126
      0.10124670      0.57059520
      0.03901771      0.59590191
      5.63159976     -0.02526181
      1.46018972     -0.12634756
      0.51476206     -0.24398273
      0.20493565     -0.11639256
 
          24   0
s              4   1.000000
     34.93340963     -0.01198412
      6.01582220     -0.05472052
      0.48339698      0.58055871
      0.18423455      0.47700799
p              4   1.000000
      5.63043159      0.05713170
      1.45988683      0.28574555
      0.51465529      0.55178731
      0.20489314      0.26323149
s              7   1.000000
      0.38350848     -0.19623272
      0.04707223      0.94812436
      0.02222627      0.24899185
     34.93340963      0.00551584
      6.01582220      0.02518579
      0.48339698     -0.26720926
      0.18423455     -0.21954877
p              7   1.000000
      1.83062075     -0.01161164
      0.10124670      0.57061376
      0.03901771      0.59592133
      5.63043159     -0.02526684
      1.45988683     -0.12637269
      0.51465529     -0.24403125
      0.20489314     -0.11641571
 
          25   0
s              4   1.000000
     34.92379966     -0.01198412
      6.01416728     -0.05472052
      0.48326400      0.58055871
      0.18418387      0.47700800
p              4   1.000000
      5.62888269      0.05713170
      1.45948523      0.28574555
      0.51451371      0.55178731
      0.20483677      0.26323149
s              7   1.000000
      0.38350848     -0.19624173
      0.04707223      0.94816792
      0.02222627      0.24900329
     34.92379966      0.00551729
      6.01416728      0.02519241
      0.48326400     -0.26727946
      0.18418387     -0.21960646
p              7   1.000000
      1.83062075     -0.01161214
      0.10124670      0.57063839
      0.03901771      0.59594702
      5.62888269     -0.02527350
      1.45948523     -0.12640602
      0.51451371     -0.24409562
      0.20483677     -0.11644641
 
          26   0
s              4   1.000000
     34.94793533     -0.01198412
      6.01832364     -0.05472052
      0.48359798      0.58055871
      0.18431116      0.47700799
p              4   1.000000
      5.63277278      0.05713170
      1.46049387      0.28574555
      0.51486928      0.55178731
      0.20497833      0.26323149
s              7   1.000000
      0.38350848     -0.19621910
      0.04707223      0.94805860
      0.02222627      0.24897457
     34.94793533      0.00551365
      6.01832364      0.02517580
      0.48359798     -0.26710320
      0.18431116     -0.21946163
p              7   1.000000
      1.83062075     -0.01161088
      0.10124670      0.57057658
      0.03901771      0.59588249
      5.63277278     -0.02525677
      1.46049387     -0.12632234
      0.51486928     -0.24393403
      0.20497833     -0.11636933
 
          27   0
s              4   1.000000
     35.43851494     -0.01198412
      6.10280551     -0.05472052
      0.49038646      0.58055871
      0.18689842      0.47700799
p              4   1.000000
      5.71184250      0.05713170
      1.48099547      0.28574555
      0.52209673      0.55178731
      0.20785571      0.26323149
s              7   1.000000
      0.38350848     -0.19576806
      0.04707223      0.94587930
      0.02222627      0.24840225
     35.43851494      0.00544070
      6.10280551      0.02484270
      0.49038646     -0.26356923
      0.18689842     -0.21655800
p              7   1.000000
      1.83062075     -0.01158581
      0.10124670      0.56934448
      0.03901771      0.59459575
      5.71184250     -0.02492130
      1.48099547     -0.12464447
      0.52209673     -0.24069400
      0.20785571     -0.11482366
 
          28   0
s              4   1.000000
     35.43907322     -0.01198412
      6.10290166     -0.05472053
      0.49039419      0.58055871
      0.18690136      0.47700800
p              4   1.000000
      5.71193248      0.05713170
      1.48101880      0.28574555
      0.52210496      0.55178731
      0.20785898      0.26323149
s              7   1.000000
      0.38350848     -0.19576755
      0.04707223      0.94587686
      0.02222627      0.24840162
     35.43907322      0.00544062
      6.10290166      0.02484233
      0.49039419     -0.26356527
      0.18690136     -0.21655473
p              7   1.000000
      1.83062075     -0.01158578
      0.10124670      0.56934311
      0.03901771      0.59459429
      5.71193248     -0.02492092
      1.48101880     -0.12464259
      0.52210496     -0.24069036
      0.20785898     -0.11482193
 
          29   0
s              4   1.000000
     34.95474322     -0.01198412
      6.01949602     -0.05472053
      0.48369219      0.58055871
      0.18434707      0.47700799
p              4   1.000000
      5.63387005      0.05713170
      1.46077838      0.28574555
      0.51496958      0.55178731
      0.20501826      0.26323149
s              7   1.000000
      0.38350848     -0.19621273
      0.04707223      0.94802779
      0.02222627      0.24896648
     34.95474322      0.00551262
      6.01949602      0.02517111
      0.48369219     -0.26705352
      0.18434707     -0.21942081
p              7   1.000000
      1.83062075     -0.01161053
      0.10124670      0.57055916
      0.03901771      0.59586429
      5.63387005     -0.02525206
      1.46077838     -0.12629875
      0.51496958     -0.24388849
      0.20501826     -0.11634760
 
          30   0
s              4   1.000000
     34.92881668     -0.01198412
      6.01503126     -0.05472052
      0.48333343      0.58055871
      0.18421033      0.47700800
p              4   1.000000
      5.62969131      0.05713170
      1.45969489      0.28574555
      0.51458762      0.55178731
      0.20486620      0.26323149
s              7   1.000000
      0.38350848     -0.19623702
      0.04707223      0.94814518
      0.02222627      0.24899731
     34.92881668      0.00551653
      6.01503126      0.02518895
      0.48333343     -0.26724281
      0.18421033     -0.21957634
p              7   1.000000
      1.83062075     -0.01161188
      0.10124670      0.57062553
      0.03901771      0.59593359
      5.62969131     -0.02527002
      1.45969489     -0.12638862
      0.51458762     -0.24406201
      0.20486620     -0.11643038
 
          31   0
s              4   1.000000
     34.93724324     -0.01198412
      6.01648238     -0.05472052
      0.48345003      0.58055871
      0.18425477      0.47700799
p              4   1.000000
      5.63104947      0.05713170
      1.46004704      0.28574555
      0.51471176      0.55178730
      0.20491562      0.26323149
s              7   1.000000
      0.38350848     -0.19622912
      0.04707223      0.94810700
      0.02222627      0.24898730
     34.93724324      0.00551526
      6.01648238      0.02518315
      0.48345003     -0.26718126
      0.18425477     -0.21952576
p              7   1.000000
      1.83062075     -0.01161144
      0.10124670      0.57060394
      0.03901771      0.59591105
      5.63104947     -0.02526418
      1.46004704     -0.12635940
      0.51471176     -0.24400559
      0.20491562     -0.11640346
 
          32   0
s              4   1.000000
     34.94370473     -0.01198412
      6.01759510     -0.05472052
      0.48353944      0.58055871
      0.18428885      0.47700799
p              4   1.000000
      5.63209091      0.05713170
      1.46031707      0.28574555
      0.51480696      0.55178731
      0.20495352      0.26323149
s              7   1.000000
      0.38350848     -0.19622307
      0.04707223      0.94807774
      0.02222627      0.24897962
     34.94370473      0.00551428
      6.01759510      0.02517871
      0.48353944     -0.26713408
      0.18428885     -0.21948700
p              7   1.000000
      1.83062075     -0.01161110
      0.10124670      0.57058740
      0.03901771      0.59589378
      5.63209091     -0.02525970
      1.46031707     -0.12633700
      0.51480696     -0.24396234
      0.20495352     -0.11638283
 
          33   0
s              4   1.000000
     35.63815667     -0.01198412
      6.13718547     -0.05472052
      0.49314904      0.58055871
      0.18795131      0.47700800
p              4   1.000000
      5.74401998      0.05713170
      1.48933861      0.28574555
      0.52503795      0.55178731
      0.20902665      0.26323149
s              7   1.000000
      0.38350848     -0.19558922
      0.04707223      0.94501524
      0.02222627      0.24817535
     35.63815667      0.00541155
      6.13718547      0.02470961
      0.49314904     -0.26215717
      0.18795131     -0.21539779
p              7   1.000000
      1.83062075     -0.01157587
      0.10124670      0.56885600
      0.03901771      0.59408560
      5.74401998     -0.02478724
      1.48933861     -0.12397398
      0.52503795     -0.23939925
      0.20902665     -0.11420600
 
          34   0
s              4   1.000000
     34.96800966     -0.01198412
      6.02178061     -0.05472052
      0.48387577      0.58055871
      0.18441703      0.47700799
p              4   1.000000
      5.63600828      0.05713170
      1.46133279      0.28574555
      0.51516503      0.55178731
      0.20509607      0.26323149
s              7   1.000000
      0.38350848     -0.19620031
      0.04707223      0.94796781
      0.02222627      0.24895073
     34.96800966      0.00551062
      6.02178061      0.02516199
      0.48387577     -0.26695677
      0.18441703     -0.21934132
p              7   1.000000
      1.83062075     -0.01160984
      0.10124670      0.57052525
      0.03901771      0.59582889
      5.63600828     -0.02524287
      1.46133279     -0.12625282
      0.51516503     -0.24379979
      0.20509607     -0.11630529
 
          35   0
s              4   1.000000
     35.04511038     -0.01198412
      6.03505799     -0.05472052
      0.48494266      0.58055871
      0.18482365      0.47700799
p              4   1.000000
      5.64843508      0.05713170
      1.46455487      0.28574555
      0.51630091      0.55178731
      0.20554829      0.26323149
s              7   1.000000
      0.38350848     -0.19612842
      0.04707223      0.94762046
      0.02222627      0.24885952
     35.04511038      0.00549905
      6.03505799      0.02510912
      0.48494266     -0.26639583
      0.18482365     -0.21888043
p              7   1.000000
      1.83062075     -0.01160584
      0.10124670      0.57032886
      0.03901771      0.59562378
      5.64843508     -0.02518963
      1.46455487     -0.12598651
      0.51630091     -0.24328553
      0.20554829     -0.11605996
 
          36   0
s              4   1.000000
     57.59418573     -0.01198412
      9.91819535     -0.05472053
      0.79696932      0.58055871
      0.30374473      0.47700799
p              4   1.000000
      6.78874048      0.05713170
      1.76021903      0.28574555
      0.62053168      0.55178731
      0.24704435      0.26323149
s              7   1.000000
      0.47894987     -0.18896306
      0.05878681      0.91300008
      0.02775758      0.23976769
     57.59418573      0.00421522
      9.91819535      0.01924705
      0.79696932     -0.20420202
      0.30374473     -0.16777975
p              7   1.000000
      2.28619608     -0.01167756
      0.12644335      0.57385311
      0.04872781      0.59930434
      6.78874048     -0.02613134
      1.76021903     -0.13069653
      0.62053168     -0.25238078
      0.24704435     -0.12039887
 
          37   0
s              4   1.000000
     35.68488652     -0.01198412
      6.14523274     -0.05472052
      0.49379567      0.58055871
      0.18819775      0.47700799
p              4   1.000000
      5.75155172      0.05713170
      1.49129148      0.28574555
      0.52572639      0.55178731
      0.20930074      0.26323149
s              7   1.000000
      0.38350848     -0.19554775
      0.04707223      0.94481485
      0.02222627      0.24812272
     35.68488652      0.00540477
      6.14523274      0.02467866
      0.49379567     -0.26182878
      0.18819775     -0.21512798
p              7   1.000000
      1.83062075     -0.01157357
      0.10124670      0.56874271
      0.03901771      0.59396727
      5.75155172     -0.02475607
      1.49129148     -0.12381805
      0.52572639     -0.23909814
      0.20930074     -0.11406235
 
          38   0
s              4   1.000000
     35.05898654     -0.01198412
      6.03744758     -0.05472053
      0.48513467      0.58055871
      0.18489683      0.47700800
p              4   1.000000
      5.65067158      0.05713170
      1.46513476      0.28574555
      0.51650534      0.55178731
      0.20562968      0.26323149
s              7   1.000000
      0.38350848     -0.19611553
      0.04707223      0.94755816
      0.02222627      0.24884317
     35.05898654      0.00549697
      6.03744758      0.02509963
      0.48513467     -0.26629512
      0.18489683     -0.21879768
p              7   1.000000
      1.83062075     -0.01160513
      0.10124670      0.57029364
      0.03901771      0.59558700
      5.65067158     -0.02518007
      1.46513476     -0.12593870
      0.51650534     -0.24319320
      0.20562968     -0.11601591
 
          39   0
s              4   1.000000
     35.02648671     -0.01198412
      6.03185084     -0.05472052
      0.48468495      0.58055871
      0.18472543      0.47700800
p              4   1.000000
      5.64543339      0.05713170
      1.46377658      0.28574555
      0.51602654      0.55178731
      0.20543906      0.26323149
s              7   1.000000
      0.38350848     -0.19614575
      0.04707223      0.94770418
      0.02222627      0.24888151
     35.02648671      0.00550184
      6.03185084      0.02512187
      0.48468495     -0.26653111
      0.18472543     -0.21899158
p              7   1.000000
      1.83062075     -0.01160681
      0.10124670      0.57037620
      0.03901771      0.59567321
      5.64543339     -0.02520247
      1.46377658     -0.12605074
      0.51602654     -0.24340955
      0.20543906     -0.11611913
 
          40   0
s              4   1.000000
     34.91640352     -0.01198412
      6.01289361     -0.05472053
      0.48316166      0.58055871
      0.18414487      0.47700800
p              4   1.000000
      5.62769060      0.05713170
      1.45917614      0.28574555
      0.51440474      0.55178731
      0.20479339      0.26323149
s              7   1.000000
      0.38350848     -0.19624867
      0.04707223      0.94820146
      0.02222627      0.24901211
     34.91640352      0.00551840
      6.01289361      0.02519750
      0.48316166     -0.26733353
      0.18414487     -0.21965087
p              7   1.000000
      1.83062075     -0.01161253
      0.10124670      0.57065734
      0.03901771      0.59596684
      5.62769060     -0.02527863
      1.45917614     -0.12643168
      0.51440474     -0.24414518
      0.20479339     -0.11647006
 
          41   0
s              4   1.000000
     34.91827342     -0.01198412
      6.01321562     -0.05472053
      0.48318753      0.58055871
      0.18415473      0.47700799
p              4   1.000000
      5.62799199      0.05713170
      1.45925428      0.28574555
      0.51443229      0.55178731
      0.20480436      0.26323149
s              7   1.000000
      0.38350848     -0.19624692
      0.04707223      0.94819298
      0.02222627      0.24900987
     34.91827342      0.00551812
      6.01321562      0.02519622
      0.48318753     -0.26731986
      0.18415473     -0.21963964
p              7   1.000000
      1.83062075     -0.01161243
      0.10124670      0.57065255
      0.03901771      0.59596183
      5.62799199     -0.02527734
      1.45925428     -0.12642519
      0.51443229     -0.24413265
      0.20480436     -0.11646408
 
          42   0
s              4   1.000000
     34.91930368     -0.01198412
      6.01339304     -0.05472053
      0.48320179      0.58055871
      0.18416016      0.47700799
p              4   1.000000
      5.62815804      0.05713170
      1.45929734      0.28574555
      0.51444747      0.55178730
      0.20481040      0.26323149
s              7   1.000000
      0.38350848     -0.19624595
      0.04707223      0.94818830
      0.02222627      0.24900865
     34.91930368      0.00551796
      6.01339304      0.02519551
      0.48320179     -0.26731233
      0.18416016     -0.21963345
p              7   1.000000
      1.83062075     -0.01161238
      0.10124670      0.57064991
      0.03901771      0.59595908
      5.62815804     -0.02527662
      1.45929734     -0.12642162
      0.51444747     -0.24412574
      0.20481040     -0.11646079
 
          43   0
s              4   1.000000
     35.01749835     -0.01198412
      6.03030297     -0.05472053
      0.48456057      0.58055871
      0.18467803      0.47700800
p              4   1.000000
      5.64398468      0.05713170
      1.46340095      0.28574555
      0.51589412      0.55178731
      0.20538634      0.26323149
s              7   1.000000
      0.38350848     -0.19615412
      0.04707223      0.94774462
      0.02222627      0.24889214
     35.01749835      0.00550319
      6.03030297      0.02512803
      0.48456057     -0.26659645
      0.18467803     -0.21904527
p              7   1.000000
      1.83062075     -0.01160727
      0.10124670      0.57039906
      0.03901771      0.59569708
      5.64398468     -0.02520867
      1.46340095     -0.12608176
      0.51589412     -0.24346946
      0.20538634     -0.11614770
 
          44   0
s              4   1.000000
     35.58832978     -0.01198412
      6.12860487     -0.05472052
      0.49245955      0.58055871
      0.18768852      0.47700799
p              4   1.000000
      5.73598908      0.05713170
      1.48725631      0.28574555
      0.52430387      0.55178731
      0.20873441      0.26323149
s              7   1.000000
      0.38350848     -0.19563361
      0.04707223      0.94522969
      0.02222627      0.24823165
     35.58832978      0.00541880
      6.12860487      0.02474269
      0.49245955     -0.26250820
      0.18768852     -0.21568622
p              7   1.000000
      1.83062075     -0.01157834
      0.10124670      0.56897723
      0.03901771      0.59421219
      5.73598908     -0.02482057
      1.48725631     -0.12414067
      0.52430387     -0.23972113
      0.20873441     -0.11435955
 
          45   0
s              4   1.000000
     35.06412811     -0.01198412
      6.03833300     -0.05472052
      0.48520582      0.58055871
      0.18492395      0.47700799
p              4   1.000000
      5.65150028      0.05713170
      1.46534963      0.28574555
      0.51658109      0.55178731
      0.20565983      0.26323149
s              7   1.000000
      0.38350848     -0.19611075
      0.04707223      0.94753508
      0.02222627      0.24883710
     35.06412811      0.00549620
      6.03833300      0.02509611
      0.48520582     -0.26625782
      0.18492395     -0.21876704
p              7   1.000000
      1.83062075     -0.01160486
      0.10124670      0.57028060
      0.03901771      0.59557337
      5.65150028     -0.02517653
      1.46534963     -0.12592099
      0.51658109     -0.24315900
      0.20565983     -0.11599960
 
          46   0
s              4   1.000000
     35.02381741     -0.01198412
      6.03139117     -0.05472053
      0.48464801      0.58055871
      0.18471135      0.47700799
p              4   1.000000
      5.64500316      0.05713170
      1.46366503      0.28574555
      0.51598721      0.55178730
      0.20542340      0.26323149
s              7   1.000000
      0.38350848     -0.19614823
      0.04707223      0.94771619
      0.02222627      0.24888465
     35.02381741      0.00550224
      6.03139117      0.02512370
      0.48464801     -0.26655051
      0.18471135     -0.21900752
p              7   1.000000
      1.83062075     -0.01160694
      0.10124670      0.57038298
      0.03901771      0.59568029
      5.64500316     -0.02520431
      1.46366503     -0.12605995
      0.51598721     -0.24342734
      0.20542340     -0.11612761
 
          47   0
s              4   1.000000
     34.91912678     -0.01198412
      6.01336257     -0.05472053
      0.48319934      0.58055871
      0.18415923      0.47700799
p              4   1.000000
      5.62812953      0.05713170
      1.45928995      0.28574555
      0.51444486      0.55178731
      0.20480936      0.26323149
s              7   1.000000
      0.38350848     -0.19624612
      0.04707223      0.94818911
      0.02222627      0.24900884
     34.91912678      0.00551799
      6.01336257      0.02519563
      0.48319934     -0.26731362
      0.18415923     -0.21963452
p              7   1.000000
      1.83062075     -0.01161238
      0.10124670      0.57065036
      0.03901771      0.59595952
      5.62812953     -0.02527674
      1.45928995     -0.12642223
      0.51444486     -0.24412693
      0.20480936     -0.11646135
 
          48   0
s              4   1.000000
     34.91939614     -0.01198412
      6.01340896     -0.05472052
      0.48320307      0.58055871
      0.18416065      0.47700799
p              4   1.000000
      5.62817294      0.05713170
      1.45930120      0.28574555
      0.51444883      0.55178731
      0.20481094      0.26323149
s              7   1.000000
      0.38350848     -0.19624586
      0.04707223      0.94818788
      0.02222627      0.24900853
     34.91939614      0.00551795
      6.01340896      0.02519544
      0.48320307     -0.26731165
      0.18416065     -0.21963290
p              7   1.000000
      1.83062075     -0.01161237
      0.10124670      0.57064968
      0.03901771      0.59595883
      5.62817294     -0.02527656
      1.45930120     -0.12642130
      0.51444883     -0.24412512
      0.20481094     -0.11646049
 
          49   0
s              4   1.000000
     34.91790013     -0.01198412
      6.01315134     -0.05472052
      0.48318237      0.58055871
      0.18415276      0.47700799
p              4   1.000000
      5.62793182      0.05713170
      1.45923868      0.28574555
      0.51442679      0.55178731
      0.20480217      0.26323149
s              7   1.000000
      0.38350848     -0.19624727
      0.04707223      0.94819467
      0.02222627      0.24901031
     34.91790013      0.00551818
      6.01315134      0.02519647
      0.48318237     -0.26732259
      0.18415276     -0.21964189
p              7   1.000000
      1.83062075     -0.01161245
      0.10124670      0.57065351
      0.03901771      0.59596284
      5.62793182     -0.02527760
      1.45923868     -0.12642649
      0.51442679     -0.24413515
      0.20480217     -0.11646527
 
          50   0
s              4   1.000000
     35.02340827     -0.01198412
      6.03132071     -0.05472053
      0.48464235      0.58055871
      0.18470920      0.47700799
p              4   1.000000
      5.64493722      0.05713170
      1.46364793      0.28574555
      0.51598119      0.55178731
      0.20542100      0.26323149
s              7   1.000000
      0.38350848     -0.19614861
      0.04707223      0.94771802
      0.02222627      0.24888514
     35.02340827      0.00550230
      6.03132071      0.02512398
      0.48464235     -0.26655349
      0.18470920     -0.21900997
p              7   1.000000
      1.83062075     -0.01160696
      0.10124670      0.57038403
      0.03901771      0.59568139
      5.64493722     -0.02520459
      1.46364793     -0.12606136
      0.51598119     -0.24343007
      0.20542100     -0.11612891
 
          51   0
s              4   1.000000
     35.10188098     -0.01198412
      6.04483436     -0.05472052
      0.48572823      0.58055871
      0.18512305      0.47700799
p              4   1.000000
      5.65758514      0.05713170
      1.46692735      0.28574555
      0.51713728      0.55178731
      0.20588126      0.26323149
s              7   1.000000
      0.38350848     -0.19607576
      0.04707223      0.94736599
      0.02222627      0.24879269
     35.10188098      0.00549055
      6.04483436      0.02507033
      0.48572823     -0.26598427
      0.18512305     -0.21854228
p              7   1.000000
      1.83062075     -0.01160291
      0.10124670      0.57018499
      0.03901771      0.59547352
      5.65758514     -0.02515056
      1.46692735     -0.12579112
      0.51713728     -0.24290822
      0.20588126     -0.11587996
 
          52   0
s              4   1.000000
      8.30930829      0.05675242
      1.52050104      0.26014135
      0.42241184      0.53284611
      0.14019469      0.29162544
s              7   1.000000
      0.92936822     -0.06732796
      0.05643440      0.66945078
      0.02166600      0.51461109
      8.30930829     -0.02902175
      1.52050104     -0.13302968
      0.42241184     -0.27248397
      0.14019469     -0.14912984
p              4   1.000000
      0.64737396      0.05713170
      0.16785440      0.28574555
      0.05917387      0.55178731
      0.02355814      0.26323150
 
          53   0
s              4   1.000000
      8.30914470      0.05675242
      1.52047111      0.26014135
      0.42240352      0.53284611
      0.14019193      0.29162544
s              7   1.000000
      0.92936822     -0.06732817
      0.05643440      0.66945287
      0.02166600      0.51461271
      8.30914470     -0.02902218
      1.52047111     -0.13303169
      0.42240352     -0.27248808
      0.14019193     -0.14913209
p              4   1.000000
      0.64737396      0.05713170
      0.16785440      0.28574555
      0.05917387      0.55178731
      0.02355814      0.26323150
 
          54   0
s              4   1.000000
      8.30983557      0.05675242
      1.52059753      0.26014135
      0.42243864      0.53284611
      0.14020359      0.29162544
s              7   1.000000
      0.92936822     -0.06732728
      0.05643440      0.66944403
      0.02166600      0.51460590
      8.30983557     -0.02902034
      1.52059753     -0.13302322
      0.42243864     -0.27247073
      0.14020359     -0.14912260
p              4   1.000000
      0.64737396      0.05713170
      0.16785440      0.28574555
      0.05917387      0.55178731
      0.02355814      0.26323150
 
          55   0
s              4   1.000000
      8.31060399      0.05675242
      1.52073814      0.26014135
      0.42247771      0.53284611
      0.14021655      0.29162544
s              7   1.000000
      0.92936822     -0.06732629
      0.05643440      0.66943421
      0.02166600      0.51459835
      8.31060399     -0.02901828
      1.52073814     -0.13301380
      0.42247771     -0.27245143
      0.14021655     -0.14911204
p              4   1.000000
      0.64737396      0.05713170
      0.16785440      0.28574555
      0.05917387      0.55178731
      0.02355814      0.26323150
 
          56   0
s              4   1.000000
      8.30950210      0.05675242
      1.52053651      0.26014135
      0.42242169      0.53284611
      0.14019796      0.29162544
s              7   1.000000
      0.92936822     -0.06732771
      0.05643440      0.66944829
      0.02166600      0.51460918
      8.30950210     -0.02902123
      1.52053651     -0.13302731
      0.42242169     -0.27247910
      0.14019796     -0.14912718
p              4   1.000000
      0.64737396      0.05713170
      0.16785440      0.28574555
      0.05917387      0.55178731
      0.02355814      0.26323150
 
          57   0
s              4   1.000000
      8.30693461      0.05675242
      1.52006669      0.26014135
      0.42229117      0.53284611
      0.14015464      0.29162544
s              7   1.000000
      0.92936822     -0.06733101
      0.05643440      0.66948115
      0.02166600      0.51463445
      8.30693461     -0.02902810
      1.52006669     -0.13305880
      0.42229117     -0.27254360
      0.14015464     -0.14916248
p              4   1.000000
      0.64737396      0.05713170
      0.16785440      0.28574555
      0.05917387      0.55178731
      0.02355814      0.26323150
 
          58   0
s              4   1.000000
      8.30631148      0.05675242
      1.51995266      0.26014135
      0.42225949      0.53284611
      0.14014413      0.29162544
s              7   1.000000
      0.92936822     -0.06733182
      0.05643440      0.66948913
      0.02166600      0.51464056
      8.30631148     -0.02902977
      1.51995266     -0.13306644
      0.42225949     -0.27255926
      0.14014413     -0.14917105
p              4   1.000000
      0.64737396      0.05713170
      0.16785440      0.28574555
      0.05917387      0.55178731
      0.02355814      0.26323150
 
          59   0
s              4   1.000000
      8.31062020      0.05675242
      1.52074111      0.26014135
      0.42247853      0.53284611
      0.14021683      0.29162544
s              7   1.000000
      0.92936822     -0.06732627
      0.05643440      0.66943399
      0.02166600      0.51459820
      8.31062020     -0.02901824
      1.52074111     -0.13301360
      0.42247853     -0.27245102
      0.14021683     -0.14911181
p              4   1.000000
      0.64737396      0.05713170
      0.16785440      0.28574555
      0.05917387      0.55178731
      0.02355814      0.26323150
 
          60   0
s              4   1.000000
      8.30798739      0.05675242
      1.52025933      0.26014135
      0.42234469      0.53284611
      0.14017241      0.29162544
s              7   1.000000
      0.92936822     -0.06732966
      0.05643440      0.66946768
      0.02166600      0.51462409
      8.30798739     -0.02902528
      1.52025933     -0.13304588
      0.42234469     -0.27251715
      0.14017241     -0.14914800
p              4   1.000000
      0.64737396      0.05713170
      0.16785440      0.28574555
      0.05917387      0.55178731
      0.02355814      0.26323150
 
          61   0
s              4   1.000000
      8.30784744      0.05675242
      1.52023372      0.26014135
      0.42233758      0.53284611
      0.14017004      0.29162544
s              7   1.000000
      0.92936822     -0.06732984
      0.05643440      0.66946946
      0.02166600      0.51462545
      8.30784744     -0.02902566
      1.52023372     -0.13304760
      0.42233758     -0.27252067
      0.14017004     -0.14914993
p              4   1.000000
      0.64737396      0.05713170
      0.16785440      0.28574555
      0.05917387      0.55178731
      0.02355814      0.26323150
 
          62   0
s              4   1.000000
      8.30946743      0.05675242
      1.52053016      0.26014135
      0.42241993      0.53284611
      0.14019738      0.29162544
s              7   1.000000
      0.92936822     -0.06732776
      0.05643440      0.66944874
      0.02166600      0.51460953
      8.30946743     -0.02902132
      1.52053016     -0.13302773
      0.42241993     -0.27247997
      0.14019738     -0.14912766
p              4   1.000000
      0.64737396      0.05713170
      0.16785440      0.28574555
      0.05917387      0.55178731
      0.02355814      0.26323150
 
          63   0
s              4   1.000000
      8.30804662      0.05675242
      1.52027017      0.26014135
      0.42234770      0.53284611
      0.14017341      0.29162544
s              7   1.000000
      0.92936822     -0.06732958
      0.05643440      0.66946692
      0.02166600      0.51462349
      8.30804662     -0.02902512
      1.52027017     -0.13304515
      0.42234770     -0.27251566
      0.14017341     -0.14914719
p              4   1.000000
      0.64737396      0.05713170
      0.16785440      0.28574555
      0.05917387      0.55178731
      0.02355814      0.26323150
 
          64   0
s              4   1.000000
      8.30862532      0.05675242
      1.52037607      0.26014135
      0.42237712      0.53284611
      0.14018317      0.29162544
s              7   1.000000
      0.92936822     -0.06732884
      0.05643440      0.66945952
      0.02166600      0.51461780
      8.30862532     -0.02902357
      1.52037607     -0.13303806
      0.42237712     -0.27250113
      0.14018317     -0.14913923
p              4   1.000000
      0.64737396      0.05713170
      0.16785440      0.28574555
      0.05917387      0.55178731
      0.02355814      0.26323150
 
          65   0
s              4   1.000000
      8.30899815      0.05675242
      1.52044429      0.26014135
      0.42239607      0.53284611
      0.14018946      0.29162544
s              7   1.000000
      0.92936822     -0.06732836
      0.05643440      0.66945474
      0.02166600      0.51461415
      8.30899815     -0.02902258
      1.52044429     -0.13303348
      0.42239607     -0.27249176
      0.14018946     -0.14913411
p              4   1.000000
      0.64737396      0.05713170
      0.16785440      0.28574555
      0.05917387      0.55178731
      0.02355814      0.26323150
 
          66   0
s              4   1.000000
      8.30896180      0.05675242
      1.52043764      0.26014135
      0.42239423      0.53284611
      0.14018885      0.29162544
s              7   1.000000
      0.92936822     -0.06732841
      0.05643440      0.66945521
      0.02166600      0.51461450
      8.30896180     -0.02902267
      1.52043764     -0.13303393
      0.42239423     -0.27249267
      0.14018885     -0.14913461
p              4   1.000000
      0.64737396      0.05713170
      0.16785440      0.28574555
      0.05917387      0.55178731
      0.02355814      0.26323150
 
          67   0
s              4   1.000000
      8.30895472      0.05675242
      1.52043634      0.26014135
      0.42239386      0.53284611
      0.14018873      0.29162544
s              7   1.000000
      0.92936822     -0.06732842
      0.05643440      0.66945530
      0.02166600      0.51461457
      8.30895472     -0.02902269
      1.52043634     -0.13303402
      0.42239386     -0.27249285
      0.14018873     -0.14913470
p              4   1.000000
      0.64737396      0.05713170
      0.16785440      0.28574555
      0.05917387      0.55178731
      0.02355814      0.26323150
 
          68   0
s              4   1.000000
      8.30980091      0.05675242
      1.52059119      0.26014135
      0.42243688      0.53284611
      0.14020300      0.29162544
s              7   1.000000
      0.92936822     -0.06732733
      0.05643440      0.66944448
      0.02166600      0.51460625
      8.30980091     -0.02902043
      1.52059119     -0.13302364
      0.42243688     -0.27247160
      0.14020300     -0.14912308
p              4   1.000000
      0.64737396      0.05713170
      0.16785440      0.28574555
      0.05917387      0.55178731
      0.02355814      0.26323150
 
          69   0
s              4   1.000000
      8.30944171      0.05675242
      1.52052546      0.26014135
      0.42241862      0.53284611
      0.14019694      0.29162544
s              7   1.000000
      0.92936822     -0.06732779
      0.05643440      0.66944907
      0.02166600      0.51460978
      8.30944171     -0.02902139
      1.52052546     -0.13302805
      0.42241862     -0.27248062
      0.14019694     -0.14912801
p              4   1.000000
      0.64737396      0.05713170
      0.16785440      0.28574555
      0.05917387      0.55178731
      0.02355814      0.26323150
 
          70   0
s              4   1.000000
      8.30897928      0.05675242
      1.52044084      0.26014135
      0.42239511      0.53284611
      0.14018914      0.29162544
s              7   1.000000
      0.92936822     -0.06732838
      0.05643440      0.66945498
      0.02166600      0.51461432
      8.30897928     -0.02902263
      1.52044084     -0.13303372
      0.42239511     -0.27249223
      0.14018914     -0.14913437
p              4   1.000000
      0.64737396      0.05713170
      0.16785440      0.28574555
      0.05917387      0.55178731
      0.02355814      0.26323150
 
          71   0
s              4   1.000000
      8.30899413      0.05675242
      1.52044356      0.26014135
      0.42239587      0.53284611
      0.14018939      0.29162544
s              7   1.000000
      0.92936822     -0.06732836
      0.05643440      0.66945480
      0.02166600      0.51461417
      8.30899413     -0.02902259
      1.52044356     -0.13303353
      0.42239587     -0.27249186
      0.14018939     -0.14913416
p              4   1.000000
      0.64737396      0.05713170
      0.16785440      0.28574555
      0.05917387      0.55178731
      0.02355814      0.26323150
 
          72   0
s              4   1.000000
      8.30906818      0.05675242
      1.52045711      0.26014135
      0.42239963      0.53284611
      0.14019064      0.29162544
s              7   1.000000
      0.92936822     -0.06732827
      0.05643440      0.66945386
      0.02166600      0.51461345
      8.30906818     -0.02902239
      1.52045711     -0.13303263
      0.42239963     -0.27249000
      0.14019064     -0.14913315
p              4   1.000000
      0.64737396      0.05713170
      0.16785440      0.28574555
      0.05917387      0.55178731
      0.02355814      0.26323150
 
          73   0
s              4   1.000000
      8.30977193      0.05675242
      1.52058588      0.26014135
      0.42243541      0.53284611
      0.14020251      0.29162544
s              7   1.000000
      0.92936822     -0.06732736
      0.05643440      0.66944485
      0.02166600      0.51460652
      8.30977193     -0.02902051
      1.52058588     -0.13302400
      0.42243541     -0.27247232
      0.14020251     -0.14912347
p              4   1.000000
      0.64737396      0.05713170
      0.16785440      0.28574555
      0.05917387      0.55178731
      0.02355814      0.26323150
 
          74   0
s              4   1.000000
      8.30997697      0.05675242
      1.52062340      0.26014135
      0.42244583      0.53284611
      0.14020597      0.29162544
s              7   1.000000
      0.92936822     -0.06732710
      0.05643440      0.66944222
      0.02166600      0.51460451
      8.30997697     -0.02901996
      1.52062340     -0.13302148
      0.42244583     -0.27246718
      0.14020597     -0.14912065
p              4   1.000000
      0.64737396      0.05713170
      0.16785440      0.28574555
      0.05917387      0.55178731
      0.02355814      0.26323150
 
          75   0
s              4   1.000000
      8.30978008      0.05675242
      1.52058738      0.26014135
      0.42243582      0.53284611
      0.14020265      0.29162544
s              7   1.000000
      0.92936822     -0.06732735
      0.05643440      0.66944474
      0.02166600      0.51460645
      8.30978008     -0.02902048
      1.52058738     -0.13302390
      0.42243582     -0.27247212
      0.14020265     -0.14912336
p              4   1.000000
      0.64737396      0.05713170
      0.16785440      0.28574555
      0.05917387      0.55178731
      0.02355814      0.26323150
 
          76   0
s              4   1.000000
      8.30885547      0.05675242
      1.52041818      0.26014135
      0.42238882      0.53284611
      0.14018705      0.29162544
s              7   1.000000
      0.92936822     -0.06732854
      0.05643440      0.66945657
      0.02166600      0.51461554
      8.30885547     -0.02902296
      1.52041818     -0.13303524
      0.42238882     -0.27249534
      0.14018705     -0.14913607
p              4   1.000000
      0.64737396      0.05713170
      0.16785440      0.28574555
      0.05917387      0.55178731
      0.02355814      0.26323150
 
          77   0
s              4   1.000000
      8.30874199      0.05675242
      1.52039742      0.26014135
      0.42238305      0.53284611
      0.14018514      0.29162543
s              7   1.000000
      0.92936822     -0.06732869
      0.05643440      0.66945802
      0.02166600      0.51461666
      8.30874199     -0.02902326
      1.52039742     -0.13303663
      0.42238305     -0.27249819
      0.14018514     -0.14913763
p              4   1.000000
      0.64737396      0.05713170
      0.16785440      0.28574555
      0.05917387      0.55178731
      0.02355814      0.26323150
 
          78   0
s              4   1.000000
      8.30887861      0.05675242
      1.52042242      0.26014135
      0.42239000      0.53284611
      0.14018744      0.29162544
s              7   1.000000
      0.92936822     -0.06732851
      0.05643440      0.66945628
      0.02166600      0.51461532
      8.30887861     -0.02902290
      1.52042242     -0.13303495
      0.42239000     -0.27249476
      0.14018744     -0.14913575
p              4   1.000000
      0.64737396      0.05713170
      0.16785440      0.28574555
      0.05917387      0.55178731
      0.02355814      0.26323150
 
          79   0
s              4   1.000000
      8.31004859      0.05675242
      1.52063651      0.26014135
      0.42244947      0.53284611
      0.14020718      0.29162544
s              7   1.000000
      0.92936822     -0.06732701
      0.05643440      0.66944131
      0.02166600      0.51460381
      8.31004859     -0.02901977
      1.52063651     -0.13302061
      0.42244947     -0.27246538
      0.14020718     -0.14911967
p              4   1.000000
      0.64737396      0.05713170
      0.16785440      0.28574555
      0.05917387      0.55178731
      0.02355814      0.26323150
 
          80   0
s              4   1.000000
      8.30970559      0.05675242
      1.52057374      0.26014135
      0.42243204      0.53284611
      0.14020140      0.29162544
s              7   1.000000
      0.92936822     -0.06732745
      0.05643440      0.66944570
      0.02166600      0.51460719
      8.30970559     -0.02902068
      1.52057374     -0.13302481
      0.42243204     -0.27247399
      0.14020140     -0.14912438
p              4   1.000000
      0.64737396      0.05713170
      0.16785440      0.28574555
      0.05917387      0.55178731
      0.02355814      0.26323150
 
          81   0
s              4   1.000000
      8.30892269      0.05675242
      1.52043048      0.26014135
      0.42239224      0.53284611
      0.14018819      0.29162544
s              7   1.000000
      0.92936822     -0.06732846
      0.05643440      0.66945571
      0.02166600      0.51461489
      8.30892269     -0.02902278
      1.52043048     -0.13303441
      0.42239224     -0.27249366
      0.14018819     -0.14913514
p              4   1.000000
      0.64737396      0.05713170
      0.16785440      0.28574555
      0.05917387      0.55178731
      0.02355814      0.26323150
 
          82   0
s              4   1.000000
      8.30881485      0.05675242
      1.52041075      0.26014135
      0.42238676      0.53284611
      0.14018637      0.29162544
s              7   1.000000
      0.92936822     -0.06732860
      0.05643440      0.66945709
      0.02166600      0.51461594
      8.30881485     -0.02902307
      1.52041075     -0.13303573
      0.42238676     -0.27249636
      0.14018637     -0.14913662
p              4   1.000000
      0.64737396      0.05713170
      0.16785440      0.28574555
      0.05917387      0.55178731
      0.02355814      0.26323150
 
          83   0
s              4   1.000000
      8.30891048      0.05675242
      1.52042825      0.26014135
      0.42239162      0.53284611
      0.14018798      0.29162544
s              7   1.000000
      0.92936822     -0.06732847
      0.05643440      0.66945587
      0.02166600      0.51461499
      8.30891048     -0.02902281
      1.52042825     -0.13303456
      0.42239162     -0.27249396
      0.14018798     -0.14913531
p              4   1.000000
      0.64737396      0.05713170
      0.16785440      0.28574555
      0.05917387      0.55178731
      0.02355814      0.26323150
 
          84   0
s              4   1.000000
      8.30954076      0.05675242
      1.52054358      0.26014135
      0.42242366      0.53284611
      0.14019861      0.29162544
s              7   1.000000
      0.92936822     -0.06732766
      0.05643440      0.66944781
      0.02166600      0.51460881
      8.30954076     -0.02902112
      1.52054358     -0.13302683
      0.42242366     -0.27247813
      0.14019861     -0.14912665
p              4   1.000000
      0.64737396      0.05713170
      0.16785440      0.28574555
      0.05917387      0.55178731
      0.02355814      0.26323150
 
          85   0
s              4   1.000000
      8.31019939      0.05675242
      1.52066410      0.26014135
      0.42245714      0.53284611
      0.14020973      0.29162543
s              7   1.000000
      0.92936822     -0.06732681
      0.05643440      0.66943939
      0.02166600      0.51460232
      8.31019939     -0.02901936
      1.52066410     -0.13301876
      0.42245714     -0.27246159
      0.14020973     -0.14911760
p              4   1.000000
      0.64737396      0.05713170
      0.16785440      0.28574555
      0.05917387      0.55178731
      0.02355814      0.26323150
 
 [MO]
 Sym= Hole
 Ene= -0.9736311    
 Spin= Alpha
 Occup= 0
           1 -3.1665287E-03
           2 -4.0237966E-04
           3 -5.4070666E-03
           4  1.8373240E-03
           5 -2.7829653E-04
           6  2.9974544E-04
           7 -2.0316953E-03
           8 -2.9626285E-04
           9  4.5375931E-03
          10 -3.5666008E-03
          11  4.7433176E-03
          12 -4.2470507E-03
          13 -2.0862403E-03
          14 -3.5760817E-04
          15  7.6804403E-04
          16  6.5079206E-05
          17 -1.9781233E-03
          18  2.6954859E-03
          19 -2.5550856E-03
          20  1.2264964E-03
          21 -6.5996283E-04
          22  5.5033888E-04
          23 -8.2833500E-04
          24 -3.0043785E-04
          25  1.1925242E-03
          26 -1.0918265E-03
          27  1.2017055E-03
          28  1.5869964E-03
          29 -2.1223105E-03
          30  7.1322123E-05
          31 -3.1100781E-04
          32 -5.4493203E-04
          33 -4.6155509E-03
          34 -2.4338009E-02
          35 -5.5436459E-03
          36  1.5213266E-02
          37  2.1273424E-03
          38 -6.5556203E-04
          39  1.9921716E-03
          40  3.5908495E-04
          41 -2.7858006E-04
          42  5.9179202E-02
          43 -2.3752120E-03
          44 -3.7250638E-02
          45  3.4034494E-04
          46 -2.6779629E-03
          47 -5.2701350E-04
          48  3.1468938E-03
          49  4.8636291E-03
          50  4.1363131E-02
          51  5.2632578E-03
          52 -1.3562914E-02
          53 -3.2441190E-04
          54 -1.8185973E-03
          55 -5.9053971E-04
          56  7.4743776E-04
          57 -1.8085876E-02
          58 -5.5188976E-02
          59 -9.5112361E-03
          60 -6.1590392E-03
          61  1.1085430E-02
          62  5.5288323E-03
          63  3.2007804E-03
          64 -3.1137668E-05
          65  1.2650022E-03
          66 -2.4138762E-02
          67  1.8611780E-03
          68  3.3442885E-02
          69  2.2029255E-03
          70  3.5706880E-03
          71 -2.6560214E-04
          72 -7.0011416E-03
          73 -1.1643030E-02
          74  4.5508217E-02
          75  3.3820041E-02
          76 -0.1935856    
          77  5.2150604E-03
          78  2.4556115E-04
          79  1.1687310E-03
          80  1.6099021E-02
          81 -5.5081225E-03
          82  7.7194348E-02
          83  8.4402092E-02
          84 -0.3528413    
          85  2.1835763E-03
          86  3.2041161E-04
          87 -2.5026258E-03
          88  1.2883608E-02
          89  5.5653887E-04
          90 -8.7729029E-02
          91 -0.1401858    
          92  0.1494386    
          93 -1.1127754E-04
          94  6.1227344E-03
          95  1.0556699E-02
          96 -1.1043473E-02
          97 -1.8710000E-02
          98 -6.7233860E-02
          99 -0.1515647    
         100  7.7051014E-02
         101  1.0179395E-02
         102  8.8819070E-04
         103  5.5575273E-03
         104 -5.3520943E-04
         105  8.1885243E-03
         106  4.1988079E-02
         107  8.1511430E-02
         108 -5.5002421E-02
         109 -2.5739353E-03
         110 -1.1794432E-03
         111 -6.5124738E-03
         112  5.6990916E-03
         113  1.1023767E-03
         114  8.8150136E-02
         115  0.1459825    
         116 -0.1334607    
         117  3.9014421E-04
         118 -2.8613785E-03
         119 -1.2664169E-02
         120  1.2728004E-02
         121  6.0086139E-03
         122 -5.4527942E-02
         123 -9.5863916E-02
         124  0.1062803    
         125 -2.2888340E-03
         126  7.3182881E-03
         127  1.1801802E-02
         128 -1.6650252E-02
         129 -2.7346225E-03
         130  1.1027848E-02
         131  1.0031681E-02
         132 -8.7398780E-04
         133  2.7953032E-03
         134 -6.7574247E-03
         135 -7.9937028E-03
         136  4.6586283E-03
         137  1.2325168E-02
         138 -9.1869310E-03
         139 -3.6421340E-02
         140  8.3433567E-03
         141 -8.1555769E-03
         142  6.6812062E-03
         143  5.8239773E-03
         144  5.6577586E-03
         145  3.9515183E-03
         146 -3.9019687E-03
         147  6.7834510E-04
         148 -6.2794434E-03
         149 -5.3533204E-03
         150  8.2092546E-03
         151  4.0795370E-03
         152  1.2162339E-03
         153  2.2603795E-03
         154  8.7076734E-04
         155 -5.1543582E-03
         156  3.9344821E-03
         157 -1.3237448E-03
         158 -1.1759149E-03
         159  1.4224460E-03
         160  1.5670825E-04
         161  8.4028725E-04
         162  3.1195511E-03
         163  1.2480521E-02
         164 -1.0411683E-02
         165  3.8231126E-04
         166 -5.8660272E-04
         167 -5.2532949E-04
         168  9.5045182E-04
         169  2.6222338E-05
         170  9.0176603E-05
         171 -1.6999496E-03
         172  1.3334317E-03
         173  1.2651390E-03
         174 -6.4614078E-04
         175 -1.0598151E-03
         176 -5.6555122E-04
         177  1.0640380E-04
         178 -9.3535968E-04
         179 -4.9456167E-03
         180  3.9158743E-03
         181  4.1474708E-04
         182 -5.3531630E-04
         183  3.0440907E-04
         184 -5.7240820E-04
         185 -1.3291063E-04
         186 -1.9406174E-04
         187 -1.0755183E-03
         188  1.0095155E-03
         189  1.0695080E-04
         190 -8.3822181E-04
         191  6.6965935E-04
         192 -1.9281462E-04
         193  4.6087187E-04
         194  8.1156503E-04
         195  5.1684310E-03
         196 -4.5303539E-03
         197 -7.8663247E-04
         198 -7.9436792E-04
         199  3.8982803E-04
         200  8.8029083E-05
         201 -2.0714401E-04
         202  2.0232708E-03
         203  3.9755264E-03
         204 -3.1381617E-03
         205 -3.6874489E-04
         206 -8.3194225E-04
         207 -3.5419414E-04
         208  8.7888760E-04
         209  1.1296734E-03
         210 -3.3718615E-03
         211 -8.7559484E-03
         212  6.7097479E-03
         213 -8.6433938E-05
         214  6.4786617E-04
         215 -1.3111373E-04
         216  5.8551988E-04
         217  1.7456239E-03
         218 -6.7698513E-03
         219 -1.2604290E-02
         220  9.7425915E-03
         221 -1.7360887E-04
         222  1.9272417E-03
         223 -4.8104223E-04
         224  3.1909972E-04
         225 -1.1803574E-03
         226  4.3332647E-03
         227 -5.2459319E-03
         228  1.4866029E-03
         229  7.6418498E-04
         230  8.0098596E-04
         231  3.0432688E-05
         232  4.8915629E-04
         233  7.7461166E-04
         234 -5.7468540E-04
         235  4.7610837E-04
         236  2.3441187E-03
         237 -6.2648836E-04
         238  1.6385620E-03
         239  1.7533997E-05
         240 -8.3159376E-04
         241 -5.8391131E-04
         242  1.2309386E-03
         243  8.9414377E-04
         244 -1.4100160E-03
         245  6.3885521E-04
         246  9.1149457E-05
         247 -7.1123021E-04
         248  9.7039004E-04
         249 -1.5988776E-04
         250  8.1340887E-04
         251  1.6799248E-03
         252 -1.2113515E-03
         253  6.4405944E-04
         254 -9.3335402E-04
         255 -2.5285900E-04
         256  7.0177641E-04
         257 -1.0694833E-03
         258  1.6394223E-03
         259 -2.0561777E-03
         260  4.4526142E-04
         261  1.4952031E-03
         262 -6.8604574E-04
         263 -4.6639445E-05
         264  1.1251639E-03
         265 -8.6284904E-03
         266  6.4511098E-02
         267  8.7287165E-02
         268 -6.4369269E-02
         269  4.0814048E-03
         270 -3.3983104E-03
         271 -5.5393372E-03
         272  2.1611454E-03
         273  2.1652604E-02
         274 -0.1038158    
         275 -0.1261688    
         276  8.0849349E-02
         277 -1.1153888E-02
         278  4.5086448E-03
         279  4.6910765E-03
         280  3.7711026E-04
         281  1.8449316E-02
         282  3.3260219E-02
         283  1.5600690E-02
         284 -0.1019884    
         285 -8.4105926E-03
         286  5.6159459E-03
         287  4.8203911E-03
         288  7.6478731E-04
         289 -3.7716420E-03
         290 -0.1152820    
         291 -0.1160614    
         292  0.4000393    
         293  1.1727804E-04
         294  6.2607396E-03
         295  7.3654777E-03
         296 -1.5169130E-02
         297  6.5133948E-04
         298 -7.1759819E-04
         299  1.5069831E-02
         300 -8.8097289E-02
         301 -8.2303269E-04
         302  1.1353603E-03
         303 -1.2707036E-03
         304  7.8073204E-03
         305  1.9990567E-02
         306 -5.6469899E-02
         307 -1.2598437E-02
         308 -0.1491633    
         309 -1.0163870E-02
         310  3.7409144E-03
         311  1.8760827E-03
         312  3.3764429E-03
         313 -6.0590231E-03
         314  7.9250522E-03
         315  5.9829103E-03
         316  2.9126182E-02
         317  2.0981391E-03
         318 -4.0620886E-04
         319 -1.3868299E-03
         320 -3.0992655E-03
         321  1.3508099E-04
         322  3.1455606E-02
         323 -1.8765394E-02
         324  0.1548625    
         325  1.7501259E-05
         326  9.8723700E-05
         327  1.0867355E-03
         328 -7.0973551E-03
         329  6.5455018E-03
         330  9.8146135E-03
         331 -7.8711752E-03
         332  8.8125784E-03
         333 -2.6418120E-03
         334 -1.1635420E-03
         335  2.1664621E-03
         336 -2.3800032E-03
         337 -1.8405166E-02
         338 -7.7697605E-02
         339  2.3154223E-02
         340 -0.1518119    
         341  8.8841999E-03
         342  4.0961830E-03
         343 -9.5987547E-04
         344  3.6156143E-03
         345 -1.1363393E-03
         346 -0.1040224    
         347 -9.3428254E-02
         348  0.3982497    
         349  2.1645266E-03
         350  6.9001578E-03
         351  9.6983761E-03
         352 -2.4134940E-02
         353 -1.3585384E-03
         354  2.5603216E-02
         355 -2.6764421E-02
         356 -7.9340979E-02
         357  5.5329263E-04
         358 -1.7585271E-03
         359  2.4946025E-03
         360  3.5831211E-03
         361 -2.8365169E-02
         362  1.0158762E-02
         363 -0.1176201    
         364 -8.6156584E-02
         365  1.5220110E-02
         366 -1.1322489E-04
         367  6.5451581E-03
         368  1.2512928E-03
         369  8.7943003E-03
         370  6.4382404E-03
         371  2.0054040E-02
         372  1.6743489E-02
         373 -3.6304931E-03
         374 -2.0276988E-03
         375 -2.3037614E-03
         376 -2.1095078E-03
         377 -9.1799739E-06
         378 -4.2989496E-02
         379  7.4884824E-02
         380  0.1074592    
         381 -3.9236463E-04
         382  1.2328151E-03
         383 -1.7305042E-03
         384 -5.5114632E-03
         385 -1.0524242E-02
         386 -2.0543113E-02
         387  1.3600966E-02
         388  6.2014577E-03
         389  4.3178494E-03
         390  3.3256526E-03
         391 -5.3254765E-04
         392  4.0885734E-05
         393  2.9459232E-02
         394  6.8133235E-02
         395 -0.1065607    
         396 -6.6380776E-02
         397 -1.5438678E-02
         398 -3.5604036E-03
         399  6.5907203E-03
         400  3.9146547E-04
         401  1.2957471E-02
         402 -9.0912603E-02
         403  2.5062190E-02
         404  2.2124896E-02
         405 -6.3210507E-03
         406  2.8663904E-03
         407 -7.3438594E-03
         408 -4.1261129E-04
         409  3.5531519E-04
         410 -1.3947223E-03
         411  4.0750285E-03
         412 -3.2463297E-04
         413 -3.5038420E-03
         414 -1.1965119E-02
         415 -6.6926889E-04
         416 -5.6207081E-04
         417 -1.2852486E-03
         418 -9.6157292E-04
         419  7.0694839E-03
         420  2.3290329E-03
         421 -3.7004550E-03
         422  6.0594468E-03
         423  4.3481765E-03
         424  1.2259007E-02
         425  1.6716991E-03
         426 -7.0871282E-03
         427  1.6028171E-03
         428  3.7255228E-04
         429 -1.3853764E-02
         430  4.3080730E-04
         431  2.5686999E-03
         432  3.2638807E-03
         433 -2.0765106E-03
         434 -5.7230042E-03
         435  2.9556649E-03
         436 -7.1589202E-03
         437 -2.9284987E-03
         438  1.4380031E-03
         439 -3.3534508E-02
         440  8.9524938E-03
         441 -4.7339480E-03
         442 -4.7673234E-03
         443 -1.2269409E-02
         444 -5.6926557E-03
         445 -5.2152347E-04
         446  4.1610232E-04
         447  3.6520051E-04
         448  1.6633681E-03
         449 -6.7952308E-03
         450 -6.6741323E-04
         451 -2.5302384E-03
         452 -3.3225431E-03
         453 -1.1637717E-03
         454 -4.3063327E-03
         455 -3.7892332E-04
         456 -3.7731888E-04
         457 -3.5897357E-04
         458  2.8095699E-03
         459 -3.4493578E-03
         460 -2.8655860E-03
         461  1.0995775E-02
         462  8.6041791E-03
         463 -7.3356540E-03
         464 -6.5956833E-03
         465  1.1893290E-03
         466 -1.9309467E-03
         467  4.4854081E-04
         468  9.2265068E-04
         469  1.2267274E-05
         470 -1.1153505E-04
         471 -2.1047816E-03
         472 -3.8471268E-04
         473  2.2654564E-04
         474 -1.4394496E-04
         475  7.1954099E-05
         476 -5.3755241E-04
         477  3.9661207E-04
         478  3.7306370E-04
         479  1.0175807E-04
         480  2.5261016E-04
         481 -1.3963660E-04
         482 -3.0658710E-05
         483  1.8054216E-04
         484  4.6643785E-05
         485 -4.9446833E-05
         486  3.4967173E-04
         487  2.8823368E-04
         488 -1.3276021E-04
         489  7.4268214E-04
         490  1.5037525E-03
         491 -2.9160450E-03
         492 -1.0461468E-03
         493 -7.6082448E-05
         494  4.2902003E-04
         495  1.9254420E-03
         496 -3.1841234E-03
         497 -1.7212566E-03
         498  4.2289565E-03
         499  6.8263453E-04
         500 -1.1451660E-03
         501  1.0246356E-03
         502  3.8165422E-04
         503 -1.2290219E-03
         504  6.5792410E-04
         505  3.9735652E-04
         506  6.1895647E-05
         507 -3.9626961E-04
         508  4.2661178E-04
         509 -3.9436735E-04
         510  2.1760723E-05
         511 -9.1111800E-04
         512 -7.7561905E-05
         513 -2.8007457E-04
         514  1.3402174E-02
         515  1.9983940E-04
         516  2.7248350E-03
         517  6.9713467E-03
         518 -6.0782176E-03
         519 -8.5278396E-03
         520 -1.4064052E-03
         521  2.3696932E-03
         522 -8.1167929E-03
         523  2.0888553E-03
         524 -8.8472040E-03
         525  5.0192722E-04
         526 -6.4703049E-03
         527  9.5731899E-04
         528 -5.1050005E-03
         529  1.1085407E-02
         530 -2.0154145E-04
         531  1.2828776E-03
         532 -7.0165249E-04
         533  2.7843360E-03
         534  2.3197780E-04
         535  5.5436412E-04
         536  2.8216972E-03
         537 -1.5552882E-03
         538  1.0650096E-02
         539 -1.2614459E-02
         540  1.0644225E-03
         541  1.5376449E-03
         542  6.8715063E-04
         543  2.9679835E-03
         544  8.6463671E-03
         545  1.3794391E-03
         546 -9.4814831E-04
         547 -5.8968100E-03
         548 -3.4015961E-03
         549  1.2803911E-02
         550  7.8912894E-04
         551  5.3528510E-03
         552 -6.8700681E-03
         553  4.5990129E-03
         554 -1.7047701E-02
         555 -3.8498483E-04
         556 -1.4715946E-03
         557  1.3752704E-03
         558  6.2353641E-04
         559 -6.7880261E-04
         560 -1.1357637E-03
         561 -3.4788342E-03
         562  4.4107228E-03
         563  6.3379887E-03
         564  1.6434621E-02
         565 -1.5389109E-03
         566  6.5460808E-05
         567  2.1516616E-03
         568  2.5070968E-04
         569 -1.1582095E-02
         570 -3.7961183E-03
         571 -9.2810597E-03
         572 -4.9016988E-03
         573 -7.2530023E-04
         574 -1.1422534E-02
         575 -3.6032696E-03
         576  5.3613674E-04
         577 -7.4170576E-03
         578  1.7166974E-03
 Sym= Particle
 Ene= -0.9736311    
 Spin= Alpha
 Occup= 2
           1  1.5348532E-02
           2  1.2870055E-02
           3  2.6822122E-02
           4  1.7960718E-03
           5 -1.9166227E-02
           6 -2.9351888E-03
           7 -1.2764768E-02
           8  4.5120432E-03
           9 -3.9890986E-03
          10  3.6626447E-02
          11 -1.5075612E-03
          12 -1.5523753E-02
          13  4.1074255E-03
          14  8.5571408E-03
          15  4.7809938E-03
          16 -3.4772253E-03
          17  5.5093206E-03
          18 -1.5424031E-02
          19 -3.3544949E-03
          20 -8.7671522E-03
          21 -1.0907001E-02
          22  1.4070272E-03
          23 -4.2636301E-03
          24  7.5430367E-03
          25 -2.2768594E-02
          26  2.5546797E-02
          27 -2.4765063E-02
          28 -6.8561542E-03
          29  2.4578635E-02
          30 -1.7586600E-02
          31  1.1102430E-02
          32 -5.1105963E-03
          33  3.7193070E-03
          34  0.2217448    
          35 -4.9973493E-03
          36 -0.1122385    
          37  9.3664817E-04
          38 -6.6245295E-02
          39  5.0328355E-03
          40  3.4873109E-02
          41 -1.6940817E-03
          42 -0.3425250    
          43  1.9177012E-02
          44  0.1803019    
          45  1.7165252E-03
          46  8.0911420E-02
          47 -4.2140135E-03
          48 -4.5473479E-02
          49 -3.3845950E-03
          50  6.6254273E-02
          51 -6.5260571E-03
          52 -3.4574512E-02
          53  2.4273589E-03
          54 -9.7167278E-03
          55  1.4081344E-03
          56  5.1350277E-03
          57  1.0612553E-02
          58  0.3191978    
          59 -1.7381603E-02
          60 -0.1378650    
          61 -5.9826514E-03
          62 -9.3908682E-02
          63  6.7624166E-03
          64  3.7137825E-02
          65  2.8075594E-03
          66 -0.3832348    
          67  3.0298334E-02
          68  0.1972710    
          69  2.3884883E-03
          70  0.1419386    
          71 -1.2841607E-02
          72 -7.3116489E-02
          73 -1.2403114E-02
          74 -1.2565525E-02
          75 -4.6292141E-02
          76  0.1608106    
          77  1.0732763E-02
          78 -2.2509789E-02
          79  2.0394651E-02
          80 -6.0412027E-02
          81  2.2980111E-02
          82  2.2997104E-02
          83  3.7251826E-02
          84 -0.2760587    
          85 -1.2746755E-02
          86 -4.9770316E-03
          87  1.0671062E-02
          88  0.1041732    
          89 -8.1766928E-03
          90  6.1950974E-02
          91  7.5698040E-02
          92 -6.8466350E-02
          93  6.6142767E-03
          94 -1.6055990E-02
          95 -1.7879982E-02
          96  2.1006823E-02
          97 -1.2299136E-02
          98 -5.1786229E-02
          99 -0.1061320    
         100  5.2085664E-02
         101  1.2907366E-02
         102  1.9469833E-02
         103  2.7734235E-02
         104 -1.0857997E-02
         105  9.0276805E-04
         106 -6.1735851E-03
         107 -8.3042681E-03
         108  1.1457900E-02
         109  2.5916016E-03
         110 -6.8265595E-04
         111 -5.3185108E-03
         112  1.2416167E-03
         113  7.0171384E-04
         114  5.6871708E-02
         115  9.4221704E-02
         116 -8.6340688E-02
         117  6.3454680E-04
         118 -1.1522877E-02
         119 -2.6587667E-02
         120  2.6282648E-02
         121  2.6601152E-03
         122 -1.9968970E-02
         123 -3.6785036E-02
         124  4.1198980E-02
         125 -3.4627337E-03
         126  1.3562984E-02
         127  1.6497571E-02
         128 -1.8045070E-02
         129 -2.5519626E-03
         130  3.3766993E-03
         131 -3.1646914E-04
         132  5.2905525E-03
         133  1.8600444E-03
         134 -8.8145491E-04
         135 -2.1050016E-03
         136 -7.0004136E-04
         137  6.0421224E-03
         138 -3.0574838E-03
         139 -1.2361616E-02
         140  3.9619328E-03
         141 -5.2101994E-03
         142  1.4689993E-03
         143  6.8041100E-03
         144  3.4426281E-04
         145  1.7995327E-03
         146 -1.5055455E-03
         147 -3.2076554E-03
         148 -2.1509898E-03
         149 -3.0215583E-03
         150  2.7868075E-03
         151  4.6711513E-03
         152  6.9587008E-04
         153  1.0412937E-03
         154  2.4343778E-04
         155 -4.1427583E-04
         156  1.7563187E-04
         157 -1.0519290E-03
         158 -1.5171310E-03
         159  1.6639857E-04
         160  2.2548191E-04
         161 -3.8844720E-04
         162 -3.3520459E-04
         163  5.3332932E-04
         164 -4.6976790E-04
         165  1.3278082E-03
         166 -2.5777235E-03
         167 -1.7393547E-03
         168  1.3331104E-03
         169  8.7088352E-04
         170 -9.5980387E-04
         171 -6.8254874E-04
         172  3.6873890E-04
         173 -1.3434322E-03
         174  7.8016426E-04
         175 -1.2188507E-03
         176 -9.4626221E-04
         177  4.4871811E-04
         178  6.1597867E-04
         179  1.0493217E-03
         180 -5.8261148E-04
         181 -1.1591900E-03
         182  2.1955923E-06
         183 -4.6529190E-04
         184  4.6837717E-04
         185  5.7837775E-04
         186 -7.7310612E-04
         187 -4.5707572E-04
         188  5.1287824E-04
         189 -1.3700292E-03
         190  1.3746185E-03
         191  5.7830138E-04
         192 -1.9005490E-04
         193  1.5443008E-04
         194 -7.1628405E-05
         195 -9.3189243E-04
         196  1.1395742E-03
         197 -1.9872093E-03
         198  1.7694691E-03
         199  2.9363441E-03
         200 -1.0398488E-04
         201  2.1833109E-03
         202 -2.2465193E-03
         203  8.8328490E-04
         204 -1.3585294E-03
         205 -3.9820634E-03
         206  3.9902302E-03
         207  3.0978071E-03
         208 -1.9886340E-03
         209  4.7141139E-04
         210 -1.1101989E-03
         211 -2.2637846E-03
         212  1.4209572E-03
         213 -2.1729304E-03
         214  2.2248707E-03
         215  2.5289020E-04
         216 -5.3011887E-03
         217  8.7151094E-04
         218 -2.0721089E-03
         219 -2.5892323E-03
         220  2.1787526E-03
         221 -1.1052819E-03
         222 -5.5534918E-05
         223  7.7265518E-04
         224 -2.1010516E-03
         225  5.2671542E-04
         226  9.0225326E-04
         227  1.4302814E-03
         228 -1.4047665E-03
         229 -4.6476861E-04
         230 -2.3975682E-03
         231  3.0105170E-03
         232  1.8044631E-03
         233  5.8321044E-04
         234  1.3974855E-04
         235 -8.7658834E-04
         236  2.8147183E-03
         237  6.9424670E-05
         238  8.1586605E-04
         239  5.3610238E-03
         240 -1.7154603E-03
         241  1.1436583E-04
         242 -9.4210129E-04
         243 -2.0591158E-03
         244  2.1373723E-03
         245 -4.6037388E-04
         246  2.0367936E-03
         247  1.7924461E-03
         248 -1.5304170E-03
         249  1.8772829E-04
         250  7.1038055E-04
         251  2.0168985E-03
         252 -1.7576328E-03
         253 -4.1931527E-04
         254 -5.4124708E-04
         255 -1.1621706E-04
         256  9.4049639E-04
         257  3.7654539E-04
         258 -3.1656280E-04
         259 -7.5384928E-04
         260  5.2731554E-04
         261 -9.0349982E-05
         262 -1.1093598E-03
         263 -4.1227799E-04
         264  1.2081664E-03
         265 -8.0521889E-03
         266  1.4698603E-03
         267 -1.2132074E-02
         268  8.5444264E-03
         269  5.8778734E-03
         270  2.2146518E-03
         271  5.5363367E-04
         272 -7.3822855E-04
         273  1.3736806E-02
         274 -7.0882455E-02
         275 -9.7193509E-02
         276  5.1817294E-02
         277 -4.9267076E-03
         278  2.1641869E-02
         279  2.9310426E-02
         280 -1.2446566E-02
         281 -1.0424947E-03
         282 -1.8350221E-02
         283 -6.5250173E-03
         284  0.1350088    
         285  2.4314215E-03
         286  8.0410941E-03
         287  4.8657958E-03
         288 -3.5706956E-02
         289  9.8719634E-03
         290 -5.4996781E-02
         291 -5.0294891E-02
         292  0.1156547    
         293 -9.1216434E-04
         294  2.7037915E-02
         295  1.2357586E-02
         296 -1.7919755E-02
         297 -8.2249213E-03
         298  1.6515715E-02
         299  2.8623657E-03
         300  8.0037206E-02
         301  6.4852503E-03
         302 -1.7409486E-03
         303 -2.6567404E-03
         304 -1.9065849E-02
         305  9.6503096E-03
         306 -2.1400666E-02
         307 -5.3669871E-03
         308 -6.0472939E-02
         309 -6.0953493E-03
         310  4.6370048E-03
         311  2.1267403E-03
         312  1.8064586E-02
         313 -4.6887714E-03
         314 -1.2360499E-02
         315  9.7222831E-03
         316 -3.7931170E-02
         317  1.5618626E-03
         318  3.2686978E-03
         319 -2.0629403E-03
         320  6.1447597E-03
         321 -2.4881854E-04
         322  1.9095896E-02
         323 -1.0102976E-02
         324  8.4138446E-02
         325 -9.6580299E-04
         326 -2.7105147E-03
         327  3.9201239E-03
         328 -1.5288773E-02
         329 -3.5360816E-04
         330  3.3051992E-04
         331  1.4030964E-03
         332 -6.6597122E-03
         333  7.7585963E-04
         334 -1.6180099E-03
         335  5.2129634E-04
         336 -2.3134223E-03
         337 -5.5137342E-03
         338 -3.1548582E-02
         339  9.4642490E-03
         340 -8.2891434E-02
         341  6.1743916E-03
         342  9.1085024E-03
         343  5.9394795E-04
         344  1.4383915E-02
         345 -1.7381031E-02
         346  4.1656073E-02
         347  0.1041192    
         348 -0.2471963    
         349  2.1069428E-02
         350 -1.0777124E-02
         351 -5.3177334E-02
         352  6.8113282E-02
         353  4.1293241E-03
         354  6.2405467E-02
         355 -0.1144563    
         356 -0.1389279    
         357 -2.0876154E-03
         358 -2.4115732E-02
         359  3.9802659E-02
         360  4.2347852E-02
         361  1.5656482E-02
         362 -2.4409782E-02
         363  0.1035282    
         364  8.0641150E-02
         365 -1.4586184E-02
         366  4.8113312E-03
         367 -3.1489659E-02
         368 -1.3331209E-02
         369 -3.0609863E-03
         370 -2.1305017E-02
         371  3.4769431E-02
         372  4.4286001E-02
         373  3.9553465E-04
         374  2.8260078E-03
         375 -3.5332390E-03
         376 -5.5975118E-03
         377 -7.1498187E-04
         378  5.2633330E-02
         379 -9.6663907E-02
         380 -0.1298903    
         381  1.7425128E-03
         382 -9.9750776E-03
         383  1.8911781E-02
         384  2.8615352E-02
         385  7.5223027E-03
         386 -6.7336364E-03
         387  3.3029772E-02
         388  4.2951096E-02
         389 -1.3963350E-03
         390  1.7003248E-03
         391 -6.2759193E-03
         392 -7.9772845E-03
         393 -1.9649938E-02
         394 -5.4954879E-02
         395  9.6311130E-02
         396  8.0032609E-02
         397  1.5527765E-02
         398  1.7302226E-02
         399 -2.3353111E-02
         400 -2.1642691E-02
         401 -1.6398156E-02
         402  0.1378320    
         403 -2.4398603E-02
         404 -5.4250848E-02
         405  1.5441488E-02
         406 -4.1725390E-02
         407  1.0838836E-02
         408  1.6426310E-02
         409  2.0649233E-03
         410 -2.2092299E-03
         411 -8.1334762E-02
         412  3.1181243E-03
         413  4.0065818E-02
         414  6.3407100E-03
         415 -1.8472081E-03
         416  1.0834034E-02
         417 -1.6611731E-03
         418 -8.0640968E-03
         419 -4.5198444E-03
         420  2.1188899E-03
         421  6.5741859E-02
         422  1.0857612E-03
         423 -2.9215889E-02
         424  7.5639999E-03
         425  2.2268093E-04
         426  1.8614405E-03
         427 -2.4839632E-02
         428 -4.0304339E-03
         429 -8.2570873E-03
         430  1.8308950E-03
         431 -4.0126857E-03
         432 -5.1215268E-03
         433  2.5555803E-03
         434 -8.6814637E-04
         435  1.0456234E-03
         436 -2.6046508E-03
         437 -4.9334834E-03
         438  3.4142379E-03
         439 -1.2691674E-02
         440  5.1136590E-03
         441  4.6985917E-04
         442 -4.0580845E-03
         443 -6.0516363E-03
         444 -4.3176612E-04
         445 -1.5120100E-03
         446 -4.0153880E-04
         447 -4.6701304E-04
         448 -1.5628873E-03
         449 -2.6912082E-03
         450 -1.2994242E-03
         451 -1.5825654E-03
         452 -1.6592037E-03
         453 -1.0007655E-03
         454 -1.0141884E-03
         455 -1.4158307E-03
         456  1.0367720E-03
         457  4.9499801E-04
         458  4.1635704E-04
         459 -2.5719497E-03
         460 -1.1842119E-04
         461  3.9054172E-03
         462  7.5848983E-03
         463 -3.7285145E-03
         464 -1.7271353E-03
         465  3.6233984E-04
         466 -5.8801065E-04
         467 -2.7362697E-04
         468  4.6566285E-05
         469  2.7518076E-04
         470 -8.2810246E-04
         471 -7.9423469E-04
         472  8.2377002E-05
         473 -2.7874467E-04
         474  3.2718110E-04
         475 -3.2174587E-04
         476 -1.1279805E-03
         477  4.6283865E-04
         478  4.8342621E-04
         479 -1.1662737E-04
         480  1.3980841E-04
         481  6.7677131E-05
         482 -5.3089432E-04
         483 -3.2229326E-04
         484  2.5337026E-04
         485 -1.2945581E-03
         486  8.4760168E-04
         487 -2.4720165E-04
         488  8.2448201E-04
         489 -2.0092205E-04
         490 -2.8400829E-03
         491  7.1715931E-03
         492  8.8068191E-04
         493  2.9736890E-03
         494  1.8871613E-03
         495 -1.0627384E-03
         496  8.0920861E-04
         497 -9.2551904E-03
         498  8.2294189E-04
         499  5.3173903E-04
         500  2.1492385E-03
         501 -2.7824524E-03
         502  3.6070887E-05
         503  1.9296535E-03
         504  1.0061590E-03
         505 -7.5201438E-05
         506 -3.0065443E-05
         507 -5.0686247E-04
         508  3.0630242E-04
         509  6.2757888E-04
         510 -1.2350664E-04
         511 -1.3787453E-03
         512  1.2307845E-04
         513 -7.3507766E-04
         514  9.9196555E-03
         515 -5.0087385E-03
         516  2.1417581E-03
         517 -8.5166609E-04
         518  4.2918706E-03
         519 -2.8267892E-03
         520  1.4914586E-03
         521 -1.3834929E-02
         522 -7.3580742E-03
         523  1.3356488E-02
         524 -1.6400856E-03
         525 -3.7049956E-03
         526 -4.2042062E-03
         527  7.2756866E-03
         528 -1.7999654E-03
         529  3.8127168E-03
         530 -3.0895362E-03
         531 -5.9437472E-04
         532  3.4221392E-03
         533 -8.3659105E-03
         534 -8.0937159E-04
         535 -2.6678981E-03
         536  3.6740205E-03
         537  6.2023784E-04
         538  1.9003317E-02
         539 -3.2792687E-03
         540 -9.7814319E-04
         541 -1.6671557E-03
         542 -7.9257778E-05
         543 -3.1606012E-04
         544  2.1089970E-03
         545 -1.2057895E-03
         546 -1.5395716E-02
         547  9.0761362E-03
         548 -2.1179058E-02
         549 -1.6029130E-03
         550 -7.1401161E-04
         551  4.8361542E-03
         552  1.8580442E-02
         553  1.2721553E-02
         554  1.0762149E-02
         555 -6.2633259E-04
         556 -4.0302775E-03
         557  7.9783853E-03
         558  9.8299282E-03
         559  2.5970913E-03
         560  2.7687512E-03
         561  1.4427939E-02
         562 -2.3285996E-02
         563 -2.9652240E-02
         564 -8.4665092E-03
         565  6.3183350E-03
         566  7.4519368E-04
         567  3.6926323E-03
         568  1.0767498E-02
         569  5.9430585E-03
         570  5.3071920E-03
         571 -4.5536649E-03
         572  1.8301090E-02
         573  1.9823266E-02
         574  2.2226940E-03
         575  1.8506962E-03
         576  3.0157730E-02
         577 -5.1726564E-03
         578 -1.4009966E-02
