 [Molden Format]
 [Atoms] Angs
N       1      7      5.93000248     -1.82780936     -0.87349593
C       2      6      4.95377357     -1.28525393     -0.61807811
C       3      6      3.73602412     -0.63855265     -0.30561471
C       4      6      2.52698086     -1.24755113     -0.62166480
C       5      6      1.31733117     -0.62892681     -0.33014419
N       6      7      0.12203349     -1.24570184     -0.69157637
C       7      6     -0.30019592     -2.49843212     -0.26646704
C       8      6      0.39734322     -3.47814615      0.42152117
C       9      6     -0.28125918     -4.63450069      0.76083177
C      10      6     -1.62236557     -4.81117490      0.43393077
C      11      6     -2.32575147     -3.82900915     -0.23571857
C      12      6     -1.66475270     -2.66144997     -0.58935571
C      13      6     -2.08065140     -1.45606541     -1.25372513
C      14      6     -3.28251547     -1.03044768     -1.80051371
C      15      6     -3.33035412      0.21047835     -2.40570542
C      16      6     -2.19158786      1.00379574     -2.50784470
C      17      6     -0.98259276      0.59701847     -1.97570694
C      18      6     -0.94924793     -0.61568344     -1.30660022
C      19      6      1.31857150      0.62428290      0.32932658
N      20      7      0.12433357      1.24451728      0.68837397
C      21      6     -0.29354074      2.49891605      0.26411892
C      22      6      0.40755493      3.47704069     -0.42252554
C      23      6     -0.26692377      4.63622013     -0.76042720
C      24      6     -1.60746078      4.81720967     -0.43352457
C      25      6     -2.31449210      3.83655747      0.23449746
C      26      6     -1.65767736      2.66619997      0.58667093
C      27      6     -2.07784732      1.46163236      1.24981257
C      28      6     -3.28135069      1.03946879      1.79568561
C      29      6     -3.33344614     -0.20169520      2.40003548
C      30      6     -2.19719720     -0.99857114      2.50246487
C      31      6     -0.98662485     -0.59524212      1.97130290
C      32      6     -0.94915628      0.61761546      1.30271120
C      33      6      2.52949965      1.23887459      0.62397929
C      34      6      3.73733710      0.62564096      0.31147048
C      35      6      4.95632572      1.26812131      0.62773161
N      36      7      5.93351514      1.80766573      0.88579324
H      37      1      2.52694701     -2.19791644     -1.13459386
H      38      1      1.43338937     -3.34900640      0.69832905
H      39      1      0.24196415     -5.41431202      1.29365008
H      40      1     -2.11728683     -5.72820904      0.71595638
H      41      1     -3.36942677     -3.95926977     -0.47718094
H      42      1     -4.15741836     -1.66052433     -1.75499392
H      43      1     -4.25881325      0.56533965     -2.82682907
H      44      1     -2.24875132      1.95518144     -3.01475881
H      45      1     -0.09796727      1.20556931     -2.08862761
H      46      1      1.44324760      3.34464692     -0.69913606
H      47      1      0.25914115      5.41496622     -1.29200790
H      48      1     -2.09902269      5.73647357     -0.71416704
H      49      1     -3.35772397      3.97019083      0.47603759
H      50      1     -4.15421729      1.67235819      1.75012395
H      51      1     -4.26326204     -0.55394032      2.82035758
H      52      1     -2.25757205     -1.95004844      3.00883231
H      53      1     -0.10393584     -1.20651278      2.08462489
H      54      1      2.53129922      2.18928494      1.13682364
 [GTO]
           1   0
s              4   1.000000
     53.06357611     -0.01198412
      9.13798689     -0.05472052
      0.73427624      0.58055871
      0.27985085      0.47700799
p              4   1.000000
      6.25470857      0.05713170
      1.62175253      0.28574555
      0.57171795      0.55178731
      0.22761077      0.26323149
s              7   1.000000
      0.47894987     -0.19076414
      0.05878681      0.92170225
      0.02775758      0.24205301
     53.06357611      0.00456719
      9.13798689      0.02085418
      0.73427624     -0.22125290
      0.27985085     -0.18178937
p              7   1.000000
      2.28619608     -0.01184693
      0.12644335      0.58217652
      0.04872781      0.60799690
      6.25470857     -0.02825193
      1.62175253     -0.14130270
      0.57171795     -0.27286176
      0.22761077     -0.13016937
 
           2   0
s              4   1.000000
     32.73543817     -0.01198412
      5.63731333     -0.05472053
      0.45298218      0.58055871
      0.17264272      0.47700799
p              4   1.000000
      5.27617106      0.05713170
      1.36803237      0.28574555
      0.48227374      0.55178731
      0.19200149      0.26323149
s              7   1.000000
      0.38350848     -0.19848027
      0.04707223      0.95898371
      0.02222627      0.25184367
     32.73543817      0.00586806
      5.63731333      0.02679406
      0.45298218     -0.28427227
      0.17264272     -0.23356836
p              7   1.000000
      1.83062075     -0.01173659
      0.10124670      0.57675399
      0.03901771      0.60233389
      5.27617106     -0.02688590
      1.36803237     -0.13447045
      0.48227374     -0.25966839
      0.19200149     -0.12387544
 
           3   0
s              4   1.000000
     35.04995825     -0.01198412
      6.03589284     -0.05472052
      0.48500974      0.58055871
      0.18484922      0.47700799
p              4   1.000000
      5.64921644      0.05713170
      1.46475747      0.28574555
      0.51637233      0.55178730
      0.20557672      0.26323149
s              7   1.000000
      0.38350848     -0.19612391
      0.04707223      0.94759869
      0.02222627      0.24885380
     35.04995825      0.00549832
      6.03589284      0.02510581
      0.48500974     -0.26636063
      0.18484922     -0.21885151
p              7   1.000000
      1.83062075     -0.01160559
      0.10124670      0.57031655
      0.03901771      0.59561091
      5.64921644     -0.02518629
      1.46475747     -0.12596980
      0.51637233     -0.24325326
      0.20557672     -0.11604456
 
           4   0
s              4   1.000000
     35.11079454     -0.01198412
      6.04636935     -0.05472052
      0.48585158      0.58055871
      0.18517006      0.47700800
p              4   1.000000
      5.65902180      0.05713170
      1.46729985      0.28574555
      0.51726860      0.55178731
      0.20593354      0.26323149
s              7   1.000000
      0.38350848     -0.19606751
      0.04707223      0.94732613
      0.02222627      0.24878223
     35.11079454      0.00548922
      6.04636935      0.02506425
      0.48585158     -0.26591977
      0.18517006     -0.21848928
p              7   1.000000
      1.83062075     -0.01160246
      0.10124670      0.57016246
      0.03901771      0.59545002
      5.65902180     -0.02514444
      1.46729985     -0.12576049
      0.51726860     -0.24284908
      0.20593354     -0.11585175
 
           5   0
s              4   1.000000
     35.20281662     -0.01198412
      6.06221631     -0.05472052
      0.48712495      0.58055871
      0.18565538      0.47700799
p              4   1.000000
      5.67385356      0.05713170
      1.47114550      0.28574555
      0.51862431      0.55178731
      0.20647328      0.26323149
s              7   1.000000
      0.38350848     -0.19598267
      0.04707223      0.94691624
      0.02222627      0.24867459
     35.20281662      0.00547551
      6.06221631      0.02500165
      0.48712495     -0.26525561
      0.18565538     -0.21794358
p              7   1.000000
      1.83062075     -0.01159774
      0.10124670      0.56993073
      0.03901771      0.59520797
      5.67385356     -0.02508139
      1.47114550     -0.12544517
      0.51862431     -0.24224017
      0.20647328     -0.11556127
 
           6   0
s              4   1.000000
     61.46572025     -0.01198412
     10.58490563     -0.05472052
      0.85054233      0.58055871
      0.32416273      0.47700800
p              4   1.000000
      7.24508590      0.05713170
      1.87854259      0.28574555
      0.66224439      0.55178731
      0.26365090      0.26323149
s              7   1.000000
      0.47894987     -0.18770391
      0.05878681      0.90691630
      0.02775758      0.23816998
     61.46572025      0.00395277
     10.58490563      0.01804871
      0.85054233     -0.19148817
      0.32416273     -0.15733359
p              7   1.000000
      2.28619608     -0.01155853
      0.12644335      0.56800367
      0.04872781      0.59319546
      7.24508590     -0.02455186
      1.87854259     -0.12279671
      0.66224439     -0.23712588
      0.26365090     -0.11312148
 
           7   0
s              4   1.000000
     35.62969016     -0.01198412
      6.13572747     -0.05472053
      0.49303188      0.58055871
      0.18790665      0.47700799
p              4   1.000000
      5.74265538      0.05713170
      1.48898479      0.28574555
      0.52491321      0.55178730
      0.20897700      0.26323149
s              7   1.000000
      0.38350848     -0.19559675
      0.04707223      0.94505163
      0.02222627      0.24818490
     35.62969016      0.00541278
      6.13572747      0.02471522
      0.49303188     -0.26221675
      0.18790665     -0.21544675
p              7   1.000000
      1.83062075     -0.01157629
      0.10124670      0.56887657
      0.03901771      0.59410708
      5.74265538     -0.02479290
      1.48898479     -0.12400227
      0.52491321     -0.23945388
      0.20897700     -0.11423206
 
           8   0
s              4   1.000000
     34.94589682     -0.01198412
      6.01797260     -0.05472053
      0.48356978      0.58055871
      0.18430041      0.47700799
p              4   1.000000
      5.63244422      0.05713170
      1.46040868      0.28574555
      0.51483925      0.55178731
      0.20496638      0.26323149
s              7   1.000000
      0.38350848     -0.19622101
      0.04707223      0.94806782
      0.02222627      0.24897701
     34.94589682      0.00551395
      6.01797260      0.02517720
      0.48356978     -0.26711808
      0.18430041     -0.21947385
p              7   1.000000
      1.83062075     -0.01161099
      0.10124670      0.57058180
      0.03901771      0.59588791
      5.63244422     -0.02525818
      1.46040868     -0.12632940
      0.51483925     -0.24394767
      0.20496638     -0.11637583
 
           9   0
s              4   1.000000
     34.93810933     -0.01198412
      6.01663153     -0.05472053
      0.48346202      0.58055871
      0.18425934      0.47700799
p              4   1.000000
      5.63118906      0.05713170
      1.46008324      0.28574555
      0.51472452      0.55178731
      0.20492070      0.26323149
s              7   1.000000
      0.38350848     -0.19622831
      0.04707223      0.94810308
      0.02222627      0.24898627
     34.93810933      0.00551513
      6.01663153      0.02518256
      0.48346202     -0.26717493
      0.18425934     -0.21952057
p              7   1.000000
      1.83062075     -0.01161139
      0.10124670      0.57060172
      0.03901771      0.59590875
      5.63118906     -0.02526358
      1.46008324     -0.12635639
      0.51472452     -0.24399979
      0.20492070     -0.11640070
 
          10   0
s              4   1.000000
     34.92437859     -0.01198412
      6.01426698     -0.05472052
      0.48327201      0.58055871
      0.18418693      0.47700799
p              4   1.000000
      5.62897600      0.05713170
      1.45950942      0.28574555
      0.51452224      0.55178731
      0.20484017      0.26323149
s              7   1.000000
      0.38350848     -0.19624119
      0.04707223      0.94816530
      0.02222627      0.24900260
     34.92437859      0.00551720
      6.01426698      0.02519201
      0.48327201     -0.26727523
      0.18418693     -0.21960298
p              7   1.000000
      1.83062075     -0.01161211
      0.10124670      0.57063690
      0.03901771      0.59594548
      5.62897600     -0.02527310
      1.45950942     -0.12640401
      0.51452224     -0.24409174
      0.20484017     -0.11644456
 
          11   0
s              4   1.000000
     34.94287394     -0.01198412
      6.01745203     -0.05472052
      0.48352795      0.58055871
      0.18428447      0.47700799
p              4   1.000000
      5.63195701      0.05713170
      1.46028235      0.28574555
      0.51479472      0.55178730
      0.20494865      0.26323149
s              7   1.000000
      0.38350848     -0.19622385
      0.04707223      0.94808150
      0.02222627      0.24898059
     34.94287394      0.00551441
      6.01745203      0.02517928
      0.48352795     -0.26714015
      0.18428447     -0.21949198
p              7   1.000000
      1.83062075     -0.01161115
      0.10124670      0.57058952
      0.03901771      0.59589601
      5.63195701     -0.02526028
      1.46028235     -0.12633988
      0.51479472     -0.24396790
      0.20494865     -0.11638549
 
          12   0
s              4   1.000000
     35.42610043     -0.01198412
      6.10066763     -0.05472052
      0.49021467      0.58055871
      0.18683295      0.47700799
p              4   1.000000
      5.70984158      0.05713170
      1.48047666      0.28574555
      0.52191384      0.55178731
      0.20778289      0.26323149
s              7   1.000000
      0.38350848     -0.19577926
      0.04707223      0.94593346
      0.02222627      0.24841649
     35.42610043      0.00544252
      6.10066763      0.02485102
      0.49021467     -0.26365753
      0.18683295     -0.21663055
p              7   1.000000
      1.83062075     -0.01158643
      0.10124670      0.56937511
      0.03901771      0.59462771
      5.70984158     -0.02492968
      1.48047666     -0.12468640
      0.52191384     -0.24077496
      0.20778289     -0.11486229
 
          13   0
s              4   1.000000
     35.42165722     -0.01198412
      6.09990248     -0.05472053
      0.49015319      0.58055871
      0.18680951      0.47700799
p              4   1.000000
      5.70912544      0.05713170
      1.48029097      0.28574555
      0.52184838      0.55178731
      0.20775683      0.26323149
s              7   1.000000
      0.38350848     -0.19578328
      0.04707223      0.94595286
      0.02222627      0.24842158
     35.42165722      0.00544317
      6.09990248      0.02485400
      0.49015319     -0.26368915
      0.18680951     -0.21665652
p              7   1.000000
      1.83062075     -0.01158666
      0.10124670      0.56938608
      0.03901771      0.59463916
      5.70912544     -0.02493269
      1.48029097     -0.12470141
      0.52184838     -0.24080395
      0.20775683     -0.11487611
 
          14   0
s              4   1.000000
     34.94425894     -0.01198412
      6.01769054     -0.05472052
      0.48354711      0.58055871
      0.18429177      0.47700799
p              4   1.000000
      5.63218023      0.05713170
      1.46034023      0.28574555
      0.51481512      0.55178731
      0.20495677      0.26323149
s              7   1.000000
      0.38350848     -0.19622255
      0.04707223      0.94807523
      0.02222627      0.24897896
     34.94425894      0.00551420
      6.01769054      0.02517832
      0.48354711     -0.26713004
      0.18429177     -0.21948368
p              7   1.000000
      1.83062075     -0.01161107
      0.10124670      0.57058598
      0.03901771      0.59589228
      5.63218023     -0.02525932
      1.46034023     -0.12633508
      0.51481512     -0.24395863
      0.20495677     -0.11638106
 
          15   0
s              4   1.000000
     34.92914674     -0.01198412
      6.01508809     -0.05472052
      0.48333799      0.58055871
      0.18421207      0.47700799
p              4   1.000000
      5.62974451      0.05713170
      1.45970869      0.28574555
      0.51459248      0.55178731
      0.20486813      0.26323149
s              7   1.000000
      0.38350848     -0.19623671
      0.04707223      0.94814368
      0.02222627      0.24899692
     34.92914674      0.00551648
      6.01508809      0.02518873
      0.48333799     -0.26724039
      0.18421207     -0.21957436
p              7   1.000000
      1.83062075     -0.01161186
      0.10124670      0.57062468
      0.03901771      0.59593270
      5.62974451     -0.02526979
      1.45970869     -0.12638747
      0.51459248     -0.24405980
      0.20486813     -0.11642933
 
          16   0
s              4   1.000000
     34.94631035     -0.01198412
      6.01804381     -0.05472053
      0.48357550      0.58055871
      0.18430259      0.47700799
p              4   1.000000
      5.63251087      0.05713170
      1.46042596      0.28574555
      0.51484535      0.55178731
      0.20496880      0.26323149
s              7   1.000000
      0.38350848     -0.19622062
      0.04707223      0.94806594
      0.02222627      0.24897650
     34.94631035      0.00551389
      6.01804381      0.02517691
      0.48357550     -0.26711506
      0.18430259     -0.21947138
p              7   1.000000
      1.83062075     -0.01161097
      0.10124670      0.57058073
      0.03901771      0.59588682
      5.63251087     -0.02525790
      1.46042596     -0.12632797
      0.51484535     -0.24394490
      0.20496880     -0.11637451
 
          17   0
s              4   1.000000
     34.97785208     -0.01198412
      6.02347556     -0.05472052
      0.48401196      0.58055871
      0.18446894      0.47700799
p              4   1.000000
      5.63759465      0.05713170
      1.46174411      0.28574555
      0.51531003      0.55178731
      0.20515380      0.26323149
s              7   1.000000
      0.38350848     -0.19619111
      0.04707223      0.94792335
      0.02222627      0.24893906
     34.97785208      0.00550914
      6.02347556      0.02515523
      0.48401196     -0.26688503
      0.18446894     -0.21928238
p              7   1.000000
      1.83062075     -0.01160933
      0.10124670      0.57050012
      0.03901771      0.59580263
      5.63759465     -0.02523606
      1.46174411     -0.12621876
      0.51531003     -0.24373402
      0.20515380     -0.11627391
 
          18   0
s              4   1.000000
     35.66520473     -0.01198412
      6.14184337     -0.05472053
      0.49352332      0.58055871
      0.18809395      0.47700799
p              4   1.000000
      5.74837948      0.05713170
      1.49046896      0.28574555
      0.52543643      0.55178731
      0.20918530      0.26323149
s              7   1.000000
      0.38350848     -0.19556520
      0.04707223      0.94489917
      0.02222627      0.24814486
     35.66520473      0.00540762
      6.14184337      0.02469168
      0.49352332     -0.26196700
      0.18809395     -0.21524154
p              7   1.000000
      1.83062075     -0.01157454
      0.10124670      0.56879038
      0.03901771      0.59401707
      5.74837948     -0.02476919
      1.49046896     -0.12388368
      0.52543643     -0.23922487
      0.20918530     -0.11412281
 
          19   0
s              4   1.000000
     35.20268571     -0.01198412
      6.06219377     -0.05472052
      0.48712314      0.58055871
      0.18565468      0.47700800
p              4   1.000000
      5.67383246      0.05713170
      1.47114003      0.28574555
      0.51862239      0.55178731
      0.20647251      0.26323149
s              7   1.000000
      0.38350848     -0.19598279
      0.04707223      0.94691683
      0.02222627      0.24867474
     35.20268571      0.00547553
      6.06219377      0.02500174
      0.48712314     -0.26525656
      0.18565468     -0.21794436
p              7   1.000000
      1.83062075     -0.01159775
      0.10124670      0.56993106
      0.03901771      0.59520833
      5.67383246     -0.02508148
      1.47114003     -0.12544561
      0.51862239     -0.24224103
      0.20647251     -0.11556168
 
          20   0
s              4   1.000000
     61.46596017     -0.01198412
     10.58494695     -0.05472052
      0.85054565      0.58055871
      0.32416400      0.47700799
p              4   1.000000
      7.24511418      0.05713170
      1.87854992      0.28574555
      0.66224698      0.55178731
      0.26365193      0.26323149
s              7   1.000000
      0.47894987     -0.18770384
      0.05878681      0.90691596
      0.02775758      0.23816990
     61.46596017      0.00395276
     10.58494695      0.01804864
      0.85054565     -0.19148743
      0.32416400     -0.15733298
p              7   1.000000
      2.28619608     -0.01155852
      0.12644335      0.56800333
      0.04872781      0.59319509
      7.24511418     -0.02455177
      1.87854992     -0.12279625
      0.66224698     -0.23712499
      0.26365193     -0.11312106
 
          21   0
s              4   1.000000
     35.62942421     -0.01198412
      6.13568167     -0.05472053
      0.49302820      0.58055871
      0.18790525      0.47700799
p              4   1.000000
      5.74261252      0.05713170
      1.48897367      0.28574555
      0.52490930      0.55178731
      0.20897544      0.26323149
s              7   1.000000
      0.38350848     -0.19559699
      0.04707223      0.94505277
      0.02222627      0.24818520
     35.62942421      0.00541282
      6.13568167      0.02471540
      0.49302820     -0.26221862
      0.18790525     -0.21544829
p              7   1.000000
      1.83062075     -0.01157630
      0.10124670      0.56887722
      0.03901771      0.59410777
      5.74261252     -0.02479308
      1.48897367     -0.12400316
      0.52490930     -0.23945560
      0.20897544     -0.11423288
 
          22   0
s              4   1.000000
     34.94582752     -0.01198412
      6.01796066     -0.05472053
      0.48356882      0.58055871
      0.18430004      0.47700800
p              4   1.000000
      5.63243305      0.05713170
      1.46040578      0.28574555
      0.51483823      0.55178731
      0.20496597      0.26323149
s              7   1.000000
      0.38350848     -0.19622108
      0.04707223      0.94806813
      0.02222627      0.24897708
     34.94582752      0.00551397
      6.01796066      0.02517725
      0.48356882     -0.26711858
      0.18430004     -0.21947427
p              7   1.000000
      1.83062075     -0.01161099
      0.10124670      0.57058197
      0.03901771      0.59588812
      5.63243305     -0.02525823
      1.46040578     -0.12632964
      0.51483823     -0.24394813
      0.20496597     -0.11637605
 
          23   0
s              4   1.000000
     34.93810574     -0.01198412
      6.01663091     -0.05472052
      0.48346197      0.58055871
      0.18425932      0.47700800
p              4   1.000000
      5.63118849      0.05713170
      1.46008309      0.28574555
      0.51472447      0.55178731
      0.20492068      0.26323149
s              7   1.000000
      0.38350848     -0.19622831
      0.04707223      0.94810309
      0.02222627      0.24898627
     34.93810574      0.00551513
      6.01663091      0.02518256
      0.48346197     -0.26717496
      0.18425932     -0.21952059
p              7   1.000000
      1.83062075     -0.01161139
      0.10124670      0.57060173
      0.03901771      0.59590875
      5.63118849     -0.02526358
      1.46008309     -0.12635641
      0.51472447     -0.24399981
      0.20492068     -0.11640071
 
          24   0
s              4   1.000000
     34.92436478     -0.01198412
      6.01426460     -0.05472053
      0.48327182      0.58055871
      0.18418685      0.47700799
p              4   1.000000
      5.62897377      0.05713170
      1.45950884      0.28574555
      0.51452203      0.55178731
      0.20484009      0.26323149
s              7   1.000000
      0.38350848     -0.19624120
      0.04707223      0.94816535
      0.02222627      0.24900263
     34.92436478      0.00551720
      6.01426460      0.02519202
      0.48327182     -0.26727533
      0.18418685     -0.21960306
p              7   1.000000
      1.83062075     -0.01161211
      0.10124670      0.57063694
      0.03901771      0.59594552
      5.62897377     -0.02527311
      1.45950884     -0.12640406
      0.51452203     -0.24409183
      0.20484009     -0.11644461
 
          25   0
s              4   1.000000
     34.94284471     -0.01198412
      6.01744700     -0.05472052
      0.48352754      0.58055871
      0.18428431      0.47700800
p              4   1.000000
      5.63195229      0.05713170
      1.46028113      0.28574555
      0.51479429      0.55178731
      0.20494848      0.26323149
s              7   1.000000
      0.38350848     -0.19622387
      0.04707223      0.94808163
      0.02222627      0.24898064
     34.94284471      0.00551441
      6.01744700      0.02517930
      0.48352754     -0.26714036
      0.18428431     -0.21949216
p              7   1.000000
      1.83062075     -0.01161115
      0.10124670      0.57058960
      0.03901771      0.59589609
      5.63195229     -0.02526030
      1.46028113     -0.12633998
      0.51479429     -0.24396809
      0.20494848     -0.11638558
 
          26   0
s              4   1.000000
     35.42617622     -0.01198412
      6.10068068     -0.05472052
      0.49021572      0.58055871
      0.18683335      0.47700799
p              4   1.000000
      5.70985379      0.05713170
      1.48047983      0.28574555
      0.52191495      0.55178731
      0.20778334      0.26323149
s              7   1.000000
      0.38350848     -0.19577920
      0.04707223      0.94593313
      0.02222627      0.24841639
     35.42617622      0.00544251
      6.10068068      0.02485097
      0.49021572     -0.26365699
      0.18683335     -0.21663010
p              7   1.000000
      1.83062075     -0.01158643
      0.10124670      0.56937492
      0.03901771      0.59462751
      5.70985379     -0.02492963
      1.48047983     -0.12468614
      0.52191495     -0.24077446
      0.20778334     -0.11486205
 
          27   0
s              4   1.000000
     35.42165918     -0.01198412
      6.09990281     -0.05472053
      0.49015322      0.58055871
      0.18680952      0.47700799
p              4   1.000000
      5.70912575      0.05713170
      1.48029106      0.28574555
      0.52184840      0.55178731
      0.20775684      0.26323149
s              7   1.000000
      0.38350848     -0.19578328
      0.04707223      0.94595284
      0.02222627      0.24842158
     35.42165918      0.00544317
      6.09990281      0.02485400
      0.49015322     -0.26368914
      0.18680952     -0.21665651
p              7   1.000000
      1.83062075     -0.01158666
      0.10124670      0.56938606
      0.03901771      0.59463916
      5.70912575     -0.02493268
      1.48029106     -0.12470140
      0.52184840     -0.24080393
      0.20775684     -0.11487611
 
          28   0
s              4   1.000000
     34.94426149     -0.01198412
      6.01769098     -0.05472052
      0.48354715      0.58055871
      0.18429179      0.47700800
p              4   1.000000
      5.63218065      0.05713170
      1.46034034      0.28574555
      0.51481516      0.55178731
      0.20495679      0.26323149
s              7   1.000000
      0.38350848     -0.19622254
      0.04707223      0.94807522
      0.02222627      0.24897894
     34.94426149      0.00551420
      6.01769098      0.02517832
      0.48354715     -0.26713002
      0.18429179     -0.21948366
p              7   1.000000
      1.83062075     -0.01161107
      0.10124670      0.57058597
      0.03901771      0.59589228
      5.63218065     -0.02525932
      1.46034034     -0.12633507
      0.51481516     -0.24395861
      0.20495679     -0.11638105
 
          29   0
s              4   1.000000
     34.92915216     -0.01198412
      6.01508903     -0.05472052
      0.48333807      0.58055871
      0.18421210      0.47700799
p              4   1.000000
      5.62974538      0.05713170
      1.45970891      0.28574555
      0.51459256      0.55178731
      0.20486817      0.26323149
s              7   1.000000
      0.38350848     -0.19623671
      0.04707223      0.94814365
      0.02222627      0.24899692
     34.92915216      0.00551648
      6.01508903      0.02518872
      0.48333807     -0.26724036
      0.18421210     -0.21957432
p              7   1.000000
      1.83062075     -0.01161186
      0.10124670      0.57062467
      0.03901771      0.59593270
      5.62974538     -0.02526979
      1.45970891     -0.12638745
      0.51459256     -0.24405977
      0.20486817     -0.11642931
 
          30   0
s              4   1.000000
     34.94636111     -0.01198412
      6.01805255     -0.05472053
      0.48357620      0.58055871
      0.18430286      0.47700799
p              4   1.000000
      5.63251905      0.05713170
      1.46042808      0.28574555
      0.51484609      0.55178731
      0.20496910      0.26323149
s              7   1.000000
      0.38350848     -0.19622058
      0.04707223      0.94806572
      0.02222627      0.24897645
     34.94636111      0.00551388
      6.01805255      0.02517688
      0.48357620     -0.26711469
      0.18430286     -0.21947107
p              7   1.000000
      1.83062075     -0.01161096
      0.10124670      0.57058060
      0.03901771      0.59588670
      5.63251905     -0.02525786
      1.46042808     -0.12632779
      0.51484609     -0.24394456
      0.20496910     -0.11637435
 
          31   0
s              4   1.000000
     34.97798946     -0.01198412
      6.02349922     -0.05472052
      0.48401386      0.58055871
      0.18446966      0.47700799
p              4   1.000000
      5.63761679      0.05713170
      1.46174985      0.28574555
      0.51531206      0.55178731
      0.20515461      0.26323149
s              7   1.000000
      0.38350848     -0.19619099
      0.04707223      0.94792274
      0.02222627      0.24893891
     34.97798946      0.00550912
      6.02349922      0.02515514
      0.48401386     -0.26688403
      0.18446966     -0.21928156
p              7   1.000000
      1.83062075     -0.01160932
      0.10124670      0.57049976
      0.03901771      0.59580227
      5.63761679     -0.02523597
      1.46174985     -0.12621829
      0.51531206     -0.24373310
      0.20515461     -0.11627347
 
          32   0
s              4   1.000000
     35.66537320     -0.01198412
      6.14187238     -0.05472053
      0.49352565      0.58055871
      0.18809484      0.47700799
p              4   1.000000
      5.74840664      0.05713170
      1.49047600      0.28574555
      0.52543891      0.55178731
      0.20918629      0.26323149
s              7   1.000000
      0.38350848     -0.19556505
      0.04707223      0.94489845
      0.02222627      0.24814469
     35.66537320      0.00540760
      6.14187238      0.02469157
      0.49352565     -0.26196581
      0.18809484     -0.21524057
p              7   1.000000
      1.83062075     -0.01157453
      0.10124670      0.56878998
      0.03901771      0.59401662
      5.74840664     -0.02476908
      1.49047600     -0.12388312
      0.52543891     -0.23922378
      0.20918629     -0.11412229
 
          33   0
s              4   1.000000
     35.11077939     -0.01198412
      6.04636674     -0.05472052
      0.48585137      0.58055871
      0.18516998      0.47700799
p              4   1.000000
      5.65901935      0.05713170
      1.46729922      0.28574555
      0.51726838      0.55178731
      0.20593345      0.26323149
s              7   1.000000
      0.38350848     -0.19606752
      0.04707223      0.94732620
      0.02222627      0.24878223
     35.11077939      0.00548922
      6.04636674      0.02506426
      0.48585137     -0.26591988
      0.18516998     -0.21848937
p              7   1.000000
      1.83062075     -0.01160246
      0.10124670      0.57016250
      0.03901771      0.59545006
      5.65901935     -0.02514445
      1.46729922     -0.12576054
      0.51726838     -0.24284918
      0.20593345     -0.11585179
 
          34   0
s              4   1.000000
     35.05001160     -0.01198412
      6.03590202     -0.05472052
      0.48501048      0.58055871
      0.18484950      0.47700799
p              4   1.000000
      5.64922504      0.05713170
      1.46475969      0.28574555
      0.51637312      0.55178730
      0.20557704      0.26323149
s              7   1.000000
      0.38350848     -0.19612387
      0.04707223      0.94759844
      0.02222627      0.24885375
     35.05001160      0.00549831
      6.03590202      0.02510577
      0.48501048     -0.26636025
      0.18484950     -0.21885119
p              7   1.000000
      1.83062075     -0.01160559
      0.10124670      0.57031642
      0.03901771      0.59561079
      5.64922504     -0.02518625
      1.46475969     -0.12596962
      0.51637312     -0.24325291
      0.20557704     -0.11604440
 
          35   0
s              4   1.000000
     32.73544827     -0.01198412
      5.63731507     -0.05472053
      0.45298232      0.58055871
      0.17264277      0.47700800
p              4   1.000000
      5.27617269      0.05713170
      1.36803279      0.28574555
      0.48227389      0.55178731
      0.19200155      0.26323149
s              7   1.000000
      0.38350848     -0.19848026
      0.04707223      0.95898367
      0.02222627      0.25184367
     32.73544827      0.00586806
      5.63731507      0.02679406
      0.45298232     -0.28427218
      0.17264277     -0.23356829
p              7   1.000000
      1.83062075     -0.01173659
      0.10124670      0.57675397
      0.03901771      0.60233384
      5.27617269     -0.02688589
      1.36803279     -0.13447041
      0.48227389     -0.25966831
      0.19200155     -0.12387541
 
          36   0
s              4   1.000000
     53.06358474     -0.01198412
      9.13798838     -0.05472052
      0.73427636      0.58055871
      0.27985089      0.47700799
p              4   1.000000
      6.25470959      0.05713170
      1.62175280      0.28574555
      0.57171805      0.55178731
      0.22761081      0.26323149
s              7   1.000000
      0.47894987     -0.19076414
      0.05878681      0.92170222
      0.02775758      0.24205299
     53.06358474      0.00456719
      9.13798838      0.02085418
      0.73427636     -0.22125287
      0.27985089     -0.18178934
p              7   1.000000
      2.28619608     -0.01184693
      0.12644335      0.58217650
      0.04872781      0.60799687
      6.25470959     -0.02825193
      1.62175280     -0.14130268
      0.57171805     -0.27286172
      0.22761081     -0.13016936
 
          37   0
s              4   1.000000
      8.30987318      0.05675242
      1.52060441      0.26014135
      0.42244056      0.53284611
      0.14020422      0.29162544
s              7   1.000000
      0.92936822     -0.06732723
      0.05643440      0.66944356
      0.02166600      0.51460553
      8.30987318     -0.02902024
      1.52060441     -0.13302276
      0.42244056     -0.27246978
      0.14020422     -0.14912208
p              4   1.000000
      0.64737396      0.05713170
      0.16785440      0.28574555
      0.05917387      0.55178731
      0.02355814      0.26323150
 
          38   0
s              4   1.000000
      8.30926548      0.05675242
      1.52049321      0.26014135
      0.42240966      0.53284611
      0.14019397      0.29162544
s              7   1.000000
      0.92936822     -0.06732802
      0.05643440      0.66945132
      0.02166600      0.51461151
      8.30926548     -0.02902186
      1.52049321     -0.13303021
      0.42240966     -0.27248505
      0.14019397     -0.14913043
p              4   1.000000
      0.64737396      0.05713170
      0.16785440      0.28574555
      0.05917387      0.55178731
      0.02355814      0.26323150
 
          39   0
s              4   1.000000
      8.30903324      0.05675242
      1.52045071      0.26014135
      0.42239786      0.53284611
      0.14019005      0.29162544
s              7   1.000000
      0.92936822     -0.06732831
      0.05643440      0.66945429
      0.02166600      0.51461380
      8.30903324     -0.02902248
      1.52045071     -0.13303305
      0.42239786     -0.27249088
      0.14019005     -0.14913362
p              4   1.000000
      0.64737396      0.05713170
      0.16785440      0.28574555
      0.05917387      0.55178731
      0.02355814      0.26323150
 
          40   0
s              4   1.000000
      8.30898538      0.05675242
      1.52044195      0.26014135
      0.42239542      0.53284611
      0.14018924      0.29162544
s              7   1.000000
      0.92936822     -0.06732838
      0.05643440      0.66945491
      0.02166600      0.51461427
      8.30898538     -0.02902261
      1.52044195     -0.13303364
      0.42239542     -0.27249208
      0.14018924     -0.14913429
p              4   1.000000
      0.64737396      0.05713170
      0.16785440      0.28574555
      0.05917387      0.55178731
      0.02355814      0.26323150
 
          41   0
s              4   1.000000
      8.30900621      0.05675242
      1.52044577      0.26014135
      0.42239648      0.53284611
      0.14018960      0.29162544
s              7   1.000000
      0.92936822     -0.06732835
      0.05643440      0.66945464
      0.02166600      0.51461405
      8.30900621     -0.02902255
      1.52044577     -0.13303339
      0.42239648     -0.27249156
      0.14018960     -0.14913400
p              4   1.000000
      0.64737396      0.05713170
      0.16785440      0.28574555
      0.05917387      0.55178731
      0.02355814      0.26323150
 
          42   0
s              4   1.000000
      8.30900945      0.05675242
      1.52044636      0.26014135
      0.42239665      0.53284611
      0.14018965      0.29162544
s              7   1.000000
      0.92936822     -0.06732834
      0.05643440      0.66945460
      0.02166600      0.51461402
      8.30900945     -0.02902255
      1.52044636     -0.13303335
      0.42239665     -0.27249148
      0.14018965     -0.14913395
p              4   1.000000
      0.64737396      0.05713170
      0.16785440      0.28574555
      0.05917387      0.55178731
      0.02355814      0.26323150
 
          43   0
s              4   1.000000
      8.30904319      0.05675242
      1.52045253      0.26014135
      0.42239836      0.53284611
      0.14019022      0.29162544
s              7   1.000000
      0.92936822     -0.06732830
      0.05643440      0.66945417
      0.02166600      0.51461370
      8.30904319     -0.02902246
      1.52045253     -0.13303293
      0.42239836     -0.27249063
      0.14019022     -0.14913349
p              4   1.000000
      0.64737396      0.05713170
      0.16785440      0.28574555
      0.05917387      0.55178731
      0.02355814      0.26323150
 
          44   0
s              4   1.000000
      8.30920317      0.05675242
      1.52048181      0.26014135
      0.42240649      0.53284611
      0.14019292      0.29162544
s              7   1.000000
      0.92936822     -0.06732810
      0.05643440      0.66945212
      0.02166600      0.51461214
      8.30920317     -0.02902203
      1.52048181     -0.13303097
      0.42240649     -0.27248661
      0.14019292     -0.14913129
p              4   1.000000
      0.64737396      0.05713170
      0.16785440      0.28574555
      0.05917387      0.55178731
      0.02355814      0.26323150
 
          45   0
s              4   1.000000
      8.30995896      0.05675242
      1.52062011      0.26014135
      0.42244492      0.53284611
      0.14020567      0.29162544
s              7   1.000000
      0.92936822     -0.06732712
      0.05643440      0.66944245
      0.02166600      0.51460468
      8.30995896     -0.02902001
      1.52062011     -0.13302170
      0.42244492     -0.27246763
      0.14020567     -0.14912090
p              4   1.000000
      0.64737396      0.05713170
      0.16785440      0.28574555
      0.05917387      0.55178731
      0.02355814      0.26323150
 
          46   0
s              4   1.000000
      8.30926256      0.05675242
      1.52049268      0.26014135
      0.42240952      0.53284611
      0.14019392      0.29162544
s              7   1.000000
      0.92936822     -0.06732802
      0.05643440      0.66945136
      0.02166600      0.51461154
      8.30926256     -0.02902187
      1.52049268     -0.13303024
      0.42240952     -0.27248512
      0.14019392     -0.14913047
p              4   1.000000
      0.64737396      0.05713170
      0.16785440      0.28574555
      0.05917387      0.55178731
      0.02355814      0.26323150
 
          47   0
s              4   1.000000
      8.30903308      0.05675242
      1.52045068      0.26014135
      0.42239785      0.53284611
      0.14019005      0.29162544
s              7   1.000000
      0.92936822     -0.06732832
      0.05643440      0.66945430
      0.02166600      0.51461380
      8.30903308     -0.02902248
      1.52045068     -0.13303306
      0.42239785     -0.27249088
      0.14019005     -0.14913362
p              4   1.000000
      0.64737396      0.05713170
      0.16785440      0.28574555
      0.05917387      0.55178731
      0.02355814      0.26323150
 
          48   0
s              4   1.000000
      8.30898509      0.05675242
      1.52044190      0.26014135
      0.42239541      0.53284611
      0.14018924      0.29162544
s              7   1.000000
      0.92936822     -0.06732838
      0.05643440      0.66945491
      0.02166600      0.51461427
      8.30898509     -0.02902261
      1.52044190     -0.13303364
      0.42239541     -0.27249209
      0.14018924     -0.14913429
p              4   1.000000
      0.64737396      0.05713170
      0.16785440      0.28574555
      0.05917387      0.55178731
      0.02355814      0.26323150
 
          49   0
s              4   1.000000
      8.30900590      0.05675242
      1.52044571      0.26014135
      0.42239647      0.53284611
      0.14018959      0.29162544
s              7   1.000000
      0.92936822     -0.06732835
      0.05643440      0.66945464
      0.02166600      0.51461407
      8.30900590     -0.02902256
      1.52044571     -0.13303339
      0.42239647     -0.27249157
      0.14018959     -0.14913400
p              4   1.000000
      0.64737396      0.05713170
      0.16785440      0.28574555
      0.05917387      0.55178731
      0.02355814      0.26323150
 
          50   0
s              4   1.000000
      8.30900942      0.05675242
      1.52044635      0.26014135
      0.42239665      0.53284611
      0.14018965      0.29162544
s              7   1.000000
      0.92936822     -0.06732834
      0.05643440      0.66945461
      0.02166600      0.51461402
      8.30900942     -0.02902255
      1.52044635     -0.13303335
      0.42239665     -0.27249148
      0.14018965     -0.14913395
p              4   1.000000
      0.64737396      0.05713170
      0.16785440      0.28574555
      0.05917387      0.55178731
      0.02355814      0.26323150
 
          51   0
s              4   1.000000
      8.30904334      0.05675242
      1.52045256      0.26014135
      0.42239837      0.53284611
      0.14019022      0.29162544
s              7   1.000000
      0.92936822     -0.06732830
      0.05643440      0.66945417
      0.02166600      0.51461370
      8.30904334     -0.02902246
      1.52045256     -0.13303293
      0.42239837     -0.27249062
      0.14019022     -0.14913349
p              4   1.000000
      0.64737396      0.05713170
      0.16785440      0.28574555
      0.05917387      0.55178731
      0.02355814      0.26323150
 
          52   0
s              4   1.000000
      8.30920421      0.05675242
      1.52048200      0.26014135
      0.42240655      0.53284611
      0.14019294      0.29162544
s              7   1.000000
      0.92936822     -0.06732809
      0.05643440      0.66945211
      0.02166600      0.51461211
      8.30920421     -0.02902203
      1.52048200     -0.13303096
      0.42240655     -0.27248658
      0.14019294     -0.14913127
p              4   1.000000
      0.64737396      0.05713170
      0.16785440      0.28574555
      0.05917387      0.55178731
      0.02355814      0.26323150
 
          53   0
s              4   1.000000
      8.30996495      0.05675242
      1.52062120      0.26014135
      0.42244522      0.53284611
      0.14020577      0.29162544
s              7   1.000000
      0.92936822     -0.06732712
      0.05643440      0.66944238
      0.02166600      0.51460463
      8.30996495     -0.02901999
      1.52062120     -0.13302163
      0.42244522     -0.27246748
      0.14020577     -0.14912082
p              4   1.000000
      0.64737396      0.05713170
      0.16785440      0.28574555
      0.05917387      0.55178731
      0.02355814      0.26323150
 
          54   0
s              4   1.000000
      8.30987293      0.05675242
      1.52060437      0.26014135
      0.42244054      0.53284611
      0.14020422      0.29162544
s              7   1.000000
      0.92936822     -0.06732723
      0.05643440      0.66944356
      0.02166600      0.51460553
      8.30987293     -0.02902024
      1.52060437     -0.13302276
      0.42244054     -0.27246979
      0.14020422     -0.14912208
p              4   1.000000
      0.64737396      0.05713170
      0.16785440      0.28574555
      0.05917387      0.55178731
      0.02355814      0.26323150
 
 [MO]
 Sym= Hole
 Ene= -0.9565855    
 Spin= Alpha
 Occup= 0
           1 -9.6554804E-04
           2 -1.7940999E-03
           3 -1.3480428E-02
           4  5.4487687E-02
           5  1.2246083E-03
           6 -1.8784067E-03
           7 -1.6215839E-05
           8 -2.8339624E-03
           9 -8.6829746E-03
          10  8.1565725E-03
          11  1.2110259E-03
          12 -1.8920505E-02
          13  4.9578655E-04
          14  1.6346185E-03
          15  4.5369007E-04
          16 -1.5022032E-04
          17  8.9320773E-03
          18 -1.9463997E-02
          19  3.9289534E-02
          20 -0.1053533    
          21 -2.8815914E-03
          22  2.3025568E-03
          23 -8.8644517E-04
          24  1.2600616E-02
          25 -1.9443724E-02
          26  4.0037945E-02
          27 -6.8009146E-02
          28  0.1095131    
          29  1.6199009E-02
          30 -1.2957645E-02
          31  2.5687234E-03
          32 -7.6579559E-03
          33 -4.0990066E-02
          34 -5.1099472E-03
          35 -9.7083844E-02
          36  0.1205879    
          37  2.3330754E-02
          38 -6.5109185E-03
          39  5.9816334E-03
          40 -1.6898001E-02
          41  3.5026655E-02
          42  0.1586660    
          43 -0.1277461    
          44 -0.3411746    
          45 -1.0285147E-02
          46 -2.0728471E-02
          47  1.9757289E-02
          48  3.1191986E-02
          49 -1.7548831E-02
          50 -3.8299330E-02
          51 -6.8368991E-03
          52  6.2879026E-02
          53  1.0182101E-02
          54  8.0208527E-03
          55  3.0124332E-03
          56 -1.8045077E-02
          57 -3.6318866E-03
          58 -6.5651432E-02
          59  9.3448468E-02
          60  0.1920043    
          61  2.8214813E-03
          62  2.7376185E-03
          63 -3.3739894E-03
          64 -8.1331339E-03
          65 -1.5612678E-03
          66 -9.0704476E-03
          67  6.7536947E-03
          68  2.1637445E-02
          69 -3.4561078E-04
          70 -1.2148196E-03
          71 -5.6972390E-04
          72  3.3380336E-03
          73 -2.2911695E-03
          74  5.4708298E-02
          75 -8.4351242E-02
          76 -0.1743217    
          77  4.6322960E-04
          78 -2.7813544E-03
          79  2.7547691E-03
          80  7.1221697E-03
          81 -3.5493940E-03
          82  1.7033916E-02
          83 -3.9882720E-02
          84 -7.3660970E-02
          85  4.4679240E-04
          86 -2.9699679E-03
          87  3.0535038E-03
          88  5.8653047E-03
          89  5.6342995E-03
          90 -2.5963528E-02
          91  7.5133823E-02
          92  0.1712592    
          93 -1.8997601E-03
          94  1.0399868E-03
          95 -2.3027535E-03
          96 -9.3497578E-03
          97  1.0504286E-02
          98 -2.4063047E-02
          99  6.5280929E-02
         100  0.1271682    
         101 -3.3279401E-03
         102  4.5074369E-03
         103 -1.7094618E-03
         104 -6.9406689E-03
         105 -2.0936739E-03
         106  2.6645210E-02
         107 -4.8760388E-02
         108 -0.1043113    
         109  3.6212176E-04
         110 -2.3404236E-03
         111  1.4609041E-03
         112  5.3069224E-03
         113  3.6762466E-04
         114  4.3875482E-02
         115 -7.2797321E-02
         116 -0.1571927    
         117 -1.0301934E-03
         118 -2.5611981E-03
         119  9.2975306E-04
         120  3.3985607E-03
         121  1.9565201E-03
         122 -1.3036241E-02
         123  2.3152776E-02
         124  5.3457279E-02
         125 -1.1578747E-03
         126  8.0896099E-04
         127 -3.7767194E-04
         128 -2.9996262E-04
         129 -5.1501058E-03
         130 -4.8215564E-02
         131  0.1238730    
         132  0.1820496    
         133  5.6173503E-03
         134  8.4715756E-03
         135 -5.8933161E-03
         136  5.9286403E-03
         137  3.2642856E-04
         138 -1.0548322E-02
         139  9.8745711E-04
         140  3.3920217E-02
         141  2.8490941E-03
         142  1.0511772E-02
         143 -2.7605511E-05
         144 -5.8168476E-03
         145  4.0860184E-02
         146  4.6989103E-03
         147 -9.6941695E-02
         148  0.1205166    
         149 -2.3233101E-02
         150  6.4783534E-03
         151  5.9423349E-03
         152 -1.6879510E-02
         153 -3.4757439E-02
         154 -0.1589403    
         155 -0.1275711    
         156 -0.3422325    
         157  1.0176240E-02
         158  2.0758756E-02
         159  1.9732160E-02
         160  3.1287897E-02
         161  1.7503038E-02
         162  3.8098384E-02
         163 -6.8835029E-03
         164  6.2821068E-02
         165 -1.0153475E-02
         166 -7.9787206E-03
         167  3.0002054E-03
         168 -1.8052474E-02
         169  3.6157300E-03
         170  6.6066399E-02
         171  9.3182646E-02
         172  0.1925927    
         173 -2.8130724E-03
         174 -2.7496547E-03
         175 -3.3673106E-03
         176 -8.1532877E-03
         177  1.5448858E-03
         178  9.1202697E-03
         179  6.7914235E-03
         180  2.1807993E-02
         181  3.4283198E-04
         182  1.2112950E-03
         183 -5.6216330E-04
         184  3.3391721E-03
         185  2.2903376E-03
         186 -5.5083506E-02
         187 -8.4045656E-02
         188 -0.1748388    
         189 -4.6658900E-04
         190  2.7907554E-03
         191  2.7456810E-03
         192  7.1456991E-03
         193  3.5190193E-03
         194 -1.7272891E-02
         195 -3.9785825E-02
         196 -7.3992483E-02
         197 -4.4706845E-04
         198  2.9763095E-03
         199  3.0524717E-03
         200  5.8910465E-03
         201 -5.5972342E-03
         202  2.6389895E-02
         203  7.4945457E-02
         204  0.1716545    
         205  1.8814162E-03
         206 -1.0547410E-03
         207 -2.2909823E-03
         208 -9.3672918E-03
         209 -1.0486848E-02
         210  2.4329804E-02
         211  6.5305971E-02
         212  0.1275894    
         213  3.3303613E-03
         214 -4.5087496E-03
         215 -1.6959235E-03
         216 -6.9629522E-03
         217  2.0894138E-03
         218 -2.6854876E-02
         219 -4.8774097E-02
         220 -0.1047167    
         221 -3.6576219E-04
         222  2.3354543E-03
         223  1.4698055E-03
         224  5.3349580E-03
         225 -3.7336533E-04
         226 -4.4133488E-02
         227 -7.2785437E-02
         228 -0.1577408    
         229  1.0252511E-03
         230  2.5557801E-03
         231  9.2985725E-04
         232  3.4294061E-03
         233 -1.9505869E-03
         234  1.3135683E-02
         235  2.3187254E-02
         236  5.3703729E-02
         237  1.1502476E-03
         238 -8.1785052E-04
         239 -3.8130867E-04
         240 -2.8355452E-04
         241  5.1020198E-03
         242  4.8573349E-02
         243  0.1240154    
         244  0.1827446    
         245 -5.5635176E-03
         246 -8.4943650E-03
         247 -5.8816518E-03
         248  5.8623389E-03
         249 -3.9994132E-04
         250  1.0551344E-02
         251  1.0093696E-03
         252  3.4181863E-02
         253 -2.7796375E-03
         254 -1.0483077E-02
         255 -1.5330626E-05
         256 -5.9047849E-03
         257  1.9545374E-02
         258 -4.0763665E-02
         259 -6.8115219E-02
         260  0.1096714    
         261 -1.6245333E-02
         262  1.3024130E-02
         263  2.5509887E-03
         264 -7.6366235E-03
         265 -8.9792339E-03
         266  1.9994024E-02
         267  3.9074257E-02
         268 -0.1049854    
         269  2.8944905E-03
         270 -2.3270873E-03
         271 -8.6929568E-04
         272  1.2572891E-02
         273  8.7100873E-03
         274 -8.1260316E-03
         275  1.1961943E-03
         276 -1.8926462E-02
         277 -4.9469626E-04
         278 -1.6427094E-03
         279  4.6748595E-04
         280 -1.5178372E-04
         281  9.6652744E-04
         282  1.6049234E-03
         283 -1.3354418E-02
         284  5.4351654E-02
         285 -1.2286425E-03
         286  1.8879004E-03
         287 -2.8442082E-05
         288 -2.8223887E-03
         289 -7.2688232E-03
         290  4.4556581E-03
         291 -1.1295239E-02
         292 -3.8242042E-03
         293  1.6359614E-03
         294  8.6173192E-03
         295 -5.6021143E-04
         296  8.9778856E-05
         297  5.9446990E-03
         298  1.0618368E-02
         299  4.3311110E-03
         300 -1.0832810E-03
         301  1.8232688E-04
         302 -6.6876772E-04
         303 -2.7606517E-04
         304  1.5196155E-04
         305  3.9305200E-04
         306  3.3163540E-03
         307 -4.8895958E-03
         308 -1.1140506E-02
         309  9.9543184E-03
         310 -1.3654573E-03
         311  4.4523124E-04
         312 -8.5920584E-04
         313 -3.3578735E-03
         314  2.9495016E-03
         315  1.8273749E-04
         316  2.5347797E-03
         317 -1.5815417E-03
         318 -2.5921869E-03
         319  1.4611916E-04
         320 -6.3859933E-04
         321  2.5447160E-03
         322 -5.0109020E-03
         323 -9.2776436E-03
         324 -9.2040477E-03
         325  6.1183317E-05
         326 -1.4986412E-03
         327  1.7532872E-04
         328 -3.3821762E-03
         329  5.4520166E-05
         330  3.6015876E-03
         331 -5.2139997E-03
         332 -6.6032761E-04
         333  1.7977748E-02
         334 -8.5615627E-03
         335  5.4381415E-04
         336 -5.8677069E-05
         337  5.9491619E-03
         338  1.0646082E-02
         339 -4.3262988E-03
         340  1.0799346E-03
         341 -1.8194389E-04
         342 -6.6108437E-04
         343 -2.7289108E-04
         344 -1.5871316E-04
         345 -3.9127644E-04
         346 -3.3383090E-03
         347 -4.8748432E-03
         348 -1.1174478E-02
         349 -9.9113639E-03
         350  1.3601028E-03
         351 -4.5372779E-04
         352 -8.5853727E-04
         353 -3.3665912E-03
         354 -2.9365940E-03
         355 -1.8936003E-04
         356 -2.5409830E-03
         357 -1.5770107E-03
         358 -2.6109116E-03
         359 -1.5174024E-04
         360  6.3484506E-04
         361 -2.5607073E-03
         362 -5.0104507E-03
         363 -9.3134800E-03
         364  9.2345662E-03
         365 -7.8889090E-05
         366  1.4973746E-03
         367  1.7508560E-04
         368 -3.3564304E-03
         369 -1.0092695E-04
         370 -3.5808806E-03
         371  5.2000168E-03
         372 -6.8050576E-04
         373  1.7988838E-02
         374  7.2305449E-03
         375 -4.4768644E-03
         376  1.1310657E-02
         377 -3.8576003E-03
         378  1.6724630E-03
 Sym= Particle
 Ene= -0.9565855    
 Spin= Alpha
 Occup= 2
           1 -1.6789701E-05
           2 -1.9633446E-03
           3 -0.1003335    
           4  0.2078555    
           5 -1.8285849E-04
           6  3.1938788E-04
           7  1.2407317E-02
           8 -2.5822612E-02
           9  1.3525719E-04
          10  5.4398371E-04
          11  5.6647636E-02
          12 -0.1176627    
          13 -1.0790280E-03
          14  1.2161303E-03
          15 -1.1768044E-02
          16  2.5544142E-02
          17  8.2425482E-04
          18 -1.5923579E-04
          19  0.1776959    
          20 -0.3620167    
          21 -2.2855455E-03
          22  2.3094253E-03
          23 -4.8888605E-02
          24  9.8847650E-02
          25 -2.1087841E-04
          26  1.7053222E-03
          27 -1.9378740E-02
          28  4.0206719E-02
          29 -7.8129646E-04
          30 -1.9107029E-03
          31  3.8766308E-04
          32 -9.8641440E-03
          33  5.7361308E-03
          34 -1.8589661E-02
          35 -0.1963870    
          36  0.3704214    
          37 -8.2117412E-03
          38  1.0625870E-02
          39  6.1483432E-02
          40 -0.1255421    
          41 -1.5142957E-04
          42  7.8017833E-03
          43 -9.2601106E-03
          44 -3.0362763E-02
          45 -9.4726222E-04
          46  1.3266468E-03
          47 -8.8512292E-03
          48  1.1014125E-02
          49 -2.9203242E-02
          50  3.2455379E-03
          51 -8.9971192E-02
          52 -7.9064071E-02
          53  2.8237466E-02
          54  9.4868932E-03
          55  3.1772155E-02
          56  2.7210992E-02
          57 -8.0516527E-04
          58 -1.0110958E-02
          59  5.2830852E-03
          60 -2.4344125E-03
          61  7.9911668E-03
          62  7.3150606E-03
          63  4.6936926E-03
          64  1.9165794E-03
          65 -3.4765305E-03
          66 -2.8387595E-02
          67  3.5731561E-02
          68  8.1195042E-02
          69  4.5149727E-03
          70  7.8885742E-03
          71 -9.3649179E-03
          72 -1.6169216E-02
          73 -2.8964013E-03
          74  1.5745014E-02
          75 -2.3759507E-02
          76 -5.0554682E-02
          77  4.1849394E-03
          78 -2.2303709E-03
          79  2.8818601E-03
          80  7.8439936E-03
          81 -4.4474760E-03
          82  1.5308764E-02
          83 -3.0862560E-02
          84 -5.3610496E-02
          85  3.8562622E-03
          86 -5.3619407E-03
          87  5.9023700E-03
          88  1.4555333E-02
          89  1.1166952E-03
          90 -1.1418562E-02
          91  3.6807217E-02
          92  9.7856641E-02
          93  3.4113098E-03
          94  1.4536930E-03
          95 -7.7264281E-03
          96 -2.2048507E-02
          97  4.8223117E-04
          98 -3.6855012E-02
          99  3.6609136E-02
         100  0.1101041    
         101 -2.3421950E-03
         102  9.7180735E-03
         103 -8.7225316E-03
         104 -2.8190458E-02
         105  3.6240038E-03
         106  1.5090167E-02
         107 -2.2147754E-02
         108 -4.0672079E-02
         109 -2.1642603E-03
         110 -1.2776451E-03
         111  5.3422526E-03
         112  1.0446469E-02
         113  8.3841354E-04
         114  1.8532777E-02
         115 -3.7114199E-02
         116 -7.4194908E-02
         117 -1.1206516E-03
         118 -2.9790914E-03
         119  8.8203261E-03
         120  1.5311259E-02
         121  4.1517126E-03
         122 -1.6816558E-02
         123  4.2853985E-02
         124  8.6821310E-02
         125 -2.8161560E-03
         126  1.6711877E-03
         127 -8.4441481E-03
         128 -1.4610756E-02
         129 -1.2123438E-03
         130 -4.4939183E-03
         131  1.8292313E-02
         132  2.0660194E-02
         133 -4.0188008E-03
         134 -5.7946844E-03
         135 -5.1205470E-03
         136 -6.4715161E-03
         137  2.3324063E-02
         138  7.3920213E-02
         139 -6.9007628E-02
         140 -8.5932687E-02
         141 -2.1808902E-02
         142 -3.2730538E-02
         143  1.7783362E-02
         144  2.4062885E-02
         145  5.8334293E-03
         146 -1.7114853E-02
         147  0.1964521    
         148 -0.3704945    
         149 -8.2662934E-03
         150  1.0125189E-02
         151 -6.1485671E-02
         152  0.1255897    
         153 -2.2362251E-04
         154  7.6864162E-03
         155  9.2287408E-03
         156  3.0273380E-02
         157 -8.9190406E-04
         158  1.4517099E-03
         159  8.8228974E-03
         160 -1.0982467E-02
         161 -2.9184656E-02
         162  3.5506154E-03
         163  8.9873254E-02
         164  7.9220481E-02
         165  2.8238099E-02
         166  9.3776239E-03
         167 -3.1781308E-02
         168 -2.7271280E-02
         169 -8.0408633E-04
         170 -1.0132063E-02
         171 -5.2428208E-03
         172  2.4797691E-03
         173  8.0101918E-03
         174  7.3148883E-03
         175 -4.7085569E-03
         176 -1.9488586E-03
         177 -3.4821841E-03
         178 -2.8535901E-02
         179 -3.5563357E-02
         180 -8.1350245E-02
         181  4.5330962E-03
         182  7.9282764E-03
         183  9.3273688E-03
         184  1.6209546E-02
         185 -2.8977555E-03
         186  1.5829619E-02
         187  2.3632098E-02
         188  5.0635871E-02
         189  4.1903597E-03
         190 -2.2420161E-03
         191 -2.8546203E-03
         192 -7.8541739E-03
         193 -4.4412003E-03
         194  1.5437536E-02
         195  3.0751111E-02
         196  5.3744026E-02
         197  3.8535311E-03
         198 -5.3821043E-03
         199 -5.8648982E-03
         200 -1.4578860E-02
         201  1.0989844E-03
         202 -1.1597128E-02
         203 -3.6688738E-02
         204 -9.8025963E-02
         205  3.4256692E-03
         206  1.4896530E-03
         207  7.6959399E-03
         208  2.2101203E-02
         209  4.5672027E-04
         210 -3.6975920E-02
         211 -3.6411475E-02
         212 -0.1102119    
         213 -2.3221856E-03
         214  9.7430479E-03
         215  8.6714830E-03
         216  2.8215244E-02
         217  3.6387201E-03
         218  1.5178798E-02
         219  2.2131912E-02
         220  4.0805116E-02
         221 -2.1662209E-03
         222 -1.2918802E-03
         223 -5.3420374E-03
         224 -1.0487278E-02
         225  8.3587389E-04
         226  1.8586319E-02
         227  3.7007738E-02
         228  7.4202530E-02
         229 -1.1191478E-03
         230 -2.9883184E-03
         231 -8.8019930E-03
         232 -1.5307841E-02
         233  4.1592168E-03
         234 -1.6922319E-02
         235 -4.2820748E-02
         236 -8.6968616E-02
         237 -2.8274017E-03
         238  1.7039474E-03
         239  8.4529426E-03
         240  1.4638914E-02
         241 -1.2028123E-03
         242 -4.5007830E-03
         243 -1.8207641E-02
         244 -2.0565093E-02
         245 -4.0309811E-03
         246 -5.8037206E-03
         247  5.1046382E-03
         248  6.4412639E-03
         249  2.3370273E-02
         250  7.4179642E-02
         251  6.8812415E-02
         252  8.6031526E-02
         253 -2.1834094E-02
         254 -3.2822002E-02
         255 -1.7711069E-02
         256 -2.4118874E-02
         257 -2.2979669E-04
         258  1.9553127E-03
         259  1.9292433E-02
         260 -4.0058210E-02
         261 -7.4554194E-04
         262 -2.0011652E-03
         263 -3.7321777E-04
         264  9.8211430E-03
         265  7.7920448E-04
         266 -1.9577038E-03
         267 -0.1776589    
         268  0.3619523    
         269 -2.2415847E-03
         270  2.8282038E-03
         271  4.8852269E-02
         272 -9.8816723E-02
         273  1.7309695E-04
         274 -9.0410163E-07
         275 -5.6618176E-02
         276  0.1176510    
         277 -1.1069892E-03
         278  1.3258271E-03
         279  1.1774424E-02
         280 -2.5542250E-02
         281 -1.7217933E-05
         282 -1.0582901E-03
         283  0.1002623    
         284 -0.2078587    
         285 -1.8464620E-04
         286  1.7827548E-04
         287 -1.2377183E-02
         288  2.5818465E-02
         289 -5.5878186E-03
         290  3.8198791E-03
         291 -2.9578013E-03
         292  1.0607962E-03
         293 -5.9464220E-03
         294  9.2325006E-03
         295 -1.6305384E-03
         296 -5.1255887E-03
         297  1.1112099E-02
         298  1.4841893E-03
         299  7.0495219E-03
         300 -4.2855332E-05
         301 -3.0059484E-03
         302  5.5701174E-03
         303  1.5278388E-02
         304  1.7491033E-03
         305  1.6088692E-03
         306  3.6232742E-03
         307 -5.3967503E-03
         308 -1.0806211E-02
         309  8.4961588E-03
         310 -2.0849041E-03
         311  1.0118233E-03
         312 -6.8422928E-03
         313 -8.1075374E-03
         314 -8.7121148E-03
         315  9.8200887E-04
         316  2.9708026E-03
         317 -4.7874637E-03
         318 -6.8958700E-03
         319 -4.9474509E-04
         320 -1.8046474E-03
         321  2.5267408E-03
         322 -6.8348274E-03
         323 -1.5768515E-02
         324 -7.0937295E-03
         325  7.3684711E-04
         326 -3.2666808E-03
         327  7.7902409E-03
         328  1.6937004E-02
         329 -8.0495998E-03
         330  1.2421254E-04
         331 -1.6018283E-03
         332  9.2162350E-03
         333  7.5580822E-03
         334  9.2482325E-03
         335 -1.6169000E-03
         336 -5.1128110E-03
         337 -1.1103540E-02
         338 -1.5116216E-03
         339  7.0582307E-03
         340 -3.4849654E-05
         341 -3.0214577E-03
         342 -5.5447868E-03
         343 -1.5307012E-02
         344  1.7563102E-03
         345  1.6135053E-03
         346  3.6351387E-03
         347  5.3738547E-03
         348  1.0819031E-02
         349  8.4890816E-03
         350 -2.0774379E-03
         351  1.0426677E-03
         352  6.8393159E-03
         353  8.1380801E-03
         354 -8.7437397E-03
         355  1.0016875E-03
         356  2.9928859E-03
         357  4.7770482E-03
         358  6.9056768E-03
         359 -4.9377501E-04
         360 -1.8091047E-03
         361  2.5307322E-03
         362  6.8238368E-03
         363  1.5782647E-02
         364 -7.1053333E-03
         365  7.2619802E-04
         366 -3.2833037E-03
         367 -7.7594137E-03
         368 -1.6966969E-02
         369 -8.0642775E-03
         370  1.2521436E-04
         371 -1.6096466E-03
         372 -9.2019187E-03
         373 -7.5516538E-03
         374 -5.5859480E-03
         375  3.8273963E-03
         376 -2.9967614E-03
         377 -1.0580348E-03
         378  5.9529259E-03
