 [Molden Format]
 [Atoms] Angs
C       1      6      5.59319532      2.68729162      0.74849584
N       2      7      5.19034685      1.61182395     -0.12187631
C       3      6      6.17933365      1.02336389     -0.99023670
C       4      6      3.91663648      1.11262639     -0.07623211
C       5      6      3.46659911      0.18134298     -1.02579147
C       6      6      2.18183913     -0.31379494     -0.98696422
C       7      6      1.29713929      0.09482924      0.00430614
N       8      7     -0.01898570     -0.40573797      0.03116725
C       9      6     -0.41589219     -1.71607763      0.03886942
C      10      6      0.46524794     -2.86940890      0.11275126
C      11      6      0.04657585     -4.05793905     -0.48616568
C      12      6      0.83950212     -5.18682545     -0.42981009
C      13      6      2.05871210     -5.14883443      0.22797350
C      14      6      2.47022391     -3.97899069      0.84439693
C      15      6      1.68067665     -2.84535787      0.79462990
N      16      7     -1.72406752     -1.81154818      0.00560327
C      17      6     -2.21685667     -0.54436515     -0.01618243
C      18      6     -3.65028922     -0.30711393     -0.08964930
C      19      6     -4.18071764      0.84814853     -0.66081598
C      20      6     -5.54931071      1.03317555     -0.71388417
C      21      6     -6.40699379      0.06994243     -0.20846252
C      22      6     -5.88760648     -1.09044919      0.34243692
C      23      6     -4.52087388     -1.28004513      0.39997308
C      24      6     -1.16346531      0.35759121      0.00477305
C      25      6     -1.14159032      1.81391642      0.02483235
C      26      6     -0.32718056      2.53460370     -0.84670775
C      27      6     -0.31029859      3.91618747     -0.80322581
C      28      6     -1.10306315      4.59640970      0.10561001
C      29      6     -1.92033280      3.88720531      0.97139075
C      30      6     -1.93988686      2.50663253      0.93476678
C      31      6      1.72434463      1.01544167      0.95305706
C      32      6      3.00832079      1.51459345      0.91523990
H      33      1      6.53694745      3.10002901      0.39854385
H      34      1      5.72625074      2.35047407      1.78366731
H      35      1      4.85151969      3.48883469      0.73493414
H      36      1      6.17127069     -0.06618559     -0.90547326
H      37      1      7.16785902      1.37439750     -0.70283722
H      38      1      6.01013068      1.29370200     -2.03882743
H      39      1      4.11784618     -0.14982887     -1.81724003
H      40      1      1.85465134     -1.02493873     -1.73150361
H      41      1     -0.90759550     -4.07098618     -0.98941239
H      42      1      0.50829975     -6.10097349     -0.90066026
H      43      1      2.68178101     -6.03033130      0.26852730
H      44      1      3.41129151     -3.95001952      1.37475965
H      45      1      2.00340710     -1.94815013      1.30134534
H      46      1     -3.52051294      1.59591610     -1.07474650
H      47      1     -5.95006159      1.93342851     -1.15794192
H      48      1     -7.47608915      0.22047186     -0.25086390
H      49      1     -6.55323929     -1.84914691      0.72885588
H      50      1     -4.10076095     -2.18020883      0.82141970
H      51      1      0.28380116      2.01093884     -1.56772269
H      52      1      0.32326489      4.46449378     -1.48545426
H      53      1     -1.08704464      5.67593544      0.13763517
H      54      1     -2.54214742      4.41331837      1.68103270
H      55      1     -2.57336132      1.95029051      1.61024771
H      56      1      1.04634764      1.33491499      1.73080954
H      57      1      3.30542870      2.21437210      1.67826505
 [GTO]
           1   0
s              4   1.000000
     36.97697260     -0.01198412
      6.36774065     -0.05472052
      0.51167513      0.58055871
      0.19501206      0.47700799
p              4   1.000000
      5.95980514      0.05713170
      1.54528848      0.28574555
      0.54476201      0.55178731
      0.21687914      0.26323149
s              7   1.000000
      0.38350848     -0.19445592
      0.04707223      0.93953955
      0.02222627      0.24673734
     36.97697260      0.00522369
      6.36774065      0.02385183
      0.51167513     -0.25305661
      0.19501206     -0.20792044
p              7   1.000000
      1.83062075     -0.01151288
      0.10124670      0.56576061
      0.03901771      0.59085293
      5.95980514     -0.02392308
      1.54528848     -0.11965186
      0.54476201     -0.23105304
      0.21687914     -0.11022442
 
           2   0
s              4   1.000000
     60.62781881     -0.01198412
     10.44061207     -0.05472052
      0.83894773      0.58055871
      0.31974375      0.47700800
p              4   1.000000
      7.14632080      0.05713170
      1.85293427      0.28574555
      0.65321667      0.55178731
      0.26005681      0.26323149
s              7   1.000000
      0.47894987     -0.18795781
      0.05878681      0.90814307
      0.02775758      0.23849216
     60.62781881      0.00400693
     10.44061207      0.01829601
      0.83894773     -0.19411192
      0.31974375     -0.15948936
p              7   1.000000
      2.28619608     -0.01158258
      0.12644335      0.56918557
      0.04872781      0.59442978
      7.14632080     -0.02487776
      1.85293427     -0.12442668
      0.65321667     -0.24027343
      0.26005681     -0.11462303
 
           3   0
s              4   1.000000
     36.97798661     -0.01198412
      6.36791527     -0.05472052
      0.51168916      0.58055871
      0.19501741      0.47700799
p              4   1.000000
      5.95996858      0.05713170
      1.54533086      0.28574555
      0.54477695      0.55178731
      0.21688509      0.26323149
s              7   1.000000
      0.38350848     -0.19445511
      0.04707223      0.93953561
      0.02222627      0.24673631
     36.97798661      0.00522355
      6.36791527      0.02385121
      0.51168916     -0.25304995
      0.19501741     -0.20791497
p              7   1.000000
      1.83062075     -0.01151284
      0.10124670      0.56575839
      0.03901771      0.59085058
      5.95996858     -0.02392245
      1.54533086     -0.11964870
      0.54477695     -0.23104693
      0.21688509     -0.11022151
 
           4   0
s              4   1.000000
     35.12174692     -0.01198412
      6.04825544     -0.05472053
      0.48600313      0.58055871
      0.18522782      0.47700799
p              4   1.000000
      5.66078706      0.05713170
      1.46775755      0.28574555
      0.51742996      0.55178731
      0.20599778      0.26323149
s              7   1.000000
      0.38350848     -0.19605738
      0.04707223      0.94727719
      0.02222627      0.24876936
     35.12174692      0.00548758
      6.04825544      0.02505678
      0.48600313     -0.26584055
      0.18522782     -0.21842419
p              7   1.000000
      1.83062075     -0.01160189
      0.10124670      0.57013480
      0.03901771      0.59542109
      5.66078706     -0.02513692
      1.46775755     -0.12572288
      0.51742996     -0.24277645
      0.20599778     -0.11581710
 
           5   0
s              4   1.000000
     35.02704191     -0.01198412
      6.03194645     -0.05472053
      0.48469263      0.58055871
      0.18472836      0.47700799
p              4   1.000000
      5.64552287      0.05713170
      1.46379978      0.28574555
      0.51603472      0.55178731
      0.20544231      0.26323149
s              7   1.000000
      0.38350848     -0.19614523
      0.04707223      0.94770168
      0.02222627      0.24888085
     35.02704191      0.00550175
      6.03194645      0.02512149
      0.48469263     -0.26652708
      0.18472836     -0.21898827
p              7   1.000000
      1.83062075     -0.01160678
      0.10124670      0.57037479
      0.03901771      0.59567176
      5.64552287     -0.02520209
      1.46379978     -0.12604882
      0.51603472     -0.24340585
      0.20544231     -0.11611736
 
           6   0
s              4   1.000000
     35.01214549     -0.01198412
      6.02938117     -0.05472052
      0.48448650      0.58055871
      0.18464980      0.47700799
p              4   1.000000
      5.64312192      0.05713170
      1.46317725      0.28574555
      0.51581526      0.55178731
      0.20535494      0.26323149
s              7   1.000000
      0.38350848     -0.19615911
      0.04707223      0.94776872
      0.02222627      0.24889845
     35.01214549      0.00550399
      6.02938117      0.02513170
      0.48448650     -0.26663538
      0.18464980     -0.21907725
p              7   1.000000
      1.83062075     -0.01160755
      0.10124670      0.57041268
      0.03901771      0.59571132
      5.64312192     -0.02521237
      1.46317725     -0.12610024
      0.51581526     -0.24350514
      0.20535494     -0.11616473
 
           7   0
s              4   1.000000
     35.14825299     -0.01198412
      6.05282001     -0.05472053
      0.48636991      0.58055871
      0.18536761      0.47700799
p              4   1.000000
      5.66505921      0.05713170
      1.46886526      0.28574555
      0.51782046      0.55178731
      0.20615325      0.26323149
s              7   1.000000
      0.38350848     -0.19603290
      0.04707223      0.94715894
      0.02222627      0.24873831
     35.14825299      0.00548363
      6.05282001      0.02503873
      0.48636991     -0.26564903
      0.18536761     -0.21826683
p              7   1.000000
      1.83062075     -0.01160053
      0.10124670      0.57006794
      0.03901771      0.59535127
      5.66505921     -0.02511874
      1.46886526     -0.12563195
      0.51782046     -0.24260086
      0.20615325     -0.11573334
 
           8   0
s              4   1.000000
     61.63059109     -0.01198412
     10.61329776     -0.05472052
      0.85282376      0.58055871
      0.32503224      0.47700799
p              4   1.000000
      7.26451955      0.05713170
      1.88358144      0.28574555
      0.66402075      0.55178731
      0.26435810      0.26323149
s              7   1.000000
      0.47894987     -0.18765506
      0.05878681      0.90668031
      0.02775758      0.23810802
     61.63059109      0.00394228
     10.61329776      0.01800078
      0.85282376     -0.19097970
      0.32503224     -0.15691582
p              7   1.000000
      2.28619608     -0.01155390
      0.12644335      0.56777616
      0.04872781      0.59295785
      7.26451955     -0.02448871
      1.88358144     -0.12248084
      0.66402075     -0.23651592
      0.26435810     -0.11283050
 
           9   0
s              4   1.000000
     35.84649912     -0.01198412
      6.17306377     -0.05472052
      0.49603201      0.58055871
      0.18905008      0.47700799
p              4   1.000000
      5.77759981      0.05713170
      1.49804536      0.28574555
      0.52810735      0.55178731
      0.21024863      0.26323149
s              7   1.000000
      0.38350848     -0.19540542
      0.04707223      0.94412719
      0.02222627      0.24794213
     35.84649912      0.00538145
      6.17306377      0.02457219
      0.49603201     -0.26069925
      0.18905008     -0.21419992
p              7   1.000000
      1.83062075     -0.01156565
      0.10124670      0.56835395
      0.03901771      0.59356129
      5.77759981     -0.02464883
      1.49804536     -0.12328168
      0.52810735     -0.23806239
      0.21024863     -0.11356825
 
          10   0
s              4   1.000000
     35.07420908     -0.01198412
      6.04006903     -0.05472052
      0.48534532      0.58055871
      0.18497711      0.47700799
p              4   1.000000
      5.65312510      0.05713170
      1.46577092      0.28574555
      0.51672961      0.55178731
      0.20571896      0.26323149
s              7   1.000000
      0.38350848     -0.19610140
      0.04707223      0.94748988
      0.02222627      0.24882523
     35.07420908      0.00549469
      6.04006903      0.02508922
      0.48534532     -0.26618472
      0.18497711     -0.21870698
p              7   1.000000
      1.83062075     -0.01160434
      0.10124670      0.57025505
      0.03901771      0.59554667
      5.65312510     -0.02516959
      1.46577092     -0.12588628
      0.51672961     -0.24309199
      0.20571896     -0.11596763
 
          11   0
s              4   1.000000
     35.03449200     -0.01198412
      6.03322942     -0.05472053
      0.48479573      0.58055871
      0.18476765      0.47700799
p              4   1.000000
      5.64672365      0.05713170
      1.46411112      0.28574555
      0.51614448      0.55178731
      0.20548601      0.26323149
s              7   1.000000
      0.38350848     -0.19613830
      0.04707223      0.94766818
      0.02222627      0.24887205
     35.03449200      0.00550064
      6.03322942      0.02511639
      0.48479573     -0.26647294
      0.18476765     -0.21894379
p              7   1.000000
      1.83062075     -0.01160639
      0.10124670      0.57035585
      0.03901771      0.59565197
      5.64672365     -0.02519695
      1.46411112     -0.12602312
      0.51614448     -0.24335623
      0.20548601     -0.11609369
 
          12   0
s              4   1.000000
     34.91666650     -0.01198412
      6.01293889     -0.05472053
      0.48316530      0.58055871
      0.18414625      0.47700799
p              4   1.000000
      5.62773299      0.05713170
      1.45918713      0.28574555
      0.51440862      0.55178731
      0.20479494      0.26323149
s              7   1.000000
      0.38350848     -0.19624842
      0.04707223      0.94820027
      0.02222627      0.24901179
     34.91666650      0.00551836
      6.01293889      0.02519732
      0.48316530     -0.26733160
      0.18414625     -0.21964929
p              7   1.000000
      1.83062075     -0.01161251
      0.10124670      0.57065668
      0.03901771      0.59596612
      5.62773299     -0.02527845
      1.45918713     -0.12643077
      0.51440862     -0.24414342
      0.20479494     -0.11646921
 
          13   0
s              4   1.000000
     34.91892160     -0.01198412
      6.01332724     -0.05472053
      0.48319650      0.58055871
      0.18415815      0.47700800
p              4   1.000000
      5.62809646      0.05713170
      1.45928137      0.28574555
      0.51444184      0.55178731
      0.20480816      0.26323149
s              7   1.000000
      0.38350848     -0.19624631
      0.04707223      0.94819004
      0.02222627      0.24900909
     34.91892160      0.00551802
      6.01332724      0.02519577
      0.48319650     -0.26731512
      0.18415815     -0.21963575
p              7   1.000000
      1.83062075     -0.01161240
      0.10124670      0.57065089
      0.03901771      0.59596009
      5.62809646     -0.02527689
      1.45928137     -0.12642294
      0.51444184     -0.24412830
      0.20480816     -0.11646201
 
          14   0
s              4   1.000000
     34.92190629     -0.01198412
      6.01384123     -0.05472052
      0.48323780      0.58055871
      0.18417389      0.47700799
p              4   1.000000
      5.62857752      0.05713170
      1.45940610      0.28574555
      0.51448581      0.55178731
      0.20482567      0.26323149
s              7   1.000000
      0.38350848     -0.19624351
      0.04707223      0.94817650
      0.02222627      0.24900555
     34.92190629      0.00551757
      6.01384123      0.02519371
      0.48323780     -0.26729330
      0.18417389     -0.21961783
p              7   1.000000
      1.83062075     -0.01161224
      0.10124670      0.57064324
      0.03901771      0.59595208
      5.62857752     -0.02527482
      1.45940610     -0.12641259
      0.51448581     -0.24410830
      0.20482567     -0.11645247
 
          15   0
s              4   1.000000
     35.01525592     -0.01198412
      6.02991681     -0.05472053
      0.48452954      0.58055871
      0.18466620      0.47700800
p              4   1.000000
      5.64362325      0.05713170
      1.46330724      0.28574555
      0.51586108      0.55178731
      0.20537319      0.26323149
s              7   1.000000
      0.38350848     -0.19615621
      0.04707223      0.94775472
      0.02222627      0.24889477
     35.01525592      0.00550352
      6.02991681      0.02512957
      0.48452954     -0.26661276
      0.18466620     -0.21905867
p              7   1.000000
      1.83062075     -0.01160739
      0.10124670      0.57040477
      0.03901771      0.59570307
      5.64362325     -0.02521022
      1.46330724     -0.12608950
      0.51586108     -0.24348440
      0.20537319     -0.11615484
 
          16   0
s              4   1.000000
     57.61203251     -0.01198412
      9.92126872     -0.05472052
      0.79721627      0.58055871
      0.30383886      0.47700799
p              4   1.000000
      6.79084411      0.05713170
      1.76076447      0.28574555
      0.62072396      0.55178731
      0.24712091      0.26323149
s              7   1.000000
      0.47894987     -0.18895672
      0.05878681      0.91296945
      0.02775758      0.23975964
     57.61203251      0.00421393
      9.92126872      0.01924118
      0.79721627     -0.20413978
      0.30383886     -0.16772861
p              7   1.000000
      2.28619608     -0.01167696
      0.12644335      0.57382374
      0.04872781      0.59927364
      6.79084411     -0.02612361
      1.76076447     -0.13065784
      0.62072396     -0.25230608
      0.24712091     -0.12036323
 
          17   0
s              4   1.000000
     35.69756664     -0.01198412
      6.14741636     -0.05472052
      0.49397114      0.58055871
      0.18826463      0.47700799
p              4   1.000000
      5.75359545      0.05713170
      1.49182138      0.28574555
      0.52591320      0.55178731
      0.20937511      0.26323149
s              7   1.000000
      0.38350848     -0.19553652
      0.04707223      0.94476061
      0.02222627      0.24810847
     35.69756664      0.00540293
      6.14741636      0.02467027
      0.49397114     -0.26173981
      0.18826463     -0.21505488
p              7   1.000000
      1.83062075     -0.01157294
      0.10124670      0.56871205
      0.03901771      0.59393527
      5.75359545     -0.02474762
      1.49182138     -0.12377580
      0.52591320     -0.23901656
      0.20937511     -0.11402344
 
          18   0
s              4   1.000000
     35.06325607     -0.01198412
      6.03818283     -0.05472052
      0.48519376      0.58055871
      0.18491935      0.47700800
p              4   1.000000
      5.65135973      0.05713170
      1.46531319      0.28574555
      0.51656824      0.55178731
      0.20565472      0.26323149
s              7   1.000000
      0.38350848     -0.19611156
      0.04707223      0.94753900
      0.02222627      0.24883812
     35.06325607      0.00549633
      6.03818283      0.02509671
      0.48519376     -0.26626415
      0.18491935     -0.21877223
p              7   1.000000
      1.83062075     -0.01160491
      0.10124670      0.57028281
      0.03901771      0.59557567
      5.65135973     -0.02517713
      1.46531319     -0.12592399
      0.51656824     -0.24316480
      0.20565472     -0.11600237
 
          19   0
s              4   1.000000
     35.01437685     -0.01198412
      6.02976542     -0.05472052
      0.48451738      0.58055871
      0.18466157      0.47700799
p              4   1.000000
      5.64348157      0.05713170
      1.46327050      0.28574555
      0.51584813      0.55178731
      0.20536803      0.26323149
s              7   1.000000
      0.38350848     -0.19615703
      0.04707223      0.94775867
      0.02222627      0.24889582
     35.01437685      0.00550366
      6.02976542      0.02513017
      0.48451738     -0.26661915
      0.18466157     -0.21906392
p              7   1.000000
      1.83062075     -0.01160743
      0.10124670      0.57040701
      0.03901771      0.59570538
      5.64348157     -0.02521083
      1.46327050     -0.12609253
      0.51584813     -0.24349027
      0.20536803     -0.11615763
 
          20   0
s              4   1.000000
     34.92057692     -0.01198412
      6.01361230     -0.05472052
      0.48321941      0.58055871
      0.18416688      0.47700799
p              4   1.000000
      5.62836326      0.05713170
      1.45935055      0.28574555
      0.51446623      0.55178731
      0.20481787      0.26323149
s              7   1.000000
      0.38350848     -0.19624475
      0.04707223      0.94818253
      0.02222627      0.24900714
     34.92057692      0.00551777
      6.01361230      0.02519463
      0.48321941     -0.26730302
      0.18416688     -0.21962581
p              7   1.000000
      1.83062075     -0.01161231
      0.10124670      0.57064664
      0.03901771      0.59595564
      5.62836326     -0.02527574
      1.45935055     -0.12641720
      0.51446623     -0.24411721
      0.20481787     -0.11645672
 
          21   0
s              4   1.000000
     34.91888119     -0.01198412
      6.01332028     -0.05472053
      0.48319594      0.58055871
      0.18415793      0.47700799
p              4   1.000000
      5.62808995      0.05713170
      1.45927968      0.28574555
      0.51444124      0.55178731
      0.20480792      0.26323149
s              7   1.000000
      0.38350848     -0.19624635
      0.04707223      0.94819022
      0.02222627      0.24900914
     34.91888119      0.00551803
      6.01332028      0.02519580
      0.48319594     -0.26731541
      0.18415793     -0.21963599
p              7   1.000000
      1.83062075     -0.01161240
      0.10124670      0.57065099
      0.03901771      0.59596021
      5.62808995     -0.02527692
      1.45927968     -0.12642308
      0.51444124     -0.24412857
      0.20480792     -0.11646213
 
          22   0
s              4   1.000000
     34.91674301     -0.01198412
      6.01295207     -0.05472052
      0.48316635      0.58055871
      0.18414666      0.47700800
p              4   1.000000
      5.62774532      0.05713170
      1.45919033      0.28574555
      0.51440975      0.55178730
      0.20479538      0.26323149
s              7   1.000000
      0.38350848     -0.19624835
      0.04707223      0.94819992
      0.02222627      0.24901170
     34.91674301      0.00551835
      6.01295207      0.02519727
      0.48316635     -0.26733104
      0.18414666     -0.21964883
p              7   1.000000
      1.83062075     -0.01161251
      0.10124670      0.57065648
      0.03901771      0.59596591
      5.62774532     -0.02527840
      1.45919033     -0.12643051
      0.51440975     -0.24414290
      0.20479538     -0.11646897
 
          23   0
s              4   1.000000
     35.03126679     -0.01198412
      6.03267401     -0.05472052
      0.48475110      0.58055871
      0.18475064      0.47700799
p              4   1.000000
      5.64620382      0.05713170
      1.46397634      0.28574555
      0.51609696      0.55178731
      0.20546709      0.26323149
s              7   1.000000
      0.38350848     -0.19614130
      0.04707223      0.94768267
      0.02222627      0.24887585
     35.03126679      0.00550112
      6.03267401      0.02511860
      0.48475110     -0.26649638
      0.18475064     -0.21896304
p              7   1.000000
      1.83062075     -0.01160656
      0.10124670      0.57036404
      0.03901771      0.59566051
      5.64620382     -0.02519917
      1.46397634     -0.12603425
      0.51609696     -0.24337771
      0.20546709     -0.11610393
 
          24   0
s              4   1.000000
     35.61159536     -0.01198412
      6.13261139     -0.05472053
      0.49278149      0.58055871
      0.18781122      0.47700799
p              4   1.000000
      5.73973893      0.05713170
      1.48822860      0.28574555
      0.52464663      0.55178730
      0.20887086      0.26323149
s              7   1.000000
      0.38350848     -0.19561286
      0.04707223      0.94512946
      0.02222627      0.24820535
     35.61159536      0.00541541
      6.13261139      0.02472723
      0.49278149     -0.26234418
      0.18781122     -0.21555145
p              7   1.000000
      1.83062075     -0.01157718
      0.10124670      0.56892057
      0.03901771      0.59415304
      5.73973893     -0.02480500
      1.48822860     -0.12406278
      0.52464663     -0.23957073
      0.20887086     -0.11428780
 
          25   0
s              4   1.000000
     35.06595745     -0.01198412
      6.03864803     -0.05472052
      0.48523113      0.58055871
      0.18493360      0.47700799
p              4   1.000000
      5.65179513      0.05713170
      1.46542608      0.28574555
      0.51660804      0.55178731
      0.20567056      0.26323149
s              7   1.000000
      0.38350848     -0.19610906
      0.04707223      0.94752688
      0.02222627      0.24883495
     35.06595745      0.00549592
      6.03864803      0.02509486
      0.48523113     -0.26624455
      0.18493360     -0.21875613
p              7   1.000000
      1.83062075     -0.01160477
      0.10124670      0.57027597
      0.03901771      0.59556851
      5.65179513     -0.02517527
      1.46542608     -0.12591469
      0.51660804     -0.24314684
      0.20567056     -0.11599380
 
          26   0
s              4   1.000000
     35.02657238     -0.01198412
      6.03186560     -0.05472053
      0.48468614      0.58055871
      0.18472588      0.47700799
p              4   1.000000
      5.64544720      0.05713170
      1.46378016      0.28574555
      0.51602780      0.55178731
      0.20543956      0.26323149
s              7   1.000000
      0.38350848     -0.19614567
      0.04707223      0.94770379
      0.02222627      0.24888141
     35.02657238      0.00550183
      6.03186560      0.02512181
      0.48468614     -0.26653049
      0.18472588     -0.21899107
p              7   1.000000
      1.83062075     -0.01160680
      0.10124670      0.57037598
      0.03901771      0.59567297
      5.64544720     -0.02520241
      1.46378016     -0.12605044
      0.51602780     -0.24340898
      0.20543956     -0.11611885
 
          27   0
s              4   1.000000
     34.92086029     -0.01198412
      6.01366110     -0.05472053
      0.48322333      0.58055871
      0.18416837      0.47700799
p              4   1.000000
      5.62840893      0.05713170
      1.45936239      0.28574555
      0.51447040      0.55178731
      0.20481953      0.26323149
s              7   1.000000
      0.38350848     -0.19624449
      0.04707223      0.94818125
      0.02222627      0.24900680
     34.92086029      0.00551773
      6.01366110      0.02519443
      0.48322333     -0.26730095
      0.18416837     -0.21962411
p              7   1.000000
      1.83062075     -0.01161229
      0.10124670      0.57064592
      0.03901771      0.59595491
      5.62840893     -0.02527554
      1.45936239     -0.12641622
      0.51447040     -0.24411531
      0.20481953     -0.11645581
 
          28   0
s              4   1.000000
     34.92005984     -0.01198412
      6.01352326     -0.05472053
      0.48321225      0.58055871
      0.18416415      0.47700799
p              4   1.000000
      5.62827992      0.05713170
      1.45932894      0.28574555
      0.51445861      0.55178731
      0.20481484      0.26323149
s              7   1.000000
      0.38350848     -0.19624524
      0.04707223      0.94818487
      0.02222627      0.24900775
     34.92005984      0.00551785
      6.01352326      0.02519499
      0.48321225     -0.26730680
      0.18416415     -0.21962891
p              7   1.000000
      1.83062075     -0.01161234
      0.10124670      0.57064797
      0.03901771      0.59595705
      5.62827992     -0.02527610
      1.45932894     -0.12641899
      0.51445861     -0.24412067
      0.20481484     -0.11645837
 
          29   0
s              4   1.000000
     34.91908467     -0.01198412
      6.01335532     -0.05472052
      0.48319876      0.58055871
      0.18415901      0.47700799
p              4   1.000000
      5.62812274      0.05713170
      1.45928818      0.28574555
      0.51444424      0.55178731
      0.20480912      0.26323149
s              7   1.000000
      0.38350848     -0.19624616
      0.04707223      0.94818930
      0.02222627      0.24900889
     34.91908467      0.00551800
      6.01335532      0.02519566
      0.48319876     -0.26731392
      0.18415901     -0.21963477
p              7   1.000000
      1.83062075     -0.01161239
      0.10124670      0.57065048
      0.03901771      0.59595964
      5.62812274     -0.02527677
      1.45928818     -0.12642238
      0.51444424     -0.24412721
      0.20480912     -0.11646148
 
          30   0
s              4   1.000000
     35.02617473     -0.01198412
      6.03179712     -0.05472053
      0.48468064      0.58055871
      0.18472379      0.47700800
p              4   1.000000
      5.64538310      0.05713170
      1.46376354      0.28574555
      0.51602194      0.55178731
      0.20543723      0.26323149
s              7   1.000000
      0.38350848     -0.19614604
      0.04707223      0.94770558
      0.02222627      0.24888188
     35.02617473      0.00550189
      6.03179712      0.02512209
      0.48468064     -0.26653338
      0.18472379     -0.21899345
p              7   1.000000
      1.83062075     -0.01160682
      0.10124670      0.57037699
      0.03901771      0.59567402
      5.64538310     -0.02520268
      1.46376354     -0.12605181
      0.51602194     -0.24341163
      0.20543723     -0.11612012
 
          31   0
s              4   1.000000
     35.01348674     -0.01198412
      6.02961214     -0.05472053
      0.48450506      0.58055871
      0.18465687      0.47700800
p              4   1.000000
      5.64333810      0.05713170
      1.46323330      0.28574555
      0.51583502      0.55178731
      0.20536281      0.26323149
s              7   1.000000
      0.38350848     -0.19615786
      0.04707223      0.94776269
      0.02222627      0.24889687
     35.01348674      0.00550379
      6.02961214      0.02513078
      0.48450506     -0.26662563
      0.18465687     -0.21906924
p              7   1.000000
      1.83062075     -0.01160748
      0.10124670      0.57040927
      0.03901771      0.59570776
      5.64333810     -0.02521144
      1.46323330     -0.12609561
      0.51583502     -0.24349620
      0.20536281     -0.11616046
 
          32   0
s              4   1.000000
     35.02636479     -0.01198412
      6.03182985     -0.05472052
      0.48468326      0.58055871
      0.18472479      0.47700800
p              4   1.000000
      5.64541374      0.05713170
      1.46377148      0.28574555
      0.51602474      0.55178731
      0.20543834      0.26323149
s              7   1.000000
      0.38350848     -0.19614586
      0.04707223      0.94770472
      0.02222627      0.24888166
     35.02636479      0.00550186
      6.03182985      0.02512196
      0.48468326     -0.26653200
      0.18472479     -0.21899231
p              7   1.000000
      1.83062075     -0.01160681
      0.10124670      0.57037651
      0.03901771      0.59567354
      5.64541374     -0.02520255
      1.46377148     -0.12605116
      0.51602474     -0.24341036
      0.20543834     -0.11611951
 
          33   0
s              4   1.000000
      8.30625129      0.05675242
      1.51994165      0.26014135
      0.42225643      0.53284611
      0.14014311      0.29162544
s              7   1.000000
      0.92936822     -0.06733190
      0.05643440      0.66948989
      0.02166600      0.51464116
      8.30625129     -0.02902993
      1.51994165     -0.13306718
      0.42225643     -0.27256077
      0.14014311     -0.14917188
p              4   1.000000
      0.64737396      0.05713170
      0.16785440      0.28574555
      0.05917387      0.55178731
      0.02355814      0.26323150
 
          34   0
s              4   1.000000
      8.30491616      0.05675242
      1.51969734      0.26014135
      0.42218856      0.53284611
      0.14012059      0.29162544
s              7   1.000000
      0.92936822     -0.06733361
      0.05643440      0.66950699
      0.02166600      0.51465430
      8.30491616     -0.02903350
      1.51969734     -0.13308356
      0.42218856     -0.27259433
      0.14012059     -0.14919024
p              4   1.000000
      0.64737396      0.05713170
      0.16785440      0.28574555
      0.05917387      0.55178731
      0.02355814      0.26323150
 
          35   0
s              4   1.000000
      8.30580889      0.05675242
      1.51986070      0.26014135
      0.42223394      0.53284611
      0.14013565      0.29162544
s              7   1.000000
      0.92936822     -0.06733246
      0.05643440      0.66949557
      0.02166600      0.51464553
      8.30580889     -0.02903111
      1.51986070     -0.13307261
      0.42223394     -0.27257190
      0.14013565     -0.14917797
p              4   1.000000
      0.64737396      0.05713170
      0.16785440      0.28574555
      0.05917387      0.55178731
      0.02355814      0.26323150
 
          36   0
s              4   1.000000
      8.30568943      0.05675242
      1.51983884      0.26014135
      0.42222787      0.53284611
      0.14013364      0.29162544
s              7   1.000000
      0.92936822     -0.06733262
      0.05643440      0.66949709
      0.02166600      0.51464670
      8.30568943     -0.02903143
      1.51983884     -0.13307407
      0.42222787     -0.27257490
      0.14013364     -0.14917961
p              4   1.000000
      0.64737396      0.05713170
      0.16785440      0.28574555
      0.05917387      0.55178731
      0.02355814      0.26323150
 
          37   0
s              4   1.000000
      8.30627356      0.05675242
      1.51994572      0.26014135
      0.42225757      0.53284611
      0.14014349      0.29162544
s              7   1.000000
      0.92936822     -0.06733187
      0.05643440      0.66948962
      0.02166600      0.51464093
      8.30627356     -0.02902987
      1.51994572     -0.13306691
      0.42225757     -0.27256022
      0.14014349     -0.14917157
p              4   1.000000
      0.64737396      0.05713170
      0.16785440      0.28574555
      0.05917387      0.55178731
      0.02355814      0.26323150
 
          38   0
s              4   1.000000
      8.30501054      0.05675242
      1.51971461      0.26014135
      0.42219336      0.53284611
      0.14012218      0.29162544
s              7   1.000000
      0.92936822     -0.06733349
      0.05643440      0.66950578
      0.02166600      0.51465338
      8.30501054     -0.02903325
      1.51971461     -0.13308240
      0.42219336     -0.27259196
      0.14012218     -0.14918895
p              4   1.000000
      0.64737396      0.05713170
      0.16785440      0.28574555
      0.05917387      0.55178731
      0.02355814      0.26323150
 
          39   0
s              4   1.000000
      8.31001399      0.05675242
      1.52063018      0.26014135
      0.42244771      0.53284611
      0.14020660      0.29162544
s              7   1.000000
      0.92936822     -0.06732705
      0.05643440      0.66944175
      0.02166600      0.51460416
      8.31001399     -0.02901986
      1.52063018     -0.13302103
      0.42244771     -0.27246625
      0.14020660     -0.14912015
p              4   1.000000
      0.64737396      0.05713170
      0.16785440      0.28574555
      0.05917387      0.55178731
      0.02355814      0.26323150
 
          40   0
s              4   1.000000
      8.30966590      0.05675242
      1.52056648      0.26014135
      0.42243002      0.53284611
      0.14020073      0.29162543
s              7   1.000000
      0.92936822     -0.06732750
      0.05643440      0.66944621
      0.02166600      0.51460756
      8.30966590     -0.02902079
      1.52056648     -0.13302530
      0.42243002     -0.27247499
      0.14020073     -0.14912493
p              4   1.000000
      0.64737396      0.05713170
      0.16785440      0.28574555
      0.05917387      0.55178731
      0.02355814      0.26323150
 
          41   0
s              4   1.000000
      8.30965279      0.05675242
      1.52056408      0.26014135
      0.42242935      0.53284611
      0.14020051      0.29162544
s              7   1.000000
      0.92936822     -0.06732752
      0.05643440      0.66944637
      0.02166600      0.51460771
      8.30965279     -0.02902083
      1.52056408     -0.13302546
      0.42242935     -0.27247532
      0.14020051     -0.14912511
p              4   1.000000
      0.64737396      0.05713170
      0.16785440      0.28574555
      0.05917387      0.55178731
      0.02355814      0.26323150
 
          42   0
s              4   1.000000
      8.30886522      0.05675242
      1.52041997      0.26014135
      0.42238931      0.53284611
      0.14018722      0.29162544
s              7   1.000000
      0.92936822     -0.06732853
      0.05643440      0.66945645
      0.02166600      0.51461544
      8.30886522     -0.02902293
      1.52041997     -0.13303511
      0.42238931     -0.27249510
      0.14018722     -0.14913593
p              4   1.000000
      0.64737396      0.05713170
      0.16785440      0.28574555
      0.05917387      0.55178731
      0.02355814      0.26323150
 
          43   0
s              4   1.000000
      8.30875468      0.05675242
      1.52039974      0.26014135
      0.42238370      0.53284611
      0.14018535      0.29162544
s              7   1.000000
      0.92936822     -0.06732867
      0.05643440      0.66945785
      0.02166600      0.51461653
      8.30875468     -0.02902323
      1.52039974     -0.13303647
      0.42238370     -0.27249788
      0.14018535     -0.14913745
p              4   1.000000
      0.64737396      0.05713170
      0.16785440      0.28574555
      0.05917387      0.55178731
      0.02355814      0.26323150
 
          44   0
s              4   1.000000
      8.30891044      0.05675242
      1.52042824      0.26014135
      0.42239161      0.53284611
      0.14018798      0.29162543
s              7   1.000000
      0.92936822     -0.06732847
      0.05643440      0.66945587
      0.02166600      0.51461499
      8.30891044     -0.02902281
      1.52042824     -0.13303456
      0.42239161     -0.27249396
      0.14018798     -0.14913531
p              4   1.000000
      0.64737396      0.05713170
      0.16785440      0.28574555
      0.05917387      0.55178731
      0.02355814      0.26323150
 
          45   0
s              4   1.000000
      8.31019071      0.05675242
      1.52066251      0.26014135
      0.42245670      0.53284611
      0.14020958      0.29162544
s              7   1.000000
      0.92936822     -0.06732683
      0.05643440      0.66943950
      0.02166600      0.51460242
      8.31019071     -0.02901939
      1.52066251     -0.13301886
      0.42245670     -0.27246181
      0.14020958     -0.14911771
p              4   1.000000
      0.64737396      0.05713170
      0.16785440      0.28574555
      0.05917387      0.55178731
      0.02355814      0.26323150
 
          46   0
s              4   1.000000
      8.31004828      0.05675242
      1.52063645      0.26014135
      0.42244946      0.53284611
      0.14020718      0.29162544
s              7   1.000000
      0.92936822     -0.06732701
      0.05643440      0.66944131
      0.02166600      0.51460381
      8.31004828     -0.02901977
      1.52063645     -0.13302061
      0.42244946     -0.27246538
      0.14020718     -0.14911967
p              4   1.000000
      0.64737396      0.05713170
      0.16785440      0.28574555
      0.05917387      0.55178731
      0.02355814      0.26323150
 
          47   0
s              4   1.000000
      8.30886636      0.05675242
      1.52042017      0.26014135
      0.42238937      0.53284611
      0.14018724      0.29162544
s              7   1.000000
      0.92936822     -0.06732853
      0.05643440      0.66945644
      0.02166600      0.51461544
      8.30886636     -0.02902293
      1.52042017     -0.13303510
      0.42238937     -0.27249507
      0.14018724     -0.14913592
p              4   1.000000
      0.64737396      0.05713170
      0.16785440      0.28574555
      0.05917387      0.55178731
      0.02355814      0.26323150
 
          48   0
s              4   1.000000
      8.30872387      0.05675242
      1.52039410      0.26014135
      0.42238213      0.53284611
      0.14018483      0.29162543
s              7   1.000000
      0.92936822     -0.06732871
      0.05643440      0.66945825
      0.02166600      0.51461683
      8.30872387     -0.02902331
      1.52039410     -0.13303685
      0.42238213     -0.27249865
      0.14018483     -0.14913788
p              4   1.000000
      0.64737396      0.05713170
      0.16785440      0.28574555
      0.05917387      0.55178731
      0.02355814      0.26323150
 
          49   0
s              4   1.000000
      8.30882758      0.05675242
      1.52041308      0.26014135
      0.42238740      0.53284611
      0.14018658      0.29162544
s              7   1.000000
      0.92936822     -0.06732858
      0.05643440      0.66945693
      0.02166600      0.51461581
      8.30882758     -0.02902303
      1.52041308     -0.13303558
      0.42238740     -0.27249604
      0.14018658     -0.14913645
p              4   1.000000
      0.64737396      0.05713170
      0.16785440      0.28574555
      0.05917387      0.55178731
      0.02355814      0.26323150
 
          50   0
s              4   1.000000
      8.30969155      0.05675242
      1.52057117      0.26014135
      0.42243132      0.53284611
      0.14020116      0.29162544
s              7   1.000000
      0.92936822     -0.06732747
      0.05643440      0.66944588
      0.02166600      0.51460732
      8.30969155     -0.02902072
      1.52057117     -0.13302498
      0.42243132     -0.27247434
      0.14020116     -0.14912458
p              4   1.000000
      0.64737396      0.05713170
      0.16785440      0.28574555
      0.05917387      0.55178731
      0.02355814      0.26323150
 
          51   0
s              4   1.000000
      8.30981939      0.05675242
      1.52059457      0.26014135
      0.42243782      0.53284611
      0.14020331      0.29162544
s              7   1.000000
      0.92936822     -0.06732730
      0.05643440      0.66944425
      0.02166600      0.51460607
      8.30981939     -0.02902038
      1.52059457     -0.13302342
      0.42243782     -0.27247113
      0.14020331     -0.14912282
p              4   1.000000
      0.64737396      0.05713170
      0.16785440      0.28574555
      0.05917387      0.55178731
      0.02355814      0.26323150
 
          52   0
s              4   1.000000
      8.30891251      0.05675242
      1.52042862      0.26014135
      0.42239172      0.53284611
      0.14018801      0.29162544
s              7   1.000000
      0.92936822     -0.06732847
      0.05643440      0.66945584
      0.02166600      0.51461499
      8.30891251     -0.02902281
      1.52042862     -0.13303453
      0.42239172     -0.27249391
      0.14018801     -0.14913529
p              4   1.000000
      0.64737396      0.05713170
      0.16785440      0.28574555
      0.05917387      0.55178731
      0.02355814      0.26323150
 
          53   0
s              4   1.000000
      8.30878303      0.05675242
      1.52040493      0.26014135
      0.42238514      0.53284611
      0.14018583      0.29162544
s              7   1.000000
      0.92936822     -0.06732864
      0.05643440      0.66945750
      0.02166600      0.51461626
      8.30878303     -0.02902315
      1.52040493     -0.13303612
      0.42238514     -0.27249716
      0.14018583     -0.14913706
p              4   1.000000
      0.64737396      0.05713170
      0.16785440      0.28574555
      0.05917387      0.55178731
      0.02355814      0.26323150
 
          54   0
s              4   1.000000
      8.30889765      0.05675242
      1.52042590      0.26014135
      0.42239096      0.53284611
      0.14018776      0.29162544
s              7   1.000000
      0.92936822     -0.06732849
      0.05643440      0.66945604
      0.02166600      0.51461512
      8.30889765     -0.02902285
      1.52042590     -0.13303472
      0.42239096     -0.27249428
      0.14018776     -0.14913549
p              4   1.000000
      0.64737396      0.05713170
      0.16785440      0.28574555
      0.05917387      0.55178731
      0.02355814      0.26323150
 
          55   0
s              4   1.000000
      8.30957900      0.05675242
      1.52055058      0.26014135
      0.42242560      0.53284611
      0.14019926      0.29162544
s              7   1.000000
      0.92936822     -0.06732761
      0.05643440      0.66944731
      0.02166600      0.51460843
      8.30957900     -0.02902102
      1.52055058     -0.13302636
      0.42242560     -0.27247717
      0.14019926     -0.14912612
p              4   1.000000
      0.64737396      0.05713170
      0.16785440      0.28574555
      0.05917387      0.55178731
      0.02355814      0.26323150
 
          56   0
s              4   1.000000
      8.30978004      0.05675242
      1.52058737      0.26014135
      0.42243582      0.53284611
      0.14020265      0.29162544
s              7   1.000000
      0.92936822     -0.06732735
      0.05643440      0.66944474
      0.02166600      0.51460645
      8.30978004     -0.02902048
      1.52058737     -0.13302390
      0.42243582     -0.27247212
      0.14020265     -0.14912336
p              4   1.000000
      0.64737396      0.05713170
      0.16785440      0.28574555
      0.05917387      0.55178731
      0.02355814      0.26323150
 
          57   0
s              4   1.000000
      8.31001783      0.05675242
      1.52063088      0.26014135
      0.42244791      0.53284611
      0.14020666      0.29162544
s              7   1.000000
      0.92936822     -0.06732705
      0.05643440      0.66944170
      0.02166600      0.51460411
      8.31001783     -0.02901985
      1.52063088     -0.13302098
      0.42244791     -0.27246615
      0.14020666     -0.14912009
p              4   1.000000
      0.64737396      0.05713170
      0.16785440      0.28574555
      0.05917387      0.55178731
      0.02355814      0.26323150
 
 [MO]
 Sym= Hole
 Ene= -0.6218776    
 Spin= Alpha
 Occup= 0
           1 -1.1137008E-04
           2  4.4360785E-03
           3 -1.7522268E-02
           4  2.4779353E-02
           5  1.8036381E-03
           6 -6.7182961E-03
           7  1.4049609E-02
           8 -1.6592853E-02
           9  1.1845617E-02
          10 -0.1282493    
          11  0.3186098    
          12 -0.3436172    
          13 -5.2224090E-03
          14  8.2627535E-03
          15 -2.3091560E-02
          16  3.0452063E-02
          17 -5.2689263E-03
          18  1.7544944E-02
          19 -1.9824140E-02
          20  1.7945513E-02
          21  4.0704585E-03
          22 -8.4250318E-03
          23  1.5935849E-02
          24 -1.4312706E-02
          25 -1.4909350E-03
          26  5.7446554E-02
          27 -0.1472725    
          28  0.1287580    
          29  2.0288038E-03
          30 -3.6443502E-03
          31  1.3248508E-02
          32 -1.2896044E-02
          33 -8.1370277E-03
          34  9.2328981E-02
          35 -0.2437059    
          36  0.1701540    
          37  5.0347899E-03
          38 -3.7827478E-03
          39  1.6771263E-02
          40 -8.8517005E-03
          41  5.0498601E-03
          42 -3.5013475E-02
          43  8.4153078E-02
          44 -5.6195680E-02
          45 -1.8847995E-03
          46  3.8773127E-04
          47 -1.7811893E-03
          48  3.4188542E-03
          49 -3.0394415E-03
          50 -0.1167941    
          51  0.2954877    
          52 -0.2380017    
          53  3.0387033E-04
          54  5.7829628E-03
          55 -1.7016694E-02
          56  1.6569136E-02
          57  1.0223421E-02
          58  7.1460679E-03
          59 -3.0972408E-02
          60  5.1226899E-02
          61 -3.7953018E-03
          62  3.9687003E-03
          63 -4.0279864E-03
          64 -9.0322960E-03
          65  2.0650968E-02
          66  2.6512468E-02
          67  4.5344874E-02
          68 -0.1356627    
          69 -1.0490807E-02
          70 -7.2189779E-03
          71 -5.9302310E-03
          72  1.7937617E-03
          73 -7.4344608E-03
          74 -1.0135193E-02
          75 -2.6424678E-02
          76  4.0240012E-02
          77  3.8932976E-03
          78 -1.3600733E-03
          79  3.2926421E-03
          80 -3.5575251E-03
          81 -2.6466898E-03
          82 -3.2232605E-02
          83 -2.0660080E-02
          84  7.1411185E-02
          85  5.0270981E-03
          86  3.0256525E-04
          87  2.5538674E-03
          88 -4.2433816E-04
          89  6.4602157E-04
          90 -1.7342536E-03
          91 -2.1337129E-03
          92  4.7345385E-03
          93 -5.0561893E-04
          94  1.5304799E-04
          95 -2.4104172E-03
          96  2.0216734E-04
          97  2.5700782E-03
          98  3.3927191E-02
          99  2.5451167E-02
         100 -5.8482181E-02
         101 -4.8007705E-04
         102 -1.3411185E-03
         103 -1.2427461E-03
         104  1.3252710E-03
         105 -7.5059342E-03
         106  2.4231328E-02
         107 -3.9772890E-03
         108 -2.9808011E-02
         109  3.1570487E-03
         110 -9.6834864E-04
         111  4.2475050E-04
         112  9.2640496E-04
         113  1.6201295E-02
         114 -3.0861164E-02
         115  8.7123076E-03
         116  5.4464307E-02
         117 -6.9239289E-03
         118  6.0820510E-04
         119  2.4437367E-03
         120 -9.5144135E-04
         121  1.6624477E-02
         122 -2.5147192E-02
         123 -2.8899714E-02
         124 -0.1396700    
         125 -6.4921821E-03
         126  5.9101093E-03
         127  3.3713009E-03
         128  3.4602089E-03
         129 -4.4509902E-04
         130 -2.9449200E-03
         131  2.0521015E-02
         132  0.1697400    
         133  4.7570439E-03
         134  1.2161082E-03
         135 -6.4428807E-03
         136 -4.2488021E-03
         137 -6.5481765E-03
         138 -1.1217800E-02
         139 -1.5359838E-02
         140 -5.3710755E-02
         141  4.6643494E-03
         142  1.6447208E-03
         143 -3.6504466E-04
         144 -7.9359254E-04
         145  4.1747671E-03
         146  1.6378399E-03
         147 -4.6642713E-02
         148 -6.0106896E-02
         149 -1.9993195E-03
         150 -4.3244381E-04
         151  2.1539943E-03
         152 -5.5099721E-05
         153 -2.2369178E-03
         154 -2.7026569E-03
         155  7.0722904E-03
         156  9.9387383E-03
         157  7.6689571E-04
         158  7.1893225E-04
         159  5.5760657E-04
         160 -5.0701981E-04
         161 -7.4572896E-04
         162  1.6323500E-03
         163  3.1176334E-02
         164  6.9160089E-02
         165 -2.3707034E-05
         166 -3.6708472E-04
         167  3.3845881E-04
         168 -1.8120332E-03
         169  4.4346173E-04
         170  1.1597569E-03
         171  8.0123907E-03
         172  1.3413968E-02
         173 -5.1631996E-05
         174 -7.2362024E-04
         175  3.1945206E-06
         176 -3.3268367E-05
         177 -4.8923693E-03
         178 -7.3718843E-03
         179 -3.8697828E-02
         180 -6.5662637E-02
         181  3.1599088E-03
         182 -6.2947971E-04
         183  4.8776474E-04
         184 -8.8907464E-04
         185 -2.1162914E-02
         186 -6.6638023E-02
         187  2.0645956E-02
         188  0.3179012    
         189  1.4497974E-02
         190  8.0440808E-03
         191 -5.4472396E-03
         192 -1.0027081E-02
         193  2.1537475E-03
         194 -3.6429401E-02
         195 -6.6433223E-03
         196 -6.8231322E-02
         197  7.2760601E-04
         198  4.8641008E-03
         199  2.6119796E-03
         200  3.3723556E-03
         201  1.4589990E-02
         202 -0.1082698    
         203 -1.0624341E-02
         204 -3.5940859E-02
         205 -8.7170871E-03
         206  3.7087093E-03
         207  2.9747568E-03
         208 -2.7025728E-03
         209 -3.2945231E-03
         210 -1.1302351E-03
         211  2.4776869E-03
         212 -9.8689888E-03
         213  5.5929576E-04
         214 -1.4540842E-03
         215 -1.6424631E-03
         216 -5.5442256E-04
         217 -2.1942342E-03
         218  6.2376305E-02
         219 -5.5279845E-04
         220  7.0595071E-02
         221  4.3298129E-04
         222  1.0676047E-04
         223 -5.9636066E-05
         224 -3.9151814E-03
         225  9.1134682E-03
         226  2.9510655E-02
         227 -1.6292576E-02
         228  2.0794895E-02
         229 -3.3038568E-03
         230 -7.4259302E-04
         231  2.3161008E-03
         232 -1.3219618E-03
         233 -2.6649015E-02
         234 -8.3732955E-02
         235  3.1804461E-02
         236 -2.6705161E-02
         237  1.1709031E-02
         238  3.4715652E-03
         239  8.4790942E-04
         240 -7.4974215E-04
         241 -2.7849725E-03
         242 -4.1765679E-02
         243  9.0491191E-02
         244 -6.4527802E-02
         245  8.7226019E-04
         246 -9.2315971E-04
         247 -2.4742503E-03
         248  2.2854649E-03
         249  8.0382666E-03
         250  0.1021299    
         251 -0.2254759    
         252  0.1585406    
         253 -4.5213988E-03
         254 -8.8899760E-03
         255  1.3796319E-02
         256 -8.8494811E-03
         257 -3.8362823E-02
         258  1.0132939E-02
         259 -7.6036188E-03
         260 -9.8454719E-03
         261 -2.6612054E-03
         262  0.1347508    
         263 -2.7521513E-02
         264  7.7089421E-03
         265  1.5025343E-02
         266  3.1077169E-02
         267 -9.7573109E-02
         268  2.0934561E-02
         269  5.2592065E-03
         270 -2.4235314E-02
         271 -1.2345645E-02
         272  0.1028662    
         273 -2.0219659E-02
         274  1.1361654E-02
         275 -2.2574682E-02
         276 -1.1269994E-02
         277  3.4639671E-02
         278 -7.8265211E-03
         279  9.9281985E-03
         280 -2.3577078E-03
         281 -2.0613188E-03
         282 -0.1313680    
         283  2.8494133E-02
         284 -1.5386369E-02
         285  8.3270436E-03
         286  3.1289015E-02
         287  5.2011432E-03
         288 -4.8660255E-05
         289  7.3837037E-03
         290 -1.5151833E-02
         291  1.3654061E-02
         292 -7.0679104E-03
         293 -8.7497378E-04
         294  1.8129428E-03
         295  1.2064815E-03
         296 -3.5332746E-04
         297 -7.2435928E-06
         298  2.2640817E-03
         299 -4.1799378E-03
         300  5.7555754E-03
         301  9.1673882E-04
         302  3.0501671E-03
         303 -5.6269881E-04
         304  9.7562253E-05
         305  3.2763238E-04
         306 -5.6570658E-04
         307 -4.8463531E-03
         308  6.0766761E-04
         309  1.1743408E-05
         310  1.2023742E-03
         311 -2.8726005E-03
         312  1.5266561E-03
         313  2.3837970E-03
         314  5.1913818E-04
         315  3.1669056E-03
         316 -1.3294639E-03
         317  1.5730251E-02
         318 -1.6620737E-03
         319  4.2363298E-03
         320 -5.2836020E-03
         321  1.3200912E-03
         322 -2.3181166E-03
         323 -1.9306849E-03
         324 -7.2741945E-04
         325  1.3101724E-03
         326 -1.1763874E-03
         327  5.2754600E-03
         328 -7.5402868E-04
         329  5.9164013E-04
         330  1.0896559E-03
         331  9.7153184E-04
         332 -4.6151996E-04
         333 -6.3695083E-04
         334 -4.0495777E-04
         335  1.7944623E-03
         336  3.0919143E-03
         337 -2.2925199E-03
         338 -7.3462736E-04
         339 -8.3576061E-04
         340  8.4820745E-04
         341  2.3489988E-03
         342  4.4367509E-03
         343 -1.3833422E-03
         344 -6.6265813E-04
         345 -1.8162087E-03
         346 -3.8869514E-03
         347 -2.2670163E-02
         348 -1.2259575E-03
         349 -5.1755309E-03
         350  1.6702774E-03
         351  2.0203362E-03
         352  1.4453740E-02
         353 -2.7356429E-03
         354 -1.3393223E-03
         355  2.1057208E-04
         356 -1.4511215E-04
         357  3.5468505E-03
         358 -4.0756975E-04
         359  4.8470222E-03
         360  6.9950108E-04
         361  4.3536979E-03
         362 -1.5833901E-02
         363  5.7746767E-04
         364  2.1867056E-03
         365  1.2266248E-03
         366  8.0285285E-04
         367  8.6731212E-03
         368  5.1587319E-04
         369 -5.3485795E-03
         370 -4.9511320E-03
         371  2.2751712E-03
         372  1.0196341E-02
         373  2.2872332E-04
         374 -6.7239424E-04
         375 -2.3615686E-03
         376 -4.1608579E-04
         377 -4.1306727E-03
         378 -8.9358329E-04
         379  4.4859871E-03
         380 -1.6423576E-02
         381  1.4577616E-02
 Sym= Particle
 Ene= -0.6218776    
 Spin= Alpha
 Occup= 2
           1 -1.1442587E-02
           2 -6.5850439E-03
           3  2.2993251E-03
           4 -1.1965765E-02
           5  2.4457181E-02
           6  3.5278082E-03
           7  3.4211827E-03
           8  2.3233020E-03
           9  1.0564295E-02
          10 -3.2593597E-02
          11  8.8540085E-02
          12 -9.8714381E-02
          13 -4.8829606E-03
          14  7.3475358E-03
          15 -3.5517026E-02
          16  3.9070554E-02
          17 -1.9516580E-02
          18  2.2813447E-03
          19  1.3424720E-03
          20 -1.2329993E-02
          21  3.1205803E-02
          22 -2.1305904E-03
          23  6.3605455E-04
          24  7.7389885E-04
          25 -2.9362307E-03
          26  7.8569278E-02
          27 -0.2021662    
          28  0.1631827    
          29  1.1966217E-02
          30 -3.3257421E-02
          31  8.5709728E-02
          32 -7.3131301E-02
          33 -1.4334206E-02
          34 -1.7985286E-02
          35  4.4523943E-02
          36 -2.8967317E-02
          37  1.5980106E-02
          38  5.7824533E-03
          39 -6.4675985E-03
          40  2.2938962E-03
          41  1.9309534E-02
          42 -6.6945292E-02
          43  0.1313056    
          44 -6.9535896E-02
          45 -1.2592626E-02
          46  1.9487754E-02
          47 -4.3802265E-02
          48  1.5138336E-02
          49 -3.3263783E-03
          50  7.9617254E-02
          51 -0.1754299    
          52  0.1410767    
          53  8.1560863E-03
          54 -3.2613460E-02
          55  5.9169546E-02
          56 -4.5183323E-02
          57  2.0233185E-03
          58 -9.7266687E-03
          59  3.7605286E-02
          60  0.2477452    
          61 -4.0861691E-04
          62  1.0500660E-02
          63 -3.7056450E-02
          64 -9.1296852E-02
          65 -1.1774885E-02
          66 -2.4578846E-03
          67 -3.1906918E-02
          68 -0.3300463    
          69  1.1708213E-02
          70  2.5065856E-02
          71  2.1628985E-02
          72  0.1259998    
          73  4.2062663E-03
          74  0.1427151    
          75  8.7884180E-02
          76 -0.2714803    
          77  4.0260886E-04
          78 -4.2975400E-02
          79 -2.6361343E-02
          80  8.0307119E-02
          81 -1.3853232E-02
          82 -0.1121278    
          83 -8.2684971E-02
          84  0.1688846    
          85  6.8068607E-03
          86  3.3509877E-02
          87  2.4033641E-02
          88 -4.3937139E-02
          89  5.1400592E-03
          90 -5.7271652E-02
          91 -2.8667562E-02
          92  9.8649144E-02
          93 -3.5726021E-03
          94  1.1363482E-02
          95  7.1107689E-03
          96 -2.2191999E-02
          97  7.7810819E-04
          98  0.1304150    
          99  7.9617806E-02
         100 -0.2558476    
         101 -1.3914504E-03
         102 -2.5926281E-02
         103 -1.4647163E-02
         104  5.5604212E-02
         105 -2.8808562E-03
         106 -3.7753750E-02
         107 -2.7655637E-02
         108  7.5215697E-02
         109 -6.9404178E-04
         110  7.5667924E-03
         111  3.7846609E-03
         112 -1.4811645E-02
         113  8.5421056E-03
         114 -0.1384826    
         115 -7.9897940E-02
         116  0.1906971    
         117 -4.6624765E-03
         118  4.1760739E-02
         119  2.6161244E-02
         120 -4.9798273E-02
         121  3.5161180E-03
         122  2.4536753E-02
         123  7.1537606E-03
         124  0.2458980    
         125 -5.0519374E-03
         126 -1.4290727E-02
         127 -7.3429145E-04
         128 -7.1235061E-02
         129 -1.1129097E-02
         130 -1.4383336E-02
         131 -1.8198492E-02
         132  3.5472143E-02
         133  3.5996281E-03
         134 -6.6954366E-05
         135  1.1639247E-02
         136 -1.2144911E-03
         137  6.5451325E-03
         138  9.3516409E-03
         139 -4.3889180E-02
         140 -8.5220024E-02
         141 -6.7070927E-03
         142 -9.4583789E-03
         143  2.1685420E-02
         144  3.9871033E-02
         145  1.6187787E-03
         146  1.9350392E-03
         147  1.6012702E-02
         148  3.6712494E-02
         149 -5.4734661E-03
         150 -1.5161606E-03
         151 -5.3621097E-03
         152 -2.2490300E-02
         153  2.3305174E-03
         154  3.6578942E-03
         155  1.6719680E-02
         156  3.0289119E-02
         157 -2.2998608E-03
         158 -1.4049701E-03
         159 -5.2025486E-03
         160 -9.1347611E-03
         161 -3.6407134E-04
         162 -2.4297626E-03
         163 -2.9445674E-02
         164 -5.9060086E-02
         165  1.2341898E-03
         166  2.2335248E-03
         167  7.9500042E-03
         168  1.5109345E-02
         169  3.6071765E-03
         170  5.7567493E-03
         171  1.2414476E-02
         172  2.8725879E-02
         173 -1.4225660E-03
         174 -2.5339474E-03
         175 -3.9395466E-03
         176 -1.1212638E-02
         177 -4.8451140E-03
         178 -4.3403702E-03
         179  1.4890949E-02
         180  3.1062653E-02
         181  2.9416601E-03
         182  8.6104719E-04
         183 -7.7243610E-03
         184 -4.9924329E-03
         185  1.6688503E-02
         186  2.4679245E-02
         187 -1.0866321E-02
         188 -0.2289873    
         189 -1.7008666E-02
         190 -2.2798931E-02
         191  7.8352308E-04
         192  7.3734455E-02
         193 -5.6292629E-03
         194 -0.1329883    
         195  1.3631816E-02
         196 -0.1233085    
         197  3.4031752E-03
         198  3.9585717E-02
         199 -8.6882710E-03
         200  3.1205161E-02
         201 -1.5102994E-02
         202  0.1160387    
         203  9.0180365E-03
         204  7.8699946E-02
         205  1.4295175E-02
         206 -4.0378902E-02
         207 -3.7405537E-03
         208 -1.8818509E-02
         209  1.3361556E-03
         210  3.6323968E-02
         211 -6.1719734E-03
         212  3.6154535E-02
         213  2.1434275E-03
         214 -7.8573413E-03
         215  2.8016327E-03
         216 -6.5244050E-03
         217 -7.3100353E-04
         218 -0.1251049    
         219  3.6266819E-03
         220 -0.1202126    
         221  3.6856576E-04
         222  2.6964327E-02
         223  1.8658236E-03
         224  2.7892975E-02
         225 -8.4545109E-03
         226  5.7673592E-02
         227  6.5109935E-03
         228  5.0203957E-02
         229  4.8235566E-03
         230 -1.4972872E-02
         231  9.3754286E-05
         232 -1.3718776E-02
         233  1.4341556E-02
         234  9.9151172E-02
         235 -1.5249191E-02
         236  6.0146876E-02
         237 -8.8589936E-03
         238 -2.7851824E-02
         239  9.4906725E-03
         240 -2.2578051E-02
         241 -2.4584752E-02
         242 -4.0376406E-02
         243  0.1485001    
         244 -8.3435230E-02
         245  2.5871236E-02
         246  6.9937175E-03
         247 -5.0740410E-02
         248  2.8058618E-02
         249  6.2120343E-03
         250 -2.2034507E-02
         251  3.5363294E-02
         252 -3.5613615E-02
         253  3.6064091E-03
         254  8.6156279E-04
         255 -4.4171466E-03
         256  7.1457941E-03
         257 -8.9772260E-03
         258  1.8250963E-02
         259 -1.8067803E-03
         260  3.7886647E-03
         261 -1.7888144E-02
         262  5.2195612E-02
         263 -2.3651086E-02
         264  7.7584558E-03
         265  9.1457274E-03
         266  3.6262967E-02
         267 -2.6432926E-02
         268  2.8290290E-02
         269  6.9678650E-04
         270 -7.3898803E-03
         271 -2.0283729E-02
         272  4.0265106E-02
         273 -1.6453633E-02
         274  9.0619680E-03
         275 -2.7125062E-02
         276 -1.4750001E-02
         277  1.9528668E-02
         278 -2.2479562E-05
         279  1.8620884E-02
         280  9.2848884E-03
         281 -1.0350882E-02
         282 -3.7329711E-02
         283  3.7497096E-02
         284 -1.4096568E-02
         285  1.4668895E-02
         286  1.2817297E-02
         287  1.3934329E-02
         288  7.5705675E-04
         289  1.1967130E-03
         290  1.8153235E-02
         291 -2.2017684E-02
         292 -2.7422109E-04
         293 -3.7244759E-03
         294 -1.7130634E-02
         295  1.4618639E-02
         296 -2.0370821E-02
         297  2.8969322E-03
         298 -5.1143714E-03
         299 -7.1200198E-03
         300 -2.4381930E-02
         301  4.1962631E-02
         302 -8.8472124E-03
         303  3.7999309E-03
         304 -1.2276683E-02
         305 -3.7067914E-03
         306  2.2372417E-02
         307  1.0115173E-04
         308 -1.8150211E-04
         309  2.8346352E-02
         310  2.0324230E-02
         311 -5.5692635E-02
         312  1.0246832E-02
         313 -5.4823859E-03
         314 -7.5996704E-03
         315 -7.1998690E-03
         316  1.4882995E-02
         317 -6.3065160E-04
         318 -1.9867201E-03
         319 -3.3809826E-02
         320 -4.8852116E-03
         321  3.7576858E-02
         322 -1.3429561E-03
         323 -2.4550682E-04
         324  8.7224841E-03
         325 -3.9008001E-03
         326  4.4321907E-03
         327  2.1841680E-04
         328  1.6524742E-03
         329  4.2121109E-04
         330  1.5763894E-03
         331  7.4522421E-03
         332  1.3613892E-03
         333  2.5562032E-03
         334  1.7225271E-03
         335 -8.0328016E-03
         336 -1.5472766E-02
         337 -7.5095083E-04
         338  1.8655520E-03
         339  1.9583907E-03
         340  4.0532034E-03
         341  3.4623041E-03
         342  8.2274392E-04
         343  5.7718251E-03
         344  1.5403098E-02
         345  3.7350159E-03
         346  2.3201538E-02
         347  5.3534284E-03
         348 -2.9192111E-03
         349  2.4706414E-02
         350  4.0678955E-03
         351  5.0798901E-03
         352 -6.3457317E-03
         353 -1.6970435E-03
         354  1.1951989E-02
         355  4.2487137E-04
         356  7.4679642E-03
         357 -8.8200020E-04
         358 -4.6820277E-03
         359 -2.7216323E-02
         360  5.4341992E-03
         361 -2.6613258E-02
         362  7.3852730E-03
         363 -6.9567594E-03
         364  9.0745706E-03
         365  4.6892436E-03
         366  1.5504852E-02
         367 -5.2081747E-03
         368 -6.3882093E-03
         369  1.3578267E-02
         370  9.2036109E-03
         371  1.2508907E-02
         372  9.8598488E-03
         373  1.8373285E-03
         374 -1.3850463E-02
         375  2.3030454E-02
         376 -1.0741218E-02
         377 -8.0333613E-03
         378  5.0005610E-03
         379 -9.5971497E-03
         380  1.7864829E-02
         381 -8.9683095E-03
 Sym= Hole
 Ene= -0.2779697    
 Spin= Alpha
 Occup= 0
           1 -1.2448839E-04
           2 -1.6475471E-03
           3  8.2653705E-03
           4 -1.2407057E-02
           5 -4.5183761E-04
           6  3.2597862E-03
           7 -7.2525926E-03
           8  8.3942693E-03
           9 -5.8978703E-03
          10  6.6966414E-02
          11 -0.1677803    
          12  0.1808371    
          13  3.2378377E-03
          14 -5.8295298E-03
          15  1.3235443E-02
          16 -1.8958589E-02
          17  2.7004231E-03
          18 -8.9412192E-03
          19  8.5388748E-03
          20 -8.4786238E-03
          21 -2.0336634E-03
          22  3.6196860E-03
          23 -8.3921300E-03
          24  7.3500508E-03
          25 -1.2529911E-05
          26 -3.1393677E-02
          27  8.1090309E-02
          28 -7.5786129E-02
          29 -1.4586214E-03
          30  2.1412221E-03
          31 -9.4870683E-03
          32  9.5488485E-03
          33  9.5000733E-03
          34 -5.1066279E-02
          35  0.1154578    
          36 -7.8906663E-02
          37 -5.5236081E-03
          38  3.4026026E-03
          39 -9.4901230E-03
          40  5.0003650E-03
          41 -1.6239464E-02
          42  4.1580439E-02
          43 -6.3036285E-02
          44  2.8505869E-02
          45  8.6392919E-03
          46 -8.4736776E-03
          47  4.6300553E-03
          48 -1.3441537E-03
          49  1.8265049E-03
          50  5.2362233E-02
          51 -0.1308870    
          52  0.1199686    
          53 -2.7083615E-03
          54 -3.1646953E-03
          55  1.0554807E-02
          56 -1.9246789E-02
          57 -1.0875163E-03
          58 -4.7403867E-03
          59  1.1905089E-02
          60 -0.1959140    
          61 -2.6484387E-04
          62  1.2657053E-03
          63  3.2860467E-03
          64  1.5775867E-02
          65 -2.8472634E-03
          66 -1.6129778E-03
          67 -3.5034090E-02
          68 -0.3757426    
          69  3.0642629E-03
          70  4.6238629E-03
          71  6.4851525E-03
          72  1.6866555E-02
          73  1.2079029E-03
          74 -1.9226009E-02
          75 -2.7288874E-03
          76  6.3016415E-02
          77 -8.4334932E-04
          78  4.5469548E-03
          79  4.5226559E-05
          80 -9.9986931E-03
          81 -2.1309311E-02
          82 -6.9516309E-02
          83 -7.2046764E-02
          84  0.1107918    
          85  1.0479289E-02
          86  4.1098348E-03
          87  4.0756045E-03
          88 -9.9667464E-04
          89  7.4717766E-03
          90 -4.2325599E-04
          91  1.3920458E-02
          92 -5.9308554E-03
          93 -2.5713663E-03
          94 -2.6445667E-04
          95 -2.5242385E-03
          96  3.5800564E-03
          97 -1.3136039E-03
          98  5.5385854E-02
          99  3.3398870E-02
         100 -0.1164211    
         101  4.0756140E-04
         102 -1.8905920E-03
         103 -6.5175205E-04
         104  7.3878514E-03
         105 -3.8765143E-03
         106  1.2978428E-02
         107  2.8853463E-03
         108 -1.0185456E-02
         109  1.2106154E-03
         110 -2.0840054E-03
         111  4.0260289E-04
         112  1.8539405E-03
         113  1.3503965E-02
         114 -9.0889074E-02
         115 -4.1437518E-02
         116  9.0806141E-02
         117 -8.1438283E-03
         118  7.4618566E-03
         119  2.1889757E-03
         120 -1.1944482E-03
         121 -2.0185148E-02
         122  1.5921993E-02
         123  2.7304711E-03
         124 -3.2060225E-03
         125  7.3022810E-03
         126  2.4127907E-03
         127  3.7674331E-03
         128 -6.5247561E-03
         129  7.5628753E-03
         130 -2.1861438E-02
         131 -4.0808138E-03
         132  0.4163901    
         133 -3.9355326E-03
         134  1.2800586E-03
         135  6.9233044E-03
         136 -1.4175365E-02
         137  2.8079592E-03
         138  7.3246104E-03
         139 -5.7695899E-02
         140 -0.1639921    
         141 -1.4143401E-03
         142 -3.5410874E-06
         143  4.8519201E-03
         144  6.5556951E-03
         145  1.5132251E-02
         146  7.5668399E-03
         147 -0.1203995    
         148 -0.1700376    
         149 -7.3257806E-03
         150  6.5016071E-04
         151  3.1820340E-03
         152  3.0076634E-03
         153 -4.8877923E-03
         154 -5.0245137E-03
         155  2.9427510E-02
         156  4.3032870E-02
         157  1.9051679E-03
         158  8.9442340E-04
         159 -9.0461934E-04
         160 -1.9927786E-03
         161  3.9035702E-04
         162  4.7298837E-03
         163  9.2104107E-02
         164  0.2041382    
         165  3.9728038E-05
         166 -1.3928492E-04
         167 -1.6613392E-03
         168 -5.5804132E-03
         169  6.4893891E-03
         170  1.2531758E-02
         171  2.0604586E-02
         172  3.3242602E-02
         173 -2.1053210E-03
         174 -1.1021753E-03
         175 -8.8470749E-04
         176 -2.6692881E-03
         177 -1.8471144E-02
         178 -2.9841434E-02
         179 -0.1172674    
         180 -0.1856649    
         181  8.6410595E-03
         182  1.9402671E-04
         183  3.1956681E-03
         184  2.5206250E-03
         185  1.0935755E-02
         186  1.4183269E-02
         187 -1.5016732E-02
         188  0.3741679    
         189 -9.3917064E-03
         190 -2.6454651E-03
         191  3.5741662E-03
         192 -1.9273479E-02
         193 -2.0032870E-03
         194 -7.0966111E-04
         195  5.5891448E-03
         196 -2.8161203E-02
         197 -1.3959794E-03
         198  1.9014952E-03
         199 -7.7106594E-04
         200  2.8979338E-03
         201  2.8819352E-02
         202 -7.4024275E-02
         203 -2.8771680E-02
         204 -3.3623982E-02
         205 -1.4232866E-02
         206  6.5366910E-03
         207  2.1031147E-04
         208  4.2304257E-04
         209 -9.6814437E-03
         210  2.3049939E-02
         211  1.3834145E-02
         212  1.8025113E-02
         213  4.0207668E-03
         214 -1.5671849E-03
         215 -2.9060286E-03
         216 -7.0303690E-04
         217  1.2404962E-03
         218  5.9725258E-02
         219 -3.9946064E-03
         220  6.0367011E-02
         221 -1.4513683E-04
         222 -3.2015112E-03
         223 -3.1988745E-04
         224 -5.5610747E-03
         225  7.9991473E-03
         226 -1.5703158E-02
         227 -9.1242949E-03
         228 -1.8441146E-02
         229 -3.9041936E-03
         230 -1.3229257E-03
         231  3.2058884E-03
         232 -4.9346179E-04
         233 -2.2395181E-02
         234 -0.1015799    
         235  2.5233436E-02
         236 -5.1321123E-02
         237  1.1659470E-02
         238  6.7177322E-03
         239 -2.7463939E-03
         240 -1.0051541E-03
         241  1.5184490E-02
         242  1.9356310E-02
         243 -7.8873269E-02
         244  2.9768758E-02
         245 -1.0950127E-02
         246  4.8745102E-03
         247  7.3789069E-03
         248 -1.5350766E-03
         249 -7.1977032E-03
         250 -4.9095966E-02
         251  0.1195834    
         252 -7.8947239E-02
         253  2.8072270E-03
         254  3.7452437E-03
         255 -1.0477920E-02
         256  6.0276529E-03
         257  2.0760298E-02
         258 -5.1062549E-03
         259  4.0154643E-03
         260  4.7475612E-03
         261  1.9111432E-03
         262 -7.0663705E-02
         263  1.5247658E-02
         264 -3.7854824E-03
         265 -7.5729289E-03
         266 -1.7141901E-02
         267  5.0943881E-02
         268 -1.0716107E-02
         269 -3.4463848E-03
         270  1.2037376E-02
         271  6.6210097E-03
         272 -5.3010009E-02
         273  1.1715270E-02
         274 -6.1172964E-03
         275  1.2695963E-02
         276  5.5475081E-03
         277 -1.8667800E-02
         278  4.6812193E-03
         279 -5.4004323E-03
         280  1.1743731E-03
         281  1.5027967E-03
         282  6.8269707E-02
         283 -1.4794158E-02
         284  7.2533549E-03
         285 -4.7341045E-03
         286 -1.6648760E-02
         287 -9.3944715E-03
         288  8.4889814E-04
         289 -3.8510270E-03
         290  8.5018985E-03
         291 -8.0480417E-03
         292  7.8988681E-03
         293  3.9055431E-03
         294 -7.8835739E-03
         295 -2.4301489E-03
         296  3.8686092E-03
         297  4.4397968E-03
         298  3.8668315E-04
         299 -7.3129013E-03
         300 -1.1022084E-03
         301  3.7346522E-03
         302 -1.1768163E-02
         303  1.6376497E-04
         304  2.2011721E-03
         305  7.1072987E-05
         306 -2.3615817E-03
         307  9.8901964E-04
         308 -4.9848709E-04
         309  5.3084926E-03
         310  2.6449305E-03
         311 -9.8942211E-03
         312  1.2111639E-02
         313 -1.3801130E-03
         314  5.8425238E-05
         315  4.3832624E-05
         316 -1.1967012E-03
         317 -1.0040210E-02
         318  1.1200772E-05
         319 -2.9173256E-03
         320 -4.5845886E-03
         321  4.4444124E-03
         322 -1.1399301E-02
         323 -4.2018451E-04
         324 -3.8528712E-03
         325 -1.5147552E-03
         326 -3.1656635E-04
         327  1.2918805E-02
         328 -1.6937558E-04
         329  9.0848963E-04
         330  1.4324968E-03
         331  1.8698642E-03
         332  7.3998905E-04
         333 -2.3812678E-05
         334  3.9337308E-04
         335  4.2431103E-03
         336  9.1125239E-03
         337 -1.3294527E-02
         338 -1.2810952E-04
         339 -5.0652691E-04
         340  1.7916335E-03
         341  1.8575132E-03
         342  7.9959566E-03
         343  8.1465812E-04
         344  2.8438498E-03
         345 -4.1692504E-03
         346  7.1653503E-04
         347 -1.1370962E-03
         348  4.3226837E-04
         349 -9.3250852E-03
         350  6.3144639E-03
         351  2.4097359E-03
         352  1.1102447E-02
         353  8.8921335E-04
         354  3.5330825E-03
         355 -1.2305287E-03
         356  9.8622567E-04
         357 -1.5206662E-03
         358  1.0660003E-03
         359  5.7762018E-03
         360 -1.3884135E-03
         361  5.6640184E-03
         362 -1.0245055E-02
         363  1.4032918E-03
         364  2.5730538E-03
         365  4.2994562E-04
         366  4.8756046E-04
         367  8.8432394E-03
         368  2.3139557E-03
         369 -3.8225851E-03
         370 -7.2827092E-03
         371  1.6273144E-03
         372 -1.1824130E-02
         373 -2.9225494E-03
         374  7.5826156E-03
         375 -8.4066245E-04
         376  4.7326470E-03
         377  1.0482033E-02
         378  9.0211618E-04
         379 -3.8874389E-03
         380  9.0045985E-03
         381 -8.8800332E-03
 Sym= Particle
 Ene= -0.2779697    
 Spin= Alpha
 Occup= 2
           1  8.9724259E-03
           2  5.1122932E-03
           3 -5.3339486E-04
           4  9.5432326E-03
           5 -1.8668592E-02
           6 -3.5503155E-03
           7 -3.5506224E-03
           8 -2.6665085E-03
           9 -7.7308989E-03
          10  2.1297436E-02
          11 -6.0665607E-02
          12  6.8625756E-02
          13  5.5280849E-03
          14 -6.5609571E-03
          15  2.3635609E-02
          16 -2.8252846E-02
          17  1.5927197E-02
          18 -1.2847674E-03
          19 -2.2370128E-03
          20  9.2989793E-03
          21 -2.4464404E-02
          22 -5.0822989E-04
          23 -4.6390292E-04
          24 -3.1353737E-04
          25  2.3390504E-03
          26 -5.8246624E-02
          27  0.1496783    
          28 -0.1172084    
          29 -9.5089739E-03
          30  2.4394209E-02
          31 -6.8961352E-02
          32  5.3968694E-02
          33  1.2110526E-02
          34  1.9390061E-02
          35 -4.8896052E-02
          36  3.0697700E-02
          37 -1.6227750E-02
          38 -9.5658405E-03
          39  1.0838909E-02
          40 -8.2081826E-03
          41 -5.5921180E-03
          42  3.4483172E-02
          43 -8.1080005E-02
          44  4.6293385E-02
          45 -2.0700591E-03
          46 -1.3464902E-02
          47  2.5890255E-02
          48 -2.2415726E-02
          49  9.8494776E-03
          50 -7.0892952E-02
          51  0.1298492    
          52 -0.1073664    
          53 -6.8211863E-03
          54  3.1152252E-02
          55 -4.6233345E-02
          56  3.2844305E-02
          57 -3.0472586E-02
          58  1.1445491E-02
          59 -4.0588100E-03
          60 -7.1097754E-02
          61  2.4337713E-02
          62 -3.3529196E-03
          63  1.4966232E-02
          64  1.7770320E-02
          65  1.7998433E-02
          66  1.4546242E-02
          67  2.5144093E-02
          68 -5.7478987E-02
          69 -9.5544038E-03
          70 -1.2275340E-02
          71 -8.5671125E-03
          72  2.7703110E-02
          73 -7.8910142E-03
          74  9.6948482E-02
          75  4.1310586E-02
          76 -0.1594587    
          77  8.2764486E-03
          78 -4.6667159E-02
          79 -1.4673909E-02
          80  5.8110125E-02
          81 -2.9692581E-04
          82 -6.0823578E-02
          83 -3.6403790E-02
          84  0.1116798    
          85  2.3769755E-03
          86  1.5207792E-02
          87  1.3430447E-02
          88 -2.4363076E-02
          89 -4.1407314E-03
          90 -1.3350176E-02
          91 -1.1710716E-02
          92  3.2709446E-02
          93  3.7059912E-03
          94  8.7089208E-04
          95  1.2778833E-03
          96 -8.1121000E-03
          97  1.1367445E-04
          98  7.0225738E-02
          99  4.6576809E-02
         100 -0.1327879    
         101  8.9828297E-04
         102 -1.5134736E-02
         103 -1.3653955E-02
         104  2.8675921E-02
         105 -5.3946604E-03
         106 -4.2372860E-02
         107 -2.9878778E-02
         108  7.5539164E-02
         109  6.9886260E-03
         110  1.0745882E-02
         111  6.5418268E-03
         112 -1.9788383E-02
         113  1.2798666E-03
         114 -4.1159723E-02
         115 -2.4628216E-02
         116  6.8934791E-02
         117  4.7022072E-03
         118  9.9125281E-03
         119  2.3803781E-03
         120 -2.6081270E-02
         121 -4.9446067E-03
         122  8.0864755E-03
         123 -3.3424199E-02
         124  0.2229598    
         125  5.2921907E-03
         126 -9.7999852E-03
         127  1.5682016E-02
         128 -7.5747907E-02
         129  7.4153566E-03
         130  1.6885569E-02
         131  1.2223440E-02
         132 -0.2467428    
         133 -5.8914181E-03
         134 -3.7538393E-03
         135 -2.2565443E-02
         136  7.0613541E-02
         137 -2.3255211E-03
         138 -7.8814123E-03
         139 -0.1863863    
         140 -0.3733632    
         141 -1.9795743E-03
         142  6.9531047E-04
         143  6.5660946E-02
         144  0.1224354    
         145 -5.6835865E-03
         146  5.2943085E-03
         147  0.1415227    
         148  0.2404140    
         149  1.0624323E-03
         150 -1.1578392E-03
         151 -4.0222503E-02
         152 -7.0643507E-02
         153  3.6769321E-03
         154  5.5797892E-03
         155  5.5144951E-02
         156  0.1118502    
         157 -2.4804955E-03
         158  3.2560487E-04
         159 -1.2137412E-02
         160 -2.5273336E-02
         161 -9.3455077E-04
         162 -9.6287904E-03
         163 -0.1566989    
         164 -0.3257895    
         165  4.0773040E-04
         166  2.1526993E-03
         167  3.2365073E-02
         168  7.0111401E-02
         169 -1.4682774E-03
         170  1.1139095E-03
         171  6.4318620E-02
         172  0.1305541    
         173 -9.7417236E-05
         174 -1.2119025E-03
         175 -1.4170963E-02
         176 -2.9232249E-02
         177  9.9111516E-03
         178  1.5581165E-02
         179  0.1295060    
         180  0.2265390    
         181 -6.7350725E-03
         182 -6.7342212E-03
         183 -3.8434021E-02
         184 -6.1522175E-02
         185  8.9516612E-03
         186 -3.2425471E-02
         187 -8.5566882E-03
         188  0.2597234    
         189 -7.1452921E-03
         190  3.2726679E-02
         191  2.4730267E-03
         192 -8.4418744E-02
         193 -2.6458707E-03
         194  0.1007539    
         195 -1.2962647E-03
         196  9.2696816E-02
         197 -2.8821048E-03
         198 -2.4092637E-02
         199  2.1155525E-03
         200 -2.2838801E-02
         201  1.9481013E-02
         202 -8.5098021E-02
         203 -1.4300170E-02
         204 -4.8251636E-02
         205 -2.2468131E-02
         206  2.8750272E-02
         207  5.5730338E-03
         208  9.3811080E-03
         209 -4.4665774E-03
         210 -4.3458730E-02
         211  1.0253003E-02
         212 -4.1252192E-02
         213 -3.5758473E-03
         214  9.1904644E-03
         215 -4.2832210E-03
         216  4.8887213E-03
         217 -5.4953303E-05
         218  9.5172226E-02
         219 -3.2604204E-03
         220  9.2704318E-02
         221 -1.5734327E-03
         222 -1.4582346E-02
         223  5.6162471E-04
         224 -2.0889631E-02
         225  5.2267620E-03
         226 -1.3492187E-02
         227 -5.8303089E-03
         228 -1.4168932E-02
         229 -4.6424073E-04
         230  9.9938858E-05
         231  1.8571799E-03
         232 -4.7285482E-04
         233 -1.7786328E-02
         234 -0.1041126    
         235  1.8328687E-02
         236 -6.8151265E-02
         237  1.7484911E-02
         238  2.6067613E-02
         239 -6.4491429E-03
         240  9.4257770E-03
         241  6.5141120E-03
         242  3.4554601E-02
         243 -9.2872478E-02
         244  6.5971158E-02
         245 -5.8541060E-03
         246 -1.0135489E-02
         247  3.5245311E-02
         248 -2.3745751E-02
         249  6.5256719E-04
         250  1.0502914E-02
         251 -2.9098200E-02
         252  2.7905287E-02
         253 -3.5323948E-03
         254  2.7327955E-04
         255  4.6876455E-03
         256 -7.3271105E-03
         257  5.6492779E-03
         258 -1.2500355E-02
         259  6.4324599E-04
         260 -3.4854752E-03
         261  1.3458024E-02
         262 -3.6775831E-02
         263  1.7345050E-02
         264 -6.3083633E-03
         265 -6.9031487E-03
         266 -2.8771810E-02
         267  1.8801510E-02
         268 -2.1520764E-02
         269  6.9087720E-04
         270  3.6400883E-03
         271  1.5364128E-02
         272 -3.0433506E-02
         273  1.5106681E-02
         274 -1.0110698E-02
         275  2.1059142E-02
         276  1.0270042E-02
         277 -1.4336891E-02
         278  3.3052496E-04
         279 -1.5414979E-02
         280 -6.7748455E-03
         281  8.3881980E-03
         282  2.5774071E-02
         283 -2.7822917E-02
         284  1.0648110E-02
         285 -1.3489736E-02
         286 -6.6579101E-03
         287 -8.0671497E-03
         288  6.5113528E-04
         289 -3.4319598E-03
         290 -1.6552884E-02
         291  2.0191541E-02
         292 -2.1270220E-03
         293  5.2409591E-03
         294 -1.4622217E-04
         295 -1.7234590E-02
         296  2.0742305E-02
         297  9.8550331E-04
         298 -5.8917548E-03
         299 -9.2803333E-03
         300 -1.8460106E-02
         301  3.9423320E-02
         302  1.9310715E-03
         303 -2.5980989E-03
         304 -2.8766640E-03
         305 -7.3330980E-03
         306  1.6782051E-03
         307 -8.4780279E-04
         308 -1.7035896E-03
         309  2.1932140E-02
         310  8.9989677E-03
         311 -3.6743924E-02
         312  2.4078479E-03
         313 -4.7083871E-04
         314 -4.5630280E-03
         315 -4.8409472E-03
         316  1.9444298E-02
         317  1.4180616E-03
         318  1.7206999E-03
         319  3.3888805E-03
         320 -8.8576572E-03
         321  2.1556057E-02
         322  4.7665453E-04
         323 -2.4307717E-03
         324 -5.8006421E-03
         325  3.0707315E-02
         326  5.9857991E-02
         327 -7.3881918E-03
         328  2.1697937E-03
         329  1.9882347E-03
         330  8.2202405E-03
         331  2.3941223E-02
         332  8.6507894E-04
         333 -1.7002768E-04
         334 -2.9169382E-03
         335 -3.9270166E-02
         336 -7.9805233E-02
         337  5.0988407E-03
         338 -1.1167685E-03
         339  1.5613179E-03
         340  1.3137355E-02
         341  2.7272368E-02
         342 -1.8756194E-03
         343  3.7127205E-03
         344  1.2922006E-02
         345  2.3200642E-02
         346  6.1877362E-02
         347 -4.8921378E-03
         348 -3.6264327E-03
         349 -1.2425505E-02
         350  1.7446477E-03
         351  8.4284396E-04
         352  7.6758666E-03
         353 -3.0946056E-03
         354 -1.2159561E-02
         355  3.1762943E-03
         356 -1.0805566E-02
         357  1.8647113E-05
         358  7.6411897E-04
         359  2.1789236E-02
         360 -3.5664139E-05
         361  1.9863527E-02
         362 -7.8821499E-03
         363  4.3207007E-03
         364 -2.9162781E-03
         365 -1.8271402E-03
         366 -4.0362929E-03
         367  2.6596447E-03
         368  3.2043364E-03
         369 -2.2644209E-02
         370  1.2450283E-02
         371 -1.7110059E-02
         372 -7.0524011E-03
         373  5.6458544E-03
         374  5.9486125E-03
         375 -2.2217913E-02
         376  7.6969224E-03
         377  1.5358067E-03
         378 -6.5479013E-05
         379  3.4291842E-03
         380 -1.7634887E-02
         381  6.4457445E-03
