 [Molden Format]
 [Atoms] Angs
C       1      6      2.16218111     -4.45995222      1.89627020
C       2      6      1.02761295     -4.56170171      1.15136721
B       3      5      0.42930494     -3.30646755      0.53686668
C       4      6      1.17976193     -1.99586234      0.81795165
C       5      6      0.69675605     -0.81006471      0.26992658
C       6      6     -0.63579372     -0.75025837     -0.25696967
C       7      6     -1.33180523      0.45152086     -0.09976563
C       8      6     -2.74907445      0.50205442     -0.05882918
C       9      6     -3.44725766      1.63415241      0.25850296
C      10      6     -4.91116169      1.64648854      0.30006904
C      11      6     -5.64830159      0.91300983     -0.62946512
C      12      6     -7.02947929      0.92731726     -0.60018973
C      13      6     -7.69900979      1.66829627      0.35979871
C      14      6     -6.97728982      2.39584410      1.29135474
C      15      6     -5.59561179      2.38935766      1.26097715
C      16      6     -2.69337595      2.79452148      0.59822967
C      17      6     -1.34306975      2.74054746      0.58017043
N      18      7     -0.65205345      1.62923775      0.20064656
C      19      6      0.73620362      1.65117104      0.08757478
C      20      6      1.44230575      2.83670321     -0.12383827
C      21      6      2.81358121      2.82415646     -0.23907897
C      22      6      3.52495667      1.62176627     -0.19332456
C      23      6      4.98548588      1.60197678     -0.34892673
C      24      6      5.62085900      2.44883282     -1.25453357
C      25      6      6.99600346      2.42633142     -1.39317623
C      26      6      7.75970563      1.56209359     -0.62666607
C      27      6      7.13862010      0.71564321      0.27651382
C      28      6      5.76342146      0.73234859      0.41310042
C      29      6      2.81856658      0.44257426     -0.01874560
C      30      6      1.43365494      0.43100188      0.15953050
C      31      6     -1.24482601     -1.93967640     -0.81984717
C      32      6     -2.21796699     -1.83477787     -1.82331733
C      33      6     -2.79118819     -2.95979399     -2.37258561
C      34      6     -2.39634308     -4.22055174     -1.93952028
C      35      6     -1.38995549     -4.33356907     -1.00499475
C      36      6     -0.77500672     -3.21500801     -0.43424187
C      37      6      2.32571497     -2.03580992      1.65824237
C      38      6      2.78371153     -3.21318304      2.16580628
H      39      1      2.61686582     -5.33828540      2.34363077
H      40      1      0.59777982     -5.55169565      1.04171490
H      41      1     -3.27543782     -0.42631188     -0.20541080
H      42      1     -5.13349474      0.34610786     -1.39085242
H      43      1     -7.58710555      0.35951290     -1.33031387
H      44      1     -8.77843091      1.67795332      0.38251511
H      45      1     -7.49392016      2.96995708      2.04651274
H      46      1     -5.04288510      2.94238057      2.00620686
H      47      1     -3.19066576      3.70541180      0.88542826
H      48      1     -0.74956431      3.58479331      0.89091628
H      49      1      0.92091404      3.77495491     -0.23657708
H      50      1      3.34222706      3.75469110     -0.37969096
H      51      1      5.03088957      3.11194047     -1.87062458
H      52      1      7.47443593      3.08437576     -2.10408984
H      53      1      8.83419640      1.54744068     -0.73397363
H      54      1      7.72912017      0.04015719      0.87805908
H      55      1      5.28738068      0.07950735      1.12972785
H      56      1      3.33650817     -0.50157336     -0.07657046
H      57      1     -2.48343073     -0.86144414     -2.21507632
H      58      1     -3.53378952     -2.86193685     -3.15245444
H      59      1     -2.85647941     -5.10308627     -2.36152283
H      60      1     -1.05061386     -5.31509857     -0.70749758
H      61      1      2.79957310     -1.11229367      1.97231709
H      62      1      3.64136023     -3.20839886      2.82696516
 [GTO]
           1   0
s              4   1.000000
     34.85318011     -0.01198412
      6.00200601     -0.05472053
      0.48228679      0.58055871
      0.18381143      0.47700799
p              4   1.000000
      5.61750050      0.05713170
      1.45653400      0.28574555
      0.51347331      0.55178731
      0.20442257      0.26323149
s              7   1.000000
      0.38350848     -0.19630817
      0.04707223      0.94848895
      0.02222627      0.24908760
     34.85318011      0.00552796
      6.00200601      0.02524114
      0.48228679     -0.26779652
      0.18381143     -0.22003128
p              7   1.000000
      1.83062075     -0.01161583
      0.10124670      0.57081989
      0.03901771      0.59613660
      5.61750050     -0.02532258
      1.45653400     -0.12665148
      0.51347331     -0.24456962
      0.20442257     -0.11667254
 
           2   0
s              4   1.000000
     34.81625548     -0.01198412
      5.99564729     -0.05472052
      0.48177584      0.58055871
      0.18361670      0.47700799
p              4   1.000000
      5.61154913      0.05713170
      1.45499090      0.28574555
      0.51292932      0.55178731
      0.20420600      0.26323149
s              7   1.000000
      0.38350848     -0.19634306
      0.04707223      0.94865750
      0.02222627      0.24913186
     34.81625548      0.00553356
      5.99564729      0.02526670
      0.48177584     -0.26806765
      0.18361670     -0.22025405
p              7   1.000000
      1.83062075     -0.01161777
      0.10124670      0.57091518
      0.03901771      0.59623612
      5.61154913     -0.02534832
      1.45499090     -0.12678020
      0.51292932     -0.24481818
      0.20420600     -0.11679111
 
           3   0
s              4   1.000000
     23.72283509     -0.01198412
      4.08526850     -0.05472052
      0.32826876      0.58055871
      0.12511135      0.47700799
p              4   1.000000
      4.62367380      0.05713170
      1.19884957      0.28574555
      0.42263157      0.55178730
      0.16825691      0.26323149
s              7   1.000000
      0.29139959     -0.20027690
      0.03576669      0.96766442
      0.01688809      0.25412336
     23.72283509      0.00613776
      4.08526850      0.02802557
      0.32826876     -0.29733795
      0.12511135     -0.24430359
p              7   1.000000
      1.39095266     -0.01147901
      0.07692984      0.56409590
      0.02964666      0.58911437
      4.62367380     -0.02344719
      1.19884957     -0.11727166
      0.42263157     -0.22645677
      0.16825691     -0.10803176
 
           4   0
s              4   1.000000
     35.05507798     -0.01198412
      6.03677450     -0.05472052
      0.48508059      0.58055871
      0.18487622      0.47700799
p              4   1.000000
      5.65004162      0.05713170
      1.46497142      0.28574555
      0.51644776      0.55178731
      0.20560675      0.26323149
s              7   1.000000
      0.38350848     -0.19611916
      0.04707223      0.94757569
      0.02222627      0.24884778
     35.05507798      0.00549755
      6.03677450      0.02510230
      0.48508059     -0.26632348
      0.18487622     -0.21882098
p              7   1.000000
      1.83062075     -0.01160533
      0.10124670      0.57030356
      0.03901771      0.59559736
      5.65004162     -0.02518276
      1.46497142     -0.12595216
      0.51644776     -0.24321920
      0.20560675     -0.11602832
 
           5   0
s              4   1.000000
     35.23788210     -0.01198412
      6.06825488     -0.05472053
      0.48761017      0.58055871
      0.18584031      0.47700799
p              4   1.000000
      5.67950528      0.05713170
      1.47261091      0.28574555
      0.51914092      0.55178731
      0.20667894      0.26323149
s              7   1.000000
      0.38350848     -0.19595050
      0.04707223      0.94676080
      0.02222627      0.24863377
     35.23788210      0.00547030
      6.06825488      0.02497788
      0.48761017     -0.26500339
      0.18584031     -0.21773635
p              7   1.000000
      1.83062075     -0.01159595
      0.10124670      0.56984285
      0.03901771      0.59511622
      5.67950528     -0.02505745
      1.47261091     -0.12532541
      0.51914092     -0.24200892
      0.20667894     -0.11545095
 
           6   0
s              4   1.000000
     35.27079788     -0.01198412
      6.07392325     -0.05472053
      0.48806565      0.58055871
      0.18601390      0.47700800
p              4   1.000000
      5.68481051      0.05713170
      1.47398648      0.28574555
      0.51962585      0.55178731
      0.20687200      0.26323149
s              7   1.000000
      0.38350848     -0.19592038
      0.04707223      0.94661527
      0.02222627      0.24859555
     35.27079788      0.00546542
      6.07392325      0.02495560
      0.48806565     -0.26476706
      0.18601390     -0.21754217
p              7   1.000000
      1.83062075     -0.01159428
      0.10124670      0.56976057
      0.03901771      0.59503029
      5.68481051     -0.02503501
      1.47398648     -0.12521320
      0.51962585     -0.24179224
      0.20687200     -0.11534758
 
           7   0
s              4   1.000000
     35.29187242     -0.01198412
      6.07755246     -0.05472052
      0.48835727      0.58055871
      0.18612504      0.47700799
p              4   1.000000
      5.68820723      0.05713170
      1.47486720      0.28574555
      0.51993633      0.55178731
      0.20699561      0.26323149
s              7   1.000000
      0.38350848     -0.19590113
      0.04707223      0.94652227
      0.02222627      0.24857112
     35.29187242      0.00546230
      6.07755246      0.02494136
      0.48835727     -0.26461596
      0.18612504     -0.21741802
p              7   1.000000
      1.83062075     -0.01159321
      0.10124670      0.56970800
      0.03901771      0.59497539
      5.68820723     -0.02502067
      1.47486720     -0.12514146
      0.51993633     -0.24165371
      0.20699561     -0.11528150
 
           8   0
s              4   1.000000
     35.12057313     -0.01198412
      6.04805330     -0.05472053
      0.48598689      0.58055871
      0.18522163      0.47700799
p              4   1.000000
      5.66059787      0.05713170
      1.46770850      0.28574555
      0.51741267      0.55178731
      0.20599090      0.26323149
s              7   1.000000
      0.38350848     -0.19605846
      0.04707223      0.94728244
      0.02222627      0.24877075
     35.12057313      0.00548776
      6.04805330      0.02505758
      0.48598689     -0.26584904
      0.18522163     -0.21843116
p              7   1.000000
      1.83062075     -0.01160195
      0.10124670      0.57013776
      0.03901771      0.59542421
      5.66059787     -0.02513772
      1.46770850     -0.12572691
      0.51741267     -0.24278423
      0.20599090     -0.11582082
 
           9   0
s              4   1.000000
     35.07622859     -0.01198412
      6.04041681     -0.05472053
      0.48537326      0.58055871
      0.18498776      0.47700799
p              4   1.000000
      5.65345059      0.05713170
      1.46585532      0.28574555
      0.51675936      0.55178731
      0.20573081      0.26323149
s              7   1.000000
      0.38350848     -0.19609953
      0.04707223      0.94748084
      0.02222627      0.24882284
     35.07622859      0.00549439
      6.04041681      0.02508784
      0.48537326     -0.26617008
      0.18498776     -0.21869495
p              7   1.000000
      1.83062075     -0.01160424
      0.10124670      0.57024992
      0.03901771      0.59554133
      5.65345059     -0.02516820
      1.46585532     -0.12587933
      0.51675936     -0.24307857
      0.20573081     -0.11596123
 
          10   0
s              4   1.000000
     35.08832245     -0.01198412
      6.04249947     -0.05472052
      0.48554062      0.58055871
      0.18505155      0.47700799
p              4   1.000000
      5.65539983      0.05713170
      1.46636073      0.28574555
      0.51693753      0.55178731
      0.20580174      0.26323149
s              7   1.000000
      0.38350848     -0.19608831
      0.04707223      0.94742666
      0.02222627      0.24880863
     35.08832245      0.00549258
      6.04249947      0.02507958
      0.48554062     -0.26608245
      0.18505155     -0.21862295
p              7   1.000000
      1.83062075     -0.01160361
      0.10124670      0.57021930
      0.03901771      0.59550937
      5.65539983     -0.02515988
      1.46636073     -0.12583773
      0.51693753     -0.24299823
      0.20580174     -0.11592290
 
          11   0
s              4   1.000000
     35.01880216     -0.01198412
      6.03052750     -0.05472053
      0.48457862      0.58055871
      0.18468491      0.47700799
p              4   1.000000
      5.64419482      0.05713170
      1.46345544      0.28574555
      0.51591333      0.55178730
      0.20539399      0.26323149
s              7   1.000000
      0.38350848     -0.19615291
      0.04707223      0.94773875
      0.02222627      0.24889058
     35.01880216      0.00550299
      6.03052750      0.02512714
      0.48457862     -0.26658697
      0.18468491     -0.21903748
p              7   1.000000
      1.83062075     -0.01160720
      0.10124670      0.57039575
      0.03901771      0.59569364
      5.64419482     -0.02520777
      1.46345544     -0.12607726
      0.51591333     -0.24346076
      0.20539399     -0.11614356
 
          12   0
s              4   1.000000
     34.91709976     -0.01198412
      6.01301351     -0.05472052
      0.48317129      0.58055871
      0.18414854      0.47700799
p              4   1.000000
      5.62780282      0.05713170
      1.45920523      0.28574555
      0.51441500      0.55178731
      0.20479748      0.26323149
s              7   1.000000
      0.38350848     -0.19624802
      0.04707223      0.94819830
      0.02222627      0.24901126
     34.91709976      0.00551830
      6.01301351      0.02519703
      0.48317129     -0.26732843
      0.18414854     -0.21964669
p              7   1.000000
      1.83062075     -0.01161249
      0.10124670      0.57065556
      0.03901771      0.59596498
      5.62780282     -0.02527815
      1.45920523     -0.12642927
      0.51441500     -0.24414051
      0.20479748     -0.11646783
 
          13   0
s              4   1.000000
     34.91944282     -0.01198412
      6.01341700     -0.05472052
      0.48320371      0.58055871
      0.18416090      0.47700800
p              4   1.000000
      5.62818047      0.05713170
      1.45930315      0.28574555
      0.51444952      0.55178730
      0.20481122      0.26323149
s              7   1.000000
      0.38350848     -0.19624582
      0.04707223      0.94818768
      0.02222627      0.24900848
     34.91944282      0.00551794
      6.01341700      0.02519541
      0.48320371     -0.26731131
      0.18416090     -0.21963262
p              7   1.000000
      1.83062075     -0.01161237
      0.10124670      0.57064955
      0.03901771      0.59595871
      5.62818047     -0.02527653
      1.45930315     -0.12642114
      0.51444952     -0.24412481
      0.20481122     -0.11646034
 
          14   0
s              4   1.000000
     34.91730212     -0.01198412
      6.01304835     -0.05472052
      0.48317409      0.58055871
      0.18414961      0.47700799
p              4   1.000000
      5.62783544      0.05713170
      1.45921369      0.28574555
      0.51441798      0.55178731
      0.20479866      0.26323149
s              7   1.000000
      0.38350848     -0.19624783
      0.04707223      0.94819738
      0.02222627      0.24901104
     34.91730212      0.00551827
      6.01304835      0.02519689
      0.48317409     -0.26732696
      0.18414961     -0.21964548
p              7   1.000000
      1.83062075     -0.01161248
      0.10124670      0.57065504
      0.03901771      0.59596442
      5.62783544     -0.02527801
      1.45921369     -0.12642856
      0.51441798     -0.24413916
      0.20479866     -0.11646718
 
          15   0
s              4   1.000000
     35.01369627     -0.01198412
      6.02964822     -0.05472052
      0.48450796      0.58055871
      0.18465798      0.47700799
p              4   1.000000
      5.64337187      0.05713170
      1.46324206      0.28574555
      0.51583811      0.55178731
      0.20536404      0.26323149
s              7   1.000000
      0.38350848     -0.19615766
      0.04707223      0.94776174
      0.02222627      0.24889662
     35.01369627      0.00550376
      6.02964822      0.02513064
      0.48450796     -0.26662410
      0.18465798     -0.21906798
p              7   1.000000
      1.83062075     -0.01160747
      0.10124670      0.57040874
      0.03901771      0.59570720
      5.64337187     -0.02521129
      1.46324206     -0.12609488
      0.51583811     -0.24349480
      0.20536404     -0.11615980
 
          16   0
s              4   1.000000
     34.98212884     -0.01198412
      6.02421205     -0.05472052
      0.48407114      0.58055871
      0.18449149      0.47700799
p              4   1.000000
      5.63828396      0.05713170
      1.46192284      0.28574555
      0.51537304      0.55178731
      0.20517889      0.26323149
s              7   1.000000
      0.38350848     -0.19618712
      0.04707223      0.94790405
      0.02222627      0.24893399
     34.98212884      0.00550850
      6.02421205      0.02515230
      0.48407114     -0.26685387
      0.18449149     -0.21925678
p              7   1.000000
      1.83062075     -0.01160910
      0.10124670      0.57048920
      0.03901771      0.59579122
      5.63828396     -0.02523311
      1.46192284     -0.12620397
      0.51537304     -0.24370545
      0.20517889     -0.11626028
 
          17   0
s              4   1.000000
     35.09381423     -0.01198412
      6.04344520     -0.05472053
      0.48561661      0.58055871
      0.18508051      0.47700800
p              4   1.000000
      5.65628498      0.05713170
      1.46659023      0.28574555
      0.51701844      0.55178731
      0.20583395      0.26323149
s              7   1.000000
      0.38350848     -0.19608322
      0.04707223      0.94740207
      0.02222627      0.24880217
     35.09381423      0.00549176
      6.04344520      0.02507584
      0.48561661     -0.26604268
      0.18508051     -0.21859027
p              7   1.000000
      1.83062075     -0.01160333
      0.10124670      0.57020540
      0.03901771      0.59549484
      5.65628498     -0.02515610
      1.46659023     -0.12581884
      0.51701844     -0.24296176
      0.20583395     -0.11590551
 
          18   0
s              4   1.000000
     61.14676647     -0.01198412
     10.52997915     -0.05472052
      0.84612875      0.58055871
      0.32248061      0.47700799
p              4   1.000000
      7.20749019      0.05713170
      1.86879458      0.28574555
      0.65880792      0.55178731
      0.26228279      0.26323149
s              7   1.000000
      0.47894987     -0.18779943
      0.05878681      0.90737783
      0.02775758      0.23829120
     61.14676647      0.00397323
     10.52997915      0.01814210
      0.84612875     -0.19247905
      0.32248061     -0.15814774
p              7   1.000000
      2.28619608     -0.01156758
      0.12644335      0.56844848
      0.04872781      0.59365999
      7.20749019     -0.02467494
      1.86879458     -0.12341227
      0.65880792     -0.23831456
      0.26228279     -0.11368855
 
          19   0
s              4   1.000000
     35.31586479     -0.01198412
      6.08168414     -0.05472052
      0.48868927      0.58055871
      0.18625158      0.47700799
p              4   1.000000
      5.69207422      0.05713170
      1.47586985      0.28574555
      0.52028979      0.55178731
      0.20713633      0.26323149
s              7   1.000000
      0.38350848     -0.19587926
      0.04707223      0.94641658
      0.02222627      0.24854336
     35.31586479      0.00545876
      6.08168414      0.02492517
      0.48868927     -0.26444414
      0.18625158     -0.21727685
p              7   1.000000
      1.83062075     -0.01159199
      0.10124670      0.56964825
      0.03901771      0.59491297
      5.69207422     -0.02500436
      1.47586985     -0.12505989
      0.52028979     -0.24149618
      0.20713633     -0.11520634
 
          20   0
s              4   1.000000
     34.99349808     -0.01198412
      6.02616993     -0.05472052
      0.48422847      0.58055871
      0.18455145      0.47700799
p              4   1.000000
      5.64011641      0.05713170
      1.46239796      0.28574555
      0.51554054      0.55178731
      0.20524557      0.26323149
s              7   1.000000
      0.38350848     -0.19617650
      0.04707223      0.94785275
      0.02222627      0.24892053
     34.99349808      0.00550679
      6.02616993      0.02514449
      0.48422847     -0.26677108
      0.18455145     -0.21918874
p              7   1.000000
      1.83062075     -0.01160851
      0.10124670      0.57046020
      0.03901771      0.59576096
      5.64011641     -0.02522525
      1.46239796     -0.12616466
      0.51554054     -0.24362955
      0.20524557     -0.11622408
 
          21   0
s              4   1.000000
     35.01134039     -0.01198412
      6.02924252     -0.05472052
      0.48447536      0.58055871
      0.18464555      0.47700800
p              4   1.000000
      5.64299216      0.05713170
      1.46314360      0.28574555
      0.51580340      0.55178731
      0.20535022      0.26323149
s              7   1.000000
      0.38350848     -0.19615986
      0.04707223      0.94777235
      0.02222627      0.24889940
     35.01134039      0.00550411
      6.02924252      0.02513225
      0.48447536     -0.26664124
      0.18464555     -0.21908206
p              7   1.000000
      1.83062075     -0.01160759
      0.10124670      0.57041474
      0.03901771      0.59571347
      5.64299216     -0.02521292
      1.46314360     -0.12610302
      0.51580340     -0.24351051
      0.20535022     -0.11616729
 
          22   0
s              4   1.000000
     35.08022846     -0.01198412
      6.04110562     -0.05472052
      0.48542861      0.58055871
      0.18500886      0.47700799
p              4   1.000000
      5.65409528      0.05713170
      1.46602247      0.28574555
      0.51681829      0.55178731
      0.20575427      0.26323149
s              7   1.000000
      0.38350848     -0.19609581
      0.04707223      0.94746291
      0.02222627      0.24881814
     35.08022846      0.00549379
      6.04110562      0.02508511
      0.48542861     -0.26614109
      0.18500886     -0.21867113
p              7   1.000000
      1.83062075     -0.01160403
      0.10124670      0.57023979
      0.03901771      0.59553077
      5.65409528     -0.02516545
      1.46602247     -0.12586557
      0.51681829     -0.24305199
      0.20575427     -0.11594855
 
          23   0
s              4   1.000000
     35.09364186     -0.01198412
      6.04341552     -0.05472053
      0.48561422      0.58055871
      0.18507960      0.47700799
p              4   1.000000
      5.65625719      0.05713170
      1.46658303      0.28574555
      0.51701590      0.55178731
      0.20583294      0.26323149
s              7   1.000000
      0.38350848     -0.19608338
      0.04707223      0.94740285
      0.02222627      0.24880237
     35.09364186      0.00549178
      6.04341552      0.02507595
      0.48561422     -0.26604392
      0.18507960     -0.21859129
p              7   1.000000
      1.83062075     -0.01160334
      0.10124670      0.57020584
      0.03901771      0.59549529
      5.65625719     -0.02515622
      1.46658303     -0.12581944
      0.51701590     -0.24296290
      0.20583294     -0.11590605
 
          24   0
s              4   1.000000
     35.01393309     -0.01198412
      6.02968901     -0.05472053
      0.48451124      0.58055871
      0.18465923      0.47700799
p              4   1.000000
      5.64341004      0.05713170
      1.46325195      0.28574555
      0.51584159      0.55178731
      0.20536543      0.26323149
s              7   1.000000
      0.38350848     -0.19615744
      0.04707223      0.94776067
      0.02222627      0.24889633
     35.01393309      0.00550372
      6.02968901      0.02513048
      0.48451124     -0.26662238
      0.18465923     -0.21906657
p              7   1.000000
      1.83062075     -0.01160746
      0.10124670      0.57040814
      0.03901771      0.59570659
      5.64341004     -0.02521113
      1.46325195     -0.12609407
      0.51584159     -0.24349322
      0.20536543     -0.11615904
 
          25   0
s              4   1.000000
     34.91770178     -0.01198412
      6.01311718     -0.05472052
      0.48317962      0.58055871
      0.18415171      0.47700799
p              4   1.000000
      5.62789985      0.05713170
      1.45923039      0.28574555
      0.51442387      0.55178730
      0.20480101      0.26323149
s              7   1.000000
      0.38350848     -0.19624745
      0.04707223      0.94819556
      0.02222627      0.24901055
     34.91770178      0.00551821
      6.01311718      0.02519661
      0.48317962     -0.26732403
      0.18415171     -0.21964308
p              7   1.000000
      1.83062075     -0.01161246
      0.10124670      0.57065401
      0.03901771      0.59596336
      5.62789985     -0.02527773
      1.45923039     -0.12642718
      0.51442387     -0.24413648
      0.20480101     -0.11646591
 
          26   0
s              4   1.000000
     34.91955443     -0.01198412
      6.01343622     -0.05472052
      0.48320526      0.58055871
      0.18416148      0.47700800
p              4   1.000000
      5.62819846      0.05713170
      1.45930782      0.28574555
      0.51445116      0.55178730
      0.20481187      0.26323149
s              7   1.000000
      0.38350848     -0.19624571
      0.04707223      0.94818716
      0.02222627      0.24900836
     34.91955443      0.00551793
      6.01343622      0.02519533
      0.48320526     -0.26731049
      0.18416148     -0.21963195
p              7   1.000000
      1.83062075     -0.01161236
      0.10124670      0.57064927
      0.03901771      0.59595839
      5.62819846     -0.02527645
      1.45930782     -0.12642075
      0.51445116     -0.24412406
      0.20481187     -0.11645998
 
          27   0
s              4   1.000000
     34.91783136     -0.01198412
      6.01313949     -0.05472053
      0.48318142      0.58055871
      0.18415240      0.47700800
p              4   1.000000
      5.62792074      0.05713170
      1.45923581      0.28574555
      0.51442578      0.55178731
      0.20480177      0.26323149
s              7   1.000000
      0.38350848     -0.19624733
      0.04707223      0.94819498
      0.02222627      0.24901040
     34.91783136      0.00551819
      6.01313949      0.02519652
      0.48318142     -0.26732309
      0.18415240     -0.21964230
p              7   1.000000
      1.83062075     -0.01161245
      0.10124670      0.57065368
      0.03901771      0.59596300
      5.62792074     -0.02527764
      1.45923581     -0.12642673
      0.51442578     -0.24413561
      0.20480177     -0.11646549
 
          28   0
s              4   1.000000
     35.01838129     -0.01198412
      6.03045502     -0.05472053
      0.48457279      0.58055871
      0.18468269      0.47700800
p              4   1.000000
      5.64412699      0.05713170
      1.46343785      0.28574555
      0.51590713      0.55178731
      0.20539152      0.26323149
s              7   1.000000
      0.38350848     -0.19615330
      0.04707223      0.94774065
      0.02222627      0.24889109
     35.01838129      0.00550305
      6.03045502      0.02512743
      0.48457279     -0.26659003
      0.18468269     -0.21903999
p              7   1.000000
      1.83062075     -0.01160722
      0.10124670      0.57039681
      0.03901771      0.59569474
      5.64412699     -0.02520806
      1.46343785     -0.12607871
      0.51590713     -0.24346357
      0.20539152     -0.11614490
 
          29   0
s              4   1.000000
     35.12382269     -0.01198412
      6.04861290     -0.05472052
      0.48603186      0.58055871
      0.18523877      0.47700799
p              4   1.000000
      5.66112162      0.05713170
      1.46784430      0.28574555
      0.51746054      0.55178731
      0.20600996      0.26323149
s              7   1.000000
      0.38350848     -0.19605546
      0.04707223      0.94726793
      0.02222627      0.24876695
     35.12382269      0.00548727
      6.04861290      0.02505537
      0.48603186     -0.26582554
      0.18523877     -0.21841186
p              7   1.000000
      1.83062075     -0.01160179
      0.10124670      0.57012955
      0.03901771      0.59541563
      5.66112162     -0.02513549
      1.46784430     -0.12571576
      0.51746054     -0.24276269
      0.20600996     -0.11581054
 
          30   0
s              4   1.000000
     35.21941895     -0.01198412
      6.06507537     -0.05472052
      0.48735469      0.58055871
      0.18574293      0.47700799
p              4   1.000000
      5.67652946      0.05713170
      1.47183932      0.28574555
      0.51886891      0.55178731
      0.20657065      0.26323149
s              7   1.000000
      0.38350848     -0.19596743
      0.04707223      0.94684259
      0.02222627      0.24865524
     35.21941895      0.00547304
      6.06507537      0.02499039
      0.48735469     -0.26513614
      0.18574293     -0.21784542
p              7   1.000000
      1.83062075     -0.01159689
      0.10124670      0.56988909
      0.03901771      0.59516452
      5.67652946     -0.02507005
      1.47183932     -0.12538844
      0.51886891     -0.24213063
      0.20657065     -0.11550901
 
          31   0
s              4   1.000000
     35.17789997     -0.01198412
      6.05792546     -0.05472052
      0.48678016      0.58055871
      0.18552397      0.47700799
p              4   1.000000
      5.66983759      0.05713170
      1.47010422      0.28574555
      0.51825723      0.55178731
      0.20632713      0.26323149
s              7   1.000000
      0.38350848     -0.19600558
      0.04707223      0.94702694
      0.02222627      0.24870365
     35.17789997      0.00547921
      6.05792546      0.02501857
      0.48678016     -0.26543513
      0.18552397     -0.21809108
p              7   1.000000
      1.83062075     -0.01159901
      0.10124670      0.56999331
      0.03901771      0.59527335
      5.66983759     -0.02509843
      1.47010422     -0.12553039
      0.51825723     -0.24240475
      0.20632713     -0.11563978
 
          32   0
s              4   1.000000
     35.01693465     -0.01198412
      6.03020590     -0.05472053
      0.48455277      0.58055871
      0.18467506      0.47700799
p              4   1.000000
      5.64389382      0.05713170
      1.46337739      0.28574555
      0.51588581      0.55178731
      0.20538303      0.26323149
s              7   1.000000
      0.38350848     -0.19615465
      0.04707223      0.94774716
      0.02222627      0.24889280
     35.01693465      0.00550327
      6.03020590      0.02512842
      0.48455277     -0.26660055
      0.18467506     -0.21904863
p              7   1.000000
      1.83062075     -0.01160730
      0.10124670      0.57040050
      0.03901771      0.59569858
      5.64389382     -0.02520906
      1.46337739     -0.12608370
      0.51588581     -0.24347321
      0.20538303     -0.11614949
 
          33   0
s              4   1.000000
     34.91339284     -0.01198412
      6.01237514     -0.05472052
      0.48312000      0.58055871
      0.18412899      0.47700799
p              4   1.000000
      5.62720536      0.05713170
      1.45905032      0.28574555
      0.51436039      0.55178731
      0.20477573      0.26323149
s              7   1.000000
      0.38350848     -0.19625150
      0.04707223      0.94821511
      0.02222627      0.24901569
     34.91339284      0.00551886
      6.01237514      0.02519958
      0.48312000     -0.26735554
      0.18412899     -0.21966896
p              7   1.000000
      1.83062075     -0.01161268
      0.10124670      0.57066507
      0.03901771      0.59597489
      5.62720536     -0.02528072
      1.45905032     -0.12644213
      0.51436039     -0.24416536
      0.20477573     -0.11647968
 
          34   0
s              4   1.000000
     34.90292457     -0.01198412
      6.01057242     -0.05472053
      0.48297514      0.58055871
      0.18407378      0.47700799
p              4   1.000000
      5.62551812      0.05713170
      1.45861285      0.28574555
      0.51420617      0.55178731
      0.20471433      0.26323149
s              7   1.000000
      0.38350848     -0.19626133
      0.04707223      0.94826264
      0.02222627      0.24902817
     34.90292457      0.00552044
      6.01057242      0.02520680
      0.48297514     -0.26743210
      0.18407378     -0.21973187
p              7   1.000000
      1.83062075     -0.01161323
      0.10124670      0.57069193
      0.03901771      0.59600297
      5.62551812     -0.02528799
      1.45861285     -0.12647848
      0.51420617     -0.24423555
      0.20471433     -0.11651317
 
          35   0
s              4   1.000000
     34.98310406     -0.01198412
      6.02437999     -0.05472052
      0.48408464      0.58055871
      0.18449664      0.47700799
p              4   1.000000
      5.63844114      0.05713170
      1.46196359      0.28574555
      0.51538741      0.55178731
      0.20518461      0.26323149
s              7   1.000000
      0.38350848     -0.19618621
      0.04707223      0.94789965
      0.02222627      0.24893284
     34.98310406      0.00550835
      6.02437999      0.02515163
      0.48408464     -0.26684677
      0.18449664     -0.21925094
p              7   1.000000
      1.83062075     -0.01160905
      0.10124670      0.57048672
      0.03901771      0.59578864
      5.63844114     -0.02523243
      1.46196359     -0.12620060
      0.51538741     -0.24369894
      0.20518461     -0.11625718
 
          36   0
s              4   1.000000
     35.04943098     -0.01198412
      6.03580204     -0.05472052
      0.48500245      0.58055871
      0.18484644      0.47700799
p              4   1.000000
      5.64913146      0.05713170
      1.46473543      0.28574555
      0.51636457      0.55178730
      0.20557363      0.26323149
s              7   1.000000
      0.38350848     -0.19612441
      0.04707223      0.94760105
      0.02222627      0.24885443
     35.04943098      0.00549840
      6.03580204      0.02510617
      0.48500245     -0.26636446
      0.18484644     -0.21885466
p              7   1.000000
      1.83062075     -0.01160562
      0.10124670      0.57031789
      0.03901771      0.59561233
      5.64913146     -0.02518665
      1.46473543     -0.12597162
      0.51636457     -0.24325677
      0.20557363     -0.11604624
 
          37   0
s              4   1.000000
     34.93795788     -0.01198412
      6.01660545     -0.05472052
      0.48345992      0.58055871
      0.18425854      0.47700799
p              4   1.000000
      5.63116465      0.05713170
      1.46007691      0.28574555
      0.51472229      0.55178731
      0.20491981      0.26323149
s              7   1.000000
      0.38350848     -0.19622845
      0.04707223      0.94810376
      0.02222627      0.24898644
     34.93795788      0.00551515
      6.01660545      0.02518266
      0.48345992     -0.26717604
      0.18425854     -0.21952148
p              7   1.000000
      1.83062075     -0.01161140
      0.10124670      0.57060211
      0.03901771      0.59590915
      5.63116465     -0.02526369
      1.46007691     -0.12635692
      0.51472229     -0.24400080
      0.20491981     -0.11640118
 
          38   0
s              4   1.000000
     34.87844951     -0.01198412
      6.00635761     -0.05472052
      0.48263646      0.58055871
      0.18394470      0.47700799
p              4   1.000000
      5.62157332      0.05713170
      1.45759002      0.28574555
      0.51384559      0.55178731
      0.20457078      0.26323149
s              7   1.000000
      0.38350848     -0.19628436
      0.04707223      0.94837388
      0.02222627      0.24905737
     34.87844951      0.00552414
      6.00635761      0.02522368
      0.48263646     -0.26761128
      0.18394470     -0.21987908
p              7   1.000000
      1.83062075     -0.01161451
      0.10124670      0.57075483
      0.03901771      0.59606863
      5.62157332     -0.02530500
      1.45759002     -0.12656354
      0.51384559     -0.24439981
      0.20457078     -0.11659153
 
          39   0
s              4   1.000000
      8.30857669      0.05675242
      1.52036717      0.26014135
      0.42237465      0.53284611
      0.14018235      0.29162544
s              7   1.000000
      0.92936822     -0.06732890
      0.05643440      0.66946013
      0.02166600      0.51461830
      8.30857669     -0.02902370
      1.52036717     -0.13303865
      0.42237465     -0.27250235
      0.14018235     -0.14913990
p              4   1.000000
      0.64737396      0.05713170
      0.16785440      0.28574555
      0.05917387      0.55178731
      0.02355814      0.26323150
 
          40   0
s              4   1.000000
      8.30830359      0.05675242
      1.52031720      0.26014135
      0.42236076      0.53284611
      0.14017774      0.29162544
s              7   1.000000
      0.92936822     -0.06732925
      0.05643440      0.66946364
      0.02166600      0.51462098
      8.30830359     -0.02902443
      1.52031720     -0.13304200
      0.42236076     -0.27250921
      0.14017774     -0.14914365
p              4   1.000000
      0.64737396      0.05713170
      0.16785440      0.28574555
      0.05917387      0.55178731
      0.02355814      0.26323150
 
          41   0
s              4   1.000000
      8.31170126      0.05675242
      1.52093893      0.26014135
      0.42253349      0.53284611
      0.14023507      0.29162544
s              7   1.000000
      0.92936822     -0.06732488
      0.05643440      0.66942018
      0.02166600      0.51458756
      8.31170126     -0.02901535
      1.52093893     -0.13300035
      0.42253349     -0.27242388
      0.14023507     -0.14909696
p              4   1.000000
      0.64737396      0.05713170
      0.16785440      0.28574555
      0.05917387      0.55178731
      0.02355814      0.26323150
 
          42   0
s              4   1.000000
      8.30952879      0.05675242
      1.52054139      0.26014135
      0.42242305      0.53284611
      0.14019841      0.29162544
s              7   1.000000
      0.92936822     -0.06732768
      0.05643440      0.66944795
      0.02166600      0.51460893
      8.30952879     -0.02902116
      1.52054139     -0.13302698
      0.42242305     -0.27247843
      0.14019841     -0.14912681
p              4   1.000000
      0.64737396      0.05713170
      0.16785440      0.28574555
      0.05917387      0.55178731
      0.02355814      0.26323150
 
          43   0
s              4   1.000000
      8.30890231      0.05675242
      1.52042675      0.26014135
      0.42239120      0.53284611
      0.14018784      0.29162544
s              7   1.000000
      0.92936822     -0.06732848
      0.05643440      0.66945598
      0.02166600      0.51461509
      8.30890231     -0.02902283
      1.52042675     -0.13303466
      0.42239120     -0.27249417
      0.14018784     -0.14913542
p              4   1.000000
      0.64737396      0.05713170
      0.16785440      0.28574555
      0.05917387      0.55178731
      0.02355814      0.26323150
 
          44   0
s              4   1.000000
      8.30879211      0.05675242
      1.52040659      0.26014135
      0.42238560      0.53284611
      0.14018598      0.29162544
s              7   1.000000
      0.92936822     -0.06732863
      0.05643440      0.66945738
      0.02166600      0.51461616
      8.30879211     -0.02902313
      1.52040659     -0.13303601
      0.42238560     -0.27249693
      0.14018598     -0.14913694
p              4   1.000000
      0.64737396      0.05713170
      0.16785440      0.28574555
      0.05917387      0.55178731
      0.02355814      0.26323150
 
          45   0
s              4   1.000000
      8.30888065      0.05675242
      1.52042279      0.26014135
      0.42239010      0.53284611
      0.14018748      0.29162544
s              7   1.000000
      0.92936822     -0.06732851
      0.05643440      0.66945624
      0.02166600      0.51461529
      8.30888065     -0.02902289
      1.52042279     -0.13303493
      0.42239010     -0.27249471
      0.14018748     -0.14913572
p              4   1.000000
      0.64737396      0.05713170
      0.16785440      0.28574555
      0.05917387      0.55178731
      0.02355814      0.26323150
 
          46   0
s              4   1.000000
      8.30941800      0.05675242
      1.52052112      0.26014135
      0.42241742      0.53284611
      0.14019654      0.29162544
s              7   1.000000
      0.92936822     -0.06732782
      0.05643440      0.66944937
      0.02166600      0.51461002
      8.30941800     -0.02902145
      1.52052112     -0.13302834
      0.42241742     -0.27248121
      0.14019654     -0.14912833
p              4   1.000000
      0.64737396      0.05713170
      0.16785440      0.28574555
      0.05917387      0.55178731
      0.02355814      0.26323150
 
          47   0
s              4   1.000000
      8.30960340      0.05675242
      1.52055504      0.26014135
      0.42242684      0.53284611
      0.14019967      0.29162544
s              7   1.000000
      0.92936822     -0.06732758
      0.05643440      0.66944701
      0.02166600      0.51460818
      8.30960340     -0.02902096
      1.52055504     -0.13302606
      0.42242684     -0.27247656
      0.14019967     -0.14912579
p              4   1.000000
      0.64737396      0.05713170
      0.16785440      0.28574555
      0.05917387      0.55178731
      0.02355814      0.26323150
 
          48   0
s              4   1.000000
      8.31016075      0.05675242
      1.52065703      0.26014135
      0.42245518      0.53284611
      0.14020907      0.29162544
s              7   1.000000
      0.92936822     -0.06732686
      0.05643440      0.66943987
      0.02166600      0.51460272
      8.31016075     -0.02901947
      1.52065703     -0.13301923
      0.42245518     -0.27246256
      0.14020907     -0.14911813
p              4   1.000000
      0.64737396      0.05713170
      0.16785440      0.28574555
      0.05917387      0.55178731
      0.02355814      0.26323150
 
          49   0
s              4   1.000000
      8.30968983      0.05675242
      1.52057086      0.26014135
      0.42243124      0.53284611
      0.14020113      0.29162544
s              7   1.000000
      0.92936822     -0.06732747
      0.05643440      0.66944589
      0.02166600      0.51460734
      8.30968983     -0.02902073
      1.52057086     -0.13302500
      0.42243124     -0.27247439
      0.14020113     -0.14912460
p              4   1.000000
      0.64737396      0.05713170
      0.16785440      0.28574555
      0.05917387      0.55178731
      0.02355814      0.26323150
 
          50   0
s              4   1.000000
      8.30954227      0.05675242
      1.52054386      0.26014135
      0.42242373      0.53284611
      0.14019864      0.29162544
s              7   1.000000
      0.92936822     -0.06732766
      0.05643440      0.66944778
      0.02166600      0.51460878
      8.30954227     -0.02902112
      1.52054386     -0.13302681
      0.42242373     -0.27247809
      0.14019864     -0.14912663
p              4   1.000000
      0.64737396      0.05713170
      0.16785440      0.28574555
      0.05917387      0.55178731
      0.02355814      0.26323150
 
          51   0
s              4   1.000000
      8.30938371      0.05675242
      1.52051484      0.26014135
      0.42241567      0.53284611
      0.14019597      0.29162544
s              7   1.000000
      0.92936822     -0.06732786
      0.05643440      0.66944981
      0.02166600      0.51461035
      8.30938371     -0.02902154
      1.52051484     -0.13302876
      0.42241567     -0.27248208
      0.14019597     -0.14912881
p              4   1.000000
      0.64737396      0.05713170
      0.16785440      0.28574555
      0.05917387      0.55178731
      0.02355814      0.26323150
 
          52   0
s              4   1.000000
      8.30885246      0.05675242
      1.52041763      0.26014135
      0.42238867      0.53284611
      0.14018700      0.29162544
s              7   1.000000
      0.92936822     -0.06732855
      0.05643440      0.66945661
      0.02166600      0.51461556
      8.30885246     -0.02902297
      1.52041763     -0.13303527
      0.42238867     -0.27249542
      0.14018700     -0.14913611
p              4   1.000000
      0.64737396      0.05713170
      0.16785440      0.28574555
      0.05917387      0.55178731
      0.02355814      0.26323150
 
          53   0
s              4   1.000000
      8.30877593      0.05675242
      1.52040363      0.26014135
      0.42238478      0.53284611
      0.14018571      0.29162544
s              7   1.000000
      0.92936822     -0.06732865
      0.05643440      0.66945759
      0.02166600      0.51461633
      8.30877593     -0.02902317
      1.52040363     -0.13303621
      0.42238478     -0.27249734
      0.14018571     -0.14913716
p              4   1.000000
      0.64737396      0.05713170
      0.16785440      0.28574555
      0.05917387      0.55178731
      0.02355814      0.26323150
 
          54   0
s              4   1.000000
      8.30888281      0.05675242
      1.52042319      0.26014135
      0.42239021      0.53284611
      0.14018751      0.29162544
s              7   1.000000
      0.92936822     -0.06732851
      0.05643440      0.66945622
      0.02166600      0.51461527
      8.30888281     -0.02902288
      1.52042319     -0.13303490
      0.42239021     -0.27249466
      0.14018751     -0.14913569
p              4   1.000000
      0.64737396      0.05713170
      0.16785440      0.28574555
      0.05917387      0.55178731
      0.02355814      0.26323150
 
          55   0
s              4   1.000000
      8.30951462      0.05675242
      1.52053880      0.26014135
      0.42242233      0.53284611
      0.14019817      0.29162544
s              7   1.000000
      0.92936822     -0.06732770
      0.05643440      0.66944814
      0.02166600      0.51460905
      8.30951462     -0.02902119
      1.52053880     -0.13302715
      0.42242233     -0.27247879
      0.14019817     -0.14912701
p              4   1.000000
      0.64737396      0.05713170
      0.16785440      0.28574555
      0.05917387      0.55178731
      0.02355814      0.26323150
 
          56   0
s              4   1.000000
      8.31088387      0.05675242
      1.52078936      0.26014135
      0.42249194      0.53284611
      0.14022128      0.29162544
s              7   1.000000
      0.92936822     -0.06732593
      0.05643440      0.66943063
      0.02166600      0.51459561
      8.31088387     -0.02901753
      1.52078936     -0.13301036
      0.42249194     -0.27244440
      0.14022128     -0.14910819
p              4   1.000000
      0.64737396      0.05713170
      0.16785440      0.28574555
      0.05917387      0.55178731
      0.02355814      0.26323150
 
          57   0
s              4   1.000000
      8.30984891      0.05675242
      1.52059997      0.26014135
      0.42243932      0.53284611
      0.14020381      0.29162544
s              7   1.000000
      0.92936822     -0.06732727
      0.05643440      0.66944386
      0.02166600      0.51460577
      8.30984891     -0.02902030
      1.52059997     -0.13302305
      0.42243932     -0.27247039
      0.14020381     -0.14912241
p              4   1.000000
      0.64737396      0.05713170
      0.16785440      0.28574555
      0.05917387      0.55178731
      0.02355814      0.26323150
 
          58   0
s              4   1.000000
      8.30877238      0.05675242
      1.52040298      0.26014135
      0.42238460      0.53284611
      0.14018565      0.29162544
s              7   1.000000
      0.92936822     -0.06732865
      0.05643440      0.66945764
      0.02166600      0.51461636
      8.30877238     -0.02902318
      1.52040298     -0.13303625
      0.42238460     -0.27249743
      0.14018565     -0.14913721
p              4   1.000000
      0.64737396      0.05713170
      0.16785440      0.28574555
      0.05917387      0.55178731
      0.02355814      0.26323150
 
          59   0
s              4   1.000000
      8.30870678      0.05675242
      1.52039097      0.26014135
      0.42238126      0.53284611
      0.14018454      0.29162544
s              7   1.000000
      0.92936822     -0.06732873
      0.05643440      0.66945847
      0.02166600      0.51461701
      8.30870678     -0.02902336
      1.52039097     -0.13303706
      0.42238126     -0.27249908
      0.14018454     -0.14913812
p              4   1.000000
      0.64737396      0.05713170
      0.16785440      0.28574555
      0.05917387      0.55178731
      0.02355814      0.26323150
 
          60   0
s              4   1.000000
      8.30950831      0.05675242
      1.52053765      0.26014135
      0.42242201      0.53284611
      0.14019807      0.29162544
s              7   1.000000
      0.92936822     -0.06732770
      0.05643440      0.66944822
      0.02166600      0.51460913
      8.30950831     -0.02902121
      1.52053765     -0.13302723
      0.42242201     -0.27247895
      0.14019807     -0.14912709
p              4   1.000000
      0.64737396      0.05713170
      0.16785440      0.28574555
      0.05917387      0.55178731
      0.02355814      0.26323150
 
          61   0
s              4   1.000000
      8.30974946      0.05675242
      1.52058177      0.26014135
      0.42243427      0.53284611
      0.14020214      0.29162544
s              7   1.000000
      0.92936822     -0.06732739
      0.05643440      0.66944513
      0.02166600      0.51460674
      8.30974946     -0.02902057
      1.52058177     -0.13302427
      0.42243427     -0.27247289
      0.14020214     -0.14912378
p              4   1.000000
      0.64737396      0.05713170
      0.16785440      0.28574555
      0.05917387      0.55178731
      0.02355814      0.26323150
 
          62   0
s              4   1.000000
      8.30891499      0.05675242
      1.52042907      0.26014135
      0.42239184      0.53284611
      0.14018806      0.29162544
s              7   1.000000
      0.92936822     -0.06732847
      0.05643440      0.66945581
      0.02166600      0.51461497
      8.30891499     -0.02902280
      1.52042907     -0.13303451
      0.42239184     -0.27249385
      0.14018806     -0.14913525
p              4   1.000000
      0.64737396      0.05713170
      0.16785440      0.28574555
      0.05917387      0.55178731
      0.02355814      0.26323150
 
 [MO]
 Sym= Hole
 Ene= -0.7148953    
 Spin= Alpha
 Occup= 0
           1 -5.4580753E-04
           2 -8.2462117E-02
           3  2.1938384E-02
           4  0.1244315    
           5 -1.4415557E-04
           6 -8.2684110E-04
           7 -6.9812761E-04
           8  1.5103971E-03
           9 -6.9684903E-03
          10  8.5067190E-02
          11 -3.3964813E-02
          12 -0.1188096    
          13  9.5436575E-05
          14 -8.2297428E-03
          15 -1.0539993E-03
          16  1.3072604E-02
          17  6.3418322E-03
          18  0.1744070    
          19 -2.3556188E-02
          20 -0.2439114    
          21  2.0392663E-03
          22  8.6987466E-03
          23  1.6874369E-03
          24 -1.2976809E-02
          25 -1.5249087E-02
          26  0.2258167    
          27 -0.1092304    
          28 -0.2895918    
          29  8.8162040E-03
          30 -1.3145443E-02
          31  5.7658250E-03
          32  1.6007075E-02
          33 -5.1709889E-03
          34 -3.6980622E-02
          35  4.4376384E-02
          36  4.3979391E-02
          37 -2.4059743E-03
          38 -3.5748363E-04
          39 -1.3690483E-03
          40  6.3209957E-03
          41  1.2301121E-02
          42 -0.1327462    
          43 -0.1256882    
          44  0.4085202    
          45 -9.4920164E-03
          46  5.1374612E-03
          47  6.8140896E-03
          48 -2.2769565E-02
          49 -2.1511296E-02
          50 -3.3749890E-04
          51 -1.1432901E-02
          52  0.1060750    
          53  5.5044312E-03
          54 -4.7439197E-03
          55  3.2739821E-03
          56 -1.9554324E-02
          57 -2.0537490E-03
          58 -3.7265357E-02
          59  3.2875568E-02
          60 -0.1997474    
          61  2.3398157E-03
          62  7.2881440E-03
          63 -4.2236241E-04
          64  1.1635919E-02
          65  2.4643075E-03
          66  1.9550363E-04
          67  3.6238477E-02
          68 -0.1157416    
          69 -2.4621398E-03
          70  1.3324366E-03
          71 -2.3369754E-03
          72  8.2576517E-03
          73 -5.3380919E-03
          74 -8.9026811E-03
          75  3.4675177E-03
          76  4.7971564E-03
          77  2.1299638E-03
          78  5.7174882E-04
          79  2.0215075E-04
          80 -1.3164337E-03
          81 -7.3640756E-03
          82 -7.2632097E-03
          83 -3.1585369E-02
          84  1.9438947E-02
          85  3.9852844E-03
          86  1.2612427E-03
          87  1.9257029E-03
          88 -1.5630497E-03
          89  2.1723446E-03
          90  3.1103699E-03
          91 -8.0142304E-04
          92  1.1223962E-03
          93 -1.0489640E-03
          94 -1.3693831E-03
          95 -1.0803486E-03
          96  2.7477919E-04
          97 -9.3268114E-04
          98 -1.0288639E-03
          99  2.5835844E-02
         100 -2.2165798E-02
         101  7.0050609E-04
         102  2.9876738E-04
         103 -2.0345740E-03
         104  2.4101748E-03
         105 -2.1142152E-03
         106 -2.2817282E-03
         107  1.9424854E-04
         108  1.0293904E-03
         109  6.9556606E-04
         110  2.6776061E-05
         111 -3.3851908E-04
         112  1.3532519E-04
         113  5.2370178E-03
         114  5.3470321E-03
         115 -3.6980055E-02
         116  1.1881204E-02
         117 -2.4399180E-03
         118 -5.8006553E-04
         119  3.6837105E-03
         120  3.7552605E-04
         121  9.5479633E-04
         122 -6.1844951E-03
         123 -6.6321954E-02
         124  0.1997287    
         125 -1.1852883E-03
         126  1.8800229E-03
         127  6.9178967E-03
         128 -2.4174029E-02
         129 -6.5733222E-03
         130 -4.0662540E-03
         131 -2.1686915E-02
         132  8.1919596E-02
         133  2.1582649E-03
         134  3.6759309E-05
         135  5.0678337E-03
         136 -2.1469107E-02
         137  1.7107952E-02
         138 -3.1077268E-02
         139  5.0570298E-02
         140 -0.2432453    
         141 -9.7145010E-03
         142  7.2163232E-03
         143 -7.2535151E-03
         144  3.1731624E-02
         145 -5.6728958E-03
         146 -1.6031945E-03
         147  4.6309149E-03
         148  1.1122138E-02
         149 -1.6567933E-03
         150  6.3053478E-04
         151  4.1489345E-03
         152 -8.0909142E-03
         153 -4.0534935E-03
         154  1.4315252E-02
         155  2.4086272E-02
         156  0.1201138    
         157  4.1630520E-03
         158 -5.5569061E-03
         159 -5.4795095E-03
         160 -1.1718675E-02
         161  2.9375724E-04
         162 -3.2995285E-03
         163  2.2804984E-03
         164  8.2463631E-03
         165  9.8851998E-04
         166  1.2727662E-04
         167 -6.8204093E-04
         168  1.2876522E-03
         169  3.5361110E-03
         170 -1.6798381E-02
         171 -1.6174495E-02
         172 -0.1271348    
         173 -2.2893610E-04
         174  3.4034319E-04
         175 -1.2320917E-03
         176  9.2722764E-03
         177  1.0679840E-04
         178  1.7498714E-03
         179  5.9289681E-03
         180  1.4889629E-02
         181  3.9535921E-04
         182 -6.7615550E-04
         183 -8.9883868E-04
         184 -1.8575743E-03
         185 -6.6277492E-03
         186  9.6249962E-03
         187  3.6865260E-02
         188  2.3747694E-02
         189  4.0644738E-03
         190 -1.4817488E-03
         191 -2.5718166E-03
         192 -2.2692338E-04
         193  2.1992645E-03
         194 -2.8233079E-03
         195 -2.9931727E-03
         196 -1.1112805E-03
         197 -4.0060413E-04
         198  5.5484293E-04
         199  5.3150766E-04
         200  4.0343919E-04
         201  1.5098926E-04
         202 -3.6703763E-03
         203 -2.7787164E-02
         204 -3.0931169E-02
         205  2.3839068E-04
         206  1.3394855E-04
         207  1.4318745E-03
         208  2.2201140E-03
         209 -2.6455056E-03
         210  3.4251476E-03
         211 -2.9365008E-03
         212 -1.9722963E-03
         213  1.3959610E-03
         214 -1.4384257E-03
         215  3.1702657E-04
         216  7.7308679E-04
         217  7.5873849E-03
         218 -4.9558724E-03
         219  3.6132984E-02
         220  2.5983095E-02
         221 -3.5744826E-03
         222  2.8058112E-04
         223 -3.0105447E-03
         224 -6.5699511E-04
         225 -8.0382116E-03
         226 -6.6943732E-03
         227  6.7297933E-03
         228 -6.0015909E-02
         229  4.0657283E-03
         230 -1.3522124E-03
         231 -2.0020008E-03
         232  3.1847407E-03
         233  2.6749169E-02
         234 -8.7388726E-03
         235 -2.1058396E-03
         236  0.1046590    
         237 -1.5828818E-02
         238  6.5972311E-03
         239 -2.4933997E-04
         240 -9.5831389E-03
         241  9.1909794E-03
         242 -3.0202789E-02
         243  2.8366560E-02
         244  1.3449802E-02
         245 -7.7912980E-03
         246 -3.9376831E-03
         247  4.5846993E-04
         248  7.3282225E-03
         249  1.2434240E-02
         250  0.1838190    
         251 -1.8830350E-02
         252 -0.1233380    
         253 -7.3926295E-03
         254 -6.7852070E-03
         255 -1.0299967E-03
         256  4.8497985E-03
         257 -4.1128141E-03
         258  8.3905265E-02
         259 -1.9871779E-03
         260 -9.0473495E-02
         261  1.8833303E-03
         262  8.0647209E-04
         263  1.1294661E-03
         264  1.8813758E-03
         265  1.4345940E-03
         266 -0.1050626    
         267 -3.5458675E-03
         268  0.1236680    
         269 -9.0694241E-04
         270  4.2525013E-03
         271  1.0149742E-03
         272 -7.9396190E-03
         273  3.4560033E-03
         274 -0.1042026    
         275  9.5624002E-03
         276  0.1144521    
         277 -1.2884803E-05
         278 -3.5111749E-04
         279  5.1174592E-04
         280 -2.6142772E-03
         281 -2.1374008E-02
         282  8.4852777E-02
         283 -4.1825254E-02
         284 -6.5089695E-02
         285  1.0582871E-02
         286 -1.2328890E-02
         287  5.2200961E-03
         288  1.1799643E-02
         289  7.8122690E-03
         290  3.2729570E-02
         291  3.7288878E-03
         292 -5.6168050E-02
         293 -2.4650968E-03
         294  8.5653062E-04
         295  3.3156725E-03
         296  8.1605650E-04
         297 -7.6921689E-03
         298 -0.1474396    
         299  1.3933289E-02
         300  0.2012215    
         301  1.2690900E-03
         302  5.8995411E-03
         303 -5.4436910E-04
         304 -4.6766009E-03
         305 -3.4613980E-03
         306 -1.0763340E-05
         307 -8.3504518E-04
         308 -3.8291133E-04
         309  1.6497378E-03
         310  1.1065773E-02
         311 -1.5133069E-03
         312  2.3162651E-03
         313 -1.4477141E-03
         314 -4.8054582E-03
         315  9.4137872E-03
         316 -1.6659038E-03
         317 -5.8517506E-04
         318  4.7076396E-03
         319 -1.0330951E-02
         320  1.5343013E-03
         321  1.0792958E-03
         322  3.7379200E-03
         323 -1.5069147E-03
         324  5.3743628E-04
         325 -1.6159881E-03
         326  4.7392654E-04
         327 -2.4164729E-06
         328  2.4920524E-04
         329 -7.8913290E-05
         330  1.0518641E-03
         331  5.7524943E-04
         332  3.3477638E-04
         333  3.1814291E-03
         334 -2.5667648E-03
         335  4.4041872E-03
         336 -4.0802412E-04
         337  8.2172432E-05
         338  5.6783116E-04
         339 -5.2288809E-04
         340 -1.4597456E-03
         341  1.5229036E-03
         342  2.9370182E-03
         343 -3.9754948E-03
         344  9.3587872E-04
         345 -9.4337214E-04
         346 -4.8496546E-05
         347  4.2598840E-05
         348 -8.5681835E-03
         349  2.6408039E-02
         350  1.4525320E-02
         351 -1.4325762E-03
         352  9.4980514E-04
         353  9.7237248E-04
         354  7.9807080E-03
         355 -1.9988560E-03
         356  1.4578766E-03
         357 -1.0876805E-03
         358 -1.2648695E-03
         359  8.4654856E-03
         360 -1.3505135E-03
         361  8.4796874E-04
         362  8.9849770E-04
         363  4.0122651E-04
         364  1.7334723E-03
         365  2.3284585E-03
         366  6.2670116E-04
         367 -1.3731135E-03
         368  2.3692236E-03
         369  1.3779178E-03
         370 -3.3724653E-03
         371  5.8448897E-04
         372 -1.2585112E-04
         373 -7.3510711E-04
         374 -2.6626085E-04
         375 -2.7310062E-04
         376  2.6317112E-04
         377 -4.1993320E-04
         378 -2.4408384E-03
         379 -2.4894071E-03
         380  3.3072212E-03
         381  4.6708141E-04
         382 -5.6958548E-04
         383 -8.6476357E-04
         384 -1.9755746E-04
         385 -1.1986521E-03
         386 -1.0452788E-04
         387  1.8682100E-03
         388  1.5921755E-03
         389 -4.3159473E-04
         390 -5.5007506E-03
         391  4.2257141E-03
         392 -4.4737114E-03
         393 -3.1138645E-03
         394 -2.1953245E-03
         395 -1.4607789E-02
         396  5.2688265E-04
         397  4.1975905E-03
         398 -4.5098765E-03
         399 -5.1721232E-03
         400  1.5532521E-02
         401 -1.6269651E-03
         402  3.4395501E-03
         403 -4.2499823E-04
         404 -4.1244123E-03
         405  1.0124615E-03
         406 -6.9111047E-05
         407 -7.0744893E-03
         408  8.5670990E-04
         409  7.9029631E-03
         410 -1.4665469E-02
         411  5.9235439E-04
         412 -3.6211521E-03
         413 -3.0534116E-03
         414  2.5480371E-03
         415  1.8027546E-02
         416 -3.3066964E-03
         417 -2.8026958E-03
         418  1.0430000E-03
         419  1.4567947E-03
         420  3.8717065E-03
         421 -4.9964653E-04
         422 -7.4661332E-03
         423  2.6503257E-03
         424  1.1162914E-02
 Sym= Particle
 Ene= -0.7148953    
 Spin= Alpha
 Occup= 2
           1 -9.0759562E-04
           2 -5.4731914E-03
           3 -1.6133458E-03
           4  3.1831961E-03
           5 -1.1128027E-03
           6 -9.3721144E-04
           7  8.7215936E-05
           8  1.3574515E-03
           9  2.1608276E-03
          10 -3.3008642E-02
          11  1.0192064E-02
          12  4.8384037E-02
          13 -3.3478972E-03
          14  8.5486937E-03
          15 -3.0524696E-03
          16 -9.4635645E-03
          17 -3.7075963E-03
          18  1.1467685E-02
          19 -1.5340544E-02
          20 -3.8010333E-02
          21  5.4857996E-03
          22 -8.3122466E-04
          23  5.0749616E-03
          24  4.7198609E-03
          25 -9.6078599E-03
          26 -3.8725652E-02
          27  1.7786017E-02
          28  7.3278643E-02
          29  2.1276453E-04
          30  4.3213973E-03
          31 -1.2953654E-02
          32 -1.1108818E-02
          33  2.7095616E-02
          34 -2.3848316E-02
          35 -9.5594721E-03
          36 -5.7021927E-02
          37 -2.1741349E-02
          38  8.9539504E-03
          39 -5.8005494E-03
          40  1.0935701E-02
          41 -2.7271068E-02
          42 -8.1738442E-02
          43 -5.0725721E-02
          44  0.1591047    
          45  3.0790249E-02
          46  6.6564572E-03
          47  2.1072898E-02
          48 -5.1383834E-02
          49  7.5483881E-03
          50 -4.5024185E-03
          51  8.1763916E-02
          52 -0.3627124    
          53  1.0786912E-02
          54 -7.8901155E-03
          55 -4.4191450E-02
          56  0.1443993    
          57 -2.0484166E-02
          58 -8.5345674E-03
          59 -6.6563196E-02
          60  0.2968831    
          61  2.5703093E-02
          62  8.5101435E-03
          63  1.5716327E-02
          64 -9.6314095E-02
          65  4.5189232E-04
          66  5.1541589E-03
          67 -3.0509545E-03
          68 -3.6219146E-02
          69  9.1627743E-03
          70 -1.4946180E-03
          71  3.3638419E-03
          72  1.0749646E-02
          73 -9.9907967E-04
          74  1.1729674E-03
          75  5.6062317E-03
          76 -5.4325652E-03
          77  5.5564786E-03
          78  5.0814422E-03
          79 -1.5831650E-03
          80 -5.1578013E-03
          81  4.5623174E-03
          82  5.5379975E-03
          83 -2.0994980E-02
          84 -4.1223532E-03
          85 -4.5667361E-03
          86 -1.1205504E-03
          87  8.3525078E-03
          88  4.5423233E-03
          89 -1.3074348E-03
          90 -4.6895840E-03
          91  2.3819816E-03
          92 -2.7178745E-03
          93  2.9916145E-04
          94  5.3037563E-03
          95 -3.8189364E-03
          96 -1.2275518E-03
          97  1.8461809E-03
          98 -1.9679440E-04
          99  5.9552286E-03
         100 -6.0059074E-03
         101 -2.1713048E-03
         102 -9.7823655E-04
         103 -2.4967322E-03
         104  1.2134121E-03
         105 -2.4129427E-03
         106 -4.6776850E-03
         107 -7.2485465E-03
         108  5.2784830E-03
         109  1.2676304E-03
         110  2.4287042E-03
         111  8.3650381E-04
         112 -2.2129415E-04
         113  6.1380873E-03
         114  5.9836321E-03
         115 -1.0707531E-03
         116  4.1401586E-03
         117 -2.5391751E-03
         118 -4.4459701E-03
         119 -1.0672329E-03
         120 -6.5538548E-03
         121 -3.8808950E-05
         122  3.3742506E-03
         123  8.3102316E-02
         124 -0.2773360    
         125  8.6360071E-03
         126 -5.1071076E-03
         127 -1.9650016E-02
         128  7.2621256E-02
         129 -1.0510433E-02
         130 -7.3588509E-03
         131 -0.1063962    
         132  0.2764081    
         133  1.8875128E-02
         134  5.3029624E-03
         135  4.1678213E-02
         136 -9.3122981E-02
         137 -9.3933271E-04
         138 -1.0703438E-02
         139  5.9810039E-03
         140 -3.8744912E-02
         141  3.3795587E-03
         142  3.7587038E-03
         143  2.3360518E-03
         144  4.4765561E-03
         145  5.9759179E-03
         146  8.0201887E-03
         147  6.6072284E-03
         148  9.1095403E-02
         149 -3.6784168E-03
         150 -7.7427560E-03
         151 -1.6236046E-03
         152 -3.6586389E-02
         153  5.3796107E-03
         154  1.1243355E-02
         155  3.4476645E-02
         156  0.1740211    
         157 -7.4220621E-03
         158 -1.7261850E-04
         159 -1.3450456E-02
         160 -4.5899980E-02
         161 -1.2349908E-03
         162 -1.6834674E-02
         163 -2.4021797E-02
         164 -0.2512380    
         165 -4.3563312E-03
         166  4.2335177E-03
         167  5.7487530E-03
         168  6.5252252E-02
         169  3.9035941E-03
         170  6.1689857E-03
         171  7.4069905E-03
         172  3.9097581E-02
         173 -8.7179849E-03
         174  1.3466722E-03
         175 -3.5569405E-03
         176 -9.6855005E-03
         177 -3.6446219E-03
         178  7.2320411E-03
         179  6.5940428E-03
         180  4.6636821E-03
         181 -1.8268452E-03
         182  3.4617139E-03
         183 -1.6451996E-03
         184  6.3348480E-04
         185 -7.9651982E-05
         186 -2.9443594E-04
         187 -1.6418779E-02
         188 -5.5935592E-03
         189 -1.7608810E-03
         190  1.3155867E-03
         191  5.2711181E-03
         192 -1.9409860E-03
         193  3.6096451E-04
         194 -1.0559864E-03
         195  6.7145773E-04
         196  2.6401758E-04
         197 -7.7221956E-04
         198  1.4639830E-03
         199 -1.0613365E-03
         200 -3.1505642E-05
         201 -1.0970873E-03
         202  1.5023681E-03
         203  8.9833420E-03
         204  9.5889578E-03
         205  9.7533985E-04
         206 -1.1558580E-03
         207 -9.6514024E-04
         208 -1.0990374E-03
         209  1.3942096E-03
         210 -2.9627262E-03
         211 -3.0626454E-03
         212 -3.0732027E-03
         213 -1.0756488E-03
         214  2.1637338E-03
         215  8.3760632E-04
         216 -4.7415873E-04
         217 -3.6958393E-03
         218  3.1543917E-03
         219 -5.6417058E-03
         220 -1.1530624E-02
         221  1.4927745E-03
         222 -7.8066910E-04
         223 -8.4222422E-04
         224  4.9975016E-03
         225  8.2065109E-03
         226  3.4311742E-02
         227  4.6341601E-03
         228  0.2179749    
         229 -1.2308735E-02
         230 -9.1639170E-03
         231  5.7861459E-04
         232 -6.8028614E-02
         233 -4.6925917E-03
         234 -3.4238186E-02
         235 -2.9695889E-02
         236 -0.2702106    
         237 -3.6804313E-03
         238  1.7429432E-02
         239  1.6320938E-02
         240  8.8371016E-02
         241  9.9481479E-04
         242 -0.2144933    
         243 -1.6282482E-02
         244  0.2073503    
         245  1.0829870E-02
         246  6.0636677E-02
         247  9.5409825E-03
         248 -6.0635820E-02
         249  2.4563600E-03
         250  0.1565422    
         251 -2.0346988E-03
         252 -0.1452512    
         253  3.8745446E-04
         254 -4.6292398E-02
         255  9.7993447E-04
         256  3.5884794E-02
         257 -6.1444696E-03
         258  5.0383687E-02
         259 -4.8323292E-03
         260 -5.4409161E-02
         261  6.6051888E-03
         262 -1.0544793E-02
         263  4.3316521E-03
         264  9.4652707E-03
         265  2.6853897E-03
         266 -0.1826457    
         267  6.1315768E-03
         268  0.1954919    
         269  1.6412620E-03
         270  3.9039180E-02
         271 -9.1821753E-04
         272 -4.5551669E-02
         273 -3.7820062E-03
         274  7.8702681E-02
         275 -6.3446158E-04
         276 -8.6260937E-02
         277  4.5605507E-03
         278 -1.8134749E-02
         279 -1.7013015E-03
         280  1.5262873E-02
         281 -9.5423004E-03
         282  0.1424355    
         283 -7.2515761E-03
         284 -0.1532548    
         285  1.1337075E-02
         286 -3.8170785E-02
         287  1.0607052E-03
         288  4.0980659E-02
         289  4.1730688E-03
         290 -2.4486549E-02
         291 -4.7144704E-03
         292  2.1885082E-03
         293 -3.0822356E-03
         294  5.3377706E-03
         295 -1.8795904E-03
         296  1.9658566E-03
         297 -1.3138308E-03
         298  3.8417641E-02
         299 -7.4160635E-03
         300 -5.0908413E-02
         301 -7.1061071E-04
         302 -6.5409415E-03
         303 -1.3138709E-03
         304  8.0678314E-03
         305 -1.5386856E-04
         306 -1.8563754E-03
         307  1.1675461E-04
         308 -1.5374268E-03
         309  9.3367923E-04
         310 -5.1794220E-03
         311 -1.2246573E-03
         312 -1.1437243E-03
         313  3.4033143E-04
         314  5.1462855E-03
         315  9.4812410E-03
         316  5.3148991E-03
         317  1.3582422E-02
         318 -2.2589276E-02
         319  9.4387010E-02
         320 -5.5139223E-03
         321 -8.6954581E-03
         322 -1.9624490E-02
         323  6.5578418E-03
         324  7.0261564E-03
         325 -5.3232117E-03
         326  1.0812649E-03
         327  2.0666071E-03
         328 -4.3382883E-04
         329 -1.5319767E-03
         330 -3.4100958E-03
         331 -2.3883313E-03
         332 -1.6787838E-03
         333  8.4614294E-04
         334 -1.0221929E-03
         335 -2.0511122E-03
         336 -1.3575637E-03
         337 -1.1962105E-04
         338 -1.2827341E-03
         339  2.5023622E-03
         340 -4.5256047E-03
         341 -5.5817692E-03
         342 -1.5279304E-02
         343  1.0534745E-03
         344 -3.5910823E-03
         345  8.2128141E-03
         346  2.0282688E-03
         347 -2.4515784E-03
         348  2.3709349E-02
         349 -7.1568064E-02
         350  1.3249309E-02
         351  4.1995351E-03
         352  1.5612765E-02
         353 -2.0565251E-02
         354  7.9250008E-02
         355 -7.3995036E-03
         356 -5.6300499E-03
         357  1.8088268E-02
         358  5.6772786E-03
         359  4.6574701E-02
         360 -6.4647160E-03
         361 -2.9059749E-03
         362 -4.8828064E-03
         363 -5.6682415E-03
         364 -5.7003576E-02
         365  1.9224605E-03
         366  1.7317293E-03
         367 -8.4389551E-03
         368 -1.4533380E-03
         369 -2.6404543E-03
         370  2.9591010E-03
         371  7.4010481E-05
         372  2.0140158E-04
         373 -3.8568166E-04
         374  7.7402109E-04
         375  1.8897657E-03
         376  1.2605225E-03
         377 -8.8018255E-04
         378  1.6438524E-03
         379  2.0708765E-03
         380  1.7299430E-03
         381 -1.7107009E-04
         382  5.4473977E-04
         383  2.1090125E-05
         384 -1.3459215E-03
         385  3.3147056E-03
         386  1.9305740E-03
         387 -9.5920963E-03
         388 -1.0288524E-03
         389  1.0640464E-03
         390 -1.0839348E-02
         391 -3.4337675E-03
         392  4.8762634E-03
         393  8.6768530E-03
         394  4.7138542E-02
         395  9.5473891E-03
         396 -6.4683184E-03
         397  4.5493666E-02
         398 -5.4504354E-03
         399 -4.3683011E-02
         400  6.6528120E-03
         401  2.7915650E-05
         402  9.7309658E-03
         403  3.1425648E-03
         404 -1.2981336E-02
         405 -2.5058964E-03
         406  9.0510980E-04
         407 -4.1747436E-02
         408  1.8650340E-03
         409  4.3526575E-02
         410  2.6894438E-03
         411 -2.9201997E-03
         412  1.3917270E-02
         413 -3.7858123E-03
         414 -1.6882630E-02
         415 -3.8859460E-03
         416 -7.9505425E-04
         417  1.1344620E-02
         418  3.5446368E-03
         419 -3.5311645E-03
         420  4.7744322E-03
         421 -4.2025219E-03
         422  9.2447829E-03
         423 -2.4429522E-03
         424 -7.0643579E-03
 Sym= Hole
 Ene= -0.2015440    
 Spin= Alpha
 Occup= 0
           1 -1.2360390E-03
           2  0.1447779    
           3 -4.2275999E-02
           4 -0.2120099    
           5  1.5015925E-04
           6  1.3204877E-03
           7  2.7018413E-04
           8 -2.4244455E-03
           9  5.2835871E-03
          10  0.2388050    
          11 -4.7487680E-02
          12 -0.3801990    
          13  4.5516356E-04
          14 -1.2635919E-03
          15  6.3577504E-03
          16 -2.0254580E-03
          17 -2.6468871E-02
          18  7.2413273E-02
          19 -7.0080586E-02
          20 -0.1270553    
          21 -2.1632141E-03
          22  4.1741859E-03
          23 -9.5433686E-03
          24 -9.6730459E-03
          25 -6.0136807E-03
          26 -4.7587458E-02
          27  8.9933924E-02
          28  8.9149676E-02
          29 -1.5811172E-03
          30 -6.2987329E-03
          31  9.8471586E-03
          32  5.0329240E-03
          33  6.5129818E-03
          34  6.4517908E-02
          35 -6.5060496E-02
          36 -6.6292390E-02
          37 -1.4941987E-03
          38  2.7439801E-03
          39 -2.9765849E-03
          40  6.0390113E-03
          41 -1.1221034E-02
          42 -2.2661548E-02
          43  1.2791269E-02
          44 -2.1432124E-02
          45  1.8972747E-03
          46 -5.4956125E-03
          47 -3.2831791E-03
          48  9.0842653E-04
          49 -1.2542198E-03
          50 -1.7804593E-03
          51 -5.1729575E-02
          52  0.1061632    
          53  9.3485619E-04
          54 -6.9811690E-04
          55  2.8200997E-03
          56  3.1941785E-03
          57  1.1644525E-03
          58  1.1669112E-03
          59 -6.2178163E-04
          60 -3.5890175E-03
          61 -6.4599444E-04
          62  1.8866591E-05
          63 -6.4549199E-04
          64  2.2416166E-03
          65  1.5092964E-03
          66 -2.0715792E-04
          67  2.5227901E-02
          68 -9.6161939E-02
          69 -3.7340753E-04
          70  4.5942870E-04
          71  1.1309164E-03
          72  1.1167160E-03
          73 -6.5116544E-04
          74 -1.4692656E-03
          75 -1.9704642E-02
          76  2.4287459E-02
          77  7.7897287E-04
          78  4.9553171E-04
          79  1.7158325E-03
          80  9.8040437E-05
          81 -4.9651959E-03
          82 -5.0629759E-03
          83 -3.5296395E-02
          84  1.7595852E-02
          85  2.3267912E-03
          86 -7.0413334E-05
          87  1.3459788E-04
          88  7.9220411E-04
          89  1.3621341E-03
          90  1.8517316E-03
          91  6.6200355E-03
          92 -3.3412408E-03
          93 -4.6566414E-04
          94 -5.7828584E-04
          95 -3.9649307E-04
          96  2.9484625E-04
          97  3.0297477E-04
          98 -2.7282600E-05
          99  2.9347606E-02
         100 -2.4989564E-02
         101  1.2236503E-04
         102  7.5323864E-05
         103 -1.3544052E-04
         104  7.2110404E-04
         105 -2.1769993E-03
         106 -3.5274974E-03
         107  7.6602264E-03
         108 -4.3826010E-03
         109  8.7171479E-04
         110  6.9678848E-04
         111 -3.0430392E-04
         112  4.1521498E-04
         113  5.9032082E-03
         114  7.2404863E-03
         115 -3.4216285E-02
         116  1.6891642E-02
         117 -2.2252542E-03
         118  9.3941728E-04
         119  4.8290513E-04
         120  8.1301108E-04
         121 -3.6444695E-04
         122 -6.5227817E-03
         123  2.8487010E-02
         124 -9.1429621E-02
         125  5.6777790E-04
         126  1.2418862E-03
         127 -4.1716307E-04
         128  1.6950796E-03
         129  9.3079256E-03
         130  1.1276543E-02
         131 -1.8063065E-02
         132  2.3635784E-02
         133 -3.3017017E-03
         134  2.0146254E-03
         135 -9.1655750E-04
         136  4.8250589E-03
         137 -3.8901786E-04
         138  7.9918094E-03
         139 -2.4087053E-02
         140  0.1088362    
         141  5.3461728E-04
         142  2.0560133E-03
         143  4.7227261E-03
         144 -3.2106967E-04
         145  1.2321911E-02
         146 -9.3498649E-03
         147 -4.6625011E-02
         148 -0.2139865    
         149 -5.0301291E-03
         150 -1.2655384E-03
         151  2.2040098E-03
         152  2.7957025E-03
         153 -2.7069096E-03
         154 -1.3564846E-02
         155 -1.7417695E-02
         156 -0.1359022    
         157  3.5016719E-04
         158  2.9974923E-04
         159 -9.1979239E-04
         160  1.5808977E-03
         161  7.4962783E-03
         162  2.0321937E-02
         163 -1.1678665E-03
         164  0.1007242    
         165 -2.9580861E-03
         166 -3.8915654E-04
         167  9.6370716E-04
         168  3.5324942E-03
         169 -3.4422821E-03
         170  2.6734790E-02
         171  3.5020333E-02
         172  0.2261926    
         173  8.0452985E-05
         174  5.0901662E-04
         175  1.9252279E-03
         176  2.0822429E-03
         177 -2.7585125E-03
         178 -3.8400723E-03
         179 -4.6269394E-02
         180 -7.1003161E-02
         181  1.5823507E-03
         182 -1.4735246E-03
         183  3.6813763E-03
         184 -2.0752819E-03
         185  1.2729880E-02
         186 -2.1175941E-02
         187 -7.7406600E-02
         188 -5.1702831E-02
         189 -5.2983398E-03
         190 -2.5706945E-03
         191  1.3630867E-03
         192 -2.4185895E-03
         193 -4.2408076E-03
         194  8.6882208E-03
         195  1.9643385E-02
         196  1.4382614E-02
         197  1.6366185E-03
         198 -1.5272783E-03
         199  7.2399060E-05
         200 -3.5361256E-04
         201 -2.2135075E-04
         202  8.0278274E-03
         203  6.6044465E-02
         204  7.2663419E-02
         205  1.9231255E-04
         206 -2.3951355E-04
         207  5.9020094E-04
         208 -1.0779504E-03
         209  4.1798558E-03
         210 -4.5858501E-03
         211  1.8454662E-02
         212  1.4518739E-02
         213 -1.6553989E-03
         214  1.5106263E-03
         215 -1.8164303E-04
         216 -7.9721864E-04
         217 -1.2565881E-02
         218  7.6180100E-03
         219 -7.7743821E-02
         220 -5.7654042E-02
         221  4.7318107E-03
         222  1.4432614E-03
         223 -5.8476243E-04
         224 -2.4121439E-03
         225  3.7099845E-03
         226  3.2218181E-02
         227 -2.3429627E-02
         228  0.1347636    
         229 -1.1500098E-03
         230 -3.9325976E-03
         231 -4.1470639E-03
         232 -2.6116581E-03
         233 -1.4570143E-02
         234 -1.2392937E-02
         235  1.9265616E-03
         236 -0.1528522    
         237  4.4954503E-03
         238  2.4728104E-03
         239  2.5145165E-03
         240 -5.9442190E-03
         241  5.5262316E-03
         242  2.0516057E-02
         243 -1.2647205E-02
         244 -1.4233279E-02
         245 -1.3113158E-03
         246  4.1545192E-03
         247  9.8600902E-04
         248 -2.1931583E-03
         249 -4.7499500E-03
         250  3.9093614E-02
         251 -9.6858916E-04
         252 -4.4201910E-02
         253  1.7210910E-03
         254  1.7484430E-03
         255  4.7296140E-04
         256  1.0856881E-04
         257  3.9054005E-04
         258  2.5015723E-02
         259 -2.8198010E-03
         260 -2.4460174E-02
         261 -5.3726824E-04
         262 -2.3000007E-03
         263  5.8919593E-04
         264  1.5376443E-03
         265  1.8904046E-03
         266 -3.6937200E-02
         267  2.4137679E-03
         268  4.1191641E-02
         269 -1.2353400E-03
         270 -2.1918181E-03
         271 -1.2174771E-05
         272  2.9961122E-04
         273 -6.8183071E-03
         274 -6.2887080E-02
         275 -8.4491530E-03
         276  5.8456220E-02
         277  2.5229612E-03
         278 -4.3124268E-03
         279  2.0687121E-03
         280  2.1873168E-03
         281 -1.4058290E-03
         282 -5.1096024E-04
         283  1.1569851E-02
         284 -8.7727206E-03
         285  3.2983569E-04
         286 -1.2434733E-03
         287  4.2144377E-03
         288  7.6670852E-03
         289 -1.1233189E-02
         290 -0.2764083    
         291  7.6859132E-03
         292  0.3479253    
         293  2.8588879E-03
         294 -3.1751005E-03
         295 -7.6932386E-03
         296  4.0296698E-03
         297  9.1125155E-03
         298 -0.1789660    
         299  5.7455216E-02
         300  0.2201236    
         301 -1.7811165E-03
         302 -3.2570492E-03
         303  1.0663185E-03
         304 -6.9529377E-04
         305  1.3469000E-02
         306  1.0582452E-03
         307 -1.7165290E-03
         308  1.0358539E-03
         309  1.9190186E-03
         310 -1.4831447E-02
         311  2.6744869E-04
         312 -3.3582512E-03
         313  3.7410337E-04
         314  1.1410525E-02
         315 -5.4697818E-03
         316  8.8828514E-05
         317 -3.7477212E-04
         318  4.0380794E-04
         319 -1.9483366E-03
         320  2.8757656E-03
         321  2.6953634E-04
         322  9.7562332E-04
         323 -7.8320771E-04
         324 -3.5625635E-04
         325 -3.0417743E-03
         326  1.8233624E-04
         327 -2.0044188E-04
         328  7.2810834E-04
         329 -3.9172699E-04
         330 -3.0903306E-04
         331  2.1467588E-04
         332  1.4550841E-04
         333  1.2128822E-03
         334 -8.6386845E-04
         335  3.3685218E-03
         336  1.4419506E-04
         337  5.1818386E-04
         338  7.3134096E-04
         339 -3.6566134E-04
         340 -1.4351349E-03
         341 -2.4730945E-04
         342 -1.0602444E-03
         343 -8.2802708E-04
         344 -1.0643590E-03
         345  3.8978294E-03
         346  5.5076845E-04
         347  1.2391267E-03
         348  6.1973167E-04
         349 -2.7390276E-03
         350 -2.4328814E-03
         351  1.3982863E-03
         352 -1.2980092E-03
         353 -5.4075038E-03
         354 -1.5348627E-04
         355  8.8946642E-03
         356  1.4194537E-05
         357  1.0328606E-03
         358  1.1912343E-03
         359  4.7438761E-04
         360 -4.3092817E-03
         361  7.6273433E-04
         362 -2.4583708E-03
         363 -1.4728500E-03
         364 -3.3362810E-03
         365 -3.9661187E-03
         366  5.8218348E-04
         367  1.4767355E-04
         368 -3.1643840E-03
         369  1.1711387E-03
         370  8.4402571E-03
         371  4.0839479E-04
         372 -7.4727350E-04
         373  1.5495786E-03
         374  1.4604629E-03
         375 -1.0103236E-04
         376  2.8718528E-04
         377 -9.8475597E-05
         378  2.1557477E-03
         379  1.7908519E-03
         380 -7.0767147E-03
         381 -6.4526292E-05
         382  1.1054826E-03
         383  2.0896958E-03
         384  1.0151743E-03
         385  4.1299476E-03
         386  2.4943520E-05
         387 -1.3227352E-03
         388 -2.0292632E-03
         389  9.1541314E-04
         390  1.9757351E-02
         391 -1.6979607E-03
         392 -2.9461694E-04
         393 -1.3801878E-03
         394 -8.7376870E-04
         395  5.0731846E-03
         396 -5.5153429E-04
         397 -1.2810848E-03
         398  1.9963211E-03
         399  3.1188039E-05
         400  4.8275481E-04
         401  3.3536018E-04
         402  3.3328598E-03
         403 -1.3958571E-04
         404 -2.3780630E-03
         405 -2.8658784E-03
         406  2.9152422E-04
         407  3.0748968E-03
         408  6.2673923E-04
         409 -3.0358406E-03
         410  5.5059046E-03
         411 -5.1157043E-04
         412 -8.5831893E-04
         413 -4.5561190E-03
         414 -5.0392270E-04
         415 -3.2253448E-02
         416  2.2223701E-03
         417  1.1003309E-02
         418  2.7564485E-03
         419 -6.0443687E-03
         420  1.9229485E-03
         421 -1.1380690E-03
         422  1.1645202E-03
         423 -3.4683880E-03
         424  1.5408074E-04
 Sym= Particle
 Ene= -0.2015440    
 Spin= Alpha
 Occup= 2
           1 -7.2405260E-04
           2 -7.9705901E-02
           3  2.3489287E-02
           4  0.1293231    
           5 -1.1048828E-03
           6  5.3890557E-03
           7 -4.4234358E-03
           8 -1.0781735E-02
           9 -2.7740870E-03
          10  6.1719768E-02
          11 -1.7565222E-02
          12 -9.3613878E-02
          13  4.7509460E-04
          14  2.8981280E-04
          15 -7.7041658E-04
          16  1.1856210E-03
          17  4.7058524E-03
          18  0.1623001    
          19 -1.2044676E-02
          20 -0.1911398    
          21 -2.5221386E-03
          22 -6.1957599E-03
          23 -6.1844569E-03
          24  6.1575510E-03
          25  6.9175418E-03
          26  8.6911254E-02
          27 -4.4349205E-02
          28 -0.1452511    
          29 -5.5916817E-03
          30 -1.1769400E-02
          31  7.2809169E-03
          32  4.1777268E-02
          33  8.3603505E-03
          34 -0.1799270    
          35  0.1254147    
          36  0.3925189    
          37 -1.2540435E-03
          38  5.3571239E-02
          39 -2.0951690E-02
          40 -9.0306289E-02
          41  8.0283890E-03
          42  0.1120114    
          43  5.9247654E-02
          44 -0.2176234    
          45  1.4819012E-03
          46 -4.5615036E-02
          47 -4.4160206E-03
          48  6.2956266E-02
          49 -2.0121718E-02
          50 -2.3021374E-02
          51  8.9181788E-02
          52 -0.2610398    
          53  3.3180870E-02
          54  2.5280127E-02
          55 -3.2141455E-02
          56  8.1826292E-02
          57  7.1481923E-03
          58  4.0924303E-02
          59 -4.6405412E-02
          60  0.2437502    
          61  1.6723468E-04
          62 -1.6988508E-02
          63  1.0295579E-02
          64 -6.4361945E-02
          65 -7.4622263E-03
          66 -2.2605450E-04
          67 -1.1773146E-02
          68  4.4771522E-02
          69  5.9027635E-03
          70 -3.9549470E-03
          71  5.2095558E-03
          72 -1.4564061E-03
          73  6.2138038E-03
          74  1.1083107E-02
          75  8.1621064E-04
          76 -3.4772546E-03
          77 -3.5443506E-03
          78 -2.4801502E-03
          79 -1.4757724E-04
          80  8.1538921E-04
          81  5.9763617E-03
          82  5.9997565E-03
          83  5.7293735E-03
          84 -1.1081151E-02
          85 -5.9414078E-03
          86 -3.7508369E-03
          87  2.4166401E-03
          88  4.0341467E-03
          89 -1.5962850E-03
          90 -3.2290260E-03
          91 -6.9619389E-04
          92 -5.4317952E-05
          93  5.2905063E-05
          94  2.4913752E-03
          95 -5.2474184E-05
          96 -1.3883954E-03
          97  1.6969732E-03
          98  2.5290003E-04
          99 -7.2906544E-03
         100  6.1257863E-03
         101 -2.1894551E-03
         102 -6.2852993E-04
         103 -1.9196623E-05
         104  1.3156492E-05
         105  5.0210359E-04
         106 -2.3411603E-04
         107 -3.6129283E-03
         108  2.6056364E-03
         109 -9.4159209E-04
         110  3.2399158E-04
         111  9.1833138E-04
         112 -8.2321861E-04
         113 -4.1326883E-04
         114 -9.6051713E-07
         115  1.6888360E-02
         116 -4.2641180E-04
         117 -5.5579818E-04
         118 -1.3527354E-03
         119 -3.7581727E-03
         120 -3.7499231E-03
         121 -2.5819410E-03
         122  2.7433028E-03
         123  8.6533554E-02
         124 -0.2701327    
         125  3.8505124E-03
         126 -2.7045866E-03
         127 -1.8460782E-02
         128  6.6610724E-02
         129  6.7777564E-03
         130  7.1095414E-03
         131 -5.1566485E-02
         132  0.1341852    
         133 -2.9235759E-03
         134 -5.8307946E-03
         135  1.7736467E-02
         136 -3.4475777E-02
         137 -1.0597671E-02
         138  2.9241206E-02
         139 -3.5897411E-02
         140  0.1720060    
         141  1.3805466E-02
         142 -9.0144500E-03
         143  7.5064143E-03
         144 -5.7411611E-02
         145 -2.2538459E-02
         146 -3.6883432E-02
         147  8.9664441E-03
         148 -0.1942901    
         149  2.8958069E-02
         150  9.2345113E-03
         151 -1.6965635E-02
         152  6.0963150E-02
         153  9.5334873E-03
         154 -2.1639373E-02
         155 -2.9681481E-02
         156 -0.1481102    
         157 -4.9365903E-03
         158  1.0668669E-02
         159  1.0560350E-02
         160  2.9776800E-02
         161 -3.2611229E-03
         162  1.9718874E-02
         163  3.0255374E-02
         164  0.2667921    
         165  4.4239135E-03
         166 -3.5014590E-03
         167 -5.9670857E-03
         168 -6.3711442E-02
         169 -9.8888017E-03
         170  2.8497681E-03
         171  4.0150629E-03
         172 -1.7254163E-02
         173  8.9616636E-03
         174 -3.6405641E-04
         175 -4.0632152E-05
         176 -1.4668995E-03
         177  8.1553329E-03
         178 -1.4372782E-02
         179 -1.2096858E-02
         180 -1.0868213E-02
         181 -3.5746098E-03
         182  2.7484556E-03
         183  4.6191732E-03
         184  2.9449742E-03
         185 -3.5424659E-04
         186  7.3280178E-05
         187  1.3476239E-02
         188  7.7542861E-04
         189 -7.9954305E-04
         190  1.4238827E-03
         191 -5.0140223E-03
         192  1.0753359E-03
         193  4.3163766E-04
         194  4.8913760E-04
         195  4.0769447E-03
         196  4.4765989E-03
         197 -1.5435230E-03
         198 -3.6228282E-04
         199 -4.3908635E-04
         200 -1.3973350E-03
         201  1.1687091E-03
         202 -2.4293109E-03
         203 -9.6788015E-03
         204 -1.0494632E-02
         205 -2.2219308E-03
         206  2.3004280E-03
         207  2.0895482E-03
         208  2.4215265E-03
         209 -6.6538312E-04
         210  1.8365589E-03
         211  4.3856306E-03
         212  4.2155855E-03
         213 -4.6970646E-04
         214 -6.3163851E-04
         215 -2.0462222E-04
         216 -6.2930363E-04
         217  2.5482695E-03
         218 -1.2630380E-03
         219  4.3707504E-03
         220  1.0290988E-02
         221 -2.2911034E-03
         222  2.5747712E-03
         223  5.3655449E-04
         224 -4.2983992E-03
         225  1.3792317E-02
         226 -7.8625806E-02
         227 -2.1631599E-03
         228 -0.2319525    
         229 -4.1334447E-03
         230  2.7853770E-02
         231  2.3167066E-03
         232  4.8004206E-02
         233 -1.6755098E-02
         234  3.9045945E-02
         235  2.8284641E-02
         236  0.1549911    
         237  2.3514856E-02
         238 -2.5959326E-02
         239 -4.8035481E-03
         240 -3.6579475E-02
         241  1.0984181E-02
         242 -6.3678131E-02
         243  6.5372009E-03
         244  8.1774481E-02
         245 -6.9735986E-03
         246  3.7291464E-03
         247 -7.4337004E-04
         248 -3.0347878E-02
         249 -1.0348966E-02
         250 -5.7672001E-02
         251  8.2313363E-03
         252  2.0375863E-02
         253  9.7056413E-03
         254  8.3361985E-03
         255  4.4845175E-03
         256  1.8983121E-03
         257  3.8620888E-03
         258  5.8132492E-02
         259  2.1097604E-03
         260 -5.2017421E-02
         261 -6.7561551E-04
         262 -1.2521269E-02
         263  1.6184712E-03
         264  7.5724795E-03
         265  1.3216098E-03
         266  1.9132702E-02
         267  2.4954304E-03
         268 -2.2509463E-02
         269  1.8593371E-04
         270 -1.5894846E-03
         271 -1.0225320E-03
         272  3.9083396E-05
         273 -4.9701561E-03
         274 -3.8235135E-02
         275 -3.3523631E-03
         276  3.7689235E-02
         277  5.0908788E-03
         278 -6.3150958E-03
         279  1.3125947E-03
         280  8.4442217E-03
         281  6.3447393E-03
         282 -4.0043242E-02
         283  1.0942861E-02
         284  3.7755020E-02
         285 -7.1183792E-03
         286  5.3050835E-04
         287 -1.1489236E-02
         288 -5.0196694E-03
         289 -7.5996746E-03
         290  0.1214679    
         291 -1.0127584E-02
         292 -0.1122673    
         293  5.3752563E-03
         294 -1.1889809E-02
         295  3.4833995E-03
         296  8.4490851E-03
         297  1.7684133E-04
         298 -8.9244373E-02
         299  1.4959281E-02
         300  0.1156356    
         301 -6.1504851E-04
         302  1.7492784E-02
         303 -2.3642324E-03
         304 -1.9276422E-02
         305  1.6340455E-03
         306 -2.5894395E-03
         307 -9.1015697E-03
         308  6.7833107E-04
         309  1.4165782E-02
         310  8.6664502E-03
         311 -4.1528549E-03
         312  2.7693938E-03
         313 -2.0541553E-03
         314 -4.0643122E-03
         315  5.9156488E-03
         316 -2.8200138E-03
         317  7.2409824E-04
         318 -1.6019609E-02
         319  4.0481426E-02
         320 -5.1175971E-03
         321 -4.4405623E-03
         322 -1.2702858E-02
         323  2.4130964E-03
         324  1.2823044E-03
         325 -1.7885979E-03
         326 -4.6418200E-04
         327  2.1514701E-04
         328 -1.5409451E-03
         329 -1.1488160E-03
         330 -2.6202262E-03
         331 -1.4742209E-03
         332 -1.2279424E-03
         333  6.2174775E-04
         334  7.1576872E-04
         335 -4.5166817E-03
         336 -3.8332850E-04
         337 -1.0912102E-03
         338 -8.4134866E-04
         339  1.2602467E-03
         340 -2.0816971E-03
         341 -4.6180356E-03
         342 -1.0148951E-02
         343  1.7942941E-03
         344 -6.3986616E-04
         345  2.7513704E-03
         346  6.2823779E-04
         347  8.7784902E-05
         348  1.6871255E-02
         349 -5.4711275E-02
         350 -7.8347363E-03
         351 -7.0928241E-04
         352 -8.4223412E-03
         353 -1.1858332E-02
         354  2.7620295E-02
         355 -6.0889744E-03
         356 -2.1665301E-03
         357  6.8672970E-03
         358 -1.3618610E-03
         359 -2.2770539E-02
         360  3.4647221E-03
         361  1.3004682E-03
         362  3.3921353E-03
         363  6.7254319E-03
         364  5.0374068E-02
         365 -2.1466739E-03
         366 -3.9843284E-03
         367  9.7330948E-03
         368  1.9736565E-03
         369  6.8906105E-05
         370 -3.0333523E-03
         371 -1.4647509E-03
         372 -9.2584005E-06
         373  1.6943411E-03
         374 -9.1854890E-05
         375 -9.3768589E-04
         376 -2.5355786E-03
         377  1.9090553E-03
         378 -3.4559846E-03
         379 -3.0979207E-03
         380 -1.9333086E-03
         381 -1.2946653E-03
         382  8.8166911E-04
         383  6.2946352E-04
         384  1.4404531E-03
         385 -2.9422226E-03
         386 -2.3476048E-03
         387  8.6133964E-03
         388  3.1557836E-05
         389  2.1152096E-03
         390  1.6324229E-03
         391 -1.3378283E-03
         392  1.5654077E-03
         393 -8.6043729E-03
         394 -3.2704722E-02
         395  8.2904060E-04
         396  2.1087944E-03
         397  1.6431978E-02
         398  2.8609522E-03
         399 -4.6350504E-03
         400 -7.4930280E-03
         401  1.6984735E-03
         402  1.1173445E-02
         403  1.3644838E-03
         404 -1.1280913E-02
         405 -5.1634980E-04
         406 -1.3111838E-03
         407  1.0833889E-03
         408  1.0127685E-04
         409 -3.7619141E-03
         410  2.9524860E-03
         411 -9.4615400E-04
         412 -2.2468802E-03
         413 -4.0617885E-04
         414  5.3767911E-03
         415  9.0048080E-03
         416 -5.2105952E-03
         417  2.4043361E-03
         418 -2.3034180E-03
         419 -6.2033613E-03
         420 -9.1018025E-03
         421  1.0183826E-03
         422 -9.7224209E-03
         423  3.8115263E-03
         424  1.4983495E-02
 Sym= Hole
 Ene= -6.3111573E-02
 Spin= Alpha
 Occup= 0
           1 -2.4241779E-03
           2 -3.6645863E-02
           3 -3.8815702E-03
           4  4.1066933E-02
           5  4.8387301E-04
           6 -3.2073266E-03
           7  1.1385544E-03
           8  4.8053740E-03
           9 -6.9666229E-04
          10  5.7130240E-02
          11 -9.1643464E-03
          12 -8.1693754E-02
          13  1.2263241E-05
          14 -5.1314151E-03
          15  3.4066720E-03
          16  6.2956768E-03
          17 -1.6586706E-02
          18  3.3543691E-02
          19 -4.6351809E-02
          20 -8.5559607E-02
          21  7.8286714E-04
          22  2.0941941E-03
          23 -7.9269492E-04
          24 -4.7735968E-03
          25 -1.2743958E-02
          26  0.1790687    
          27 -2.0094799E-02
          28 -0.1968442    
          29  2.1183551E-03
          30 -4.9709488E-04
          31 -9.2444319E-04
          32 -5.8708224E-03
          33  1.2620944E-02
          34  3.7925206E-02
          35 -9.1568358E-02
          36 -0.2422718    
          37 -5.1571820E-03
          38 -8.3545269E-03
          39  7.9408754E-04
          40  2.1245927E-03
          41  2.3882736E-02
          42  0.1163479    
          43  4.9487516E-02
          44 -9.6986711E-02
          45 -9.9710729E-03
          46  2.6224975E-03
          47 -1.7271998E-03
          48 -3.7937537E-03
          49  1.3100004E-02
          50  3.3584728E-03
          51  2.0228758E-02
          52 -3.6284946E-02
          53 -6.2578507E-03
          54  1.1831580E-03
          55 -2.9683441E-03
          56  1.1499779E-03
          57  1.8328069E-03
          58  1.7992668E-02
          59 -1.0219884E-02
          60  0.1265677    
          61  9.0562785E-04
          62  1.8452425E-04
          63 -1.6960347E-03
          64 -2.6316191E-03
          65 -6.0438522E-04
          66  1.4694178E-04
          67 -3.3686593E-02
          68  9.5411301E-02
          69  5.4263603E-04
          70 -1.2735861E-03
          71 -2.2006850E-03
          72 -4.4414513E-03
          73  3.2140340E-03
          74  5.0663813E-03
          75  6.8566889E-02
          76 -6.4513899E-02
          77 -1.3258571E-03
          78 -4.1515290E-04
          79 -1.7477128E-03
          80  9.8229432E-04
          81  5.1527489E-03
          82  6.8238652E-03
          83  7.3135905E-02
          84 -4.8401143E-02
          85 -2.9012721E-03
          86  1.6147450E-04
          87 -8.8753281E-05
          88 -6.1937142E-05
          89 -1.5711675E-03
          90 -3.6520369E-03
          91 -1.8379567E-02
          92  1.1870349E-02
          93  8.8103418E-04
          94  5.7542231E-04
          95  3.0712277E-04
          96 -1.0257008E-04
          97  4.7015716E-04
          98  1.2807202E-03
          99 -7.5195931E-02
         100  6.1045643E-02
         101  2.5859568E-05
         102  1.9967323E-04
         103 -3.4445565E-04
         104 -1.9075234E-04
         105  1.8300371E-03
         106  3.9437041E-03
         107 -3.3779077E-02
         108  2.2893898E-02
         109 -3.2246986E-04
         110  2.7100208E-05
         111 -2.8329692E-04
         112 -9.3380280E-05
         113 -4.4458560E-03
         114 -6.6871331E-03
         115  6.1276771E-02
         116 -3.2690100E-02
         117  2.7604408E-03
         118  5.4881559E-04
         119 -1.2728880E-03
         120  8.2652470E-05
         121 -6.1111748E-03
         122  1.0303654E-02
         123  2.5608839E-02
         124 -4.7541223E-02
         125  2.7182761E-03
         126 -1.8836727E-04
         127  1.1900975E-04
         128  3.5668083E-04
         129 -1.2434511E-03
         130 -5.3536748E-03
         131  4.9752593E-02
         132 -0.1187844    
         133  1.3859477E-03
         134  2.6750376E-03
         135 -2.5467344E-03
         136  6.7010913E-03
         137 -9.5648747E-03
         138  9.1139451E-03
         139  4.0911522E-04
         140  2.2397015E-02
         141  5.5958703E-03
         142 -6.7770667E-04
         143 -5.6361649E-03
         144 -3.5154356E-03
         145  1.5896238E-02
         146  2.8637433E-02
         147  7.9374583E-03
         148  0.2191118    
         149 -5.2529839E-03
         150 -1.6840876E-03
         151 -7.7462423E-04
         152 -7.5837760E-03
         153 -8.5950475E-03
         154 -8.0026155E-03
         155 -2.8316073E-02
         156 -0.2230621    
         157  3.2429607E-03
         158  2.3538212E-04
         159 -8.8556274E-04
         160  9.2627241E-05
         161  9.4629527E-04
         162 -3.5394870E-02
         163 -3.9000269E-02
         164 -0.3905433    
         165 -3.0201316E-04
         166 -4.8194319E-04
         167  6.9514924E-04
         168 -4.5656582E-04
         169 -3.7351663E-03
         170 -1.8155658E-04
         171 -1.2203139E-03
         172 -6.4773150E-02
         173  5.7427626E-04
         174  1.5213005E-03
         175 -1.4557990E-03
         176  1.1192365E-03
         177 -1.4120798E-03
         178  2.3498838E-03
         179  1.2098039E-02
         180  1.8738247E-02
         181  9.7425387E-04
         182 -1.3324716E-03
         183 -2.0040600E-03
         184  1.6367933E-03
         185 -6.8352190E-03
         186  1.0125832E-02
         187  1.1547704E-02
         188  1.0803731E-02
         189  2.4610858E-03
         190  2.2609439E-03
         191 -8.0344093E-04
         192  1.0276694E-03
         193  2.4532708E-03
         194 -6.4005894E-03
         195 -1.0016351E-02
         196 -9.2763174E-03
         197 -1.2808139E-03
         198  1.0253994E-03
         199 -2.6390551E-05
         200 -1.1691325E-04
         201 -1.6157198E-03
         202  1.9958468E-05
         203 -1.6597835E-02
         204 -1.8627465E-02
         205  2.2907963E-04
         206  2.4539742E-04
         207 -1.0268975E-04
         208  5.3105736E-04
         209  1.6961942E-04
         210 -9.9601015E-04
         211  1.3009515E-03
         212  3.8202486E-03
         213 -1.9429540E-04
         214 -3.6993177E-04
         215 -2.5727390E-04
         216  6.8894320E-04
         217  8.2731660E-04
         218  2.3224743E-03
         219  3.0308962E-02
         220  1.6622989E-02
         221 -3.1077137E-04
         222 -6.1762723E-04
         223 -1.1590649E-03
         224  8.5745787E-04
         225  2.9913590E-03
         226  5.0904661E-02
         227  8.2584480E-03
         228  0.3100674    
         229  1.5559850E-03
         230 -2.3074094E-04
         231 -6.3675764E-04
         232  5.0207837E-03
         233 -2.0063275E-02
         234  5.3648584E-02
         235  7.1515560E-02
         236  0.3221512    
         237  1.0433219E-02
         238  3.7498210E-04
         239 -2.7017542E-03
         240  4.2949249E-03
         241 -1.3033952E-02
         242 -0.1585184    
         243 -4.4444818E-02
         244  0.1280315    
         245  7.7909152E-03
         246  4.6530608E-03
         247  7.4137156E-03
         248 -3.6020321E-04
         249  8.5260822E-03
         250 -8.5612036E-02
         251  1.1171791E-02
         252  9.0686649E-02
         253 -3.5797042E-04
         254 -6.8344880E-04
         255  1.5964654E-03
         256  1.2490922E-03
         257 -5.7105329E-03
         258  6.5080404E-02
         259 -1.1211370E-02
         260 -6.8530679E-02
         261  1.5044563E-03
         262 -2.3680779E-03
         263  2.6134104E-03
         264  5.4157077E-04
         265  1.5140560E-03
         266  0.1176056    
         267 -1.5661396E-03
         268 -0.1147227    
         269 -9.3234744E-04
         270 -9.6596239E-05
         271 -6.6587375E-04
         272 -1.0358841E-03
         273 -9.3735531E-03
         274 -5.5563576E-03
         275 -1.6635627E-02
         276 -1.5650582E-02
         277  2.8440007E-03
         278 -1.8613632E-03
         279 -1.2479228E-03
         280 -1.5438967E-03
         281  7.9693301E-03
         282 -9.3475200E-02
         283  1.2011601E-02
         284  0.1232556    
         285 -2.5288078E-03
         286 -3.4618862E-03
         287  3.8052101E-03
         288  7.7650170E-03
         289  3.0661670E-03
         290 -6.8695515E-02
         291 -1.5956501E-02
         292  2.8268732E-02
         293 -2.2350941E-03
         294  3.3108689E-04
         295 -7.2941715E-03
         296 -2.5915094E-03
         297  5.3606526E-04
         298 -0.1216054    
         299  3.1046966E-02
         300  0.1674248    
         301  1.8521835E-04
         302 -1.7868323E-04
         303  1.7026772E-03
         304 -5.6145212E-04
         305  5.4065790E-03
         306 -4.4732066E-04
         307  5.6170328E-03
         308 -2.3625072E-03
         309 -5.9774690E-03
         310 -1.2297803E-02
         311 -5.0346280E-04
         312  4.4306056E-03
         313 -2.8370642E-03
         314 -5.7845870E-03
         315 -7.7796546E-03
         316  2.1495407E-03
         317  3.2073117E-03
         318  3.8302093E-04
         319  1.9449876E-03
         320 -2.8268378E-03
         321 -5.1842234E-04
         322 -2.3384446E-03
         323 -8.3173747E-04
         324  1.0337591E-03
         325  4.0146741E-03
         326  6.6883955E-04
         327  6.7307235E-04
         328 -3.7169427E-04
         329  8.1254271E-05
         330 -5.9963815E-04
         331 -1.6206888E-05
         332  1.9262912E-05
         333 -1.2242979E-04
         334  5.3117739E-04
         335 -5.4808594E-03
         336  2.3329199E-05
         337 -5.0803594E-04
         338  4.1726287E-04
         339 -4.7026752E-04
         340  3.4073880E-03
         341  8.1292994E-04
         342  1.5036201E-03
         343 -8.8189804E-04
         344 -2.5604226E-04
         345  1.7709082E-03
         346  9.2438288E-04
         347 -6.9309358E-04
         348  1.0507718E-03
         349  6.6489103E-04
         350 -5.0092498E-03
         351  1.3296306E-04
         352  1.9646066E-03
         353  9.0930844E-04
         354 -6.5602460E-03
         355  2.1196450E-03
         356  3.3510936E-04
         357 -1.8485698E-03
         358  7.7198539E-04
         359  4.1209864E-03
         360  4.8606351E-05
         361 -1.1989619E-04
         362  9.8273961E-04
         363  1.2685829E-04
         364  9.4465690E-04
         365 -2.1653599E-03
         366  3.8892895E-04
         367 -3.2147119E-04
         368  2.0917861E-03
         369 -1.5163762E-03
         370 -1.9700269E-03
         371 -3.5035494E-04
         372  3.3392862E-04
         373 -4.2725357E-04
         374 -1.4798057E-04
         375  2.6988566E-03
         376 -8.9137116E-05
         377  1.7706983E-04
         378 -6.7708752E-04
         379 -4.6623292E-04
         380  2.5876083E-03
         381 -1.4292525E-05
         382 -3.4437460E-04
         383 -8.7190914E-04
         384 -3.2164765E-04
         385 -5.4852315E-03
         386  1.0804962E-03
         387 -1.1322143E-03
         388 -1.3508066E-03
         389 -1.7090601E-05
         390  1.1861437E-02
         391 -3.2653303E-03
         392 -5.5262113E-05
         393  1.9134585E-03
         394 -7.5757992E-03
         395  9.2138713E-03
         396 -3.0860635E-03
         397  1.0357568E-03
         398  9.6128220E-05
         399  1.5657023E-03
         400  2.3168409E-03
         401 -3.8259222E-05
         402  3.8869593E-03
         403  6.3052878E-04
         404 -3.6815484E-03
         405 -6.9362805E-03
         406  2.3645624E-04
         407  9.9604414E-04
         408  1.3119300E-03
         409 -2.6289572E-03
         410  5.9922384E-03
         411  3.5541794E-05
         412 -5.0303963E-04
         413 -1.5507580E-03
         414  1.2075421E-03
         415 -2.4474058E-02
         416 -1.5419696E-03
         417 -4.3953545E-03
         418 -4.5042988E-03
         419  1.1236336E-02
         420  1.4283660E-02
         421 -9.3684084E-04
         422 -1.7885491E-03
         423  1.3509085E-03
         424  3.2130317E-03
 Sym= Particle
 Ene= -6.3111573E-02
 Spin= Alpha
 Occup= 2
           1 -5.6230906E-06
           2  4.3387655E-02
           3 -1.2392540E-02
           4 -6.8967745E-02
           5 -1.6300211E-04
           6 -2.3421883E-03
           7  2.0833930E-03
           8  8.6691976E-03
           9 -9.3752972E-04
          10  1.6267033E-03
          11 -2.4971969E-03
          12 -2.5785456E-03
          13  2.0808000E-03
          14 -1.0327431E-03
          15  3.4080266E-03
          16  3.1053596E-03
          17 -1.8395857E-03
          18 -8.1517600E-02
          19  1.1357396E-02
          20  0.1100494    
          21  2.5054373E-04
          22  4.1273381E-03
          23 -2.6906917E-03
          24 -6.5987306E-03
          25  7.4218018E-03
          26  2.7683536E-02
          27 -3.5223113E-03
          28 -4.2418927E-02
          29 -5.7480414E-03
          30 -6.9929468E-03
          31  4.3172534E-03
          32  2.1189973E-02
          33 -1.4527870E-02
          34  3.2515593E-02
          35 -3.6088638E-02
          36 -5.6507111E-02
          37  6.0088020E-03
          38 -8.6681219E-05
          39  5.0961147E-03
          40 -8.6831767E-04
          41  1.8640665E-02
          42  5.9035350E-02
          43  4.9611229E-02
          44 -0.1261663    
          45 -1.0819467E-02
          46 -1.1503577E-02
          47 -8.7553402E-03
          48  1.5752507E-02
          49 -1.4751030E-02
          50 -1.1067628E-02
          51 -6.1078593E-02
          52  0.1615361    
          53  1.3391079E-02
          54  1.2065420E-02
          55  2.3578510E-02
          56 -4.7129288E-02
          57  4.2919200E-03
          58  2.4818961E-02
          59 -3.4326803E-02
          60  0.2031550    
          61  3.0971214E-04
          62 -8.6707994E-03
          63  7.2333189E-03
          64 -4.4475496E-02
          65 -5.1854645E-06
          66 -5.7674926E-03
          67  6.3542746E-02
          68 -0.2457265    
          69  2.6059649E-03
          70  3.7471375E-03
          71 -4.1771187E-03
          72  4.4557266E-02
          73  2.7006350E-03
          74  4.0882477E-03
          75  5.7981823E-02
          76 -3.7856001E-02
          77 -6.2512205E-05
          78  5.1873166E-04
          79 -1.2410014E-02
          80 -4.0502311E-03
          81 -1.2819426E-02
          82 -1.1940296E-02
          83 -9.6297763E-02
          84  5.3721879E-02
          85  1.2144463E-02
          86  8.4137050E-03
          87  1.9779582E-02
          88 -1.2070147E-02
          89  4.1441270E-03
          90  5.2996636E-03
          91 -1.2687436E-02
          92  1.0520650E-02
          93 -1.7900221E-03
          94 -1.6200808E-03
          95  7.4234093E-04
          96  1.8421620E-04
          97  2.6051397E-04
          98 -7.0920889E-04
          99  8.6469896E-02
         100 -7.1438223E-02
         101 -7.0353271E-04
         102 -2.9529235E-04
         103 -1.3495762E-02
         104  1.1934903E-02
         105 -3.5269801E-03
         106 -4.9792039E-03
         107 -1.9382348E-02
         108  1.6370097E-02
         109  1.2491853E-04
         110  1.0593567E-03
         111  1.3457394E-03
         112 -1.6443552E-03
         113  1.2387898E-02
         114  1.3859466E-02
         115 -8.9164726E-02
         116  5.0384346E-02
         117 -1.1011282E-02
         118 -9.2847152E-03
         119  1.9118384E-02
         120 -1.1313155E-02
         121 -1.0378315E-02
         122  2.5216846E-03
         123  2.8870422E-02
         124 -5.9868265E-02
         125  7.0024650E-03
         126 -4.0853312E-03
         127 -8.5593322E-03
         128  1.6659014E-02
         129  9.3083335E-03
         130  4.6566278E-03
         131 -0.1163844    
         132  0.2621550    
         133 -8.5435845E-03
         134 -1.2032234E-02
         135  3.3732072E-02
         136 -6.8288043E-02
         137 -9.2634447E-03
         138 -8.8588223E-03
         139  4.9792778E-02
         140 -0.1353643    
         141  5.7081524E-03
         142 -1.7941842E-03
         143 -1.6149618E-02
         144  9.0895211E-03
         145  7.5810188E-03
         146 -4.0538657E-02
         147 -5.7707917E-02
         148 -0.3570924    
         149 -5.6947540E-03
         150  1.2817887E-02
         151  2.3523511E-02
         152  0.1159503    
         153 -1.5682629E-03
         154  2.2207426E-02
         155  6.3439414E-02
         156  0.2945144    
         157 -3.0266673E-03
         158 -8.7218694E-03
         159 -1.8615700E-02
         160 -8.4647320E-02
         161  8.4489509E-03
         162  1.6000556E-02
         163 -5.0052362E-03
         164  8.8100858E-02
         165 -5.9381668E-03
         166 -1.0783153E-02
         167  2.1533661E-03
         168 -3.2963708E-02
         169 -1.4631357E-03
         170 -4.2585477E-02
         171 -2.7449027E-02
         172 -0.4100658    
         173 -1.1644765E-03
         174  1.3247504E-02
         175  2.9709346E-03
         176  0.1110466    
         177 -1.9767508E-03
         178 -4.1332650E-03
         179 -6.9238693E-02
         180 -6.8231687E-02
         181 -1.6979924E-03
         182  2.4724461E-03
         183  1.5800104E-02
         184 -9.1545610E-03
         185 -2.0221641E-02
         186  2.6940616E-02
         187  0.1180579    
         188  7.6535590E-02
         189  1.5505663E-02
         190 -1.5139892E-02
         191 -2.6770376E-02
         192 -1.6226638E-02
         193  7.7303350E-03
         194 -5.9239627E-03
         195  1.9050688E-02
         196  1.9768691E-02
         197 -4.9478146E-03
         198  2.2000112E-03
         199  2.3262696E-03
         200 -8.0548885E-04
         201 -1.2643382E-04
         202 -1.0156429E-02
         203 -9.4657272E-02
         204 -0.1042398    
         205 -3.4907801E-04
         206  1.3582075E-04
         207  1.5405217E-02
         208  1.7107924E-02
         209 -6.8651866E-03
         210  1.0561819E-02
         211  1.6277391E-02
         212  1.6626790E-02
         213  2.6605385E-03
         214 -2.0139050E-03
         215  3.6440056E-03
         216  1.2543373E-05
         217  2.1021457E-02
         218 -7.6660360E-03
         219  0.1235983    
         220  8.0017313E-02
         221 -1.9511333E-02
         222  1.3038480E-02
         223 -2.8586358E-02
         224 -1.7244497E-02
         225 -2.0846771E-03
         226  4.8098117E-02
         227 -5.8820157E-04
         228  0.2763233    
         229 -3.4748181E-04
         230 -1.3782173E-02
         231 -7.9159992E-04
         232 -7.9514779E-02
         233  6.5112808E-03
         234  1.7881852E-02
         235  3.6133226E-02
         236  0.1896461    
         237 -3.1273954E-03
         238 -2.9330507E-03
         239 -1.2214961E-02
         240 -6.1739784E-02
         241 -9.3820030E-03
         242  5.7263836E-02
         243 -8.1195738E-03
         244 -6.3517399E-02
         245  6.7764297E-03
         246 -1.4450454E-02
         247  3.4525238E-03
         248  2.2141691E-02
         249  2.2004840E-03
         250 -2.2637228E-02
         251  9.0377638E-03
         252  1.1401583E-02
         253 -4.5937006E-05
         254  7.3485466E-04
         255 -3.4735869E-03
         256  6.1326469E-03
         257 -8.2481379E-04
         258 -6.6258222E-02
         259 -9.5480087E-04
         260  6.2046546E-02
         261  4.2080562E-04
         262  1.4427194E-02
         263 -9.4569306E-04
         264 -1.2718407E-02
         265 -6.1872666E-04
         266  5.1517803E-02
         267  8.2891062E-04
         268 -5.6714300E-02
         269  4.6942910E-04
         270 -1.8559513E-03
         271 -1.5734816E-03
         272  3.3861112E-03
         273 -3.1082102E-04
         274  5.0040707E-02
         275 -7.5841980E-04
         276 -5.7704452E-02
         277  2.4954503E-04
         278 -1.3217356E-02
         279 -6.9630943E-05
         280  2.0468222E-02
         281  7.1349447E-03
         282 -9.4703339E-02
         283  8.0153430E-03
         284  0.1034744    
         285 -2.3709729E-03
         286  1.5091783E-02
         287 -1.0828947E-03
         288 -1.3046212E-02
         289 -1.1606237E-02
         290 -3.2562859E-02
         291 -1.3987741E-02
         292  3.1652734E-02
         293  1.0173291E-02
         294  1.0927153E-02
         295  9.2423065E-03
         296 -7.3825428E-03
         297  3.3469081E-03
         298 -2.2132596E-02
         299  9.4515821E-03
         300  2.2982847E-02
         301 -1.4460774E-04
         302  7.9251537E-03
         303 -1.0811612E-03
         304 -8.4849130E-03
         305  2.5697099E-03
         306  5.2095589E-04
         307  8.7489421E-03
         308 -1.5031000E-03
         309 -1.3316279E-02
         310 -2.4273163E-03
         311  3.6258488E-03
         312  2.0276359E-03
         313  1.3298186E-03
         314 -2.9496492E-03
         315  3.0503760E-03
         316  3.1036194E-03
         317 -5.7637827E-03
         318 -1.4537427E-02
         319  2.8356561E-02
         320  3.8970548E-03
         321  3.3546055E-03
         322  5.5831452E-03
         323 -1.4291601E-02
         324  6.9357171E-03
         325 -6.9258753E-03
         326 -5.3644140E-04
         327  2.6590482E-04
         328 -8.4339757E-04
         329  3.5474834E-03
         330 -9.3117438E-04
         331 -7.1729190E-04
         332 -2.9229425E-04
         333  1.4332508E-02
         334 -1.2996295E-02
         335  4.1312841E-03
         336 -1.1554944E-03
         337  9.6267584E-04
         338 -4.7674840E-03
         339  3.8233148E-03
         340 -3.5890690E-03
         341 -5.5245804E-03
         342 -1.0073490E-02
         343 -8.1432378E-03
         344  7.2083906E-03
         345  1.5628560E-02
         346 -4.8549892E-03
         347 -8.8371441E-04
         348  5.3720074E-03
         349 -1.5414350E-02
         350  4.9574696E-04
         351  5.4157060E-04
         352  4.1103396E-03
         353 -1.5028504E-02
         354  5.2654579E-02
         355 -1.6831832E-04
         356 -5.6692152E-03
         357  1.3963412E-02
         358 -8.9517504E-05
         359  6.5735862E-02
         360 -1.4118717E-02
         361  2.3411319E-03
         362  1.5667117E-03
         363  1.5915574E-03
         364  1.7859174E-02
         365  6.2027145E-03
         366  2.4713392E-03
         367 -6.5040011E-03
         368  1.0408127E-02
         369  1.1102852E-02
         370 -9.5588900E-03
         371  2.9598684E-03
         372 -7.8057620E-04
         373  2.6611513E-03
         374  4.4529638E-03
         375 -4.4583881E-04
         376  1.0713576E-03
         377 -2.8040071E-03
         378 -1.6207637E-02
         379 -1.8982789E-02
         380  1.0389649E-02
         381 -2.5994987E-03
         382  3.0425321E-03
         383  2.4324644E-03
         384  3.0256729E-03
         385 -5.0959177E-03
         386 -3.7411465E-03
         387  5.2144607E-03
         388  1.2433887E-02
         389  1.2013393E-02
         390 -3.2696568E-03
         391 -3.8495555E-04
         392  4.2077377E-03
         393  7.0392024E-03
         394  4.7370125E-02
         395  1.4028349E-03
         396 -2.3810277E-03
         397 -3.6813030E-03
         398 -8.0790846E-03
         399 -1.7593680E-03
         400 -4.9616378E-03
         401  7.9813128E-04
         402 -8.0591282E-03
         403  1.7605786E-04
         404  8.7884059E-03
         405 -7.0976018E-04
         406 -1.8999977E-03
         407  1.2348139E-02
         408 -7.5817277E-04
         409 -1.4420083E-02
         410  8.9386228E-04
         411  5.1556673E-04
         412  9.2640817E-03
         413  1.9758777E-03
         414 -6.2956978E-03
         415  2.6567820E-03
         416  4.5502745E-03
         417 -3.3829659E-03
         418  1.8291356E-02
         419 -3.2486811E-03
         420  5.6772651E-03
         421 -1.4958859E-03
         422 -4.7404077E-03
         423  1.7387323E-03
         424  5.8695688E-03
