 [Molden Format]
 [Atoms] Angs
C       1      6     -2.47336881      2.72844293     -1.35267988
C       2      6      0.42259197      0.34474509     -0.05179625
C       3      6     -0.63355826      2.85904098      0.64855322
C       4      6      1.67074876     -0.10324173     -0.71000118
C       5      6      2.60085918      1.61858718      0.16366602
N       6      7      4.04232812      1.29473413      0.22864835
C       7      6      4.34250398     -0.71102420     -0.59186580
C       8      6      3.34239875     -1.80658422     -0.78714530
C       9      6      2.03486394     -1.51109036     -0.81740551
N      10      7      0.98102281     -2.39636921     -0.79803766
C      11      6     -0.32649401     -2.06170343     -0.48321258
C      12      6     -1.31020633     -2.94229994     -0.71036974
C      13      6     -3.14179647     -2.24840543      0.90983300
N      14      7     -3.39363167     -0.92573343      1.46527165
C      15      6     -2.41841047      0.11781421      1.03828401
C      16      6     -0.61714011     -0.72714180      0.13954086
O      17      8     -1.72924746      3.06595867      1.44041379
S      18     16     -0.87910111      1.65899629     -0.79799159
O      19      8     -3.61029836      2.75495173     -0.52062109
C      20      6      1.69425977      0.50522087      0.72509430
C      21      6      2.19154310     -0.24683481      1.87562915
C      22      6      3.49572655     -0.51490547      1.90588746
C      23      6      4.39433583     -0.02561983      0.82633389
C      24      6      3.99630654      0.69228314     -1.12936009
C      25      6      2.51169435      1.02569213     -1.25690164
C      26      6     -1.85138115      0.09650737     -0.39097180
C      27      6     -1.23629262     -0.69495812      1.55784777
C      28      6     -2.25650751     -1.75003906      1.97372563
C      29      6     -2.77328810     -2.64758048     -0.51106394
C      30      6     -3.17162090     -1.61413207     -1.53277028
C      31      6     -2.72624735     -0.36703285     -1.48406611
H      32      1     -2.71510809      2.39211038     -2.36318876
H      33      1     -4.03804021      1.89096646     -0.54176928
H      34      1     -2.10550179      3.75265422     -1.42222217
H      35      1     -2.48166579      3.37102789      0.90070809
H      36      1      0.15461728      2.43523605      1.26714839
H      37      1     -0.28620271      3.76940275      0.14701911
H      38      1      2.40026835      2.65384106      0.43714001
H      39      1      5.33362075     -1.04621338     -0.90160248
H      40      1      3.70373115     -2.82204628     -0.84003490
H      41      1      1.16709361     -3.36735819     -0.99965532
H      42      1     -1.06837332     -3.89944951     -1.14983263
H      43      1     -3.91222645     -2.89999814      1.31974499
H      44      1     -2.71432184      1.06905792      1.46783770
H      45      1      1.52473925     -0.57134413      2.66050196
H      46      1      3.95036985     -1.04301157      2.73090494
H      47      1      5.42325842      0.03472689      1.19492859
H      48      1      4.66707832      1.11675096     -1.87504062
H      49      1      2.16031797      1.55067068     -2.13996000
H      50      1     -0.60517587     -0.33528968      2.36259840
H      51      1     -2.26556259     -2.17798091      2.96618465
H      52      1     -3.32744800     -3.56624238     -0.71876536
H      53      1     -3.79693577     -1.93901195     -2.35052631
H      54      1     -2.97561000      0.33384526     -2.26440419
 [GTO]
           1   0
s              4   1.000000
     36.73392499     -0.01198412
      6.32588584     -0.05472052
      0.50831192      0.58055871
      0.19373025      0.47700799
p              4   1.000000
      5.92063167      0.05713170
      1.53513138      0.28574555
      0.54118132      0.55178731
      0.21545361      0.26323149
s              7   1.000000
      0.38350848     -0.19465349
      0.04707223      0.94049412
      0.02222627      0.24698803
     36.73392499      0.00525685
      6.32588584      0.02400321
      0.50831192     -0.25466267
      0.19373025     -0.20924004
p              7   1.000000
      1.83062075     -0.01152386
      0.10124670      0.56630021
      0.03901771      0.59141644
      5.92063167     -0.02407561
      1.53513138     -0.12041474
      0.54118132     -0.23252619
      0.21545361     -0.11092719
 
           2   0
s              4   1.000000
     37.34026584     -0.01198412
      6.43030275     -0.05472052
      0.51670226      0.58055871
      0.19692802      0.47700799
p              4   1.000000
      6.01835934      0.05713170
      1.56047071      0.28574555
      0.55011421      0.55178731
      0.21900995      0.26323149
s              7   1.000000
      0.38350848     -0.19416700
      0.04707223      0.93814358
      0.02222627      0.24637074
     37.34026584      0.00517489
      6.43030275      0.02362899
      0.51670226     -0.25069236
      0.19692802     -0.20597789
p              7   1.000000
      1.83062075     -0.01149682
      0.10124670      0.56497156
      0.03901771      0.59002888
      6.01835934     -0.02369853
      1.56047071     -0.11852875
      0.55011421     -0.22888427
      0.21900995     -0.10918980
 
           3   0
s              4   1.000000
     36.82351362     -0.01198412
      6.34131375     -0.05472053
      0.50955162      0.58055871
      0.19420273      0.47700799
p              4   1.000000
      5.93507122      0.05713170
      1.53887534      0.28574555
      0.54250118      0.55178731
      0.21597907      0.26323149
s              7   1.000000
      0.38350848     -0.19458026
      0.04707223      0.94014030
      0.02222627      0.24689511
     36.82351362      0.00524458
      6.34131375      0.02394720
      0.50955162     -0.25406836
      0.19420273     -0.20875174
p              7   1.000000
      1.83062075     -0.01151979
      0.10124670      0.56610020
      0.03901771      0.59120756
      5.93507122     -0.02401917
      1.53887534     -0.12013245
      0.54250118     -0.23198108
      0.21597907     -0.11066715
 
           4   0
s              4   1.000000
     37.92961502     -0.01198412
      6.53179356     -0.05472052
      0.52485748      0.58055871
      0.20003618      0.47700799
p              4   1.000000
      6.11334836      0.05713170
      1.58509994      0.28574555
      0.55879678      0.55178731
      0.22246663      0.26323149
s              7   1.000000
      0.38350848     -0.19371396
      0.04707223      0.93595469
      0.02222627      0.24579591
     37.92961502      0.00509757
      6.53179356      0.02327596
      0.52485748     -0.24694687
      0.20003618     -0.20290046
p              7   1.000000
      1.83062075     -0.01147165
      0.10124670      0.56373438
      0.03901771      0.58873684
      6.11334836     -0.02334275
      1.58509994     -0.11674930
      0.55879678     -0.22544806
      0.22246663     -0.10755055
 
           5   0
s              4   1.000000
     38.22777633     -0.01198412
      6.58313940     -0.05472053
      0.52898334      0.58055871
      0.20160864      0.47700799
p              4   1.000000
      6.16140484      0.05713170
      1.59756027      0.28574555
      0.56318943      0.55178731
      0.22421542      0.26323149
s              7   1.000000
      0.38350848     -0.19349187
      0.04707223      0.93488159
      0.02222627      0.24551409
     38.22777633      0.00505930
      6.58313940      0.02310122
      0.52898334     -0.24509299
      0.20160864     -0.20137725
p              7   1.000000
      1.83062075     -0.01145931
      0.10124670      0.56312789
      0.03901771      0.58810346
      6.16140484     -0.02316663
      1.59756027     -0.11586843
      0.56318943     -0.22374708
      0.22421542     -0.10673909
 
           6   0
s              4   1.000000
     61.66469065     -0.01198412
     10.61916998     -0.05472052
      0.85329562      0.58055871
      0.32521208      0.47700799
p              4   1.000000
      7.26853894      0.05713170
      1.88462361      0.28574555
      0.66438814      0.55178731
      0.26450437      0.26323149
s              7   1.000000
      0.47894987     -0.18764500
      0.05878681      0.90663171
      0.02775758      0.23809525
     61.66469065      0.00394011
     10.61916998      0.01799090
      0.85329562     -0.19087485
      0.32521208     -0.15682967
p              7   1.000000
      2.28619608     -0.01155294
      0.12644335      0.56772930
      0.04872781      0.59290891
      7.26853894     -0.02447568
      1.88462361     -0.12241570
      0.66438814     -0.23639014
      0.26450437     -0.11277050
 
           7   0
s              4   1.000000
     37.32490648     -0.01198412
      6.42765775     -0.05472053
      0.51648973      0.58055871
      0.19684702      0.47700799
p              4   1.000000
      6.01588378      0.05713170
      1.55982883      0.28574555
      0.54988793      0.55178731
      0.21891986      0.26323149
s              7   1.000000
      0.38350848     -0.19417906
      0.04707223      0.93820185
      0.02222627      0.24638605
     37.32490648      0.00517693
      6.42765775      0.02363833
      0.51648973     -0.25079144
      0.19684702     -0.20605930
p              7   1.000000
      1.83062075     -0.01149749
      0.10124670      0.56500451
      0.03901771      0.59006327
      6.01588378     -0.02370794
      1.55982883     -0.11857583
      0.54988793     -0.22897517
      0.21891986     -0.10923317
 
           8   0
s              4   1.000000
     34.96923538     -0.01198412
      6.02199169     -0.05472053
      0.48389273      0.58055871
      0.18442350      0.47700799
p              4   1.000000
      5.63620584      0.05713170
      1.46138401      0.28574555
      0.51518309      0.55178731
      0.20510326      0.26323149
s              7   1.000000
      0.38350848     -0.19619917
      0.04707223      0.94796228
      0.02222627      0.24894930
     34.96923538      0.00551044
      6.02199169      0.02516115
      0.48389273     -0.26694784
      0.18442350     -0.21933398
p              7   1.000000
      1.83062075     -0.01160977
      0.10124670      0.57052212
      0.03901771      0.59582561
      5.63620584     -0.02524202
      1.46138401     -0.12624858
      0.51518309     -0.24379159
      0.20510326     -0.11630138
 
           9   0
s              4   1.000000
     35.07064233     -0.01198412
      6.03945481     -0.05472053
      0.48529596      0.58055871
      0.18495830      0.47700799
p              4   1.000000
      5.65255022      0.05713170
      1.46562186      0.28574555
      0.51667706      0.55178731
      0.20569804      0.26323149
s              7   1.000000
      0.38350848     -0.19610471
      0.04707223      0.94750587
      0.02222627      0.24882942
     35.07064233      0.00549522
      6.03945481      0.02509166
      0.48529596     -0.26621058
      0.18495830     -0.21872822
p              7   1.000000
      1.83062075     -0.01160452
      0.10124670      0.57026409
      0.03901771      0.59555613
      5.65255022     -0.02517204
      1.46562186     -0.12589856
      0.51667706     -0.24311569
      0.20569804     -0.11597894
 
          10   0
s              4   1.000000
     60.91465491     -0.01198412
     10.49000762     -0.05472052
      0.84291687      0.58055871
      0.32125648      0.47700799
p              4   1.000000
      7.18013074      0.05713170
      1.86170068      0.28574555
      0.65630710      0.55178731
      0.26128717      0.26323149
s              7   1.000000
      0.47894987     -0.18786981
      0.05878681      0.90771789
      0.02775758      0.23838050
     60.91465491      0.00398824
     10.49000762      0.01821064
      0.84291687     -0.19320620
      0.32125648     -0.15874519
p              7   1.000000
      2.28619608     -0.01157424
      0.12644335      0.56877608
      0.04872781      0.59400212
      7.18013074     -0.02476525
      1.86170068     -0.12386400
      0.65630710     -0.23918687
      0.26128717     -0.11410468
 
          11   0
s              4   1.000000
     35.03339504     -0.01198412
      6.03304051     -0.05472052
      0.48478055      0.58055871
      0.18476187      0.47700799
p              4   1.000000
      5.64654684      0.05713170
      1.46406528      0.28574555
      0.51612832      0.55178730
      0.20547958      0.26323149
s              7   1.000000
      0.38350848     -0.19613932
      0.04707223      0.94767311
      0.02222627      0.24887334
     35.03339504      0.00550080
      6.03304051      0.02511714
      0.48478055     -0.26648091
      0.18476187     -0.21895034
p              7   1.000000
      1.83062075     -0.01160645
      0.10124670      0.57035864
      0.03901771      0.59565489
      5.64654684     -0.02519770
      1.46406528     -0.12602690
      0.51612832     -0.24336353
      0.20547958     -0.11609717
 
          12   0
s              4   1.000000
     35.04795949     -0.01198412
      6.03554863     -0.05472052
      0.48498209      0.58055871
      0.18483868      0.47700799
p              4   1.000000
      5.64889429      0.05713170
      1.46467394      0.28574555
      0.51634289      0.55178731
      0.20556500      0.26323149
s              7   1.000000
      0.38350848     -0.19612577
      0.04707223      0.94760766
      0.02222627      0.24885616
     35.04795949      0.00549862
      6.03554863      0.02510717
      0.48498209     -0.26637514
      0.18483868     -0.21886343
p              7   1.000000
      1.83062075     -0.01160569
      0.10124670      0.57032162
      0.03901771      0.59561621
      5.64889429     -0.02518766
      1.46467394     -0.12597669
      0.51634289     -0.24326656
      0.20556500     -0.11605091
 
          13   0
s              4   1.000000
     37.12258353     -0.01198412
      6.39281606     -0.05472052
      0.51369005      0.58055871
      0.19577999      0.47700799
p              4   1.000000
      5.98327415      0.05713170
      1.55137364      0.28574555
      0.54690722      0.55178731
      0.21773319      0.26323149
s              7   1.000000
      0.38350848     -0.19433921
      0.04707223      0.93897563
      0.02222627      0.24658926
     37.12258353      0.00520402
      6.39281606      0.02376203
      0.51369005     -0.25210381
      0.19577999     -0.20713759
p              7   1.000000
      1.83062075     -0.01150639
      0.10124670      0.56544187
      0.03901771      0.59052005
      5.98327415     -0.02383259
      1.55137364     -0.11919926
      0.54690722     -0.23017905
      0.21773319     -0.10980748
 
          14   0
s              4   1.000000
     60.95289772     -0.01198412
     10.49659335     -0.05472052
      0.84344606      0.58055871
      0.32145817      0.47700799
p              4   1.000000
      7.18463850      0.05713170
      1.86286948      0.28574555
      0.65671914      0.55178731
      0.26145121      0.26323149
s              7   1.000000
      0.47894987     -0.18785816
      0.05878681      0.90766162
      0.02775758      0.23836572
     60.95289772      0.00398576
     10.49659335      0.01819931
      0.84344606     -0.19308604
      0.32145817     -0.15864646
p              7   1.000000
      2.28619608     -0.01157314
      0.12644335      0.56872188
      0.04872781      0.59394552
      7.18463850     -0.02475033
      1.86286948     -0.12378935
      0.65671914     -0.23904272
      0.26145121     -0.11403592
 
          15   0
s              4   1.000000
     38.26251479     -0.01198412
      6.58912165     -0.05472052
      0.52946404      0.58055871
      0.20179185      0.47700799
p              4   1.000000
      6.16700385      0.05713170
      1.59901201      0.28574555
      0.56370122      0.55178731
      0.22441917      0.26323149
s              7   1.000000
      0.38350848     -0.19346629
      0.04707223      0.93475802
      0.02222627      0.24548165
     38.26251479      0.00505488
      6.58912165      0.02308103
      0.52946404     -0.24487875
      0.20179185     -0.20120122
p              7   1.000000
      1.83062075     -0.01145789
      0.10124670      0.56305806
      0.03901771      0.58803051
      6.16700385     -0.02314627
      1.59901201     -0.11576663
      0.56370122     -0.22355050
      0.22441917     -0.10664531
 
          16   0
s              4   1.000000
     38.07315762     -0.01198412
      6.55651278     -0.05472052
      0.52684378      0.58055871
      0.20079320      0.47700799
p              4   1.000000
      6.13648400      0.05713170
      1.59109867      0.28574555
      0.56091152      0.55178731
      0.22330854      0.26323149
s              7   1.000000
      0.38350848     -0.19360646
      0.04707223      0.93543526
      0.02222627      0.24565951
     38.07315762      0.00507908
      6.55651278      0.02319152
      0.52684378     -0.24605099
      0.20079320     -0.20216438
p              7   1.000000
      1.83062075     -0.01146567
      0.10124670      0.56344081
      0.03901771      0.58843022
      6.13648400     -0.02325764
      1.59109867     -0.11632363
      0.56091152     -0.22462608
      0.22330854     -0.10715843
 
          17   0
s              4   1.000000
     77.77566665     -0.01198412
     13.39361336     -0.05472053
      1.07623398      0.58055871
      0.41017941      0.47700799
p              4   1.000000
      8.02044289      0.05713170
      2.07958108      0.28574555
      0.73311668      0.55178731
      0.29186638      0.26323149
s              7   1.000000
      0.57971233     -0.18692302
      0.07115450      0.90314335
      0.03359728      0.23717915
     77.77566665      0.00378183
     13.39361336      0.01726815
      1.07623398     -0.18320680
      0.41017941     -0.15052932
p              7   1.000000
      2.76717072     -0.01172524
      0.15304476      0.57619620
      0.05897927      0.60175134
      8.02044289     -0.02674217
      2.07958108     -0.13375158
      0.73311668     -0.25828023
      0.29186638     -0.12321322
 
          18   0
s              4   1.000000
     13.72765447     -0.03295496
      3.86674311     -0.17245169
      0.69336717      0.75185111
      0.34113948      0.35896273
p              4   1.000000
      7.92684384     -0.01434249
      0.81915973      0.27551776
      0.37023221      0.58467508
      0.17897842      0.21449865
s              7   1.000000
      0.16124732     -0.33689991
      0.03162593      1.06303986
      0.01560824      0.12641479
     13.72765447      0.00360248
      3.86674311      0.01885160
      0.69336717     -0.08218878
      0.34113948     -0.03924010
p              7   1.000000
      0.34551743     -0.06392230
      0.05282782      0.68667213
      0.02597475      0.40889815
      7.92684384      0.00408423
      0.81915973     -0.07845753
      0.37023221     -0.16649439
      0.17897842     -0.06108149
 
          19   0
s              4   1.000000
     77.68074403     -0.01198412
     13.37726690     -0.05472052
      1.07492047      0.58055871
      0.40967880      0.47700799
p              4   1.000000
      8.01065420      0.05713170
      2.07704302      0.28574555
      0.73222194      0.55178731
      0.29151017      0.26323149
s              7   1.000000
      0.57971233     -0.18694369
      0.07115450      0.90324320
      0.03359728      0.23720538
     77.68074403      0.00378644
     13.37726690      0.01728921
      1.07492047     -0.18343032
      0.40967880     -0.15071297
p              7   1.000000
      2.76717072     -0.01172770
      0.15304476      0.57631690
      0.05897927      0.60187741
      8.01065420     -0.02677333
      2.07704302     -0.13390742
      0.73222194     -0.25858115
      0.29151017     -0.12335677
 
          20   0
s              4   1.000000
     37.57561427     -0.01198412
      6.47083170     -0.05472052
      0.51995894      0.58055871
      0.19816922      0.47700799
p              4   1.000000
      6.05629189      0.05713170
      1.57030605      0.28574555
      0.55358148      0.55178731
      0.22039032      0.26323149
s              7   1.000000
      0.38350848     -0.19398380
      0.04707223      0.93725844
      0.02222627      0.24613830
     37.57561427      0.00514374
      6.47083170      0.02348678
      0.51995894     -0.24918352
      0.19816922     -0.20473817
p              7   1.000000
      1.83062075     -0.01148664
      0.10124670      0.56447127
      0.03901771      0.58950639
      6.05629189     -0.02355521
      1.57030605     -0.11781194
      0.55358148     -0.22750008
      0.22039032     -0.10852947
 
          21   0
s              4   1.000000
     34.89788875     -0.01198412
      6.00970521     -0.05472052
      0.48290546      0.58055871
      0.18404722      0.47700799
p              4   1.000000
      5.62470647      0.05713170
      1.45840240      0.28574555
      0.51413197      0.55178731
      0.20468480      0.26323149
s              7   1.000000
      0.38350848     -0.19626607
      0.04707223      0.94828550
      0.02222627      0.24903417
     34.89788875      0.00552120
      6.00970521      0.02521027
      0.48290546     -0.26746895
      0.18404722     -0.21976214
p              7   1.000000
      1.83062075     -0.01161349
      0.10124670      0.57070487
      0.03901771      0.59601644
      5.62470647     -0.02529149
      1.45840240     -0.12649597
      0.51413197     -0.24426933
      0.20468480     -0.11652928
 
          22   0
s              4   1.000000
     34.90337923     -0.01198412
      6.01065072     -0.05472052
      0.48298143      0.58055871
      0.18407618      0.47700800
p              4   1.000000
      5.62559140      0.05713170
      1.45863185      0.28574555
      0.51421286      0.55178731
      0.20471700      0.26323149
s              7   1.000000
      0.38350848     -0.19626091
      0.04707223      0.94826057
      0.02222627      0.24902761
     34.90337923      0.00552037
      6.01065072      0.02520648
      0.48298143     -0.26742877
      0.18407618     -0.21972913
p              7   1.000000
      1.83062075     -0.01161321
      0.10124670      0.57069077
      0.03901771      0.59600172
      5.62559140     -0.02528768
      1.45863185     -0.12647690
      0.51421286     -0.24423250
      0.20471700     -0.11651171
 
          23   0
s              4   1.000000
     37.66983761     -0.01198412
      6.48705774     -0.05472052
      0.52126277      0.58055871
      0.19866614      0.47700800
p              4   1.000000
      6.07147844      0.05713170
      1.57424370      0.28574555
      0.55496962      0.55178731
      0.22094297      0.26323149
s              7   1.000000
      0.38350848     -0.19391132
      0.04707223      0.93690823
      0.02222627      0.24604631
     37.66983761      0.00513137
      6.48705774      0.02343030
      0.52126277     -0.24858437
      0.19866614     -0.20424589
p              7   1.000000
      1.83062075     -0.01148262
      0.10124670      0.56427332
      0.03901771      0.58929966
      6.07147844     -0.02349830
      1.57424370     -0.11752729
      0.55496962     -0.22695041
      0.22094297     -0.10826725
 
          24   0
s              4   1.000000
     38.22132180     -0.01198412
      6.58202788     -0.05472052
      0.52889403      0.58055871
      0.20157460      0.47700799
p              4   1.000000
      6.16036453      0.05713170
      1.59729053      0.28574555
      0.56309434      0.55178731
      0.22417756      0.26323149
s              7   1.000000
      0.38350848     -0.19349663
      0.04707223      0.93490458
      0.02222627      0.24552014
     38.22132180      0.00506013
      6.58202788      0.02310498
      0.52889403     -0.24513284
      0.20157460     -0.20140999
p              7   1.000000
      1.83062075     -0.01145957
      0.10124670      0.56314089
      0.03901771      0.58811701
      6.16036453     -0.02317041
      1.59729053     -0.11588737
      0.56309434     -0.22378364
      0.22417756     -0.10675654
 
          25   0
s              4   1.000000
     37.78737922     -0.01198412
      6.50729938     -0.05472052
      0.52288927      0.58055871
      0.19928604      0.47700799
p              4   1.000000
      6.09042334      0.05713170
      1.57915583      0.28574555
      0.55670130      0.55178731
      0.22163238      0.26323149
s              7   1.000000
      0.38350848     -0.19382157
      0.04707223      0.93647460
      0.02222627      0.24593246
     37.78737922      0.00511603
      6.50729938      0.02336022
      0.52288927     -0.24784085
      0.19928604     -0.20363499
p              7   1.000000
      1.83062075     -0.01147763
      0.10124670      0.56402824
      0.03901771      0.58904369
      6.09042334     -0.02342767
      1.57915583     -0.11717404
      0.55670130     -0.22626827
      0.22163238     -0.10794183
 
          26   0
s              4   1.000000
     37.66307788     -0.01198412
      6.48589366     -0.05472053
      0.52116923      0.58055871
      0.19863049      0.47700799
p              4   1.000000
      6.07038893      0.05713170
      1.57396121      0.28574555
      0.55487003      0.55178731
      0.22090332      0.26323149
s              7   1.000000
      0.38350848     -0.19391650
      0.04707223      0.93693328
      0.02222627      0.24605289
     37.66307788      0.00513226
      6.48589366      0.02343435
      0.52116923     -0.24862726
      0.19863049     -0.20428113
p              7   1.000000
      1.83062075     -0.01148290
      0.10124670      0.56428748
      0.03901771      0.58931447
      6.07038893     -0.02350237
      1.57396121     -0.11754767
      0.55487003     -0.22698976
      0.22090332     -0.10828602
 
          27   0
s              4   1.000000
     37.78410031     -0.01198412
      6.50673472     -0.05472052
      0.52284390      0.58055871
      0.19926875      0.47700799
p              4   1.000000
      6.08989486      0.05713170
      1.57901880      0.28574555
      0.55665299      0.55178731
      0.22161315      0.26323149
s              7   1.000000
      0.38350848     -0.19382406
      0.04707223      0.93648665
      0.02222627      0.24593560
     37.78410031      0.00511645
      6.50673472      0.02336217
      0.52284390     -0.24786153
      0.19926875     -0.20365198
p              7   1.000000
      1.83062075     -0.01147777
      0.10124670      0.56403504
      0.03901771      0.58905081
      6.08989486     -0.02342964
      1.57901880     -0.11718387
      0.55665299     -0.22628724
      0.22161315     -0.10795088
 
          28   0
s              4   1.000000
     37.59680067     -0.01198412
      6.47448018     -0.05472053
      0.52025211      0.58055871
      0.19828096      0.47700799
p              4   1.000000
      6.05970663      0.05713170
      1.57119144      0.28574555
      0.55389360      0.55178731
      0.22051459      0.26323149
s              7   1.000000
      0.38350848     -0.19396746
      0.04707223      0.93717950
      0.02222627      0.24611756
     37.59680067      0.00514096
      6.47448018      0.02347406
      0.52025211     -0.24904855
      0.19828096     -0.20462728
p              7   1.000000
      1.83062075     -0.01148574
      0.10124670      0.56442664
      0.03901771      0.58945978
      6.05970663     -0.02354239
      1.57119144     -0.11774782
      0.55389360     -0.22737626
      0.22051459     -0.10847041
 
          29   0
s              4   1.000000
     37.04488953     -0.01198412
      6.37943651     -0.05472052
      0.51261494      0.58055871
      0.19537024      0.47700799
p              4   1.000000
      5.97075173      0.05713170
      1.54812677      0.28574555
      0.54576259      0.55178731
      0.21727749      0.26323149
s              7   1.000000
      0.38350848     -0.19440133
      0.04707223      0.93927579
      0.02222627      0.24666809
     37.04488953      0.00521450
      6.37943651      0.02380986
      0.51261494     -0.25261133
      0.19537024     -0.20755459
p              7   1.000000
      1.83062075     -0.01150985
      0.10124670      0.56561153
      0.03901771      0.59069721
      5.97075173     -0.02388079
      1.54812677     -0.11944034
      0.54576259     -0.23064459
      0.21727749     -0.11002957
 
          30   0
s              4   1.000000
     34.94963459     -0.01198412
      6.01861627     -0.05472052
      0.48362150      0.58055871
      0.18432012      0.47700800
p              4   1.000000
      5.63304666      0.05713170
      1.46056488      0.28574555
      0.51489432      0.55178731
      0.20498830      0.26323149
s              7   1.000000
      0.38350848     -0.19621751
      0.04707223      0.94805090
      0.02222627      0.24897255
     34.94963459      0.00551339
      6.01861627      0.02517463
      0.48362150     -0.26709080
      0.18432012     -0.21945144
p              7   1.000000
      1.83062075     -0.01161079
      0.10124670      0.57057223
      0.03901771      0.59587792
      5.63304666     -0.02525559
      1.46056488     -0.12631645
      0.51489432     -0.24392266
      0.20498830     -0.11636391
 
          31   0
s              4   1.000000
     34.98010042     -0.01198412
      6.02386274     -0.05472052
      0.48404307      0.58055871
      0.18448080      0.47700799
p              4   1.000000
      5.63795703      0.05713170
      1.46183807      0.28574555
      0.51534316      0.55178731
      0.20516699      0.26323149
s              7   1.000000
      0.38350848     -0.19618901
      0.04707223      0.94791320
      0.02222627      0.24893640
     34.98010042      0.00550881
      6.02386274      0.02515369
      0.48404307     -0.26686865
      0.18448080     -0.21926892
p              7   1.000000
      1.83062075     -0.01160921
      0.10124670      0.57049438
      0.03901771      0.59579665
      5.63795703     -0.02523451
      1.46183807     -0.12621099
      0.51534316     -0.24371900
      0.20516699     -0.11626675
 
          32   0
s              4   1.000000
      8.30931409      0.05675242
      1.52050210      0.26014135
      0.42241213      0.53284611
      0.14019479      0.29162544
s              7   1.000000
      0.92936822     -0.06732795
      0.05643440      0.66945071
      0.02166600      0.51461104
      8.30931409     -0.02902173
      1.52050210     -0.13302961
      0.42241213     -0.27248383
      0.14019479     -0.14912976
p              4   1.000000
      0.64737396      0.05713170
      0.16785440      0.28574555
      0.05917387      0.55178731
      0.02355814      0.26323150
 
          33   0
s              4   1.000000
      8.31167399      0.05675242
      1.52093394      0.26014135
      0.42253210      0.53284611
      0.14023461      0.29162544
s              7   1.000000
      0.92936822     -0.06732492
      0.05643440      0.66942053
      0.02166600      0.51458784
      8.31167399     -0.02901542
      1.52093394     -0.13300068
      0.42253210     -0.27242457
      0.14023461     -0.14909733
p              4   1.000000
      0.64737396      0.05713170
      0.16785440      0.28574555
      0.05917387      0.55178731
      0.02355814      0.26323150
 
          34   0
s              4   1.000000
      8.31023971      0.05675242
      1.52067148      0.26014135
      0.42245919      0.53284611
      0.14021041      0.29162544
s              7   1.000000
      0.92936822     -0.06732676
      0.05643440      0.66943887
      0.02166600      0.51460192
      8.31023971     -0.02901926
      1.52067148     -0.13301826
      0.42245919     -0.27246058
      0.14021041     -0.14911704
p              4   1.000000
      0.64737396      0.05713170
      0.16785440      0.28574555
      0.05917387      0.55178731
      0.02355814      0.26323150
 
          35   0
s              4   1.000000
      8.31511564      0.05675242
      1.52156372      0.26014135
      0.42270706      0.53284611
      0.14029267      0.29162544
s              7   1.000000
      0.92936822     -0.06732050
      0.05643440      0.66937656
      0.02166600      0.51455405
      8.31511564     -0.02900622
      1.52156372     -0.13295851
      0.42270706     -0.27233820
      0.14029267     -0.14905007
p              4   1.000000
      0.64737396      0.05713170
      0.16785440      0.28574555
      0.05917387      0.55178731
      0.02355814      0.26323150
 
          36   0
s              4   1.000000
      8.31395220      0.05675242
      1.52135082      0.26014135
      0.42264792      0.53284611
      0.14027304      0.29162544
s              7   1.000000
      0.92936822     -0.06732199
      0.05643440      0.66939141
      0.02166600      0.51456545
      8.31395220     -0.02900933
      1.52135082     -0.13297277
      0.42264792     -0.27236739
      0.14027304     -0.14906604
p              4   1.000000
      0.64737396      0.05713170
      0.16785440      0.28574555
      0.05917387      0.55178731
      0.02355814      0.26323150
 
          37   0
s              4   1.000000
      8.31361967      0.05675242
      1.52128997      0.26014135
      0.42263101      0.53284611
      0.14026743      0.29162544
s              7   1.000000
      0.92936822     -0.06732242
      0.05643440      0.66939567
      0.02166600      0.51456873
      8.31361967     -0.02901022
      1.52128997     -0.13297684
      0.42263101     -0.27237573
      0.14026743     -0.14907060
p              4   1.000000
      0.64737396      0.05713170
      0.16785440      0.28574555
      0.05917387      0.55178731
      0.02355814      0.26323150
 
          38   0
s              4   1.000000
      8.30775694      0.05675242
      1.52021717      0.26014135
      0.42233297      0.53284611
      0.14016852      0.29162544
s              7   1.000000
      0.92936822     -0.06732996
      0.05643440      0.66947063
      0.02166600      0.51462635
      8.30775694     -0.02902590
      1.52021717     -0.13304871
      0.42233297     -0.27252294
      0.14016852     -0.14915117
p              4   1.000000
      0.64737396      0.05713170
      0.16785440      0.28574555
      0.05917387      0.55178731
      0.02355814      0.26323150
 
          39   0
s              4   1.000000
      8.30949565      0.05675242
      1.52053533      0.26014135
      0.42242136      0.53284611
      0.14019785      0.29162544
s              7   1.000000
      0.92936822     -0.06732772
      0.05643440      0.66944838
      0.02166600      0.51460925
      8.30949565     -0.02902125
      1.52053533     -0.13302738
      0.42242136     -0.27247926
      0.14019785     -0.14912727
p              4   1.000000
      0.64737396      0.05713170
      0.16785440      0.28574555
      0.05917387      0.55178731
      0.02355814      0.26323150
 
          40   0
s              4   1.000000
      8.30862235      0.05675242
      1.52037552      0.26014135
      0.42237697      0.53284611
      0.14018312      0.29162544
s              7   1.000000
      0.92936822     -0.06732884
      0.05643440      0.66945955
      0.02166600      0.51461783
      8.30862235     -0.02902358
      1.52037552     -0.13303809
      0.42237697     -0.27250120
      0.14018312     -0.14913927
p              4   1.000000
      0.64737396      0.05713170
      0.16785440      0.28574555
      0.05917387      0.55178731
      0.02355814      0.26323150
 
          41   0
s              4   1.000000
      8.31429065      0.05675242
      1.52141275      0.26014135
      0.42266512      0.53284611
      0.14027876      0.29162544
s              7   1.000000
      0.92936822     -0.06732156
      0.05643440      0.66938709
      0.02166600      0.51456215
      8.31429065     -0.02900843
      1.52141275     -0.13296862
      0.42266512     -0.27235889
      0.14027876     -0.14906139
p              4   1.000000
      0.64737396      0.05713170
      0.16785440      0.28574555
      0.05917387      0.55178731
      0.02355814      0.26323150
 
          42   0
s              4   1.000000
      8.30932129      0.05675242
      1.52050342      0.26014135
      0.42241250      0.53284611
      0.14019491      0.29162544
s              7   1.000000
      0.92936822     -0.06732794
      0.05643440      0.66945061
      0.02166600      0.51461097
      8.30932129     -0.02902171
      1.52050342     -0.13302952
      0.42241250     -0.27248364
      0.14019491     -0.14912967
p              4   1.000000
      0.64737396      0.05713170
      0.16785440      0.28574555
      0.05917387      0.55178731
      0.02355814      0.26323150
 
          43   0
s              4   1.000000
      8.31116470      0.05675242
      1.52084074      0.26014135
      0.42250621      0.53284611
      0.14022601      0.29162544
s              7   1.000000
      0.92936822     -0.06732557
      0.05643440      0.66942704
      0.02166600      0.51459283
      8.31116470     -0.02901678
      1.52084074     -0.13300692
      0.42250621     -0.27243735
      0.14022601     -0.14910433
p              4   1.000000
      0.64737396      0.05713170
      0.16785440      0.28574555
      0.05917387      0.55178731
      0.02355814      0.26323150
 
          44   0
s              4   1.000000
      8.31019345      0.05675242
      1.52066302      0.26014135
      0.42245684      0.53284611
      0.14020963      0.29162544
s              7   1.000000
      0.92936822     -0.06732682
      0.05643440      0.66943946
      0.02166600      0.51460240
      8.31019345     -0.02901938
      1.52066302     -0.13301883
      0.42245684     -0.27246174
      0.14020963     -0.14911768
p              4   1.000000
      0.64737396      0.05713170
      0.16785440      0.28574555
      0.05917387      0.55178731
      0.02355814      0.26323150
 
          45   0
s              4   1.000000
      8.30894006      0.05675242
      1.52043366      0.26014135
      0.42239312      0.53284611
      0.14018848      0.29162544
s              7   1.000000
      0.92936822     -0.06732843
      0.05643440      0.66945549
      0.02166600      0.51461472
      8.30894006     -0.02902273
      1.52043366     -0.13303420
      0.42239312     -0.27249322
      0.14018848     -0.14913491
p              4   1.000000
      0.64737396      0.05713170
      0.16785440      0.28574555
      0.05917387      0.55178731
      0.02355814      0.26323150
 
          46   0
s              4   1.000000
      8.30867344      0.05675242
      1.52038487      0.26014135
      0.42237957      0.53284611
      0.14018398      0.29162544
s              7   1.000000
      0.92936822     -0.06732878
      0.05643440      0.66945890
      0.02166600      0.51461733
      8.30867344     -0.02902345
      1.52038487     -0.13303747
      0.42237957     -0.27249991
      0.14018398     -0.14913857
p              4   1.000000
      0.64737396      0.05713170
      0.16785440      0.28574555
      0.05917387      0.55178731
      0.02355814      0.26323150
 
          47   0
s              4   1.000000
      8.30959069      0.05675242
      1.52055272      0.26014135
      0.42242620      0.53284611
      0.14019946      0.29162544
s              7   1.000000
      0.92936822     -0.06732760
      0.05643440      0.66944717
      0.02166600      0.51460831
      8.30959069     -0.02902099
      1.52055272     -0.13302622
      0.42242620     -0.27247688
      0.14019946     -0.14912596
p              4   1.000000
      0.64737396      0.05713170
      0.16785440      0.28574555
      0.05917387      0.55178731
      0.02355814      0.26323150
 
          48   0
s              4   1.000000
      8.30772707      0.05675242
      1.52021170      0.26014135
      0.42233146      0.53284611
      0.14016801      0.29162544
s              7   1.000000
      0.92936822     -0.06732999
      0.05643440      0.66947102
      0.02166600      0.51462665
      8.30772707     -0.02902598
      1.52021170     -0.13304907
      0.42233146     -0.27252369
      0.14016801     -0.14915158
p              4   1.000000
      0.64737396      0.05713170
      0.16785440      0.28574555
      0.05917387      0.55178731
      0.02355814      0.26323150
 
          49   0
s              4   1.000000
      8.30805090      0.05675242
      1.52027096      0.26014135
      0.42234792      0.53284611
      0.14017348      0.29162544
s              7   1.000000
      0.92936822     -0.06732958
      0.05643440      0.66946687
      0.02166600      0.51462347
      8.30805090     -0.02902511
      1.52027096     -0.13304510
      0.42234792     -0.27251556
      0.14017348     -0.14914713
p              4   1.000000
      0.64737396      0.05713170
      0.16785440      0.28574555
      0.05917387      0.55178731
      0.02355814      0.26323150
 
          50   0
s              4   1.000000
      8.30913497      0.05675242
      1.52046933      0.26014135
      0.42240303      0.53284611
      0.14019177      0.29162543
s              7   1.000000
      0.92936822     -0.06732818
      0.05643440      0.66945300
      0.02166600      0.51461281
      8.30913497     -0.02902221
      1.52046933     -0.13303181
      0.42240303     -0.27248832
      0.14019177     -0.14913223
p              4   1.000000
      0.64737396      0.05713170
      0.16785440      0.28574555
      0.05917387      0.55178731
      0.02355814      0.26323150
 
          51   0
s              4   1.000000
      8.30769998      0.05675242
      1.52020674      0.26014135
      0.42233008      0.53284611
      0.14016756      0.29162544
s              7   1.000000
      0.92936822     -0.06733003
      0.05643440      0.66947135
      0.02166600      0.51462692
      8.30769998     -0.02902605
      1.52020674     -0.13304941
      0.42233008     -0.27252437
      0.14016756     -0.14915195
p              4   1.000000
      0.64737396      0.05713170
      0.16785440      0.28574555
      0.05917387      0.55178731
      0.02355814      0.26323150
 
          52   0
s              4   1.000000
      8.31198068      0.05675242
      1.52099006      0.26014135
      0.42254769      0.53284611
      0.14023978      0.29162544
s              7   1.000000
      0.92936822     -0.06732452
      0.05643440      0.66941661
      0.02166600      0.51458483
      8.31198068     -0.02901460
      1.52099006     -0.13299692
      0.42254769     -0.27241687
      0.14023978     -0.14909312
p              4   1.000000
      0.64737396      0.05713170
      0.16785440      0.28574555
      0.05917387      0.55178731
      0.02355814      0.26323150
 
          53   0
s              4   1.000000
      8.30895463      0.05675242
      1.52043633      0.26014135
      0.42239386      0.53284611
      0.14018872      0.29162544
s              7   1.000000
      0.92936822     -0.06732842
      0.05643440      0.66945530
      0.02166600      0.51461457
      8.30895463     -0.02902269
      1.52043633     -0.13303402
      0.42239386     -0.27249285
      0.14018872     -0.14913471
p              4   1.000000
      0.64737396      0.05713170
      0.16785440      0.28574555
      0.05917387      0.55178731
      0.02355814      0.26323150
 
          54   0
s              4   1.000000
      8.31094098      0.05675242
      1.52079980      0.26014135
      0.42249484      0.53284611
      0.14022224      0.29162544
s              7   1.000000
      0.92936822     -0.06732586
      0.05643440      0.66942990
      0.02166600      0.51459504
      8.31094098     -0.02901738
      1.52079980     -0.13300967
      0.42249484     -0.27244297
      0.14022224     -0.14910740
p              4   1.000000
      0.64737396      0.05713170
      0.16785440      0.28574555
      0.05917387      0.55178731
      0.02355814      0.26323150
 
 [MO]
 Sym= Hole
 Ene=  -1.065308    
 Spin= Alpha
 Occup= 0
           1  2.3532655E-02
           2  2.9199479E-02
           3 -2.7308131E-02
           4  1.8023307E-02
           5 -1.2271498E-02
           6 -9.1544008E-03
           7  5.6028902E-03
           8 -3.9917682E-03
           9  1.2243656E-02
          10 -3.5312921E-02
          11  4.4708449E-02
          12 -1.4232840E-02
          13 -1.1358794E-02
          14  5.7595312E-03
          15 -1.0971423E-02
          16  7.3761400E-03
          17 -4.6677240E-03
          18  4.5634941E-03
          19  6.7840172E-03
          20  1.0604941E-02
          21  4.2471471E-03
          22  3.4773396E-04
          23 -3.5000271E-03
          24 -3.5794128E-03
          25  9.9787461E-03
          26  6.4064667E-02
          27 -2.6984364E-03
          28  7.5129770E-02
          29 -5.9659150E-03
          30 -1.0045122E-02
          31 -2.8394256E-04
          32  1.4823609E-03
          33 -1.4475454E-02
          34  1.2142817E-02
          35  1.4310755E-02
          36 -2.1623231E-03
          37  1.1214456E-02
          38  1.2685290E-04
          39 -4.1816331E-04
          40  2.1933254E-03
          41 -9.7745738E-04
          42  2.1279125E-02
          43  3.3636808E-02
          44 -4.6258774E-03
          45  1.6836354E-03
          46  3.4737187E-03
          47 -1.1989654E-02
          48  1.1212151E-02
          49  1.3985102E-02
          50 -1.1077303E-02
          51  1.9733799E-03
          52  4.3625146E-02
          53 -7.8965202E-03
          54  2.7351086E-03
          55 -8.5005112E-04
          56 -7.9644267E-03
          57 -1.1035874E-02
          58  6.3414842E-02
          59  4.4326264E-02
          60 -0.5487641    
          61  8.0084326E-03
          62 -8.1126671E-03
          63 -1.4271847E-03
          64  2.7443927E-02
          65 -4.2745369E-03
          66 -1.2585915E-02
          67  8.8137016E-03
          68 -0.1982827    
          69  1.2700367E-03
          70  5.5624479E-03
          71 -3.5257589E-03
          72  2.8662886E-02
          73  7.0001162E-03
          74  0.1057255    
          75 -7.8800581E-02
          76  0.4867331    
          77 -3.6496839E-03
          78 -1.6872313E-02
          79  6.2270421E-03
          80 -4.9700033E-02
          81  1.0613432E-02
          82 -2.3156798E-02
          83  4.2959891E-02
          84 -0.1177431    
          85 -8.6248489E-03
          86  7.1086939E-03
          87 -6.6734878E-03
          88  2.6578991E-02
          89 -4.6783149E-05
          90 -2.9858274E-02
          91  0.1819562    
          92 -0.4307383    
          93 -4.2632120E-03
          94  8.9665398E-04
          95 -1.4417048E-02
          96  3.1236650E-02
          97  4.1851748E-02
          98  1.9553931E-02
          99 -7.4672243E-03
         100 -6.1519396E-02
         101 -2.8174751E-02
         102 -9.8385280E-03
         103  1.7855384E-03
         104  1.4888747E-02
         105 -8.3484527E-05
         106  2.5727009E-04
         107  9.3128486E-03
         108  1.9461637E-02
         109  1.1707391E-03
         110  1.8979295E-03
         111 -9.2428802E-03
         112 -5.4193712E-03
         113 -1.3498045E-02
         114 -2.0579533E-03
         115  7.9450496E-03
         116  8.1723435E-03
         117  9.0718996E-03
         118 -2.2296782E-03
         119 -5.5471864E-03
         120  9.6234918E-04
         121 -8.4062889E-03
         122 -1.5218155E-02
         123  1.8230649E-02
         124  1.5467782E-02
         125  4.4685774E-03
         126  1.0769752E-02
         127 -4.7326302E-03
         128  2.1550108E-03
         129 -4.6852903E-04
         130 -1.4667479E-04
         131 -3.1325941E-03
         132 -2.5268777E-03
         133 -4.6058782E-04
         134  1.4329175E-03
         135  6.4293627E-04
         136  2.5573478E-03
         137 -1.2768217E-02
         138  1.3633618E-02
         139 -1.7551729E-02
         140  1.6256068E-02
         141  2.0928646E-03
         142 -2.2055176E-03
         143  6.2277871E-03
         144 -3.7986797E-03
         145 -3.8436630E-03
         146 -1.4843476E-02
         147  9.2875035E-03
         148 -5.4034921E-03
         149  4.7397711E-03
         150  7.4544190E-03
         151 -3.5357799E-03
         152  4.3451058E-04
         153  6.0144858E-03
         154  7.9503596E-02
         155 -8.1711181E-02
         156 -8.2771838E-02
         157 -3.5456747E-03
         158 -1.3449881E-02
         159  3.2994128E-03
         160  5.5561136E-03
         161  5.8315875E-04
         162  5.6677549E-03
         163  4.3469805E-02
         164  2.6384849E-02
         165  1.1149562E-04
         166  1.1167048E-03
         167 -5.7887137E-03
         168 -5.8548283E-03
         169 -1.5831925E-02
         170  1.0202065E-02
         171  4.2321835E-02
         172  4.4189658E-02
         173  2.0537421E-03
         174  4.1716699E-03
         175  6.3332373E-05
         176 -7.2076428E-03
         177  6.5549091E-02
         178 -1.5723441E-02
         179 -7.6589033E-02
         180 -0.1107978    
         181 -4.1174479E-02
         182  9.4189970E-03
         183  1.1472191E-02
         184  1.8240839E-02
         185 -4.7574524E-02
         186 -1.8116223E-02
         187  6.9340274E-02
         188 -3.2490492E-02
         189  3.2561641E-02
         190  1.5926986E-03
         191 -1.0931699E-02
         192  1.1968976E-02
         193 -1.7914120E-02
         194  3.8779736E-02
         195  1.9616351E-02
         196 -1.8599425E-02
         197  1.4988314E-02
         198 -1.0259137E-02
         199 -2.3204372E-03
         200  1.1946046E-03
         201 -1.3069664E-02
         202 -3.5742670E-02
         203  3.2396403E-03
         204 -9.2549389E-03
         205  8.7279584E-03
         206  9.8980609E-03
         207  7.7409076E-04
         208  3.5449096E-03
         209  1.4502310E-02
         210  1.6007038E-02
         211  1.2044795E-03
         212 -2.9364726E-02
         213 -6.9589997E-03
         214 -2.9690426E-03
         215 -1.6311235E-03
         216  3.5515036E-03
         217  1.0603552E-03
         218 -3.4512288E-03
         219  5.9775463E-03
         220  4.4977423E-03
         221 -5.9955218E-03
         222 -5.8155600E-03
         223  3.3596641E-04
         224 -1.3270987E-03
         225 -6.0043698E-03
         226  2.2329662E-03
         227 -1.7359022E-02
         228  2.2562310E-02
         229  1.2588972E-03
         230 -7.1443770E-05
         231  3.5718086E-03
         232 -8.0206115E-03
         233 -4.4014271E-02
         234 -1.1024935E-02
         235  4.7989320E-02
         236 -5.5656772E-02
         237  2.9086633E-02
         238  1.0178976E-02
         239 -9.6035665E-03
         240  1.0702512E-02
         241  1.1265778E-02
         242 -4.7864851E-02
         243  1.3492000E-02
         244  4.3418281E-02
         245 -2.0440388E-03
         246  6.6133686E-03
         247 -7.0070033E-04
         248 -7.9480698E-03
         249 -1.1087528E-02
         250  1.7407180E-03
         251  3.3745575E-03
         252 -1.0228186E-03
         253  8.9853741E-03
         254 -1.4119121E-03
         255  5.4637627E-03
         256 -2.1739281E-03
         257 -3.0844563E-04
         258 -3.2242786E-03
         259 -9.1201998E-03
         260  5.5582647E-04
         261 -3.9818085E-04
         262 -6.9033187E-03
         263  3.0714823E-03
         264  1.3751782E-03
         265  6.6917547E-04
         266 -8.5537729E-04
         267 -3.7191581E-04
         268 -1.7602500E-03
         269 -1.6220376E-03
         270  3.3091310E-05
         271  5.7123401E-05
         272  1.4843646E-03
         273 -1.7936327E-03
         274  4.0691979E-03
         275 -2.1430060E-04
         276  2.9426718E-03
         277  1.4734603E-03
         278  6.2458578E-04
         279  2.4415743E-02
         280 -4.5063826E-03
         281  4.9331137E-03
         282  1.0071845E-02
         283 -2.4812412E-03
         284 -5.5979896E-02
         285  1.2718534E-02
         286 -1.0150203E-02
         287 -1.2540952E-03
         288  6.1336877E-03
         289  3.0617581E-03
         290  2.4311242E-03
         291 -3.8125112E-03
         292  4.4672978E-03
         293 -3.7650347E-02
         294 -7.1047293E-03
         295 -2.4945426E-04
         296  1.9862503E-02
         297 -1.1481903E-02
         298  8.3466128E-02
         299  7.4118800E-03
         300 -3.8035363E-03
         301 -7.6668197E-03
         302  6.6618365E-03
         303 -3.4439206E-02
         304 -2.6498051E-02
         305  3.6074456E-03
         306  7.5712209E-03
         307  6.1889449E-03
         308 -9.4701713E-03
         309  8.0226744E-03
         310 -5.9437705E-04
         311 -2.4329361E-03
         312  1.5218469E-03
         313  3.7224824E-03
         314  1.5234602E-02
         315 -4.4637606E-03
         316 -1.5464601E-03
         317  2.8070074E-03
         318  7.2021582E-03
         319  1.8097479E-02
         320 -3.7425826E-03
         321  5.7235034E-03
         322  5.1831519E-03
         323  8.2188454E-03
         324 -4.8675835E-02
         325  4.2062853E-03
         326 -1.5945287E-02
         327 -4.7113961E-03
         328 -1.3258182E-02
         329  2.6794964E-02
         330 -4.4494847E-04
         331  1.3595923E-03
         332  1.3365488E-02
         333 -1.0472096E-02
         334  1.9454768E-02
         335 -2.4839542E-03
         336 -8.1033405E-04
         337  3.2805123E-03
         338 -9.6694352E-03
         339 -1.2583158E-02
         340  1.5988641E-03
         341 -1.7936259E-03
         342 -9.1809858E-07
         343 -2.8963808E-03
         344  4.9165101E-03
         345 -1.8527161E-03
         346 -5.5882242E-03
         347  4.0929359E-03
         348  3.1402602E-04
         349  1.8804954E-02
         350 -4.9051037E-03
         351 -2.4137204E-03
         352 -3.9035343E-03
         353  1.4185002E-03
         354  2.8627815E-02
         355 -1.3479521E-03
         356 -1.8758440E-03
         357 -8.7955478E-04
         358 -1.3108288E-02
         359 -1.9723514E-02
         360  4.2192494E-03
         361 -2.1584737E-03
         362  1.2267855E-03
         363  5.5039627E-03
 Sym= Particle
 Ene=  -1.065308    
 Spin= Alpha
 Occup= 2
           1  1.1855993E-02
           2  1.5373956E-02
           3 -9.4444044E-03
           4  4.4160788E-03
           5 -7.4489876E-03
           6 -1.8245062E-03
           7  1.1752810E-03
           8 -1.3543651E-03
           9  3.0950063E-03
          10 -1.1420088E-03
          11  1.5524223E-02
          12  5.1564403E-02
          13 -5.2505792E-03
          14 -3.5033079E-03
          15 -6.0671003E-04
          16 -1.4527449E-02
          17  1.5601432E-02
          18  5.5238991E-03
          19 -1.2395253E-02
          20 -1.1498947E-02
          21 -1.8584237E-02
          22 -2.3139841E-03
          23  4.0996540E-03
          24 -3.9180677E-04
          25 -1.6614355E-02
          26 -2.7585693E-02
          27 -8.4087960E-03
          28 -8.5129164E-02
          29  1.7082404E-02
          30  1.4249275E-02
          31 -1.3072844E-04
          32  2.5838579E-03
          33  2.9139638E-02
          34 -2.3627693E-02
          35 -2.7077502E-02
          36  1.1893083E-02
          37 -2.3216570E-02
          38  1.3743841E-02
          39  1.4355083E-02
          40 -1.1142310E-02
          41 -1.8852897E-02
          42  1.6985355E-02
          43  2.6437942E-02
          44  1.9056535E-03
          45  1.5266080E-02
          46 -1.2046243E-02
          47 -3.2521298E-03
          48 -5.0135446E-03
          49  3.9699733E-02
          50 -6.8118004E-03
          51 -5.3595942E-03
          52  7.8481875E-02
          53 -3.6911093E-02
          54  7.3307967E-03
          55 -1.1161675E-03
          56 -9.5810071E-03
          57 -1.8734816E-02
          58 -2.0642860E-02
          59 -5.5382878E-02
          60  0.4222023    
          61  3.9095348E-03
          62 -2.1598467E-03
          63  1.4824808E-02
          64 -0.1307080    
          65  3.0435953E-02
          66 -1.0003433E-02
          67 -3.2981469E-03
          68 -0.4265280    
          69 -1.7116085E-02
          70 -2.3667810E-03
          71 -2.3393270E-03
          72  0.1628353    
          73 -8.4850742E-03
          74 -7.2625782E-03
          75 -3.4406312E-02
          76 -1.9668259E-03
          77  9.0423683E-03
          78  1.0875577E-02
          79  6.6851219E-03
          80 -3.7582293E-03
          81  1.5251396E-02
          82  6.5084048E-02
          83 -0.1773382    
          84  0.3850006    
          85 -1.5770013E-02
          86 -1.7353011E-02
          87  6.5256342E-02
          88 -0.1393829    
          89 -2.6547298E-02
          90 -2.4387509E-02
          91  0.1388163    
          92 -0.3867630    
          93  9.7316252E-03
          94  7.9322895E-03
          95 -4.4620182E-02
          96  0.1234907    
          97  6.0735758E-02
          98  2.5301373E-02
          99 -1.0344531E-02
         100 -5.2851088E-02
         101 -6.1389599E-02
         102 -1.8425036E-02
         103  1.1147254E-02
         104  2.9064545E-02
         105 -2.6428225E-03
         106 -5.3718206E-03
         107  2.4019768E-02
         108  4.2609850E-04
         109  3.1419450E-03
         110  3.1477076E-03
         111 -1.9579684E-02
         112 -5.4834638E-04
         113 -2.4517082E-02
         114  1.1918545E-02
         115  9.9907434E-03
         116  5.0401125E-02
         117  2.0934353E-02
         118 -4.4143037E-03
         119 -9.5589096E-03
         120 -2.1092996E-02
         121  2.3749849E-02
         122 -1.0265501E-02
         123 -1.4392022E-02
         124  3.1182112E-02
         125 -2.1206455E-02
         126  6.5894728E-03
         127 -4.0287976E-03
         128  1.8065723E-02
         129  2.1602891E-03
         130 -4.2418804E-04
         131  5.3848526E-03
         132  4.6797746E-04
         133 -3.9639324E-03
         134  4.0438827E-03
         135 -1.5209072E-03
         136  4.0932163E-03
         137 -2.5956878E-02
         138  3.6537632E-02
         139  1.2205345E-02
         140 -3.7316576E-02
         141 -3.5623836E-04
         142 -1.3999430E-02
         143 -7.0256332E-04
         144  1.4716594E-02
         145  1.1253892E-03
         146 -3.2118803E-03
         147  6.5267952E-03
         148 -1.1816454E-03
         149 -1.4264095E-03
         150  9.8266464E-04
         151  1.6769805E-03
         152  3.6071829E-04
         153  2.0103933E-02
         154  5.6478851E-02
         155 -0.1002816    
         156 -0.1070220    
         157 -2.2184433E-02
         158 -2.2890421E-02
         159  3.3517949E-02
         160  2.7037619E-02
         161 -5.6164525E-03
         162 -2.4233934E-02
         163 -0.1529109    
         164 -9.4651431E-02
         165  1.4940834E-03
         166  6.8633850E-03
         167  3.9993126E-02
         168  3.0233141E-02
         169 -4.5036240E-03
         170  4.2306997E-02
         171  0.1750851    
         172  8.2061253E-02
         173  1.5035516E-02
         174 -9.8014483E-03
         175 -4.8328005E-02
         176 -2.3055572E-02
         177 -5.9394460E-02
         178 -1.0890878E-03
         179  7.3681384E-02
         180  9.5340520E-02
         181  5.6274388E-02
         182 -4.0495237E-03
         183 -1.8573146E-02
         184 -3.8538888E-02
         185  4.8249297E-02
         186  9.3343686E-03
         187 -4.4434000E-02
         188  2.0783078E-02
         189 -3.9869551E-02
         190 -2.2977791E-03
         191  2.1572726E-02
         192 -8.7619172E-03
         193 -3.7068233E-02
         194  2.8185537E-02
         195  4.0982749E-02
         196 -2.1751095E-02
         197  2.9131290E-02
         198 -1.3621725E-02
         199 -2.3326339E-02
         200  3.3102073E-03
         201  6.2095262E-02
         202  5.1426843E-02
         203 -1.6685804E-02
         204  1.5593137E-02
         205 -5.3790178E-02
         206 -2.8322622E-02
         207  1.3844995E-02
         208  4.9586101E-03
         209 -5.7027385E-02
         210 -4.8377343E-02
         211  3.3887215E-02
         212  8.0548890E-02
         213  4.9626395E-02
         214  2.2453886E-02
         215 -2.2903569E-02
         216 -3.9893072E-02
         217  9.4874064E-03
         218  1.8329838E-02
         219  1.1934460E-02
         220  4.9377228E-03
         221 -1.0991082E-02
         222 -8.5461969E-03
         223 -9.9434273E-04
         224 -2.4958779E-03
         225  4.2685973E-03
         226  2.2878200E-02
         227 -9.2855161E-03
         228 -3.7181683E-02
         229 -1.2553914E-02
         230 -9.1984356E-03
         231  9.5774103E-03
         232 -6.5614842E-03
         233 -3.9176699E-02
         234  5.8955621E-02
         235  1.9477813E-02
         236 -8.9724116E-02
         237  3.5745449E-02
         238 -3.9070426E-03
         239 -1.9760234E-02
         240  3.4709144E-02
         241  1.7237926E-05
         242 -0.1305094    
         243  2.9637927E-02
         244  5.8554869E-02
         245 -2.2274191E-03
         246  3.4669891E-02
         247 -3.4262366E-03
         248 -8.0706971E-03
         249 -8.3337389E-03
         250  1.3583916E-03
         251  5.7000858E-03
         252 -9.6523436E-05
         253  7.6969131E-03
         254 -1.6704312E-03
         255  3.9276299E-03
         256  8.4003434E-04
         257 -6.4675142E-03
         258 -3.7886410E-03
         259 -9.3956124E-03
         260  1.5202888E-03
         261  1.7293780E-03
         262 -8.5657416E-03
         263  1.3311120E-03
         264 -4.4730152E-03
         265 -2.7622664E-03
         266  7.4575000E-05
         267 -4.3692804E-04
         268  2.3994287E-03
         269 -9.4971526E-03
         270 -5.6261742E-03
         271 -1.4359170E-02
         272  7.2983140E-03
         273 -1.5155565E-02
         274 -1.4122323E-02
         275  1.3017701E-03
         276 -1.7893446E-03
         277 -1.4792365E-02
         278 -3.5412766E-03
         279 -4.5388066E-03
         280 -6.6902302E-03
         281  4.8417253E-03
         282 -6.9562714E-03
         283 -6.7177559E-03
         284  1.2044013E-02
         285 -2.0824669E-02
         286  6.3003497E-03
         287  1.0461507E-02
         288  2.7919199E-02
         289 -2.6395393E-03
         290  1.3393669E-04
         291 -3.5464019E-03
         292 -5.1245294E-03
         293  0.1017585    
         294 -5.0883118E-02
         295  1.8348785E-02
         296 -3.6956097E-03
         297  4.1018717E-02
         298  4.2304602E-03
         299  9.6974866E-03
         300 -8.1696464E-03
         301 -1.4931666E-02
         302  3.1750012E-02
         303 -9.9964082E-02
         304 -2.3003012E-02
         305 -7.0111454E-03
         306  1.7197045E-02
         307  1.1616122E-02
         308 -1.3995915E-02
         309  3.3223289E-03
         310  3.9371238E-03
         311 -2.3344022E-03
         312  5.0546188E-04
         313  1.1501878E-02
         314  2.2380522E-02
         315 -1.0185254E-02
         316 -1.0603691E-02
         317 -3.8461298E-02
         318 -8.6193336E-03
         319  6.3962359E-03
         320  7.8148331E-04
         321  8.8265575E-03
         322  3.0253947E-02
         323  2.3288975E-02
         324  8.7801032E-03
         325  1.1199618E-02
         326  9.7165145E-03
         327  1.7177282E-02
         328  2.2791542E-02
         329 -3.4231670E-02
         330  4.8803724E-03
         331 -6.2578265E-03
         332 -1.2563432E-02
         333  1.9439735E-02
         334  1.9549156E-02
         335  2.2125698E-03
         336 -5.1539037E-03
         337  2.9111851E-03
         338 -1.1476405E-02
         339  2.1881400E-02
         340  3.3201368E-03
         341  3.0915325E-03
         342 -2.2989409E-03
         343  1.7813412E-02
         344 -7.6454342E-03
         345  2.1280570E-05
         346  2.6765801E-03
         347  8.2100881E-03
         348 -3.3844667E-03
         349  8.4276814E-03
         350 -1.1270796E-02
         351 -3.0788814E-04
         352  1.8819047E-03
         353 -2.1402892E-02
         354  1.1942850E-02
         355  1.7499994E-03
         356  1.5371334E-02
         357 -9.8897163E-03
         358 -2.8795822E-02
         359 -1.2680861E-02
         360  2.9967930E-03
         361 -2.3369785E-02
         362  9.1934176E-03
         363  2.0411372E-02
 Sym= Hole
 Ene= -6.5427959E-02
 Spin= Alpha
 Occup= 0
           1 -7.4795403E-02
           2 -0.1060840    
           3  9.4307631E-02
           4 -6.8442978E-02
           5  3.6568858E-02
           6  2.8624851E-02
           7 -2.1678710E-02
           8  1.5071799E-02
           9 -5.7833474E-02
          10  0.1106307    
          11 -0.1114658    
          12  5.4112829E-02
          13  4.1871015E-02
          14 -1.5774311E-02
          15  2.3453785E-02
          16 -9.0475213E-03
          17  1.0386618E-02
          18 -7.2782850E-03
          19 -1.0196027E-02
          20 -1.7237995E-02
          21 -1.3249161E-02
          22 -3.2140217E-03
          23  7.7194143E-03
          24  6.3210991E-03
          25  2.2998627E-02
          26 -0.1681207    
          27 -2.9330937E-02
          28 -0.2366515    
          29 -9.5136510E-03
          30  2.8249551E-02
          31  8.6659947E-03
          32  3.0109601E-03
          33  4.0668018E-02
          34 -3.1050257E-02
          35 -4.1557703E-02
          36 -8.8909557E-03
          37 -2.8796131E-02
          38  4.0186071E-03
          39  3.4326541E-03
          40 -7.1154436E-04
          41  6.4961058E-03
          42 -3.7523873E-02
          43 -5.7544462E-02
          44  9.2492262E-03
          45 -2.2099330E-03
          46 -8.3798636E-03
          47  1.2806099E-02
          48 -7.6695830E-03
          49 -2.6093632E-02
          50  1.0526855E-02
          51 -1.1900199E-02
          52 -9.8656803E-02
          53  1.6609317E-02
          54 -4.2686495E-03
          55  6.8906951E-03
          56 -5.1030470E-03
          57  6.9973888E-03
          58 -2.9201448E-02
          59 -1.1290202E-02
          60  0.2655218    
          61 -1.8305900E-04
          62 -3.8674097E-03
          63  1.2562010E-03
          64  2.7331603E-03
          65 -3.3821585E-03
          66  9.4474331E-03
          67  8.0883190E-05
          68  0.3020622    
          69  5.5805449E-03
          70  1.4632213E-04
          71  6.8723271E-04
          72  1.0913680E-02
          73 -2.4778262E-02
          74  2.4058117E-02
          75 -6.2592864E-02
          76  0.1830613    
          77  1.1490415E-02
          78  5.5965548E-04
          79  3.0186449E-03
          80 -1.7266663E-02
          81 -8.9476528E-03
          82 -5.4931995E-02
          83  0.1137137    
          84 -0.3321705    
          85  5.6912224E-03
          86 -2.5188266E-03
          87  2.0323149E-03
          88  8.4132617E-03
          89 -2.7149525E-05
          90 -3.3957958E-02
          91  0.1717628    
          92 -0.3965040    
          93 -3.1088956E-03
          94  1.3285184E-03
          95 -8.8612322E-04
          96  1.9449259E-03
          97  3.3104707E-02
          98  1.3725951E-02
          99 -6.5749912E-03
         100 -6.0187932E-02
         101 -1.5991781E-02
         102  2.3035430E-03
         103 -2.5139053E-03
         104  7.3752366E-03
         105  2.8495961E-03
         106  1.0864130E-02
         107  8.5261790E-03
         108  1.6207689E-02
         109 -1.8885266E-04
         110  1.9141927E-03
         111 -6.6586095E-03
         112  1.6226122E-04
         113 -1.7369378E-02
         114 -4.8448029E-03
         115  7.4064098E-03
         116  1.2349877E-02
         117  1.0439074E-02
         118  2.7728018E-03
         119 -3.2856280E-03
         120 -3.2063995E-03
         121  8.0705127E-03
         122  2.2124031E-03
         123  3.9010686E-03
         124  3.4270570E-02
         125 -4.9590366E-03
         126 -7.2017186E-03
         127 -7.1290745E-03
         128  5.5866651E-03
         129 -1.2384224E-03
         130  2.1940363E-03
         131  7.2022397E-03
         132  6.8061147E-03
         133  3.1834575E-03
         134 -2.7928008E-03
         135 -2.6533282E-03
         136 -7.2695902E-03
         137  6.5883748E-02
         138 -3.8872287E-02
         139  1.7262811E-02
         140 -2.1065598E-02
         141 -1.8416410E-02
         142  6.3777617E-03
         143 -4.8948205E-03
         144  4.0799216E-03
         145  6.7838486E-03
         146  5.0962728E-02
         147 -2.3453431E-02
         148  2.7895404E-02
         149 -1.0793116E-02
         150 -2.1646701E-02
         151  8.1063462E-03
         152 -4.0205349E-03
         153  3.5755979E-03
         154 -0.1817116    
         155  0.1977770    
         156  0.1865368    
         157 -3.9930283E-03
         158  2.2315264E-02
         159 -2.6046939E-03
         160 -5.0829155E-03
         161 -9.3011471E-04
         162 -2.0558953E-03
         163 -0.1002599    
         164 -5.3461440E-02
         165  1.2469315E-03
         166 -4.5615844E-03
         167  7.4793617E-03
         168  4.3412382E-03
         169  2.5340201E-02
         170 -5.4562360E-02
         171 -0.1581757    
         172 -0.1086253    
         173 -1.0655615E-02
         174  2.8566704E-03
         175  9.8539302E-03
         176  1.0678019E-02
         177 -3.7855655E-02
         178  2.2801967E-02
         179  5.5316985E-02
         180  7.9759851E-02
         181  1.4225972E-02
         182 -2.9395658E-03
         183  4.3560220E-03
         184  1.3499971E-03
         185  3.0067012E-02
         186  9.7141946E-03
         187 -4.8850082E-02
         188  1.8719580E-02
         189 -1.6349260E-02
         190 -1.0054604E-02
         191  2.0242785E-03
         192 -4.2496030E-03
         193  3.1421632E-02
         194 -5.2347742E-02
         195 -2.4395544E-02
         196  4.0568180E-02
         197 -1.9706896E-02
         198  6.5608257E-03
         199 -5.2272929E-03
         200 -5.8873617E-03
         201  1.1576604E-02
         202 -4.2853709E-03
         203  4.6026178E-02
         204 -2.6636619E-02
         205 -1.4076715E-02
         206 -8.8747730E-03
         207 -1.8965153E-03
         208  8.0059180E-03
         209  2.9943034E-02
         210  3.9224871E-02
         211 -1.3377928E-02
         212 -6.2625512E-02
         213 -1.3382263E-02
         214 -3.4245348E-03
         215 -7.5134542E-03
         216  4.3188627E-03
         217 -7.1548036E-04
         218 -7.9773730E-03
         219  8.9984043E-03
         220  9.2226304E-03
         221 -2.9862232E-03
         222  5.5428236E-03
         223 -1.2765273E-03
         224 -5.7038669E-03
         225 -1.9616634E-03
         226  5.9691956E-03
         227 -2.6749421E-02
         228  4.1468572E-02
         229 -2.9355267E-03
         230 -1.8754244E-03
         231 -3.0979123E-03
         232  7.0955693E-03
         233 -3.7971180E-02
         234 -4.7318347E-02
         235  6.5095171E-02
         236 -4.1294295E-02
         237  1.7672122E-02
         238  2.5816448E-03
         239 -2.9521880E-03
         240  2.9271671E-03
         241  1.2814178E-03
         242 -4.4533048E-02
         243  2.2512516E-03
         244  2.2839218E-02
         245  2.1784790E-03
         246  3.9092908E-03
         247  1.0883746E-02
         248  1.4233437E-03
         249  4.1748088E-02
         250 -7.4990178E-03
         251 -9.2129391E-03
         252  4.4495924E-03
         253 -2.4905974E-02
         254  9.9256830E-03
         255 -1.1704073E-02
         256  5.4828450E-03
         257 -1.2959886E-02
         258  1.4592300E-02
         259  3.3097874E-02
         260 -3.6721386E-03
         261 -1.0933760E-03
         262  2.3755668E-02
         263 -7.2821444E-03
         264 -5.1431730E-04
         265 -2.4322383E-03
         266 -3.0027595E-03
         267 -1.2821701E-03
         268  3.8697724E-03
         269  3.4167496E-07
         270 -3.6203567E-04
         271 -2.9967809E-03
         272  3.0980990E-03
         273  3.7448837E-03
         274 -4.9835341E-03
         275 -1.8788116E-03
         276 -5.0628367E-03
         277 -1.6699872E-03
         278  1.1376755E-03
         279 -7.0505872E-02
         280  1.0700407E-02
         281 -5.4684239E-03
         282 -2.0630347E-02
         283 -3.2872565E-03
         284  4.3105900E-02
         285 -1.0325711E-03
         286  7.0741181E-03
         287 -1.8565475E-03
         288 -4.2369524E-03
         289 -1.4478914E-02
         290  4.2467794E-04
         291 -1.5245759E-03
         292  1.3246073E-03
         293 -5.1981066E-03
         294  4.6948463E-02
         295 -8.0561442E-03
         296  6.2229605E-03
         297 -1.2453425E-02
         298  2.6448390E-02
         299 -3.3072548E-03
         300  6.8676606E-04
         301 -6.7931152E-04
         302 -1.2835830E-03
         303 -3.6643671E-03
         304 -2.4327759E-02
         305  3.0146453E-03
         306  2.8636758E-03
         307  5.7392237E-03
         308 -4.7648377E-03
         309  4.1569811E-03
         310  3.4938462E-03
         311 -2.1071441E-03
         312  4.8043728E-03
         313 -9.2780305E-04
         314 -4.7558066E-02
         315  1.0505754E-02
         316 -5.9409285E-06
         317 -2.2489645E-03
         318 -1.0715563E-02
         319 -3.2458976E-02
         320  6.8119046E-04
         321 -3.5630066E-03
         322 -9.1210715E-03
         323 -1.0309475E-02
         324  5.6944568E-02
         325 -6.5959073E-03
         326  1.0859459E-02
         327 -2.9840467E-03
         328  5.1098019E-03
         329 -1.7410398E-02
         330 -1.6938094E-03
         331 -1.5760101E-03
         332 -3.9971643E-03
         333  4.8206248E-03
         334 -6.1296485E-02
         335  1.4001172E-02
         336  1.0081178E-03
         337 -1.3306906E-02
         338  1.5290747E-02
         339 -2.6526038E-02
         340  1.7028041E-03
         341 -1.8541949E-03
         342 -4.4325758E-03
         343 -8.2083354E-03
         344  9.3167238E-03
         345 -2.5238120E-04
         346 -4.1167005E-03
         347  6.0213613E-03
         348  5.2877393E-04
         349  1.8110048E-02
         350 -4.0661078E-03
         351 -1.4790981E-03
         352 -2.8682388E-03
         353  3.9317156E-03
         354  2.7732652E-02
         355 -2.0211311E-03
         356 -8.2237730E-03
         357 -2.2902675E-03
         358 -7.3184655E-03
         359 -2.7412752E-02
         360  5.2998527E-03
         361  2.5071162E-03
         362  2.5217140E-03
         363  1.7318307E-04
 Sym= Particle
 Ene= -6.5427959E-02
 Spin= Alpha
 Occup= 2
           1  8.2668811E-03
           2  5.7768561E-03
           3 -7.6781685E-04
           4 -8.9229055E-04
           5 -6.3937875E-03
           6  2.3871957E-04
           7 -4.2169425E-03
           8  1.2082666E-03
           9 -2.6625569E-03
          10  2.9650722E-03
          11 -3.9083835E-02
          12 -7.2180897E-02
          13 -7.0996336E-03
          14 -2.3318222E-03
          15  1.6023226E-02
          16  3.7021868E-02
          17 -6.4597810E-03
          18 -7.3297182E-03
          19  6.9842008E-03
          20 -7.7111092E-03
          21  1.0185319E-02
          22  7.8126471E-03
          23 -7.9617361E-03
          24  1.7026960E-03
          25  1.8911229E-02
          26  5.4859608E-02
          27  2.4495946E-02
          28  0.1665160    
          29 -2.4335666E-02
          30 -1.6504234E-02
          31 -5.3831497E-03
          32 -4.0600218E-02
          33 -5.5437278E-02
          34  4.0798467E-02
          35  4.5077771E-02
          36 -2.6879698E-02
          37  4.7922838E-02
          38 -2.4617610E-02
          39 -2.4305575E-02
          40  1.6666416E-02
          41  3.4152884E-02
          42 -2.2842618E-02
          43 -6.1394412E-02
          44  9.3809459E-03
          45 -2.7964313E-02
          46  1.4763553E-02
          47  2.2624625E-02
          48 -2.8426317E-03
          49 -6.2043600E-02
          50 -5.3989110E-03
          51 -4.5431866E-03
          52 -0.1187255    
          53  6.6178702E-02
          54 -7.1482332E-03
          55  1.8741761E-03
          56  4.9189948E-02
          57  1.2079715E-02
          58  1.3125377E-02
          59  2.8427679E-02
          60 -0.1493924    
          61  3.6781731E-03
          62 -5.4474724E-03
          63 -1.1519914E-02
          64  6.6290677E-02
          65 -6.7694457E-03
          66 -6.7245299E-03
          67 -3.9454396E-03
          68  0.2656986    
          69 -7.6787681E-03
          70  9.0451585E-03
          71 -4.3389904E-03
          72 -0.1253362    
          73  3.1511754E-02
          74 -3.8315173E-02
          75  4.5369603E-02
          76 -0.2691136    
          77 -2.5906883E-02
          78  8.3912238E-03
          79 -3.4852732E-02
          80  0.1552992    
          81 -1.7223747E-02
          82  3.7953410E-02
          83 -0.1970829    
          84  0.4054345    
          85 -6.2919860E-03
          86 -1.9575436E-02
          87  8.3788082E-02
          88 -0.1794603    
          89 -2.1553427E-02
          90  2.5351846E-04
          91  0.1038050    
          92 -0.2796831    
          93  1.0714842E-02
          94  4.5634443E-03
          95 -3.6760647E-02
          96  0.1115156    
          97  5.6473430E-02
          98  2.0994568E-02
          99 -1.1665054E-02
         100 -4.5433789E-02
         101 -5.8993418E-02
         102 -7.3561221E-03
         103  1.0923998E-02
         104  3.0335326E-02
         105 -2.9107167E-03
         106 -6.1400686E-03
         107  1.9775586E-02
         108 -1.7786827E-03
         109  5.0438130E-03
         110  6.1370400E-03
         111 -2.2560282E-02
         112  5.8688489E-05
         113 -2.5830479E-02
         114  7.5433226E-03
         115  5.9574330E-03
         116  4.7050670E-02
         117  2.5066240E-02
         118 -1.4940907E-03
         119 -1.4655502E-02
         120 -2.1960901E-02
         121  4.3382585E-02
         122 -4.8394906E-03
         123 -2.6733303E-02
         124  2.8656412E-02
         125 -4.6402853E-02
         126  7.1118789E-04
         127 -2.3543888E-03
         128  2.0773267E-02
         129  1.7649158E-03
         130  1.2878436E-03
         131  1.1319959E-03
         132 -3.6633355E-03
         133 -4.1818810E-03
         134 -4.5444048E-03
         135  1.5037709E-03
         136 -1.4904947E-03
         137 -8.2262250E-06
         138  1.1647600E-02
         139  8.6170053E-03
         140  5.0913109E-03
         141 -6.4543043E-03
         142 -3.7619197E-03
         143  4.2161881E-03
         144  8.4822960E-03
         145 -7.8259653E-04
         146 -3.5729620E-03
         147  5.8626900E-03
         148  1.9709894E-03
         149  1.2181898E-03
         150  3.8199411E-03
         151  2.0529169E-03
         152 -3.2789540E-03
         153 -2.1135472E-02
         154 -3.9989814E-02
         155  9.6908651E-02
         156  9.6921213E-02
         157  2.8249338E-02
         158  2.1007502E-02
         159 -3.5838775E-02
         160 -2.6608698E-02
         161  4.1713235E-03
         162  4.9538918E-02
         163  0.2990997    
         164  0.1751017    
         165  3.8249565E-03
         166 -1.8688787E-02
         167 -9.0373762E-02
         168 -5.7771768E-02
         169  8.7153921E-03
         170 -6.3191272E-02
         171 -0.3176404    
         172 -0.1704540    
         173 -9.0384427E-03
         174  1.4957558E-02
         175  9.1079704E-02
         176  4.9574342E-02
         177  2.6703414E-02
         178  3.5694421E-03
         179 -5.9980590E-02
         180 -6.6487707E-02
         181 -2.6577862E-02
         182 -5.4601869E-03
         183  1.5809673E-03
         184  2.7640192E-02
         185 -3.1140858E-02
         186 -7.1844906E-03
         187  4.0647895E-03
         188 -1.1679723E-02
         189  3.1862170E-02
         190  2.8555554E-03
         191 -7.5363130E-03
         192 -2.1217082E-04
         193  3.1088606E-02
         194 -2.9071786E-02
         195 -2.7309755E-02
         196  3.0349728E-02
         197 -2.6272051E-02
         198  1.6510114E-02
         199  2.3492301E-02
         200 -1.1724215E-02
         201  4.2337302E-02
         202  3.3178728E-02
         203 -3.6161192E-02
         204  1.9473538E-02
         205 -4.3749958E-02
         206 -2.7301015E-02
         207  2.4764141E-02
         208  1.0489290E-02
         209 -4.6901640E-02
         210 -4.1596383E-02
         211  2.7942026E-02
         212  7.0996292E-02
         213  3.6594361E-02
         214  1.4078020E-02
         215 -2.9554034E-02
         216 -4.0534493E-02
         217  6.8522682E-03
         218  1.4615524E-02
         219  1.0597011E-02
         220  9.7847320E-03
         221 -1.0597945E-02
         222 -8.9092244E-04
         223 -5.4758154E-03
         224 -7.0453333E-03
         225  3.9996570E-03
         226  2.0458614E-02
         227 -6.8074074E-03
         228 -4.1680589E-02
         229 -1.3250324E-02
         230 -7.6746694E-03
         231  6.0535702E-03
         232  1.6120557E-03
         233 -3.2622252E-02
         234  9.6519776E-02
         235 -3.4231630E-03
         236 -0.1011811    
         237  2.9890001E-02
         238 -2.1039743E-02
         239 -1.5951533E-02
         240  4.0923014E-02
         241  4.5504076E-03
         242 -0.1439746    
         243  3.9427351E-02
         244  7.6036796E-02
         245 -9.3319565E-03
         246  3.5016943E-02
         247 -6.8010795E-03
         248 -1.3820643E-02
         249 -2.7989612E-03
         250 -1.9042322E-03
         251  2.3299578E-04
         252  2.8593684E-04
         253  6.8359240E-03
         254 -2.7003407E-04
         255  6.4253686E-03
         256  2.0622024E-03
         257 -8.8502467E-03
         258 -2.4437918E-03
         259 -7.3256693E-03
         260  2.3360722E-04
         261 -1.2108303E-03
         262 -7.4774986E-03
         263  2.5893729E-03
         264 -3.5915545E-03
         265  1.0861604E-03
         266  1.2305258E-03
         267 -2.8025745E-03
         268  8.7276928E-04
         269  7.9339510E-03
         270  1.0994602E-02
         271  2.0569677E-02
         272 -9.5609333E-03
         273  1.6997611E-02
         274 -1.6686758E-03
         275  3.4028543E-03
         276  5.0982619E-03
         277 -5.9673232E-03
         278  2.4961103E-03
         279  3.1207936E-02
         280  3.0144041E-03
         281 -5.9189135E-03
         282  1.8101046E-02
         283  1.2950613E-02
         284  1.7502192E-02
         285  1.7923608E-02
         286  1.3388743E-02
         287 -1.0442356E-02
         288 -3.3477087E-02
         289  2.9727812E-03
         290  3.7441901E-03
         291  1.3281479E-02
         292  1.7731347E-03
         293 -5.1613830E-02
         294 -3.1711284E-02
         295  9.3171501E-04
         296 -2.1957476E-02
         297  4.8392422E-02
         298 -0.1282381    
         299  1.1162532E-02
         300 -3.7205154E-03
         301 -6.1622527E-03
         302  3.7561152E-02
         303 -0.1054754    
         304 -2.1735389E-02
         305 -4.2994111E-03
         306  2.1780241E-02
         307  1.2595953E-02
         308 -1.2159833E-02
         309  7.9753017E-03
         310  4.6508745E-03
         311 -3.3018105E-03
         312  1.1380974E-03
         313  1.1388490E-02
         314 -1.8013883E-02
         315  1.6080821E-02
         316  1.1976169E-02
         317  7.5980216E-02
         318  2.8265245E-02
         319 -1.3276357E-02
         320  6.9549759E-03
         321 -1.4972596E-02
         322 -6.4487323E-02
         323 -4.8172031E-02
         324  2.2356816E-02
         325 -1.7112972E-02
         326  3.0703954E-03
         327 -1.6738072E-02
         328 -2.4025448E-02
         329  3.0398505E-02
         330 -1.5762225E-03
         331  1.0407652E-02
         332  2.2757971E-03
         333 -2.1839559E-02
         334  1.7220891E-03
         335 -6.1863195E-03
         336  2.1093569E-03
         337  2.3662020E-03
         338  7.1644997E-03
         339  2.3797086E-02
         340  3.5749937E-03
         341 -2.3731322E-03
         342  1.3066258E-02
         343  2.3714067E-02
         344 -4.8639872E-03
         345  4.2154742E-03
         346  4.4498891E-03
         347  6.7301723E-03
         348 -2.7924918E-03
         349  1.0551169E-02
         350 -1.1468864E-02
         351  1.4957091E-03
         352  3.1311361E-03
         353 -2.4440628E-02
         354  1.1071909E-02
         355  1.7308632E-03
         356  2.3375100E-02
         357 -1.5500147E-02
         358 -2.9918287E-02
         359 -4.7223605E-03
         360 -4.1202768E-03
         361 -3.2525856E-02
         362  9.7189890E-03
         363  2.2370100E-02
