[Molden Format]
[Title]
[Atoms] AU
Br     1    35  0.96356008215467E+01  0.19652450841096E+01  0.59906460978344E-02
C      2     6  0.74448138254039E+01 -0.88822949359803E+00  0.12072713493407E-01
C      3     6  0.84518183120523E+01 -0.33060487872561E+01  0.19512739132720E-01
C      4     6  0.67471247137214E+01 -0.53004060745111E+01  0.22802330764826E-01
C      5     6  0.41821082004120E+01 -0.48016371504822E+01  0.18462871018725E-01
C      6     6  0.33906446517053E+01 -0.22838517394265E+01  0.11368604600220E-01
C      7     6  0.75036950014051E+00 -0.16078203664252E+01  0.73133629482179E-02
N      8     7 -0.11667423776114E+01 -0.31909958482608E+01  0.36375374586319E-02
C      9     6 -0.32683679271295E+01 -0.17253568784381E+01  0.11004585226734E-02
C     10     6 -0.58548229578225E+01 -0.24726714074344E+01 -0.39633184874302E-02
C     11     6 -0.66548861377111E+01 -0.49932647904996E+01 -0.82414735510010E-02
C     12     6 -0.92043066265037E+01 -0.54968133670702E+01 -0.13644667362942E-01
C     13     6 -0.10883210160133E+02 -0.34553950889427E+01 -0.14654544605572E-01
N     14     7 -0.10174445087576E+02 -0.10846576092049E+01 -0.10440041869272E-01
C     15     6 -0.77100464976200E+01 -0.54437494512463E+00 -0.50809715334877E-02
C     16     6 -0.69861322127074E+01  0.21018015545138E+01 -0.53596469265787E-04
N     17     7 -0.88239138977534E+01  0.38246479323286E+01  0.86157186262487E-03
C     18     6 -0.82305379441567E+01  0.62268037477045E+01  0.63071793860277E-02
C     19     6 -0.57465190144654E+01  0.71277929832816E+01  0.11108000265988E-01
C     20     6 -0.38092523277867E+01  0.53960138038523E+01  0.98052294709947E-02
C     21     6 -0.43975218821293E+01  0.28138240403537E+01  0.42305313180463E-02
C     22     6 -0.25915837156551E+01  0.83454988619911E+00  0.37789372300625E-02
N     23     7 -0.21268819815528E-01  0.85701764733552E+00  0.73445159468237E-02
N     24     7  0.50267281128344E+01 -0.36148840639382E+00  0.84337812756847E-02
H     25     1  0.10466932471278E+02 -0.36021434488790E+01  0.22577106267784E-01
H     26     1  0.74321085599638E+01 -0.72223117376487E+01  0.29004007244966E-01
H     27     1  0.27789503488076E+01 -0.62752860754975E+01  0.20662978855971E-01
H     28     1 -0.52499141808554E+01 -0.64725482614857E+01 -0.73658014784278E-02
H     29     1 -0.99063063319801E+01 -0.74114343516638E+01 -0.17105944818549E-01
H     30     1 -0.12904811079662E+02 -0.37690331100370E+01 -0.18846454867848E-01
H     31     1 -0.98094497713444E+01  0.75267163754695E+01  0.70811297673892E-02
H     32     1 -0.53706751840459E+01  0.91316851884575E+01  0.15878078778061E-01
H     33     1 -0.18582282739808E+01  0.60040797450134E+01  0.13440496818352E-01
H     34     1  0.11650312890189E+01  0.23449696362371E+01  0.93651466627572E-02
[GTO]
           1 0
 s           4   1.00000000000000     
   1.39945828869045      -0.102769152792432     
  0.717905697168947      -0.158164156426382     
  0.219318851343460       0.203511341157825     
  0.122112918138194       5.179094404565386E-002
 p           4   1.00000000000000     
   7.64470789089706      -0.109353850794790     
   2.21648201384657      -0.231810983025416     
  0.386850910660057       0.280563741226991     
  0.189824592130603       7.354598861994457E-002
 d           3   1.00000000000000     
  0.605164313048195       0.157771132981550     
  0.273716920667659       0.103014288459997     
  0.134459608964417       1.275590312162410E-002
 
           2 0
 s           4   1.00000000000000     
   51.0493630955799      -0.163120632101274     
   8.79112274068875      -0.199110245810007     
  0.706404222589298       0.318820477536558     
  0.269228134134116       0.127065041842404     
 p           4   1.00000000000000     
   5.82636561408000       0.737164515452096     
   1.51068960187200       0.682163716148503     
  0.532564832880000       0.357830539292537     
  0.212023236906000       5.398303027584788E-002
 
           3 0
 s           4   1.00000000000000     
   51.0493630955799      -0.163120632101274     
   8.79112274068875      -0.199110245810007     
  0.706404222589298       0.318820477536558     
  0.269228134134116       0.127065041842404     
 p           4   1.00000000000000     
   5.82636561408000       0.737164515452096     
   1.51068960187200       0.682163716148503     
  0.532564832880000       0.357830539292537     
  0.212023236906000       5.398303027584788E-002
 
           4 0
 s           4   1.00000000000000     
   51.0493630955799      -0.163120632101274     
   8.79112274068875      -0.199110245810007     
  0.706404222589298       0.318820477536558     
  0.269228134134116       0.127065041842404     
 p           4   1.00000000000000     
   5.82636561408000       0.737164515452096     
   1.51068960187200       0.682163716148503     
  0.532564832880000       0.357830539292537     
  0.212023236906000       5.398303027584788E-002
 
           5 0
 s           4   1.00000000000000     
   51.0493630955799      -0.163120632101274     
   8.79112274068875      -0.199110245810007     
  0.706404222589298       0.318820477536558     
  0.269228134134116       0.127065041842404     
 p           4   1.00000000000000     
   5.82636561408000       0.737164515452096     
   1.51068960187200       0.682163716148503     
  0.532564832880000       0.357830539292537     
  0.212023236906000       5.398303027584788E-002
 
           6 0
 s           4   1.00000000000000     
   51.0493630955799      -0.163120632101274     
   8.79112274068875      -0.199110245810007     
  0.706404222589298       0.318820477536558     
  0.269228134134116       0.127065041842404     
 p           4   1.00000000000000     
   5.82636561408000       0.737164515452096     
   1.51068960187200       0.682163716148503     
  0.532564832880000       0.357830539292537     
  0.212023236906000       5.398303027584788E-002
 
           7 0
 s           4   1.00000000000000     
   51.0493630955799      -0.163120632101274     
   8.79112274068875      -0.199110245810007     
  0.706404222589298       0.318820477536558     
  0.269228134134116       0.127065041842404     
 p           4   1.00000000000000     
   5.82636561408000       0.737164515452096     
   1.51068960187200       0.682163716148503     
  0.532564832880000       0.357830539292537     
  0.212023236906000       5.398303027584788E-002
 
           8 0
 s           4   1.00000000000000     
   63.5940244669410      -0.192343884147216     
   10.9514172315237      -0.234781079249537     
  0.879993102573770       0.375937539017009     
  0.335387152965211       0.149828892718628     
 p           4   1.00000000000000     
   7.29650404814951       0.976586663156674     
   1.89187454507126       0.903722267303458     
  0.666944321108241       0.474049584615364     
  0.265522026741309       7.151606771501186E-002
 
           9 0
 s           4   1.00000000000000     
   51.0493630955799      -0.163120632101274     
   8.79112274068875      -0.199110245810007     
  0.706404222589298       0.318820477536558     
  0.269228134134116       0.127065041842404     
 p           4   1.00000000000000     
   5.82636561408000       0.737164515452096     
   1.51068960187200       0.682163716148503     
  0.532564832880000       0.357830539292537     
  0.212023236906000       5.398303027584788E-002
 
          10 0
 s           4   1.00000000000000     
   51.0493630955799      -0.163120632101274     
   8.79112274068875      -0.199110245810007     
  0.706404222589298       0.318820477536558     
  0.269228134134116       0.127065041842404     
 p           4   1.00000000000000     
   5.82636561408000       0.737164515452096     
   1.51068960187200       0.682163716148503     
  0.532564832880000       0.357830539292537     
  0.212023236906000       5.398303027584788E-002
 
          11 0
 s           4   1.00000000000000     
   51.0493630955799      -0.163120632101274     
   8.79112274068875      -0.199110245810007     
  0.706404222589298       0.318820477536558     
  0.269228134134116       0.127065041842404     
 p           4   1.00000000000000     
   5.82636561408000       0.737164515452096     
   1.51068960187200       0.682163716148503     
  0.532564832880000       0.357830539292537     
  0.212023236906000       5.398303027584788E-002
 
          12 0
 s           4   1.00000000000000     
   51.0493630955799      -0.163120632101274     
   8.79112274068875      -0.199110245810007     
  0.706404222589298       0.318820477536558     
  0.269228134134116       0.127065041842404     
 p           4   1.00000000000000     
   5.82636561408000       0.737164515452096     
   1.51068960187200       0.682163716148503     
  0.532564832880000       0.357830539292537     
  0.212023236906000       5.398303027584788E-002
 
          13 0
 s           4   1.00000000000000     
   51.0493630955799      -0.163120632101274     
   8.79112274068875      -0.199110245810007     
  0.706404222589298       0.318820477536558     
  0.269228134134116       0.127065041842404     
 p           4   1.00000000000000     
   5.82636561408000       0.737164515452096     
   1.51068960187200       0.682163716148503     
  0.532564832880000       0.357830539292537     
  0.212023236906000       5.398303027584788E-002
 
          14 0
 s           4   1.00000000000000     
   63.5940244669410      -0.192343884147216     
   10.9514172315237      -0.234781079249537     
  0.879993102573770       0.375937539017009     
  0.335387152965211       0.149828892718628     
 p           4   1.00000000000000     
   7.29650404814951       0.976586663156674     
   1.89187454507126       0.903722267303458     
  0.666944321108241       0.474049584615364     
  0.265522026741309       7.151606771501186E-002
 
          15 0
 s           4   1.00000000000000     
   51.0493630955799      -0.163120632101274     
   8.79112274068875      -0.199110245810007     
  0.706404222589298       0.318820477536558     
  0.269228134134116       0.127065041842404     
 p           4   1.00000000000000     
   5.82636561408000       0.737164515452096     
   1.51068960187200       0.682163716148503     
  0.532564832880000       0.357830539292537     
  0.212023236906000       5.398303027584788E-002
 
          16 0
 s           4   1.00000000000000     
   51.0493630955799      -0.163120632101274     
   8.79112274068875      -0.199110245810007     
  0.706404222589298       0.318820477536558     
  0.269228134134116       0.127065041842404     
 p           4   1.00000000000000     
   5.82636561408000       0.737164515452096     
   1.51068960187200       0.682163716148503     
  0.532564832880000       0.357830539292537     
  0.212023236906000       5.398303027584788E-002
 
          17 0
 s           4   1.00000000000000     
   63.5940244669410      -0.192343884147216     
   10.9514172315237      -0.234781079249537     
  0.879993102573770       0.375937539017009     
  0.335387152965211       0.149828892718628     
 p           4   1.00000000000000     
   7.29650404814951       0.976586663156674     
   1.89187454507126       0.903722267303458     
  0.666944321108241       0.474049584615364     
  0.265522026741309       7.151606771501186E-002
 
          18 0
 s           4   1.00000000000000     
   51.0493630955799      -0.163120632101274     
   8.79112274068875      -0.199110245810007     
  0.706404222589298       0.318820477536558     
  0.269228134134116       0.127065041842404     
 p           4   1.00000000000000     
   5.82636561408000       0.737164515452096     
   1.51068960187200       0.682163716148503     
  0.532564832880000       0.357830539292537     
  0.212023236906000       5.398303027584788E-002
 
          19 0
 s           4   1.00000000000000     
   51.0493630955799      -0.163120632101274     
   8.79112274068875      -0.199110245810007     
  0.706404222589298       0.318820477536558     
  0.269228134134116       0.127065041842404     
 p           4   1.00000000000000     
   5.82636561408000       0.737164515452096     
   1.51068960187200       0.682163716148503     
  0.532564832880000       0.357830539292537     
  0.212023236906000       5.398303027584788E-002
 
          20 0
 s           4   1.00000000000000     
   51.0493630955799      -0.163120632101274     
   8.79112274068875      -0.199110245810007     
  0.706404222589298       0.318820477536558     
  0.269228134134116       0.127065041842404     
 p           4   1.00000000000000     
   5.82636561408000       0.737164515452096     
   1.51068960187200       0.682163716148503     
  0.532564832880000       0.357830539292537     
  0.212023236906000       5.398303027584788E-002
 
          21 0
 s           4   1.00000000000000     
   51.0493630955799      -0.163120632101274     
   8.79112274068875      -0.199110245810007     
  0.706404222589298       0.318820477536558     
  0.269228134134116       0.127065041842404     
 p           4   1.00000000000000     
   5.82636561408000       0.737164515452096     
   1.51068960187200       0.682163716148503     
  0.532564832880000       0.357830539292537     
  0.212023236906000       5.398303027584788E-002
 
          22 0
 s           4   1.00000000000000     
   51.0493630955799      -0.163120632101274     
   8.79112274068875      -0.199110245810007     
  0.706404222589298       0.318820477536558     
  0.269228134134116       0.127065041842404     
 p           4   1.00000000000000     
   5.82636561408000       0.737164515452096     
   1.51068960187200       0.682163716148503     
  0.532564832880000       0.357830539292537     
  0.212023236906000       5.398303027584788E-002
 
          23 0
 s           4   1.00000000000000     
   63.5940244669410      -0.192343884147216     
   10.9514172315237      -0.234781079249537     
  0.879993102573770       0.375937539017009     
  0.335387152965211       0.149828892718628     
 p           4   1.00000000000000     
   7.29650404814951       0.976586663156674     
   1.89187454507126       0.903722267303458     
  0.666944321108241       0.474049584615364     
  0.265522026741309       7.151606771501186E-002
 
          24 0
 s           4   1.00000000000000     
   63.5940244669410      -0.192343884147216     
   10.9514172315237      -0.234781079249537     
  0.879993102573770       0.375937539017009     
  0.335387152965211       0.149828892718628     
 p           4   1.00000000000000     
   7.29650404814951       0.976586663156674     
   1.89187454507126       0.903722267303458     
  0.666944321108241       0.474049584615364     
  0.265522026741309       7.151606771501186E-002
 
          25 0
 s           3   1.00000000000000     
   3.37022769753360       0.273591105889083     
  0.613891182214980       0.264605406538605     
  0.166142911484160       8.246594753408230E-002
 
          26 0
 s           3   1.00000000000000     
   3.37022769753360       0.273591105889083     
  0.613891182214980       0.264605406538605     
  0.166142911484160       8.246594753408230E-002
 
          27 0
 s           3   1.00000000000000     
   3.37022769753360       0.273591105889083     
  0.613891182214980       0.264605406538605     
  0.166142911484160       8.246594753408230E-002
 
          28 0
 s           3   1.00000000000000     
   3.37022769753360       0.273591105889083     
  0.613891182214980       0.264605406538605     
  0.166142911484160       8.246594753408230E-002
 
          29 0
 s           3   1.00000000000000     
   3.37022769753360       0.273591105889083     
  0.613891182214980       0.264605406538605     
  0.166142911484160       8.246594753408230E-002
 
          30 0
 s           3   1.00000000000000     
   3.37022769753360       0.273591105889083     
  0.613891182214980       0.264605406538605     
  0.166142911484160       8.246594753408230E-002
 
          31 0
 s           3   1.00000000000000     
   3.37022769753360       0.273591105889083     
  0.613891182214980       0.264605406538605     
  0.166142911484160       8.246594753408230E-002
 
          32 0
 s           3   1.00000000000000     
   3.37022769753360       0.273591105889083     
  0.613891182214980       0.264605406538605     
  0.166142911484160       8.246594753408230E-002
 
          33 0
 s           3   1.00000000000000     
   3.37022769753360       0.273591105889083     
  0.613891182214980       0.264605406538605     
  0.166142911484160       8.246594753408230E-002
 
          34 0
 s           3   1.00000000000000     
   3.37022769753360       0.273591105889083     
  0.613891182214980       0.264605406538605     
  0.166142911484160       8.246594753408230E-002
 
[MO]
Sym=     1a
Ene=  -0.846301453452604     
Spin= Alpha
Occup=     2.00000000
           1 -0.969796989079631     
           2 -3.140517718106228E-002
           3 -2.746583122618468E-002
           4  1.545637384674121E-005
           5  6.624535156494570E-004
           6 -4.063147784544964E-003
           7  3.400694268895507E-003
           8 -4.941344063711923E-003
           9  1.160340305290739E-005
          10  1.844011286487196E-005
          11 -6.193131682500685E-002
          12 -3.470485970153370E-002
          13 -4.487792724776647E-002
          14  9.011865893732897E-005
          15 -4.899558538381478E-003
          16 -2.593844210958333E-004
          17 -5.356529947252233E-003
          18  1.371345764088808E-005
          19  2.032720947311099E-005
          20 -2.870629697500233E-004
          21 -3.029307694586960E-004
          22  3.924662740442672E-007
          23  1.834179320601953E-004
          24 -8.466587444455812E-005
          25  1.169564383120726E-005
          26 -1.337147436826330E-007
          27  9.871781554271312E-004
          28  9.802149701385889E-005
          29  4.796518810528745E-004
          30 -1.081195603648518E-006
          31  1.273324272285428E-004
          32  1.160657767096073E-004
          33  1.483687630396923E-005
          34  3.738538091143813E-008
          35 -1.322320136998434E-006
          36  6.537529261279160E-006
          37  4.297572759646558E-007
          38  4.987985123530880E-009
          39 -3.311758731469386E-006
          40 -1.103241024801956E-006
          41 -2.952865400208771E-006
          42 -3.100925925485256E-009
          43 -1.187170605138678E-007
          44 -1.541420658428351E-007
          45 -1.404003676382796E-007
          46 -3.322392307577542E-010
          47 -4.346519448244891E-009
          48 -1.290630530551502E-009
          49 -1.254477136199902E-008
          50 -1.328503018130364E-011
          51 -9.726339747470364E-010
          52 -3.973876283690554E-009
          53 -1.865007732462701E-009
          54 -9.432972522796002E-012
          55 -4.827509042100156E-011
          56 -2.093975646487574E-009
          57 -1.030865136626708E-009
          58 -5.298273276111666E-012
          59 -1.746749704183177E-009
          60 -6.799757024940555E-010
          61 -1.694727711020990E-009
          62 -3.433919278786492E-012
          63 -1.413224915915436E-008
          64 -7.740936238861896E-008
          65 -3.281351644905254E-008
          66 -1.567721628415957E-010
          67 -8.353347962735773E-008
          68 -3.370931709103668E-007
          69 -1.388620609739708E-008
          70 -4.364796044887200E-010
          71 -1.075528483228667E-008
          72 -7.339727935712032E-009
          73  3.157039006735663E-009
          74 -7.793512222021417E-012
          75  5.734080069827452E-009
          76 -1.701597301266110E-008
          77  1.752928512322555E-008
          78  1.615694344147830E-011
          79  6.568686170292847E-008
          80  6.603102303186305E-009
          81  6.343157838652665E-008
          82  1.374338663273754E-010
          83 -6.473191057681949E-007
          84 -1.239477041068271E-006
          85  1.393915732671947E-006
          86  1.102499529883051E-009
          87 -2.683002021246177E-006
          88 -3.807873781659569E-006
          89  1.254476787591000E-006
          90 -2.694032671123564E-009
          91 -1.858251781601900E-005
          92 -1.514926947298170E-005
          93 -4.662301993116099E-006
          94 -2.430509583855244E-008
          95 -1.300232980971461E-005
          96  8.233417531146397E-005
          97 -8.463187506526106E-006
          98  4.298139937415946E-008
          99  1.682905422641535E-003
         100 -7.791568743543220E-003
         101 -1.066178154340785E-003
         102 -4.353630217091675E-006
         103  1.143458144519916E-002
         104 -1.575895916799387E-004
         105 -3.924130857150618E-005
         106  5.971556135959656E-008
         107 -2.275330473532737E-009
         108 -9.126745058534754E-010
         109 -1.058101997743676E-008
         110 -2.595641252686567E-009
         111 -4.005457407895703E-006
         112  7.062292131357527E-004
Sym=     2a
Ene=  -0.710228268315604     
Spin= Alpha
Occup=     2.00000000
           1 -3.766199475847529E-003
           2 -1.016718287093372E-003
           3 -1.093644415154055E-003
           4  1.962217924386240E-006
           5 -3.055222279369086E-004
           6  6.958107627705186E-005
           7  2.359411516598567E-004
           8 -3.897199208124220E-004
           9  3.584909629139118E-007
          10  4.232405878876895E-008
          11  9.409579261260429E-003
          12 -1.536484455489325E-003
          13 -1.403907017784760E-003
          14  1.263155413991227E-006
          15  6.668011500760307E-003
          16 -2.725453848347320E-003
          17  8.157261058900939E-004
          18 -5.362581096909330E-006
          19  7.446910956179815E-003
          20 -7.072337553439067E-004
          21  1.883706440497648E-003
          22 -6.436162125798625E-006
          23  1.100889381134378E-003
          24  8.119341175672133E-003
          25 -6.020637350772075E-003
          26  1.914421951059858E-005
          27 -5.142186420539853E-002
          28  4.721225941474422E-002
          29 -2.234426365514970E-002
          30  7.035946737468765E-005
          31 -0.305954687986811     
          32  0.116300723609998     
          33 -8.124511348291730E-002
          34  1.154964878090667E-004
          35 -0.183244593568079     
          36 -1.890216563413569E-002
          37 -0.137052717902389     
          38 -1.053464759968856E-004
          39 -0.184713389319501     
          40 -9.589944827405963E-002
          41 -5.249715086856625E-002
          42 -1.851517808921721E-004
          43 -1.686511370691292E-002
          44 -2.219098812007605E-002
          45 -1.150126584053274E-002
          46 -4.586631593205672E-005
          47  2.367683930952037E-003
          48 -2.337130254415497E-003
          49 -1.319609422450112E-003
          50 -5.011508342386602E-006
          51  2.189139874700035E-003
          52  6.330980163013974E-004
          53  5.179318187971970E-004
          54  1.881781338693338E-006
          55  1.461800569683891E-003
          56  7.125551058296796E-004
          57  1.249191127112623E-004
          58  1.613043901426702E-006
          59  2.033360756908452E-003
          60  6.981841139217809E-004
          61 -4.764854031386071E-004
          62  1.025615604661674E-006
          63 -3.181551153663357E-003
          64 -7.063291826860324E-003
          65 -8.392441310283537E-004
          66 -1.235396505498755E-005
          67 -4.465224700262272E-003
          68 -8.856085817488922E-003
          69  4.099084569630666E-003
          70 -7.277472464737744E-006
          71  2.793254448849689E-003
          72  9.893673942235302E-004
          73  2.630776174207222E-005
          74  7.064110454930583E-007
          75  1.954251217838095E-003
          76  5.510187294120885E-004
          77 -5.304853317852972E-004
          78 -5.687855722322972E-007
          79  2.499388356881246E-003
          80 -1.393635107676525E-004
          81 -2.151918331856579E-004
          82 -1.097469089361370E-006
          83 -3.711003565523235E-003
          84 -3.017054259392580E-003
          85  8.238864577180059E-003
          86  8.457895470079525E-006
          87 -3.925758268840642E-002
          88 -2.909201471000157E-002
          89  2.938731054841574E-002
          90 -6.897691687730117E-006
          91 -0.272854375809272     
          92 -0.112618131442602     
          93  7.287957608464712E-002
          94 -1.324624345624387E-004
          95 -0.383446912177832     
          96  0.118453742598698     
          97  0.168229202840496     
          98  2.226118854883726E-004
          99 -7.015688441672961E-003
         100  1.911145655253191E-002
         101  3.579901078937707E-003
         102  2.763465265864191E-006
         103  8.419202977045088E-004
         104  1.006585262082373E-003
         105 -3.064447814398126E-004
         106  2.084908026690919E-004
         107  1.721830192628275E-004
         108  6.177441109744434E-005
         109  1.093385976881200E-004
         110  2.639233287105146E-004
         111 -1.907671395148736E-003
         112 -3.158897483308647E-002
Sym=     3a
Ene=  -0.698586280989833     
Spin= Alpha
Occup=     2.00000000
           1 -5.157533874175704E-002
           2 -1.999274374362328E-002
           3 -2.278100931056222E-002
           4  4.294437802240234E-005
           5 -2.200622922408097E-004
           6  5.560080431386786E-003
           7 -5.340018139145976E-003
           8  6.705402879767025E-003
           9 -1.482884840626988E-005
          10 -3.087019496875262E-005
          11  0.283495209619467     
          12 -0.122796723304724     
          13 -8.460297623201382E-002
          14  1.188432113135920E-004
          15  0.206245395956093     
          16 -9.549284650687045E-002
          17  3.207647040252955E-002
          18 -1.804710092233270E-004
          19  0.184227644843802     
          20 -2.521011895692329E-002
          21  8.546464528513029E-002
          22 -2.434422625814910E-004
          23  0.197740800166882     
          24  4.919571757748271E-002
          25  8.630991219724361E-002
          26 -1.404709890402643E-004
          27  0.314097891332712     
          28  0.106220561278699     
          29  2.570999673739120E-002
          30  8.888040130317468E-005
          31  7.773812342858594E-002
          32  6.534191933808406E-002
          33 -9.209941416829574E-003
          34  1.008303312808235E-004
          35 -3.268630940615176E-004
          36  1.829984296798112E-002
          37 -1.595703595109002E-003
          38  2.833005421029552E-005
          39 -1.966095552022630E-002
          40 -2.323856151005718E-003
          41 -4.947550423842862E-003
          42 -6.959212984448352E-006
          43 -5.961814908224544E-003
          44 -3.207633249396406E-003
          45 -2.027927280399257E-003
          46 -7.140637243411047E-006
          47 -8.123344410604561E-004
          48 -5.941436987102505E-004
          49 -8.892899507021528E-004
          50 -1.963987398979049E-006
          51  6.317180132549391E-005
          52 -9.835124406629938E-005
          53 -9.047478259550687E-005
          54 -2.666435155048713E-007
          55  7.986887615225958E-005
          56 -7.535964750433816E-005
          57 -1.185655835584769E-005
          58 -1.378516245048572E-007
          59 -3.378789417229139E-005
          60 -3.386098758543121E-004
          61 -5.846483510770528E-005
          62 -6.431451942883869E-007
          63 -2.768312931053413E-003
          64 -1.990530492207067E-003
          65 -1.813469186434311E-004
          66 -3.576425002142594E-006
          67 -4.071555049574531E-003
          68 -2.782190990375333E-003
          69  6.134654151788181E-004
          70 -3.054433695594257E-006
          71 -3.765345681331949E-004
          72 -6.293568226307228E-004
          73  2.170590049963562E-004
          74 -5.289416482304642E-007
          75 -2.159595113661207E-004
          76 -2.651032467446850E-004
          77  2.198432743340315E-004
          78  5.460740668516863E-008
          79 -4.102466246070999E-004
          80 -2.150513277748140E-004
          81  5.802455946654724E-004
          82  7.983609691963666E-007
          83 -3.294545548484551E-003
          84 -1.524086954282519E-004
          85  2.751978698743591E-003
          86  4.403231985122881E-006
          87 -1.244288580953502E-002
          88 -4.357423598632742E-003
          89  4.584973245955578E-003
          90 -2.753516265797174E-007
          91 -3.117824144810025E-002
          92 -3.112736316247536E-003
          93  6.433717422015830E-004
          94 -5.358879371281831E-006
          95  1.698485478886540E-003
          96  3.507323490640422E-002
          97 -1.617707602781923E-002
          98  4.581523300284335E-005
          99  0.345123651549289     
         100  4.487058866130436E-002
         101 -0.157017459597679     
         102  4.613541247311129E-004
         103  2.726005962728094E-002
         104  2.340857657178209E-002
         105  2.411043871679593E-002
         106 -1.736989534581676E-004
         107  1.765716498646629E-005
         108  1.583134773052917E-005
         109  5.987710250373771E-006
         110 -1.187360665081029E-005
         111 -8.920391458688113E-004
         112  4.710103215859032E-003
Sym=     4a
Ene=  -0.678409251011713     
Spin= Alpha
Occup=     2.00000000
           1 -3.954648818836919E-002
           2 -1.464637836381346E-002
           3 -1.977199692372218E-002
           4  4.036100015809932E-005
           5 -3.992302386458746E-004
           6  1.142222199319932E-003
           7 -7.429919606740578E-004
           8  1.351398015265030E-003
           9 -3.986835599793595E-006
          10 -5.725455265031521E-006
          11  0.135282552022226     
          12 -7.144415929294773E-003
          13 -4.358483232619390E-002
          14  1.142664744953765E-004
          15  0.142056723388680     
          16 -3.973292736446883E-002
          17  1.448117547073398E-002
          18 -7.875548272143481E-005
          19  0.102195911606076     
          20  1.799507154033517E-002
          21  3.573008631810790E-002
          22 -7.273007038790411E-005
          23 -7.590630597397503E-003
          24  5.753185615542432E-002
          25 -3.531727602776760E-002
          26  1.444471094779645E-004
          27 -0.196927166307403     
          28  8.894196553472013E-002
          29 -4.463241733903405E-002
          30  1.568029488563927E-004
          31 -0.255130066681009     
          32 -6.904185605296370E-002
          33  3.313680836590141E-003
          34 -1.120980701222435E-004
          35 -5.967212326574743E-002
          36 -8.034314450291864E-002
          37 -1.934977678369869E-002
          38 -1.319685163212768E-004
          39  0.127949347488798     
          40 -3.495839339262881E-002
          41  6.341441312015071E-002
          42 -5.001103437838543E-006
          43  0.100906918683935     
          44  1.353842145113125E-002
          45  3.755795968771707E-002
          46  5.943120179344271E-005
          47  2.335860569158055E-002
          48  2.838482407949442E-003
          49  1.856822223220791E-002
          50  2.486438013049533E-005
          51  8.869936455453654E-003
          52  4.220244803946071E-003
          53  6.147488952610608E-003
          54  1.465884493972040E-005
          55  7.623418515923454E-003
          56  8.112413111166745E-003
          57  2.528260101856436E-003
          58  1.848799768701878E-005
          59  2.197279727468997E-002
          60  2.218930948106589E-002
          61  1.666737354204084E-003
          62  4.363017997082674E-005
          63  0.104131510096849     
          64  3.608578623390278E-002
          65  1.868641095870966E-002
          66  8.951494317267815E-005
          67  0.190567847075932     
          68  5.569570560734984E-002
          69  1.586387722276441E-002
          70  1.144977993914555E-004
          71  8.928231979968064E-002
          72  6.009855459266113E-002
          73 -4.105849574075706E-003
          74  7.395824253243538E-005
          75  6.961588562208125E-002
          76  2.990869426200569E-002
          77 -2.946611287272105E-002
          78 -1.909085987744193E-005
          79  7.744548047246559E-002
          80  4.116719020442820E-003
          81 -4.313832571501532E-002
          82 -7.917700805602102E-005
          83  0.142708762257791     
          84 -3.129448710991441E-002
          85 -5.910602199695693E-002
          86 -1.364634609613535E-004
          87  0.285609990259186     
          88  8.609967094860071E-003
          89 -3.001435800025755E-002
          90  2.945360142066555E-006
          91  0.274501903051233     
          92 -4.551788168250508E-002
          93  4.070788833567825E-002
          94  1.663188384114286E-005
          95 -5.019715917734934E-003
          96 -0.168115995156837     
          97  0.106207219166633     
          98 -1.755265840262726E-004
          99 -1.461088632842648E-002
         100  0.113649313170742     
         101  1.531455607472533E-002
         102  6.372134805691403E-005
         103  2.808255797261299E-002
         104  2.006505849649523E-002
         105 -6.660672814768388E-003
         106  3.560551156287999E-003
         107  6.416016441722655E-004
         108 -5.916450797243320E-005
         109  5.975664626382216E-003
         110  9.483101145889735E-003
         111  2.829327544991049E-002
         112 -8.690721961535211E-003
Sym=     5a
Ene=  -0.671423560550648     
Spin= Alpha
Occup=     2.00000000
           1  4.062781506406459E-002
           2  1.432014447703503E-002
           3  2.295332732679549E-002
           4 -4.952442404590115E-005
           5 -3.453223993042183E-004
           6 -3.954016395739705E-004
           7  7.407240388781889E-004
           8 -1.708649559648295E-003
           9  4.124766643552018E-006
          10  2.980907099699257E-006
          11 -0.132260631956477     
          12 -2.155537170848350E-002
          13  5.873111193582410E-002
          14 -1.829374449723870E-004
          15 -0.185466086969118     
          16  4.216175060699028E-002
          17 -9.863131552588895E-003
          18  6.915355508334430E-005
          19 -0.132337444791943     
          20 -3.086788652132105E-002
          21 -4.225187447087223E-002
          22  7.484520977069005E-005
          23  1.720586812534377E-002
          24 -6.545456978076981E-002
          25  4.848642807087378E-002
          26 -1.864632331233661E-004
          27  0.229992582345476     
          28 -5.224713263020341E-002
          29  4.988008210957164E-002
          30 -1.374200022169054E-004
          31  0.154503994716667     
          32  0.102562612504055     
          33 -1.391327537752058E-002
          34  1.581413032150465E-004
          35 -1.280929347259415E-002
          36  5.769369891708289E-002
          37 -1.151244735002905E-002
          38  8.682202436246527E-005
          39 -6.627991166016668E-002
          40 -2.354134695991350E-002
          41 -9.053730847015413E-005
          42 -2.700679135555634E-005
          43 -3.897534008899893E-003
          44 -1.778875813853875E-002
          45  1.369167752160367E-002
          46 -1.056670971324346E-005
          47 -6.671207778719407E-003
          48 -2.767272489402533E-003
          49 -1.424968649210169E-003
          50 -5.642149309739192E-006
          51 -2.333256843516799E-003
          52 -4.935384915105838E-004
          53 -4.963592131719029E-004
          54 -1.212456169323231E-006
          55 -3.116694087535366E-003
          56  1.378709930172448E-003
          57  9.687854206798165E-004
          58  4.133491837775459E-006
          59  1.215565938251707E-002
          60  1.415757843878040E-002
          61  9.089053670509035E-003
          62  3.979219080029224E-005
          63  6.175827234261852E-002
          64  9.121520985181091E-003
          65  4.211517096250277E-002
          66  7.862289882337847E-005
          67  0.238497745602558     
          68  2.109261437106258E-002
          69  7.442156698642910E-002
          70  1.699994286456290E-004
          71  0.199677669781810     
          72  0.109522416588262     
          73  1.643690537493188E-002
          74  1.764006871087351E-004
          75  0.176246586082640     
          76  5.995125515877903E-002
          77 -6.208674945624454E-002
          78 -4.594556811950274E-005
          79  0.175982425473316     
          80 -5.185479235604439E-003
          81 -7.726899436527920E-002
          82 -1.598840970173244E-004
          83  0.203138602920817     
          84 -7.251037389892714E-002
          85 -3.309917217048400E-002
          86 -1.391640433803234E-004
          87  0.221263460660408     
          88 -6.834238958353424E-002
          89  5.743063553234014E-002
          90  3.459666273194675E-005
          91 -4.042243042921525E-002
          92 -6.218514818846233E-002
          93  5.103011053063826E-002
          94 -1.000876891798662E-005
          95 -1.107916896518394E-002
          96  9.650281290484410E-002
          97 -2.681785504132963E-002
          98  1.430513251401493E-004
          99  7.458253353000151E-002
         100 -0.115530449429216     
         101 -3.541108614620824E-002
         102 -1.690888763626063E-005
         103 -4.140733570192054E-002
         104 -2.916919351153811E-002
         105  8.020288933727358E-003
         106 -1.942524370953797E-003
         107 -4.080168000763412E-004
         108 -9.930642694620613E-004
         109  1.992511431340235E-002
         110  2.594066839190571E-002
         111  3.373431549376150E-002
         112  1.737844324382177E-002
Sym=     6a
Ene=  -0.666819703993168     
Spin= Alpha
Occup=     2.00000000
           1  1.305835191685229E-002
           2  4.667489716731190E-003
           3  7.774275074407359E-003
           4 -1.722117036001506E-005
           5 -1.535120536709733E-004
           6 -8.732607050101541E-005
           7  2.408381241719887E-004
           8 -6.085032317602120E-004
           9  1.269585305221815E-006
          10  6.431011057006510E-007
          11 -4.133369909049722E-002
          12 -8.812344398938528E-003
          13  1.846530183494072E-002
          14 -6.263675839732137E-005
          15 -5.986094352768916E-002
          16  1.109533608021655E-002
          17 -3.925330376091797E-003
          18  2.071790476311103E-005
          19 -3.567854178501315E-002
          20 -1.485141465172880E-002
          21 -1.210411620666856E-002
          22  1.395629795485054E-005
          23  2.074517160341385E-002
          24 -2.023377654821091E-002
          25  1.841898100594269E-002
          26 -6.855094831786536E-005
          27  7.574492952823605E-002
          28 -1.231426925545282E-002
          29  2.984028158058705E-003
          30 -2.983879465848206E-005
          31  4.632765678941160E-002
          32  1.332481992549621E-002
          33 -4.329491815162270E-002
          34 -8.216794175969126E-007
          35  7.072397061074628E-002
          36 -1.675178440535941E-002
          37  2.324030256846217E-002
          38 -1.620721610307472E-005
          39  0.152075692782111     
          40 -6.323367063149433E-002
          41 -2.369695886975335E-002
          42 -1.270278237879054E-004
          43  0.318101996306087     
          44 -5.564168040132642E-002
          45  1.338164084016291E-002
          46 -9.440227985902869E-005
          47  0.210863438050410     
          48 -3.719810809741038E-002
          49  8.451913819680704E-002
          50  2.162716639895880E-005
          51  0.169955610169904     
          52  3.344988665144721E-002
          53  7.269515295104630E-002
          54  1.437415488061035E-004
          55  0.179868367821039     
          56  8.693338978106169E-002
          57  2.870969723828419E-002
          58  2.040135684634543E-004
          59  0.220600740981206     
          60  0.103053752128372     
          61 -6.975118352477419E-002
          62  1.098922673726340E-004
          63  0.306612165842857     
          64 -8.530788699091542E-004
          65 -8.267038191556465E-002
          66 -1.050233676052953E-004
          67  6.404591146478655E-002
          68 -1.208810684342202E-002
          69 -8.716280710202721E-002
          70 -1.487380104280550E-004
          71 -3.570942058210984E-002
          72 -1.457866374620953E-002
          73 -3.849189738533233E-002
          74 -8.580591076134923E-005
          75 -6.920433308707431E-002
          76 -2.032495223086498E-002
          77  1.420627146110012E-002
          78  4.401025101787902E-006
          79 -7.486290321398929E-002
          80 -4.760293174489708E-004
          81  2.834149025806633E-002
          82  5.677056439703083E-005
          83 -9.092918287272732E-002
          84  1.917857791028799E-002
          85  8.521819567192225E-003
          86  3.602633828499778E-005
          87 -3.955101764657717E-002
          88 -2.620298141910639E-002
          89 -5.212129544649997E-002
          90 -1.191701147102104E-004
          91 -2.309935425308805E-002
          92 -7.267219685457550E-002
          93 -5.954521972419942E-002
          94 -1.575254059303040E-004
          95 -0.124730341038364     
          96  3.191466363297076E-002
          97 -3.940778233302281E-002
          98  1.201352991367566E-005
          99  2.124306444208367E-002
         100 -3.167044684995929E-002
         101 -1.359076857340361E-002
         102 -5.897442011579190E-006
         103 -1.444156296948204E-002
         104 -8.548517326915176E-003
         105  6.089187579106389E-003
         106  3.221771503069467E-002
         107  2.342257621185728E-002
         108  1.951163173177374E-002
         109 -1.037887941211215E-002
         110 -1.259346601540723E-002
         111 -2.162146590562091E-002
         112 -4.142664358268638E-002
Sym=     7a
Ene=  -0.663357273407268     
Spin= Alpha
Occup=     2.00000000
           1  4.829375475659060E-002
           2  3.183447087165353E-002
           3  1.888347797230652E-002
           4 -2.430058079770629E-005
           5  4.025983193314701E-003
           6 -4.494149749821135E-003
           7  4.681665565064341E-004
           8  1.934894326904677E-005
           9  3.912389951835403E-006
          10  1.601587444616352E-005
          11 -0.150391239306273     
          12  0.150559368139859     
          13 -9.059750403559406E-002
          14  3.636016690523410E-004
          15  0.187725068940877     
          16 -4.186645758040733E-002
          17 -8.859778329139725E-002
          18  1.801453278100878E-004
          19  0.317735236652235     
          20 -2.787727631707508E-002
          21  5.131531704097003E-002
          22 -1.608943347255120E-004
          23  0.248890251382228     
          24  7.431308128856305E-002
          25 -6.663409469973330E-003
          26  1.163894471697684E-004
          27  6.450540526146384E-003
          28 -7.620803444781099E-002
          29 -0.151132938614323     
          30  2.610893259531436E-004
          31  0.118252589194113     
          32 -4.167478156133656E-002
          33 -9.385211087926708E-002
          34 -2.552451808203451E-005
          35  0.162998176345665     
          36  3.424818939864480E-002
          37  5.379811434975863E-002
          38  1.039992330329041E-004
          39  5.215947875750303E-002
          40  3.822380234340245E-002
          41 -3.909571151817522E-002
          42  4.361342808369737E-005
          43 -3.197336060064849E-003
          44  1.429505913223942E-002
          45 -2.082455213589274E-003
          46  2.563166352581811E-005
          47 -8.041039769942627E-003
          48  6.430925295163478E-003
          49 -1.627645199831573E-003
          50  1.038737327734251E-005
          51 -1.280136355205423E-002
          52 -9.156949602168989E-004
          53 -4.976140412164771E-003
          54 -7.177112888010143E-006
          55 -1.499864335174231E-002
          56 -5.742405404090869E-003
          57 -1.880997978016875E-003
          58 -1.329036055449350E-005
          59 -1.301963503651277E-002
          60 -3.335940168907113E-003
          61  8.075001765441941E-003
          62  4.701504635216536E-006
          63 -6.726781903982069E-003
          64  1.586226309684509E-003
          65  1.415022369759403E-002
          66  2.572533017713861E-005
          67  5.130217995284264E-002
          68 -1.534587874559421E-002
          69  3.083454282708143E-002
          70  3.895672583644716E-005
          71  7.939335520421867E-002
          72  3.538949532384360E-002
          73  1.370868777928324E-002
          74  7.309945177876167E-005
          75  7.514948022900370E-002
          76  1.883507992150922E-002
          77 -2.333810951146911E-002
          78 -2.192460251196247E-005
          79  6.140660447792549E-002
          80 -1.059767948703829E-002
          81 -2.024973592675300E-002
          82 -5.347713262582237E-005
          83  2.560524589843563E-002
          84 -2.788613681039333E-002
          85  1.670081500184606E-002
          86 -1.178938691458892E-006
          87 -2.091601016489928E-002
          88 -4.793881002795687E-002
          89  2.819948158576172E-002
          90 -1.055768905677858E-005
          91 -0.104195609580038     
          92 -4.100323104279482E-002
          93 -4.889973587359116E-002
          94 -8.752872121348003E-005
          95 -0.156379021229854     
          96  3.536014574953865E-002
          97 -7.791450786283916E-002
          98  2.826382029132992E-005
          99 -0.336087553486163     
         100 -7.445235615538635E-002
         101  3.578841683006772E-002
         102 -1.951514957280862E-004
         103  4.893332031958290E-002
         104  7.840820188276089E-002
         105  5.884081832323815E-002
         106 -4.802669448966630E-004
         107 -2.000044751474486E-003
         108 -2.026898295519539E-003
         109  1.061607323808206E-002
         110  1.064117986956760E-002
         111 -2.551879063053968E-003
         112 -6.638654571217985E-002
Sym=     8a
Ene=  -0.657863356342330     
Spin= Alpha
Occup=     2.00000000
           1  5.462837013867909E-002
           2  3.063927045163412E-002
           3  2.845526901829594E-002
           4 -5.007681660471236E-005
           5  1.825152721515737E-003
           6 -2.566454729092233E-003
           7  7.413020075764961E-004
           8 -1.176009755618083E-003
           9  5.484375534096923E-006
          10  1.067460648300957E-005
          11 -0.166475409577291     
          12  7.316216364176022E-002
          13 -2.780931056036820E-002
          14  1.397813042310229E-004
          15  2.708234389694144E-002
          16 -1.163896170116171E-002
          17 -7.199228686994605E-002
          18  1.741416272614768E-004
          19  0.160193692441672     
          20 -3.454513712238720E-002
          21  1.107047849423465E-002
          22 -6.045605065922714E-005
          23  0.152337373305424     
          24  4.326637321895398E-002
          25  5.079854912607943E-003
          26  6.709198385425691E-005
          27  7.438999430933758E-002
          28 -1.179082705422798E-002
          29 -3.639490514834425E-002
          30  1.750447255508542E-004
          31 -4.317934113556390E-002
          32  0.109321095670334     
          33  0.119171545515084     
          34  2.668376940367199E-004
          35 -0.270256776136785     
          36  3.540343600785072E-002
          37 -9.690230973914343E-002
          38  1.388347498404948E-005
          39 -0.225713085812676     
          40 -5.795720575078555E-002
          41  5.354983977445301E-002
          42 -5.856221587328993E-005
          43 -2.734678995325046E-002
          44 -8.243245430516241E-002
          45 -1.763151718816110E-002
          46 -1.630311290908244E-004
          47  5.394715554514760E-002
          48 -4.377449402705554E-002
          49  2.381391192386974E-003
          50 -7.802938903693520E-005
          51  9.537150456581843E-002
          52  4.127521021549099E-003
          53  3.460429807768636E-002
          54  4.639240831549522E-005
          55  0.112961219128864     
          56  4.093973597883215E-002
          57  1.425603183132393E-002
          58  9.783635085894609E-005
          59  0.110184424452689     
          60  2.785094729880282E-002
          61 -4.756816487680622E-002
          62 -5.556747814934170E-006
          63  5.228942482601374E-002
          64 -4.413885298539644E-002
          65 -3.732203111090240E-002
          66 -1.314655845989113E-004
          67 -4.818169423393145E-002
          68  1.065408612685814E-002
          69 -2.394833618621710E-002
          70 -3.675637055419310E-005
          71 -7.151226690341424E-002
          72 -2.961512092896318E-002
          73 -1.171976228526973E-002
          74 -6.272408752032431E-005
          75 -6.105528791536825E-002
          76 -8.910949196363422E-003
          77  2.121118674695580E-002
          78  2.952321734762041E-005
          79 -2.934517638510413E-002
          80  1.843526072561900E-002
          81  6.262660461438307E-003
          82  3.451993192791520E-005
          83  3.445710112055556E-002
          84  2.259820201887419E-002
          85 -2.717371896278512E-002
          86 -2.357870078875324E-005
          87  5.428973763874677E-002
          88  6.269023980635444E-002
          89  3.717656137687058E-003
          90  7.831753036859841E-005
          91  9.149829296077321E-002
          92  0.100996108327827     
          93  0.125273899524799     
          94  2.428730648588574E-004
          95  0.338124679439004     
          96  1.115359178042005E-003
          97  0.116148592399340     
          98  1.012966941361435E-004
          99 -0.142088870078468     
         100 -0.115807925167507     
         101  2.539821944575430E-004
         102 -8.112631550202804E-005
         103  8.427475361908032E-003
         104  4.299044815994237E-002
         105  3.422515811084391E-002
         106  4.840427205532699E-003
         107  1.639729141387140E-002
         108  1.649953112581535E-002
         109 -9.623961325497190E-003
         110 -5.342249182141929E-003
         111  2.111673142244362E-002
         112  0.147673780132383     
Sym=     9a
Ene=  -0.655952219262759     
Spin= Alpha
Occup=     2.00000000
           1 -6.110356881321603E-002
           2 -2.634305837864251E-002
           3 -3.880324857321257E-002
           4  8.370072777643768E-005
           5  7.288103620560836E-004
           6  6.371769448228735E-004
           7 -1.365987306878957E-003
           8  3.133649738121901E-003
           9 -6.806021865260945E-006
          10 -4.306643962291300E-006
          11  0.185875717115283     
          12  1.642955971426989E-002
          13 -4.999623270985718E-002
          14  1.716409987359564E-004
          15  0.181248566191560     
          16 -1.146487478228546E-002
          17  5.068631172805418E-002
          18 -1.375112757105353E-004
          19 -7.516929271497708E-003
          20  9.008428898251618E-002
          21  2.871342083471214E-002
          22  2.738283590424898E-005
          23 -0.189860881616897     
          24  1.614535053439152E-002
          25 -5.141207121096607E-002
          26  1.353281011993711E-004
          27 -0.199710951570071     
          28 -2.762128292846183E-002
          29  5.573088788788479E-002
          30 -1.431621723695666E-004
          31  5.845435688825132E-002
          32 -6.891175887336340E-002
          33  8.440028625883331E-002
          34 -1.024984636418206E-004
          35  1.318661725511632E-002
          36  2.160057880737374E-002
          37  1.421875944470136E-002
          38  2.178602336187671E-005
          39 -0.122637971744340     
          40  3.849790107794090E-002
          41 -5.925702526771182E-002
          42  4.647582499130686E-006
          43 -2.535610981800942E-002
          44 -6.671634746085520E-002
          45 -5.758668648871122E-002
          46 -1.771589542723704E-004
          47  9.403232401454385E-002
          48 -4.834320817390109E-002
          49  6.754684903065598E-003
          50 -8.248574117718646E-005
          51  0.133008106172305     
          52  8.885341693331298E-003
          53  4.576574342679118E-002
          54  6.779249224223145E-005
          55  0.150249818900012     
          56  5.226157139891909E-002
          57  1.550797155927604E-002
          58  1.228605800153496E-004
          59  0.135821325769715     
          60  2.537113278209253E-002
          61 -6.192085830411671E-002
          62 -2.355449246340158E-005
          63  2.214124019780516E-002
          64 -7.671962802261464E-002
          65 -4.248350753112900E-002
          66 -1.824370815199411E-004
          67 -1.073452147757727E-002
          68 -7.784839194148926E-002
          69  6.720688366145522E-002
          70  1.880919003594955E-005
          71  0.156501364249383     
          72  5.155556066576341E-002
          73  5.717873212106823E-002
          74  1.763147046541816E-004
          75  0.189218611578358     
          76  4.130526138934994E-002
          77 -4.278752377374848E-002
          78 -3.296342398875992E-005
          79  0.159628205467983     
          80 -2.720497656938180E-002
          81 -4.129468250498871E-002
          82 -1.173789669198306E-004
          83  5.890019157865274E-002
          84 -4.965048276945720E-002
          85  5.837732386529102E-002
          86  4.947797036036603E-005
          87 -0.145952771205416     
          88 -4.637677259164139E-002
          89  9.701299579383060E-002
          90  8.436423324403393E-005
          91 -0.192617300796874     
          92  0.102808272479850     
          93 -1.635301438069341E-002
          94  9.172046980097256E-005
          95  0.139876809606578     
          96  8.513694308240322E-002
          97 -5.955610486326463E-002
          98  7.130167369548334E-005
          99 -2.048119373494260E-003
         100  0.104619823562192     
         101  4.247905989388969E-002
         102  2.483361550961996E-005
         103  5.179277284679219E-002
         104 -1.182142186710698E-003
         105 -4.773933386552765E-002
         106  1.453383661744683E-002
         107  2.364345843806567E-002
         108  2.310018396427834E-002
         109  3.251442700785852E-002
         110  3.226564082786045E-002
         111  7.092997129898079E-003
         112  4.193838072216775E-002
Sym=    10a
Ene=  -0.645873745991440     
Spin= Alpha
Occup=     2.00000000
           1  1.324150068179474E-002
           2  1.732064282040617E-003
           3  1.252257918645216E-002
           4 -3.378072321914713E-005
           5 -1.696514497304076E-003
           6  9.909127291510785E-004
           7  7.056017681529977E-004
           8 -1.764945117436533E-003
           9  2.158842180639920E-006
          10 -2.536085950994353E-006
          11 -3.998062304071252E-002
          12 -4.589969460223504E-002
          13  4.497394888023689E-002
          14 -1.767158710188164E-004
          15 -0.120854109787433     
          16 -1.252936290348305E-003
          17 -9.403490229858954E-003
          18  1.846043357855670E-005
          19 -1.700971273579533E-002
          20 -5.947369418659307E-002
          21 -2.042165770911853E-002
          22 -1.734116389774607E-005
          23  9.250519408026937E-002
          24 -5.897637602173262E-003
          25  1.677103377385220E-002
          26 -5.295603332021531E-005
          27  4.302534833983983E-002
          28  4.371323513664040E-002
          29 -4.745643615552641E-002
          30  1.056022905325687E-004
          31 -5.730321018469171E-002
          32 -3.059835404831350E-002
          33 -7.944054839274568E-002
          34 -6.533365786303127E-005
          35  9.094036348377064E-002
          36 -3.112888505853489E-002
          37  1.879457452020279E-002
          38 -3.009755634668908E-005
          39  7.963601671799500E-002
          40  3.256955397584986E-002
          41 -2.685615269302591E-002
          42  3.212837635384363E-005
          43  3.217546019370236E-002
          44  2.278141315210710E-002
          45 -9.385524234802546E-002
          46 -7.452117361388843E-005
          47  0.156496449194709     
          48 -3.915880921558949E-002
          49  1.041720331255794E-002
          50 -6.590330822409719E-005
          51  0.167882794086029     
          52  2.189355784592910E-002
          53  3.797272299328024E-002
          54  8.189916967408457E-005
          55  0.125490350324709     
          56  3.007601055147687E-002
          57 -2.871039267088391E-002
          58  2.632425802444875E-005
          59 -4.057360322877639E-002
          60 -7.490778151437662E-002
          61 -8.111844259270366E-002
          62 -2.451620332025714E-004
          63 -0.227858533203668     
          64  1.103211893943969E-005
          65 -0.111076077037589     
          66 -1.563365753445222E-004
          67 -0.308666101319060     
          68  7.544206854515999E-002
          69  4.328164340229110E-002
          70  1.522171364731231E-004
          71 -0.171894058311648     
          72 -7.077409524586756E-002
          73  9.886565163443668E-002
          74  8.626572809374788E-005
          75  6.225406822296596E-002
          76  5.294732547434731E-002
          77  5.724968981598682E-002
          78  1.717715603928795E-004
          79  0.208645512582515     
          80  3.552188885147637E-002
          81 -4.660739928295467E-002
          82 -5.332879606505606E-005
          83  0.241513757513153     
          84 -3.434440339056056E-002
          85  1.714809110460902E-002
          86  5.028210863683042E-006
          87  4.613710450940394E-002
          88  0.105119609677725     
          89  9.352637722944102E-002
          90  3.090212741740665E-004
          91  6.096941316620168E-002
          92  7.807001281061795E-003
          93  1.000920978658063E-002
          94  4.926334405982302E-005
          95 -0.106541819457620     
          96 -9.673173572609131E-002
          97  3.386044418772078E-002
          98 -1.048891124937094E-004
          99  3.920727322156328E-002
         100  1.104255494946917E-002
         101 -1.582885512746896E-002
         102  1.920052107439832E-005
         103 -4.098754822277776E-002
         104 -6.257340680102285E-003
         105  2.588534432971600E-002
         106  3.513987299593820E-002
         107  3.643892587583913E-002
         108  2.805086847322948E-002
         109  1.924453932119158E-002
         110  5.192246551595350E-002
         111  6.881923927280820E-002
         112 -4.762427434241601E-002
Sym=    11a
Ene=  -0.638971140958706     
Spin= Alpha
Occup=     2.00000000
           1 -3.533482585062050E-002
           2 -7.244775340049312E-003
           3 -3.413705586247181E-002
           4  8.743654183507484E-005
           5  4.049694872907289E-003
           6 -2.549076734389078E-003
           7 -1.500618138518210E-003
           8  3.981552797448849E-003
           9 -5.543849277442044E-006
          10  6.057872487861878E-006
          11  0.103735964288959     
          12  9.941693596144649E-002
          13 -9.465956061279575E-002
          14  3.562016975135381E-004
          15  0.230642796504332     
          16  2.287909899932211E-002
          17  5.582584084165058E-002
          18 -1.167027236466088E-004
          19 -6.443608326559400E-002
          20  0.127659947698346     
          21  4.494570868358830E-002
          22  2.535081292892309E-005
          23 -0.188124856962380     
          24 -5.046089296190851E-002
          25  9.239853370542480E-003
          26 -9.760352021057356E-005
          27  1.229752322188737E-003
          28 -0.125715848563518     
          29  5.844709443034670E-002
          30 -2.859527203382604E-004
          31  0.190042966086880     
          32  3.244328429598446E-002
          33 -4.543001813043100E-002
          34  2.579256296819350E-005
          35  6.269454853122303E-002
          36  9.702930185368254E-002
          37  1.392369058439383E-002
          38  1.583575583777634E-004
          39 -8.182408805589912E-002
          40 -2.090932522185771E-003
          41 -3.201897975443228E-003
          42  1.633757380348103E-005
          43 -3.013574686866859E-002
          44 -2.661811051426276E-002
          45  1.578438103387827E-002
          46 -2.473148307618248E-005
          47 -2.431148668468839E-002
          48 -8.097596283238610E-003
          49 -6.733138735151096E-003
          50 -2.116876571985538E-005
          51 -1.881711000473538E-003
          52 -6.992961398026653E-003
          53  1.605893962444600E-003
          54 -1.138036684987761E-005
          55  1.120156760794121E-002
          56  1.882404846051195E-003
          57  4.221245637306639E-003
          58  7.827775372107291E-006
          59  1.342368116460906E-002
          60  4.194475949966837E-003
          61 -6.213306225184297E-003
          62 -4.032413131184746E-006
          63  2.482182569143328E-002
          64  9.160469664279625E-003
          65  2.535473968974248E-003
          66  5.246489897448929E-006
          67 -4.069591629929445E-003
          68  0.114659313531193     
          69 -6.012493107484632E-002
          70  2.321460918883291E-005
          71 -0.268416047060534     
          72 -5.677635350429203E-002
          73 -8.940404377061253E-002
          74 -2.528874646843722E-004
          75 -0.249133094697821     
          76  1.686696903625570E-002
          77  8.226586796797902E-002
          78  1.775983040943953E-004
          79 -9.680608491140554E-003
          80  0.107257397312980     
          81 -1.469213472356225E-002
          82  9.783699043084869E-005
          83  0.216537236721559     
          84  5.094426476594955E-003
          85 -6.438137770141455E-002
          86 -1.083504628774525E-004
          87  0.235872013782723     
          88  2.139559274997342E-002
          89  5.018265039666283E-002
          90  1.292995996058835E-004
          91 -4.271351000599117E-002
          92 -0.103300511492304     
          93  7.554477386138717E-002
          94 -1.374957279023483E-005
          95 -8.644243085134401E-002
          96  0.105749023189689     
          97 -6.230074991378421E-002
          98  1.586365610035804E-004
          99 -7.728151302434005E-002
         100 -1.868233607552041E-002
         101  1.337710385561001E-002
         102 -5.147739857205637E-005
         103  8.666326370058057E-002
         104 -2.133048220919681E-002
         105 -4.866874910048120E-002
         106 -8.212076364940150E-003
         107 -3.990125232812604E-004
         108  2.267594144089265E-003
         109 -5.737176901383056E-002
         110 -1.117642019898664E-003
         111  6.663775327630014E-002
         112 -1.583912978656890E-002
Sym=    12a
Ene=  -0.636842711512677     
Spin= Alpha
Occup=     2.00000000
           1  1.400521162988828E-002
           2  1.520013547442458E-002
           3  5.440608861128612E-003
           4  2.574693770112355E-007
           5  2.126882049023807E-003
           6 -1.626828053196196E-003
           7 -5.000539958276116E-004
           8  1.097349228710085E-003
           9  4.634386564364633E-007
          10  5.335006774276555E-006
          11 -3.699950551502843E-002
          12  5.508131700665331E-002
          13 -4.830056966854344E-002
          14  1.966182060159532E-004
          15  0.104325088930075     
          16  7.678338413947975E-003
          17 -1.907214912703986E-002
          18  6.447108198045823E-005
          19  3.401556238408755E-002
          20  6.039862149324753E-002
          21  1.800142404422407E-002
          22  2.922689348716059E-005
          23 -8.389355096259173E-002
          24  1.405463451180628E-002
          25 -5.061840947168729E-003
          26  4.659189787807852E-005
          27  1.749155952100007E-002
          28 -2.320458923604304E-002
          29  8.113910001059781E-002
          30 -1.139308155775036E-004
          31  3.327892478210835E-003
          32  8.315303168564547E-002
          33  0.123811314827488     
          34  1.373614665331082E-004
          35 -0.108456105011376     
          36 -7.788793716140134E-002
          37 -3.386333117874072E-002
          38 -1.686251592589825E-004
          39  0.132197465578690     
          40 -0.144861308766974     
          41 -5.356789156147945E-002
          42 -3.007129532248709E-004
          43  0.323704247157149     
          44  5.384973156370595E-002
          45 -3.913995109633950E-002
          46  4.425797166160113E-005
          47  0.197542746361687     
          48  5.676183520309912E-002
          49  7.535919003724977E-002
          50  1.866870477971112E-004
          51 -3.779395909645319E-002
          52  8.611274641385366E-002
          53 -3.863311006314241E-002
          54  1.196383870066337E-004
          55 -0.242160404867842     
          56 -3.418723485543262E-002
          57 -7.342640854102941E-002
          58 -1.575842506604498E-004
          59 -0.283614875098208     
          60 -2.264875621844995E-002
          61  8.953246789489022E-002
          62  6.445852661836263E-005
          63 -3.564283119625499E-002
          64  0.155311143092246     
          65 -4.249939346051888E-002
          66  2.367030837199692E-004
          67 -6.115769640020718E-002
          68  2.390413332465214E-002
          69 -1.030985312532941E-002
          70  3.188463943594936E-005
          71 -2.755220471759979E-002
          72 -1.304926835181230E-002
          73  4.501401736392589E-002
          74  7.282906262312869E-005
          75  6.560209237104840E-002
          76  2.123967577546764E-002
          77  1.480943441515960E-002
          78  5.549503136038164E-005
          79  8.674864487989566E-002
          80 -1.039619172206321E-002
          81 -8.060230416427713E-003
          82 -2.932659954454758E-005
          83  1.786468830338181E-002
          84 -2.106465099617459E-002
          85  3.988874289799671E-002
          86  5.212410409178068E-005
          87 -6.133098570055227E-002
          88 -1.621847141820958E-002
          89  1.121768093904861E-002
          90 -1.085436778054127E-006
          91 -6.945251372120925E-002
          92 -1.787834106519511E-002
          93 -3.703578601029055E-002
          94 -8.966719037735115E-005
          95  0.136011374908503     
          96  0.145482454538790     
          97  8.287073752116680E-003
          98  1.792665576354501E-004
          99 -2.520014047022398E-002
         100 -8.640006414678628E-002
         101 -5.411235598937227E-003
         102 -1.492894468848462E-005
         103  4.121260034244223E-002
         104  1.350418577767983E-002
         105 -3.054097513835477E-002
         106  5.554977223994396E-002
         107 -9.390838179107238E-003
         108 -5.294758120092898E-002
         109  1.826340617379092E-002
         110  2.474766440083598E-002
         111  4.256939645282540E-003
         112  9.480064099936054E-002
Sym=    13a
Ene=  -0.629367971873856     
Spin= Alpha
Occup=     2.00000000
           1  7.711047734014226E-003
           2 -1.074912950947113E-003
           3  1.013044685360910E-002
           4 -2.807573278595655E-005
           5 -1.645176236113204E-003
           6  1.314407521053239E-003
           7  3.307687150599645E-004
           8 -1.125091206663057E-003
           9  1.242763822863923E-006
          10 -3.694550214089460E-006
          11 -2.259579572636146E-002
          12 -4.064442676893879E-002
          13  3.598135543375924E-002
          14 -1.304097199824507E-004
          15 -6.681914253309863E-002
          16 -1.477833231581324E-002
          17 -2.701887912927897E-002
          18  5.549707853040840E-005
          19  4.862472243733550E-002
          20 -3.678678130113618E-002
          21 -1.824607679315093E-002
          22  9.050664905812644E-006
          23  4.350305949722288E-002
          24  3.424132173864287E-002
          25 -2.234512833097864E-002
          26  1.050964206568184E-004
          27 -3.795465439439529E-002
          28  3.716322799928506E-002
          29 -2.154503214753783E-003
          30  7.230837473793837E-005
          31 -4.082909350575673E-002
          32 -2.158064357141901E-002
          33  4.601042956897813E-002
          34 -2.212274951535481E-005
          35 -1.217320029147807E-002
          36 -4.150954477218365E-002
          37  3.879525085673750E-003
          38 -6.729540820561528E-005
          39  5.302021308061149E-002
          40 -2.223745095983952E-002
          41 -1.691029089567709E-002
          42 -5.412330825916517E-005
          43  6.494975880451467E-002
          44 -3.817796566364756E-003
          45  0.108425167302953     
          46  1.128825044293179E-004
          47 -0.226996303055879     
          48  9.443878332332475E-002
          49  4.153272615824451E-002
          50  2.261744001795768E-004
          51 -0.301620459877042     
          52 -4.763966517587112E-002
          53 -1.768172126529920E-002
          54 -1.078864342985559E-004
          55 -8.083933545683672E-002
          56 -2.485580745285166E-002
          57  0.124270946648737     
          58  9.169849202435312E-005
          59  0.201912205638413     
          60  9.961957794888163E-002
          61  2.070326858963064E-002
          62  2.060273893973126E-004
          63  0.235165522257560     
          64 -5.685033892638124E-002
          65 -3.981252791875296E-002
          66 -1.675122822860502E-004
          67 -9.715161185379546E-002
          68 -3.026397927488488E-002
          69 -0.113687284570242     
          70 -2.301587101666720E-004
          71 -0.168386220740037     
          72 -5.415457061486429E-002
          73 -1.122539641519933E-002
          74 -8.758867994037182E-005
          75  1.198785387020686E-002
          76  8.024476458103871E-002
          77  9.487456496912587E-002
          78  2.829934341980000E-004
          79  0.261571939866309     
          80  4.798764788355944E-002
          81 -2.012903072247715E-002
          82  1.373873764398491E-005
          83  0.175125610052435     
          84 -4.536464284968335E-002
          85  0.108403831074908     
          86  1.631977877438672E-004
          87 -0.122203246199445     
          88  1.906874655191782E-002
          89  6.734854334380569E-002
          90  1.407530101880679E-004
          91 -6.816989457418869E-002
          92  3.974759196047051E-002
          93 -5.195655600965342E-002
          94 -1.490375913079646E-005
          95  4.640569733472256E-002
          96  2.640193936134451E-002
          97 -5.328457997042317E-003
          98  1.427993122395361E-005
          99  3.326948107673314E-002
         100  1.989291883703231E-002
         101  8.405921656415048E-003
         102  1.540450952432940E-005
         103 -2.895669401193078E-002
         104  1.943743505870114E-002
         105  1.120491832776328E-002
         106 -6.020217620690357E-002
         107 -8.718260109516676E-002
         108 -2.791882397909047E-002
         109  8.243584555602224E-003
         110  8.492267678249277E-002
         111  5.820592551775178E-002
         112  2.191191926074675E-002
Sym=    14a
Ene=  -0.622220289860299     
Spin= Alpha
Occup=     2.00000000
           1  2.364783163576559E-002
           2  3.806072948519833E-002
           3  5.402757788233448E-003
           4  1.621096260993443E-005
           5  5.469804612702944E-003
           6 -5.014435700657873E-003
           7 -4.553689120450709E-004
           8  1.866137951202021E-003
           9  1.306427215287318E-006
          10  1.589916723069338E-005
          11 -5.654930939830573E-002
          12  0.132128713398571     
          13 -0.126622482314658     
          14  4.445360073690553E-004
          15  0.187940660973384     
          16  5.178431525925736E-002
          17  3.460047961084307E-002
          18 -3.742212150978578E-005
          19 -0.118723621507015     
          20  0.116891915606134     
          21  6.125213923571973E-002
          22 -3.217062048759450E-005
          23 -0.131227864672076     
          24 -7.746123299256681E-002
          25  8.974051977304041E-002
          26 -3.289191948873260E-004
          27  0.173998472802270     
          28 -2.826349493298229E-002
          29  6.035376643422075E-002
          30 -1.986694142303057E-004
          31 -3.413326644219328E-002
          32  0.117226608923697     
          33 -3.503121592243270E-002
          34  1.176842414035235E-004
          35 -9.995215808920452E-002
          36 -1.974056050239348E-002
          37 -2.470129096727164E-002
          38 -5.657570191711008E-005
          39  9.464463664834810E-002
          40 -4.126742323975951E-002
          41  9.318328864618791E-002
          42 -9.450981503163098E-006
          43 -1.210306177941046E-002
          44  4.830685583637279E-002
          45  6.451345588977858E-002
          46  1.371746980189999E-004
          47 -0.152409720898240     
          48  2.418301227761286E-002
          49  5.597293067454628E-003
          50  4.796211452047864E-005
          51 -7.580250232238386E-002
          52 -7.290104349060424E-002
          53  2.396712085194052E-002
          54 -1.130624065294328E-004
          55  0.130609479944442     
          56 -8.651703812804300E-003
          57  6.549858430302212E-002
          58  5.923348079463659E-005
          59  0.116670201649415     
          60 -3.470499672308611E-002
          61 -8.437888393267680E-002
          62 -1.776015888258978E-004
          63 -4.516261404122151E-002
          64 -1.720011595539328E-002
          65 -6.260904769282091E-002
          66 -1.340895805330749E-004
          67 -0.157484366075544     
          68  2.040848433573129E-002
          69  2.406932838044509E-003
          70  3.682305184339343E-005
          71  4.340498001232387E-002
          72 -3.066186966267893E-002
          73  0.152844732213565     
          74  2.578174945188327E-004
          75  0.236539395084219     
          76 -1.116453032983444E-002
          77 -4.526456437870943E-003
          78 -2.000242673997299E-005
          79  5.719330236594912E-002
          80 -0.105967742394993     
          81  1.653871739317427E-002
          82 -9.047839008553447E-005
          83 -0.128413144419192     
          84 -2.368950624091367E-003
          85  1.982913453340830E-002
          86  4.000510744110665E-005
          87 -4.158288552129144E-002
          88  7.122582545301470E-002
          89 -9.580049450311126E-002
          90 -5.742606524934921E-005
          91  0.178185413376457     
          92 -5.425330300294323E-002
          93 -3.099660633717415E-002
          94 -1.110736252538690E-004
          95 -0.100572587341564     
          96 -8.879596143724112E-002
          97  2.642111087774247E-002
          98 -1.391708433577691E-004
          99 -7.051163154197733E-002
         100 -0.177903559330314     
         101 -7.450243888931180E-002
         102 -2.006365793650491E-005
         103  9.128448465981572E-002
         104 -5.241422595003510E-002
         105 -5.206595553014116E-002
         106 -4.568835533671146E-002
         107 -2.455959232899684E-002
         108  3.832208452025386E-002
         109  7.881962303106094E-002
         110  1.958783199209115E-002
         111 -4.549896853297960E-002
         112 -5.113929901731620E-002
Sym=    15a
Ene=  -0.615531130242361     
Spin= Alpha
Occup=     2.00000000
           1  7.927391247343642E-002
           2  4.543010287785105E-002
           3  8.177816577472079E-002
           4 -1.844412518147498E-004
           5 -2.265463910678122E-003
           6  2.739760103936520E-003
           7 -4.742961932583979E-004
           8 -2.010231761986367E-003
           9  4.912274384824783E-006
          10 -9.673784538778647E-006
          11 -0.208457488339766     
          12 -9.129627559423138E-002
          13  4.643874478175765E-002
          14 -2.116984292528507E-004
          15 -1.718436402310075E-002
          16 -2.914504682354419E-002
          17 -0.209760207989400     
          18  5.213641626757805E-004
          19  0.254375300892640     
          20  8.774848314046670E-002
          21 -4.207465804359239E-002
          22  2.238746577675484E-004
          23 -0.165891406954060     
          24  0.146445599365435     
          25 -7.657004384228745E-002
          26  3.652980122170553E-004
          27 -5.575568192186325E-002
          28  7.492543368714029E-002
          29  0.234034125996069     
          30 -4.386853355775576E-004
          31 -3.735698779177968E-002
          32 -3.569719544678908E-003
          33  0.135692302321404     
          34 -2.001662667836623E-004
          35 -1.232174014393041E-002
          36 -0.118901990964726     
          37  2.812355668067233E-002
          38 -2.674699077917453E-004
          39  0.128616466745510     
          40  1.549627594723785E-002
          41 -1.588508009202839E-002
          42 -1.258320354345108E-005
          43 -6.542848793719262E-002
          44  8.359826764328625E-002
          45  2.066448508076411E-002
          46  1.582463837373788E-004
          47 -9.368163574951691E-002
          48 -5.552611675249223E-003
          49 -2.337713665422403E-002
          50 -4.170570649837346E-005
          51  4.730709319488849E-002
          52 -7.603391083182032E-002
          53  2.727642695476093E-002
          54 -1.164164576868183E-004
          55  0.183950912009578     
          56 -8.506151691422995E-003
          57  8.075450248513966E-003
          58 -3.204119463374342E-006
          59  4.390978666728492E-002
          60 -7.791011286073138E-002
          61 -8.182326689328231E-002
          62 -2.482598818452016E-004
          63 -0.109467318546011     
          64  2.347934191963175E-003
          65  2.221678954977205E-002
          66  2.363615898637622E-005
          67  3.690199866220348E-002
          68  4.373523614340188E-002
          69  4.118973088868087E-002
          70  1.163889761423682E-004
          71 -2.016378777816919E-002
          72  1.558399307856333E-002
          73 -2.892148966378758E-002
          74 -4.273440884375166E-005
          75 -7.539476124292156E-002
          76 -8.161609519168017E-004
          77 -8.307659156213920E-003
          78 -1.970060304119714E-005
          79 -4.252441721974687E-002
          80  2.775313434073530E-002
          81 -9.193826229645907E-003
          82  1.373376187294459E-005
          83  2.038023292520767E-002
          84 -9.985316480052887E-003
          85 -2.089558995211027E-002
          86 -5.475706764189732E-005
          87  5.689832515577134E-002
          88 -5.305308685282856E-002
          89  1.052668352367043E-002
          90 -4.591355086627759E-005
          91 -5.246078570673410E-002
          92 -8.693720844386008E-002
          93 -7.029730295524438E-002
          94 -2.021383351278366E-004
          95 -5.261353099932537E-002
          96  0.118008308876759     
          97 -9.713497303158498E-002
          98 -2.116962153467202E-005
          99  0.191281049139797     
         100 -0.138935318648161     
         101 -8.955313058025674E-003
         102 -7.946130597483643E-005
         103 -5.004171603188111E-003
         104  0.130070678681708     
         105 -7.996686710236635E-002
         106 -2.499111894984610E-002
         107  1.767155310480367E-002
         108  6.333329782260855E-002
         109 -2.774547864487232E-002
         110 -1.764702649744313E-002
         111 -3.328969866932394E-003
         112 -1.646619857724142E-002
Sym=    16a
Ene=  -0.606388438842760     
Spin= Alpha
Occup=     2.00000000
           1  2.125708751135440E-002
           2  1.277848580551478E-002
           3  2.467633598640131E-002
           4 -6.074734714002214E-005
           5 -6.765216867314376E-004
           6  8.546758887369509E-004
           7 -1.781542020055134E-004
           8 -4.915682096876756E-004
           9  7.391094187606402E-007
          10 -3.732189073287196E-006
          11 -5.401059820680768E-002
          12 -3.121474084272220E-002
          13  1.340354840581849E-002
          14 -9.346157658034001E-005
          15  8.704808248285400E-004
          16 -6.093404051516799E-003
          17 -6.236166454229497E-002
          18  1.484528283391290E-004
          19  6.176689511103022E-002
          20  3.961400448610566E-002
          21 -1.104034397010886E-002
          22  6.964511626523546E-005
          23 -6.122091832052112E-002
          24  2.937441095269524E-002
          25 -1.226388201834751E-002
          26  4.462440322698319E-005
          27 -3.649917028327653E-003
          28  7.382253973726100E-003
          29  5.713239878480644E-002
          30 -1.937807186154706E-004
          31  2.506060776060099E-002
          32 -9.096410943350421E-003
          33  1.357073942100891E-002
          34 -8.875451728242888E-005
          35 -0.147477007916978     
          36  0.103973103268341     
          37  6.967282616214160E-003
          38  1.350978853145070E-004
          39 -0.142523437105561     
          40  3.109377852736040E-002
          41  0.166503891040331     
          42  1.465975739077479E-004
          43 -0.130694818762085     
          44 -0.101408847711987     
          45  5.734729916665383E-002
          46 -1.236656801118032E-004
          47  5.460258803035018E-002
          48 -0.124982423788114     
          49 -8.219576770466602E-002
          50 -3.258166344030192E-004
          51  0.208477272373017     
          52  4.507589460276830E-002
          53 -3.822599177987913E-002
          54  4.244325649958180E-005
          55 -0.107401778676021     
          56  3.728975559718568E-002
          57 -0.133683960294790     
          58 -8.354636924236969E-005
          59 -0.138210668468462     
          60  7.659809340698455E-002
          61  0.105741165395311     
          62  2.756324800307665E-004
          63  0.119939128373828     
          64  2.788916499930176E-002
          65  8.065584446723591E-002
          66  1.474010366248350E-004
          67  5.720042699956322E-002
          68  2.189775017349785E-003
          69 -0.125279867719618     
          70 -2.070571177442666E-004
          71 -0.137968010148186     
          72 -1.835187981908423E-002
          73 -4.253045688416652E-002
          74 -9.473208342360097E-005
          75  5.685525083051255E-002
          76  8.996112059525693E-002
          77  0.122973676283020     
          78  3.565486315068595E-004
          79  0.236148917500884     
          80 -4.033685788464584E-002
          81  4.317117136795921E-002
          82  4.170165012056751E-005
          83 -7.429327959985922E-002
          84 -6.053378008027552E-002
          85  0.121435533755920     
          86  1.731072607951432E-004
          87 -8.423021875307551E-002
          88 -2.898857896054660E-002
          89 -0.108268385302512     
          90 -2.116425838680850E-004
          91  0.105969558712503     
          92 -2.650332865746739E-003
          93 -5.722199677399065E-002
          94 -8.646478854667223E-005
          95 -0.108553403193724     
          96 -0.138182969849257     
          97 -0.154473650078901     
          98 -3.277708890947580E-004
          99  5.269781469115638E-002
         100 -2.697771919940161E-002
         101 -8.334670790184429E-003
         102 -6.752771548719306E-005
         103  2.139543385380550E-003
         104  3.648240867917585E-002
         105 -2.761556882874760E-002
         106  6.697172122903528E-003
         107  8.475560282272217E-002
         108 -3.857235007555505E-002
         109  3.001900720200004E-002
         110  0.105653453098859     
         111 -4.518422187401768E-002
         112 -0.163679691808648     
Sym=    17a
Ene=  -0.604133449226616     
Spin= Alpha
Occup=     2.00000000
           1 -7.144520002733740E-002
           2 -7.466801365062897E-002
           3 -6.393442884714477E-002
           4  1.204167066906839E-004
           5 -2.881238756730625E-003
           6  3.500242176634694E-003
           7 -6.190034199040685E-004
           8  1.435137658138609E-003
           9 -6.971117727985013E-006
          10 -1.211606823170089E-005
          11  0.170688518460087     
          12 -4.908227352066948E-002
          13  9.974906306063523E-002
          14 -2.460503455537828E-004
          15 -8.937194648615124E-002
          16 -3.270112985388728E-002
          17  4.056991431934312E-002
          18 -1.202693659806670E-004
          19  6.575003812435613E-002
          20 -9.181652606248089E-002
          21 -5.857979010521752E-002
          22  6.892418055089190E-005
          23  0.106030273864512     
          24  2.152602693791757E-002
          25 -0.102822350105341     
          26  3.379949918871362E-004
          27 -0.135600153373901     
          28 -0.125111163136976     
          29 -6.522876300782141E-002
          30  1.829483403877548E-004
          31  0.169258238695441     
          32  1.794157436648870E-002
          33  7.383994377327567E-002
          34  2.461910464865679E-004
          35 -0.107935744541362     
          36  0.107151397971474     
          37 -5.465390922382058E-003
          38  2.404543208767934E-004
          39 -4.573867777454480E-002
          40 -0.109552792804738     
          41  6.916628109879716E-002
          42 -7.992454105288762E-005
          43  6.261293931209419E-002
          44  7.272424383861270E-003
          45  8.408683240057505E-002
          46  1.046762870876686E-004
          47 -0.112221596839305     
          48  3.681982881683396E-003
          49  2.670086580108562E-002
          50  3.658867090027615E-005
          51 -1.058206782406063E-002
          52 -7.820482076478996E-002
          53  3.019095044922077E-002
          54 -1.172383065136772E-004
          55  0.128524495545717     
          56 -2.121207955802401E-002
          57 -4.608709037043810E-003
          58 -4.803759127409985E-005
          59 -5.003358425514896E-002
          60 -7.757031365915482E-002
          61 -8.626732067474788E-002
          62 -2.659397476763534E-004
          63 -4.341879371590913E-002
          64  0.118009580913188     
          65 -5.139276062589476E-002
          66  1.228197502719822E-004
          67 -4.992185159855964E-002
          68  0.170362607844757     
          69 -3.105687582914065E-002
          70  1.731993046852628E-004
          71 -0.112351472365317     
          72 -3.448621367963835E-002
          73  0.127633564251628     
          74  2.043266135836749E-004
          75  0.150597121753833     
          76 -3.232465339538482E-003
          77  4.667396727895042E-002
          78  9.081486392720025E-005
          79  1.050922456746590E-002
          80 -0.110403432266445     
          81  1.737137441418637E-002
          82 -9.196990535567107E-005
          83 -0.131563617610618     
          84 -3.046554151588614E-002
          85 -4.473671399603606E-002
          86 -1.175650806382052E-004
          87  0.119038315693710     
          88 -4.301723136773579E-002
          89 -9.339903060381310E-002
          90 -1.866490208739750E-004
          91 -2.906537460625605E-002
          92 -0.152591704701469     
          93  7.437550821492857E-003
          94 -1.232872648999012E-004
          95  3.801745787394184E-002
          96  0.201409447700463     
          97 -0.120896888017677     
          98  3.649308973819979E-004
          99 -2.392126796568074E-002
         100  0.202998708720623     
         101  0.120352258425585     
         102  4.503441849045793E-006
         103 -5.479440863781135E-002
         104  3.997261185962150E-002
         105  7.047550898243532E-002
         106 -4.902832547319861E-002
         107 -4.244417480643679E-003
         108  5.429720204960733E-002
         109  6.905362458663500E-002
         110  2.769028390371174E-003
         111 -7.547220816179881E-002
         112  2.715693905364470E-002
Sym=    18a
Ene=  -0.601986296598336     
Spin= Alpha
Occup=     2.00000000
           1 -2.147454791039608E-002
           2 -1.254120061670344E-003
           3 -3.519761767070510E-002
           4  1.020459776716892E-004
           5  2.490201304941736E-003
           6 -3.420015929265541E-003
           7  9.298146243238046E-004
           8  2.808752151199864E-004
           9  1.412629445969704E-006
          10  1.417524436171314E-005
          11  6.045122243092156E-002
          12  9.541514436772140E-002
          13 -7.090238162132299E-002
          14  3.213002297420421E-004
          15  1.297603928857007E-002
          16  1.958791856844576E-002
          17  0.140408340170226     
          18 -3.322342025675634E-004
          19 -0.160156030387635     
          20 -8.555389804302586E-002
          21  4.582591480857414E-002
          22 -2.061300096875359E-004
          23  0.122664357900088     
          24 -5.593159689024291E-002
          25  5.534895424488964E-002
          26 -1.472295804238851E-004
          27  4.709337851185028E-002
          28  4.268245473603084E-002
          29 -9.863280052458546E-002
          30  4.626231113665389E-004
          31 -0.106933135755215     
          32  3.672312714309545E-002
          33  0.106861683151771     
          34  2.471825735578332E-004
          35 -8.465330420852527E-002
          36 -0.144454839704898     
          37 -5.454114061895183E-003
          38 -1.675514756169588E-004
          39  0.172044402914514     
          40 -2.446049817721074E-002
          41 -3.751683301332005E-003
          42 -2.003530307234288E-005
          43 -4.814705606186571E-002
          44  0.122534066626308     
          45  6.381733270888611E-002
          46  2.910722098750147E-004
          47 -0.109064822738205     
          48 -3.214233196909826E-002
          49 -4.407985729233471E-002
          50 -1.129140741630862E-004
          51  0.151728089901812     
          52 -0.113475004163306     
          53  1.615533755201858E-002
          54 -2.003486619765719E-004
          55  0.204195760241279     
          56 -2.223178463498995E-002
          57 -8.513538450242576E-002
          58 -1.322400061502262E-004
          59 -7.313464498766567E-002
          60 -9.211393181556120E-002
          61 -4.460544409137631E-002
          62 -2.157563135037521E-004
          63 -7.269763583735243E-002
          64  6.646124842737668E-002
          65  0.107068580608482     
          66  2.770940173123570E-004
          67  0.155624232493113     
          68 -2.806827466475708E-002
          69 -3.382588944025159E-003
          70 -2.725324096891698E-005
          71 -5.221346133434693E-002
          72  5.095186359654620E-002
          73 -0.157074722380385     
          74 -2.335325871307009E-004
          75 -0.155477961509189     
          76  8.500227254710346E-002
          77  4.752557700066786E-002
          78  1.987276972035191E-004
          79  0.131645566084548     
          80  7.386221307004720E-002
          81  1.202548350310748E-002
          82  1.121215862851821E-004
          83  1.745605307450056E-002
          84 -5.493005384761623E-002
          85  0.120505206298631     
          86  1.725337649288365E-004
          87 -0.114410333075585     
          88 -0.123196596729881     
          89 -1.084440265822026E-002
          90 -1.596337746233083E-004
          91 -5.900125726936915E-002
          92  3.005915432666684E-003
          93 -0.132600137804598     
          94 -1.270147580472280E-004
          95  9.609937956838084E-002
          96  8.505592586345932E-002
          97  1.371966809397096E-002
          98  1.581018408238245E-004
          99 -0.129004978787883     
         100 -1.107038799599254E-002
         101 -3.732793100015840E-002
         102  1.800478250953279E-004
         103  3.572991636127146E-003
         104 -0.102637863114117     
         105  4.109120189365174E-002
         106 -3.177274262316614E-002
         107  6.916626823010745E-002
         108  9.102503090606218E-002
         109 -6.834879793178127E-002
         110  6.152039431685780E-002
         111 -7.995087293928375E-004
         112  6.793830803535582E-002
Sym=    19a
Ene=  -0.588623707699698     
Spin= Alpha
Occup=     2.00000000
           1 -1.485302043790052E-002
           2 -9.374657440022065E-003
           3 -2.319324141635928E-002
           4  6.212299139465310E-005
           5  4.139951099252559E-004
           6 -8.051874397032811E-004
           7  3.911923297780253E-004
           8  2.333153264127062E-004
           9 -1.670392424523008E-007
          10  4.160237742901401E-006
          11  4.151164165667068E-002
          12  3.399627999822283E-002
          13 -1.649096502433202E-002
          14  1.137737946936243E-004
          15 -1.996088416721508E-002
          16 -5.864956947056577E-003
          17  6.300114336209089E-002
          18 -1.527680581872294E-004
          19 -3.042326603210248E-002
          20 -6.404212032127356E-002
          21  2.899656192752282E-003
          22 -5.537108237608486E-005
          23  5.957590478907679E-002
          24  9.573729444764032E-003
          25 -1.229615703510816E-002
          26  1.171509838079140E-004
          27 -6.749585708911264E-003
          28 -1.782782735650072E-003
          29 -1.302739299354760E-002
          30  2.433590071720875E-004
          31  4.078802476603869E-002
          32  2.626876785550948E-002
          33  0.198881861987914     
          34  2.991150501587492E-004
          35 -0.363671060851458     
          36  2.344015513899889E-002
          37  8.344685760102480E-003
          38  1.049016820954319E-004
          39 -4.029624144387541E-002
          40 -7.751374769772515E-002
          41  0.146476689285533     
          42 -1.426182173417861E-005
          43  6.776989464259685E-002
          44 -1.883947657077332E-002
          45 -3.084868793738877E-002
          46 -7.438366557840913E-005
          47  4.696396330732319E-002
          48  3.216798178558544E-002
          49  4.148495852369705E-002
          50  1.074321053335061E-004
          51 -9.009287217436165E-002
          52  3.569772188823621E-002
          53  1.621244445598141E-002
          54  8.748280698538283E-005
          55 -1.755347477289732E-002
          56 -5.851792192348625E-003
          57  6.378355137393212E-002
          58  6.279284793185172E-005
          59  2.740876524177277E-002
          60 -2.665754592538586E-002
          61 -3.530171446956944E-002
          62 -8.816997109135650E-005
          63 -6.953767397608374E-002
          64 -8.692817986246304E-003
          65 -7.414049267308272E-002
          66 -9.016664797350334E-005
          67 -5.963027118945317E-002
          68 -5.214738414668475E-002
          69  9.881087460729134E-002
          70  1.340654049374239E-004
          71  0.124917209143218     
          72  1.923952236228224E-002
          73 -3.770715196079326E-003
          74  1.942904971456199E-005
          75 -0.113108244124693     
          76 -4.329747183452583E-002
          77 -0.118813235726152     
          78 -2.879152171572287E-004
          79 -9.946098251242158E-002
          80  0.117877454266237     
          81 -5.981465322984714E-002
          82  2.053951349647760E-005
          83  0.141154632340854     
          84  1.492710326346797E-002
          85  1.794614946407785E-003
          86  3.617545356915886E-005
          87 -4.019384760671352E-002
          88  8.330187777428090E-003
          89  9.244124319401573E-002
          90  2.363420333479868E-004
          91  3.887221572040347E-002
          92  2.107030674824227E-002
          93 -0.133346778414321     
          94  3.186456251355535E-005
          95 -9.701709291992666E-002
          96 -0.113350335171474     
          97 -0.387801165417428     
          98 -1.663995015447442E-004
          99 -5.673122632907781E-002
         100  1.491883192339345E-002
         101 -1.099396340753049E-002
         102  1.053879736439374E-004
         103 -1.746023687644125E-002
         104 -2.676164507329193E-002
         105  2.118803783677846E-002
         106  1.008292647659225E-002
         107 -4.963488152831477E-002
         108 -1.130540633818122E-002
         109 -6.865540205805025E-002
         110 -6.042945889883848E-002
         111  5.133211683864677E-002
         112 -0.280493164370817     
Sym=    20a
Ene=  -0.579660591269414     
Spin= Alpha
Occup=     2.00000000
           1  1.138648045316574E-002
           2  2.198193859188393E-002
           3  7.697605246691012E-003
           4  4.013883620930914E-006
           5  8.803610149837274E-004
           6 -1.629094892635998E-003
           7  7.487338776522702E-004
           8 -6.397215405376948E-004
           9  2.771176494904214E-006
          10  7.790423252294144E-006
          11 -1.423898317764979E-002
          12  3.326823947500904E-002
          13 -5.136466365829057E-002
          14  2.022937240551608E-004
          15 -7.968681442083556E-003
          16 -1.077172376474968E-002
          17  5.231262235458178E-002
          18 -1.334819721616987E-004
          19 -4.617517382751432E-002
          20 -5.394353239340210E-002
          21  3.134821584777956E-002
          22 -1.285934139121377E-004
          23  3.317403216510183E-002
          24  2.225236433419856E-002
          25  1.539364424873436E-002
          26  2.939928035163907E-005
          27 -6.244006526874659E-003
          28  6.920903088952854E-002
          29  3.913104694731251E-004
          30  1.989118785834427E-004
          31 -4.126517106463162E-002
          32 -2.906819712810049E-002
          33  0.100514790812420     
          34  1.992468004785890E-005
          35 -2.049051189723200E-002
          36 -7.765997776695344E-002
          37  9.371863173854952E-003
          38 -1.162935663395167E-004
          39 -3.005685690942216E-002
          40  7.065303018134801E-002
          41 -3.896487499786689E-002
          42  8.226787856393878E-005
          43 -9.288759325850234E-002
          44  1.778365475979228E-002
          45 -0.187091474760554     
          46 -1.838295475277686E-004
          47  0.224325831692269     
          48  7.399889554850146E-002
          49 -3.131909768921079E-002
          50  1.009506507857868E-004
          51 -0.153458029979184     
          52  0.160715772994316     
          53 -5.191311420436890E-003
          54  3.007690300190336E-004
          55 -5.199362890991731E-002
          56 -9.901970682114042E-003
          57  0.203837275931833     
          58  2.076899555491981E-004
          59  0.206446293294215     
          60 -5.809883284053176E-002
          61 -4.348612049254488E-002
          62 -1.850679603828761E-004
          63 -0.131179165337579     
          64 -0.116852764302383     
          65  3.794405442059334E-002
          66 -2.081538658805506E-004
          67  9.934519890456796E-002
          68  0.131871838683119     
          69  5.509932421029473E-002
          70  1.800274263180624E-004
          71 -0.193231999946712     
          72  5.233744293328715E-002
          73 -7.399994108405775E-002
          74 -1.147280938786610E-004
          75 -9.497463413858816E-003
          76  0.118269012653210     
          77  0.129905564975443     
          78  3.895011413549028E-004
          79  9.428916622440173E-002
          80 -0.118955173322518     
          81  3.589413209035349E-002
          82 -7.011408838283619E-005
          83 -0.188893968311446     
          84 -0.118949519115304     
          85 -4.595050878603202E-002
          86 -2.409280314424105E-004
          87  0.132762680876907     
          88 -0.130168825866364     
          89 -7.181144025250562E-002
          90 -3.150264986720931E-004
          91 -7.717473345709864E-003
          92 -3.067603106952011E-002
          93  7.269139785173502E-003
          94 -2.377612526391525E-005
          95  2.053950170074528E-002
          96  3.031157975397017E-002
          97 -8.398895569890019E-002
          98  1.031428481219658E-005
          99 -3.680027264949282E-002
         100 -4.048350813903629E-002
         101 -4.369997748495411E-002
         102  1.453260868729951E-004
         103 -1.546003654073727E-002
         104 -4.974370866466201E-002
         105 -3.893604596783045E-003
         106  0.125400751481873     
         107 -8.915388380455438E-002
         108 -3.877576376617341E-002
         109 -2.549760312184997E-003
         110  4.513290779735112E-002
         111 -0.159833777650332     
         112 -3.338587511803875E-002
Sym=    21a
Ene=  -0.574741554806417     
Spin= Alpha
Occup=     2.00000000
           1 -2.041851495024677E-002
           2 -4.387376255155497E-002
           3 -1.232441227109734E-002
           4 -3.610618170807901E-005
           5 -1.765995981557523E-003
           6  3.199947139364239E-003
           7 -1.433951157806717E-003
           8  1.067482639722155E-003
           9 -5.685234727866867E-006
          10 -1.665388531072760E-005
          11  1.843176915981311E-002
          12 -7.003703261069316E-002
          13  0.107381966512775     
          14 -5.177877322006526E-004
          15  2.518162353777432E-002
          16  3.490666798812272E-002
          17 -0.118153789742752     
          18  2.706955328757421E-004
          19  7.938881190802094E-002
          20  0.129231136352698     
          21 -6.133891095384327E-002
          22  2.378451396085387E-004
          23 -6.513640765531800E-002
          24 -6.772908141577429E-002
          25 -1.093433936270090E-002
          26 -2.029347794110414E-004
          27  3.554032571613412E-002
          28 -0.135770613252718     
          29 -1.890543509869200E-002
          30 -5.174541702549106E-004
          31  7.378079736520270E-002
          32  6.218774524254454E-002
          33 -0.188016944980011     
          34 -2.289672385596269E-004
          35 -2.085078693651840E-002
          36  0.173715715816290     
          37 -5.180247437474342E-002
          38  7.775527364715329E-005
          39 -8.165089135175037E-002
          40 -9.624388697627467E-002
          41  4.028722705880765E-002
          42 -3.000950769061895E-004
          43  0.135493094864749     
          44  1.498002389357888E-002
          45 -8.155390846967801E-002
          46 -1.014617815050993E-004
          47  6.403936044489383E-002
          48  0.103008836372258     
          49  9.352390702074392E-002
          50  2.863502960761319E-004
          51 -0.140037955866766     
          52 -1.839721166504214E-002
          53  6.277121801560603E-002
          54  3.135278142410805E-005
          55  0.134623916998143     
          56 -7.669141235706613E-002
          57  7.125519656409546E-002
          58 -6.237426345828287E-005
          59 -3.726422842455256E-002
          60 -0.155370113322109     
          61 -0.102059904853053     
          62 -4.072389345013118E-004
          63 -0.129202317745089     
          64  9.185619910984852E-002
          65  6.993876229843619E-003
          66  2.053811848221569E-004
          67  0.105412447278438     
          68 -8.221213754449384E-002
          69  7.757549499882002E-002
          70  2.674563985877416E-005
          71  6.340898273745407E-002
          72  8.478919894747780E-002
          73 -0.162917275632868     
          74 -2.143325867677385E-004
          75 -0.140201260197469     
          76  9.883269791933544E-002
          77  5.662794718617251E-003
          78  1.290322878733675E-004
          79  0.132934370312214     
          80  5.465755266298576E-002
          81  4.909645542272863E-002
          82  1.602650927164767E-004
          83 -6.990675043209955E-002
          84 -3.755413448116724E-002
          85  0.132128190296942     
          86  1.972680788966476E-004
          87 -0.116782887469080     
          88 -2.410874743304336E-002
          89 -7.693157878588851E-002
          90 -2.356710008054024E-004
          91  0.103472635054334     
          92  9.788832677552625E-002
          93  3.856842594698900E-002
          94 -9.413004260222514E-005
          95  3.641171731123417E-003
          96 -0.191489508844491     
          97  0.120273745520905     
          98 -5.291439061981120E-004
          99  7.098557865830175E-002
         100  8.395051152162915E-002
         101  8.004590296792193E-002
         102 -4.343668931211704E-004
         103  4.528664830105290E-002
         104  9.990710112839155E-002
         105  9.754184725799406E-003
         106  2.467704327428365E-002
         107 -8.578845463213408E-002
         108  8.440496006620708E-002
         109 -9.311213192138786E-002
         110  8.856576556413547E-002
         111 -2.558309231484113E-002
         112 -1.355372650951698E-002
Sym=    22a
Ene=  -0.568610588949738     
Spin= Alpha
Occup=     2.00000000
           1 -7.617522240401052E-002
           2 -9.732651247794337E-002
           3 -0.113283825942414     
           4  3.138321347166973E-004
           5  2.360154228748027E-005
           6  1.815376852203996E-003
           7 -1.838978394491477E-003
           8  2.766525161956929E-003
           9 -5.100521809891224E-006
          10 -6.824485951709813E-006
          11  0.125843315529871     
          12  4.633312007322696E-002
          13  0.111040189747850     
          14  1.480920836647367E-004
          15  1.233451335149328E-002
          16  7.932247574304035E-002
          17  1.567579862241473E-002
          18  2.485817068117993E-004
          19  6.256018850688057E-002
          20  7.179685312546611E-003
          21 -0.128818586136408     
          22  5.319776686773163E-004
          23  4.336816998791447E-002
          24 -5.250210770860136E-002
          25 -0.114074628055662     
          26  5.281352464558527E-004
          27  2.443833352698993E-002
          28 -0.173793481327931     
          29  3.427248471736473E-002
          30  4.108551805772113E-004
          31  3.909725084550186E-002
          32  0.175610562651693     
          33  1.161938043115577E-002
          34  1.099707611410395E-003
          35 -7.057468566563450E-002
          36 -8.652629862870874E-002
          37 -1.461417759603528E-002
          38  3.977123528525579E-004
          39  0.197257866830709     
          40 -1.690965549472327E-002
          41  6.543230789657793E-002
          42  4.350515467060291E-004
          43 -0.150933435670190     
          44  0.155337361781754     
          45 -3.418940652045466E-002
          46  3.455824693616536E-004
          47  0.103194732144478     
          48 -1.411442716844321E-002
          49 -0.153223419568359     
          50 -1.650085607643886E-004
          51  6.578471057441042E-002
          52  0.100054630548172     
          53 -8.732388511376056E-002
          54  1.109178731297416E-004
          55 -8.249346719458293E-002
          56  2.221006111519712E-002
          57  7.082756036148129E-002
          58  1.439436036115253E-004
          59  0.193743303431365     
          60  3.457488901868901E-002
          61  6.790267272695291E-002
          62  1.842237462892778E-004
          63 -5.206057980693300E-002
          64 -0.183360037249375     
          65  9.332909930178453E-002
          66 -1.589618037129367E-004
          67 -5.165988433262974E-002
          68 -0.109497028520871     
          69 -1.143017209760737E-002
          70 -7.513473371540042E-005
          71  9.694637195065235E-002
          72 -3.114176653201188E-002
          73 -2.046559403122725E-002
          74 -2.569688308518968E-005
          75  1.220733662427167E-004
          76 -3.491427436334660E-002
          77 -1.692979968814071E-002
          78 -4.330613464904907E-005
          79  3.494375934421918E-002
          80  5.287583343944800E-002
          81  3.804928027890993E-002
          82  1.776905240174643E-004
          83  5.093752320656328E-002
          84  7.186571129447443E-002
          85  7.154100449684686E-002
          86  3.204809881891824E-004
          87 -3.391865843901457E-002
          88  0.116851486855084     
          89 -7.717814484542822E-002
          90  2.605790215878130E-004
          91  0.125616883990880     
          92 -0.164854792899896     
          93 -5.583893201752796E-002
          94  3.185401863230823E-004
          95 -6.250971724521091E-002
          96  0.141197104198141     
          97  5.326399334661593E-002
          98  1.197821628735683E-003
          99  3.713808298389791E-002
         100  4.210375036773442E-002
         101  0.121359967235113     
         102  3.331102126665096E-004
         103  5.716861530682973E-002
         104  0.111475788220715     
         105  9.047746381653252E-002
         106  0.100064762428130     
         107  5.614230477587901E-002
         108 -5.328066963653211E-002
         109  8.516387583264022E-003
         110  4.487801078133663E-002
         111  8.271266296754959E-002
         112  7.686184045482594E-002
Sym=    23a
Ene=  -0.564567981761970     
Spin= Alpha
Occup=     2.00000000
           1 -2.913403864856301E-004
           2 -2.527901273081181E-004
           3 -6.374658734641711E-004
           4 -3.043195409169041E-002
           5  1.052048563877148E-005
           6 -1.418393159043262E-005
           7  3.663445951661137E-006
           8  7.825166957762147E-006
           9 -9.169900351608828E-004
          10 -1.692144348376301E-003
          11  5.689197381555611E-004
          12  7.528386330860536E-004
          13 -3.710135045651262E-004
          14 -0.139533218836228     
          15 -1.123342002962960E-004
          16  2.339414477740992E-004
          17  5.225020974196572E-004
          18 -7.416885845115687E-002
          19  7.124979342910339E-005
          20 -6.107165732818367E-004
          21 -5.891027811606831E-004
          22 -6.668626954698335E-002
          23  4.335653021903035E-004
          24  3.586274176065185E-004
          25 -9.327033034061304E-004
          26 -0.104495029885949     
          27 -6.946009063898186E-005
          28 -1.497659564640073E-005
          29 -7.966479927429709E-005
          30 -0.239750352328947     
          31  1.658490173026959E-004
          32  8.475805287930612E-004
          33  2.174088210056139E-004
          34 -0.359319304776067     
          35 -2.481046931514046E-004
          36  3.184564634246788E-004
          37  1.371401513185492E-004
          38 -0.243307663579129     
          39  4.204395794693161E-004
          40  2.311639793952730E-004
          41  4.103219781478877E-004
          42 -0.197055537565593     
          43 -3.629523374493044E-004
          44  4.623254900168926E-004
          45  9.890734033959268E-005
          46 -7.266470280649613E-002
          47  1.705032623207467E-004
          48 -4.547407751172548E-005
          49 -3.654778024785587E-004
          50 -2.496764917116315E-002
          51  1.971324470628034E-004
          52  2.613872872170266E-004
          53 -2.229357859479290E-004
          54 -1.113079659771069E-002
          55 -2.473210565994232E-004
          56  1.154059774753978E-004
          57  1.729356132194823E-004
          58 -1.205610131794851E-002
          59  4.565294759168752E-004
          60  1.705410555607062E-004
          61  1.884565612888501E-004
          62 -2.331926913022464E-002
          63 -8.435988534209770E-005
          64 -3.242241662292844E-004
          65  1.998401978807126E-004
          66 -4.608463410354988E-002
          67 -1.891344803599732E-004
          68 -1.240109687719802E-005
          69  7.054612028956600E-005
          70 -5.691217534115739E-002
          71  1.771724450610312E-004
          72 -8.113419297936041E-005
          73  1.867712288369361E-004
          74 -3.106286872278024E-002
          75  3.484833090502480E-005
          76 -1.490051706762986E-004
          77 -9.320006099862437E-005
          78 -1.768274667730682E-002
          79 -5.565892309435895E-005
          80  1.947217728508094E-004
          81  1.896630866401044E-005
          82 -1.806020770680131E-002
          83  2.359057462150280E-004
          84  1.898643903472007E-004
          85  1.879591949176728E-004
          86 -4.026987384156268E-002
          87  2.640159210647488E-005
          88  2.943059516079791E-004
          89  6.863514957646005E-005
          90 -0.107244363853735     
          91  2.724094578910275E-004
          92 -8.461504559611197E-005
          93 -1.213658485737405E-005
          94 -0.274648582915335     
          95 -1.031870780348994E-004
          96  1.068950800276133E-003
          97  2.645126944983964E-004
          98 -0.458208512062163     
          99 -7.809082687632360E-005
         100 -1.057680173169709E-004
         101 -3.465994540786125E-004
         102 -0.212495498391461     
         103 -1.952287100187800E-005
         104  1.388741778356463E-004
         105  3.595924484506843E-004
         106  2.006974808959665E-004
         107  1.672184176208610E-004
         108 -1.708689550499974E-004
         109  3.650054311891693E-005
         110 -1.295874772306842E-005
         111  2.089187768428848E-004
         112  2.295944553028632E-004
Sym=    24a
Ene=  -0.551596056523817     
Spin= Alpha
Occup=     2.00000000
           1  6.886909819353686E-002
           2  7.410576356900944E-002
           3  0.138958441884087     
           4 -3.673644528412110E-004
           5 -1.500964908010554E-003
           6  2.467258348334987E-004
           7  1.254239073177055E-003
           8  3.352073582894479E-004
           9 -3.200105665851350E-006
          10  5.643006494758762E-006
          11 -4.680208773786393E-002
          12 -0.125274180759965     
          13 -9.221010267378045E-002
          14 -4.765728681855975E-005
          15 -6.672759380464598E-002
          16 -0.280806901309586     
          17 -5.029257983273215E-002
          18 -2.818067536527431E-004
          19  1.415686834788385E-002
          20  9.270032491943515E-003
          21  0.226612615652800     
          22 -6.761318227369957E-004
          23 -0.107137133697326     
          24  0.103627534390633     
          25  0.153321859073173     
          26 -3.872320042711938E-004
          27 -6.047078136979096E-002
          28 -1.264872040134291E-002
          29 -8.557147567039285E-002
          30  3.345230112505595E-005
          31  9.054592962020599E-002
          32 -2.978700907470109E-002
          33 -1.968607285637268E-002
          34 -1.319776330472164E-004
          35 -1.619921350252089E-002
          36  0.112163801946215     
          37  1.272837508187199E-002
          38  8.314212852404579E-005
          39 -9.481602360174798E-003
          40 -6.222435571262416E-002
          41  7.413583628523726E-002
          42 -1.137955462008338E-004
          43 -2.353072838775974E-002
          44  5.125643578312982E-002
          45 -1.064129291036057E-002
          46  4.249824138613439E-005
          47  8.593977512524394E-002
          48  2.879064435827888E-002
          49 -6.551453958018499E-002
          50 -3.392063176263757E-005
          51 -2.299238952311278E-002
          52  5.378141263859853E-002
          53 -3.234970778419247E-002
          54  6.126256042957730E-005
          55  2.937690337190287E-002
          56 -5.217130050038664E-002
          57  7.248082827605477E-002
          58 -2.017232762004833E-005
          59  5.639577639911388E-002
          60 -7.862437939607053E-002
          61 -1.696449643564313E-002
          62 -1.756874490233672E-004
          63 -3.790304793394173E-002
          64  8.582304622488580E-003
          65  6.993536157773080E-002
          66  9.162885105428398E-005
          67  9.853988588685294E-003
          68 -5.240955012897183E-002
          69 -4.977496148746346E-002
          70 -1.448645391002536E-004
          71  0.108605815222222     
          72 -4.663494457489953E-002
          73  6.660930668541678E-003
          74 -2.892450916158365E-005
          75  1.088430272391476E-002
          76 -8.419460567654659E-002
          77 -1.970570515733026E-002
          78 -1.297826473542416E-004
          79  3.139790081741152E-002
          80  8.137420169779752E-002
          81  8.495426300864614E-002
          82  2.775055211888448E-004
          83  4.425930676296215E-002
          84  0.115178290545850     
          85  0.112828748702636     
          86  3.713964890498678E-004
          87 -2.797048899297600E-002
          88  7.471243227725867E-002
          89 -0.117580215964797     
          90 -1.083282100999102E-004
          91  4.146830202036166E-002
          92 -0.140996885038700     
          93  1.345558773464893E-002
          94 -2.387188510924846E-004
          95 -3.159366093423425E-003
          96  0.142799707220519     
          97  3.517413094388678E-003
          98  1.083142765272842E-004
          99 -0.143733565568506     
         100  0.116048929000366     
         101 -3.708126486599389E-002
         102  3.217911538927822E-005
         103 -0.226817969430801     
         104 -0.147339480393168     
         105 -0.170135659927788     
         106  7.658467898903690E-002
         107 -1.333628749698461E-003
         108  3.498110304842254E-002
         109  3.633052647628441E-002
         110  8.152578622919573E-002
         111  0.123660709039627     
         112  6.898106818563463E-002
Sym=    25a
Ene=  -0.547308021475391     
Spin= Alpha
Occup=     2.00000000
           1 -1.977949049960627E-002
           2  2.338468160276324E-002
           3 -8.535158609052824E-002
           4  2.925902825070969E-004
           5  3.326058982927168E-003
           6 -3.171918793625955E-003
           7 -1.541401893012130E-004
           8  1.974394501469761E-003
           9 -1.060659788412383E-006
          10  9.964023683845990E-006
          11  6.949694104157238E-002
          12  0.190749814412451     
          13 -0.135142751401731     
          14  6.824474156645375E-004
          15 -5.652447992895266E-002
          16 -8.186341762786799E-003
          17  0.260952371489380     
          18 -6.205505737838733E-004
          19  2.695006599673262E-002
          20 -0.238736562593452     
          21 -0.121820599415538     
          22  1.073273575377468E-004
          23  7.290333549701904E-003
          24  0.171805191894032     
          25 -0.211168611292499     
          26  8.193876713432459E-004
          27 -5.605388310455928E-002
          28  4.984013415396096E-002
          29  0.252326104599272     
          30 -4.028956960369582E-004
          31  3.191213243229505E-002
          32 -4.286456758433371E-002
          33 -1.073251503095365E-002
          34  7.413968441660088E-005
          35  0.100376761194146     
          36  4.245209860773100E-002
          37 -6.329172392716469E-003
          38  3.065444983297040E-004
          39 -0.104561720920673     
          40  1.789226621359131E-002
          41 -6.033099139735130E-002
          42  3.460143024564018E-004
          43  3.775924450441128E-002
          44 -3.455716127314830E-002
          45 -6.613572284157267E-002
          46  1.019751422190319E-004
          47  4.575623874046957E-002
          48  7.096436987039269E-002
          49  5.452110503588328E-002
          50  2.916154609490217E-004
          51 -6.272127454505827E-002
          52 -3.877251479896870E-002
          53  4.290293609830823E-002
          54  3.002132101773370E-005
          55  9.363533050720188E-002
          56 -8.021088373991557E-002
          57 -2.108526437332962E-002
          58 -1.009179396045050E-004
          59 -6.927042914439480E-002
          60 -6.743897557013941E-002
          61 -9.850126922253994E-003
          62  6.833748133689871E-006
          63  1.449867967836378E-002
          64  6.286176211997299E-002
          65  7.635902540589627E-002
          66  4.466911543021565E-004
          67  6.434173501730930E-002
          68 -7.976310040553543E-002
          69 -7.320541727982212E-002
          70  1.927221373318756E-005
          71  7.457267872692708E-002
          72 -3.562633507519188E-002
          73 -4.891832453946372E-002
          74  4.511175311071682E-005
          75  3.874267216718915E-002
          76 -6.433569433150613E-002
          77  5.582219285989648E-002
          78  1.453954194571998E-004
          79  3.523747803696024E-002
          80  7.114835396860812E-003
          81  0.119254959808686     
          82  3.434453434416435E-004
          83  1.259824083419794E-002
          84  0.128234660479464     
          85  4.284027486406519E-002
          86  3.824108033014140E-004
          87  7.342747022247909E-004
          88  0.101869774141266     
          89 -7.406170346216320E-002
          90  2.768242164148636E-004
          91  2.905102227900863E-002
          92 -1.517437068536330E-003
          93  0.128281520178170     
          94  6.368605768973446E-004
          95 -6.179032604142345E-002
          96 -4.996405177190241E-002
          97 -1.873735590556113E-002
          98  5.773962326847755E-004
          99  2.997871179466775E-002
         100 -0.225134844133802     
         101 -7.746139784667583E-002
         102  1.657508710287649E-004
         103 -6.161886473895079E-002
         104  3.801174476078410E-002
         105  3.138633738984179E-002
         106  2.634773914461596E-002
         107 -4.486980270361903E-002
         108  9.308938438430296E-002
         109  7.319056796132806E-002
         110  9.892693634398568E-002
         111  0.102612287217973     
         112 -4.901991477019314E-002
Sym=    26a
Ene=  -0.542758826253494     
Spin= Alpha
Occup=     2.00000000
           1 -6.843573959014393E-005
           2 -1.244724750709585E-004
           3 -3.564632769653203E-004
           4 -0.105217282073501     
           5 -4.940715202707705E-006
           6 -3.369373699512182E-006
           7  8.310088902219887E-006
           8 -1.081027706171226E-005
           9 -7.895353285977447E-004
          10 -1.997963091592786E-003
          11 -6.462154282819292E-005
          12  1.202280953318139E-004
          13 -5.781815904544276E-004
          14 -0.383554677044384     
          15  1.574161668753547E-004
          16  5.521888054638485E-004
          17 -1.131055539247799E-003
          18 -0.233170189790831     
          19 -6.228746761667654E-005
          20  6.733921610976843E-004
          21 -4.074309432194459E-004
          22 -0.178810629583513     
          23  1.262409868905208E-004
          24 -2.171642327613947E-004
          25 -1.329148623810819E-004
          26 -0.178446769358195     
          27  2.186801852147993E-004
          28  2.426698148020208E-004
          29 -1.078257774027343E-003
          30 -0.268093006001062     
          31 -2.079440292183068E-005
          32  4.640497401533389E-005
          33  5.014513275857745E-004
          34  5.357347534179369E-002
          35 -4.899846416147490E-004
          36 -6.728586582909435E-004
          37 -1.831071780448144E-004
          38  9.829734129508720E-002
          39  7.436143947093234E-005
          40 -4.773092180727844E-004
          41 -7.274975103396110E-004
          42  0.137866536592925     
          43  7.802645839208910E-005
          44  4.419869259078553E-004
          45 -3.074892281390267E-004
          46  8.030087386100361E-002
          47  2.276034315857409E-004
          48  5.191170347408950E-004
          49 -3.293362655768424E-004
          50  3.500731600758376E-002
          51  3.315016358476837E-005
          52 -3.811244094095480E-004
          53 -3.841320561062965E-004
          54  2.161802169709237E-002
          55  4.022560916807799E-004
          56 -6.474787149111271E-004
          57 -1.885760000424219E-004
          58  2.772282515203300E-002
          59  2.116989150110464E-004
          60 -2.696341515995710E-004
          61  2.718938984977876E-004
          62  4.903071202489492E-002
          63  3.104194159309163E-004
          64 -2.339924837775985E-004
          65  6.934026238013159E-004
          66  7.551695930506187E-002
          67  3.259047940336374E-004
          68 -3.395710111297950E-004
          69 -7.713250015206009E-004
          70  9.196193606620356E-002
          71 -4.300649870787447E-004
          72 -3.329827292789241E-004
          73 -2.856165754493394E-004
          74  6.541832976148401E-002
          75  6.023530372896848E-004
          76 -3.256328677190920E-004
          77  6.430068042776915E-004
          78  4.062863531322370E-002
          79 -3.122334792315450E-004
          80 -6.140442946534777E-004
          81  5.253842154754628E-006
          82  3.509827998294004E-002
          83  2.463615839694560E-004
          84  2.948509470722704E-004
          85 -7.757219069968118E-004
          86  5.725958564132135E-002
          87  1.440966057476016E-004
          88  2.208823663143749E-005
          89  3.799739184945498E-004
          90  0.119003902465432     
          91 -4.858545545206372E-004
          92  2.645469785798429E-004
          93  1.696196380680893E-005
          94  0.197919260873381     
          95  3.184140481012848E-004
          96 -6.278315277147217E-004
          97 -8.738456533679366E-004
          98  0.230562715175343     
          99 -1.090550733107790E-005
         100  8.118166794537804E-004
         101 -9.699179004553588E-004
         102 -0.434319125651052     
         103  3.492203947378322E-004
         104  2.606901718764453E-005
         105  8.573350657334408E-005
         106  5.075558595823184E-004
         107  3.349638367993049E-004
         108  5.813209311359739E-004
         109  7.301342924632174E-004
         110 -1.558927185916186E-004
         111  2.127316814662848E-004
         112 -5.961083453079687E-004
Sym=    27a
Ene=  -0.542240383172286     
Spin= Alpha
Occup=     2.00000000
           1  1.469968971923849E-004
           2 -2.013079890354243E-002
           3  2.297263390121318E-002
           4  3.076592376916853E-004
           5 -1.541103595521519E-003
           6  1.407112608968891E-003
           7  1.339909865526282E-004
           8 -1.747071180126605E-003
           9  5.977600146245399E-006
          10  2.177997704262015E-006
          11 -3.813086121156498E-002
          12 -7.475446101722753E-002
          13  8.352049536822638E-002
          14  1.111351826848546E-003
          15  4.564512679568179E-002
          16  8.113754588477923E-002
          17 -0.122353031732437     
          18  1.280895413495627E-003
          19 -3.267861610431291E-002
          20  0.108517329190815     
          21  2.106989802895179E-002
          22  7.414453378879715E-004
          23  3.848725537930765E-002
          24 -0.110223905645920     
          25  7.700550862846324E-002
          26  3.480040136300729E-004
          27  3.578848763600183E-002
          28  2.900823633514845E-003
          29 -0.113215774040636     
          30  1.265487610524201E-003
          31 -1.066669879696061E-003
          32 -3.982790827636174E-004
          33  0.102721671938247     
          34 -3.185521332776026E-004
          35 -7.048828495688277E-002
          36 -8.453323501149754E-002
          37 -2.366028085785225E-002
          38 -7.610409399770173E-004
          39 -2.976720723886604E-002
          40 -3.933889001504502E-002
          41 -0.141897563036560     
          42 -9.720786969341632E-004
          43  2.509581368803437E-002
          44  0.100269238094333     
          45 -6.918859778110147E-002
          46 -3.159894368424956E-004
          47  6.660377385895200E-002
          48  0.147593294085514     
          49 -4.193523712450225E-002
          50  3.780031333834120E-005
          51 -1.794276655179317E-002
          52 -8.343023894380282E-002
          53 -5.945055694519849E-002
          54 -3.452436796828907E-004
          55  0.117034263455708     
          56 -0.156312085108536     
          57 -4.158001267964642E-002
          58 -4.927736568104778E-004
          59  1.734529427814014E-002
          60 -5.882794665795391E-002
          61  6.760522025599665E-002
          62 -2.853354725989518E-004
          63  7.761826510767954E-002
          64  5.710088496396662E-003
          65  0.192972329947789     
          66 -1.472074066316256E-004
          67  9.705093386559262E-002
          68 -5.223725469118848E-002
          69 -0.161000089850171     
          70 -8.825674733690292E-004
          71 -7.239046387540503E-002
          72 -7.214116206478016E-002
          73 -3.140761556861456E-002
          74 -5.038051111265733E-004
          75  0.145168812949639     
          76 -9.645295947286266E-002
          77  0.164691847767516     
          78 -1.385256848064580E-005
          79 -6.708980834828647E-002
          80 -0.106632752572440     
          81  4.593539310876412E-002
          82 -2.402134052769369E-004
          83  7.330948648743056E-002
          84  0.119446204786428     
          85 -0.122003294723787     
          86 -4.474550193568757E-004
          87  3.622271100682074E-002
          88  4.722309219372053E-002
          89  0.103409870794905     
          90 -4.865934543060941E-004
          91 -8.680777319316059E-002
          92  0.119387203437466     
          93  6.763256598792848E-002
          94 -8.765350738665086E-004
          95  3.066488067411935E-002
          96 -0.102221918463299     
          97 -0.171824246814335     
          98 -1.507379870548529E-003
          99  1.004996386641045E-002
         100  9.245505758823716E-002
         101  2.859276891255851E-002
         102  1.565589726302019E-003
         103  9.658813646086253E-002
         104 -2.610947535357077E-003
         105  2.874932156803166E-002
         106  0.117728382015981     
         107  5.199751444123975E-002
         108  0.157969776075015     
         109  0.186767920783501     
         110 -1.099059124148754E-002
         111  8.742543387748060E-002
         112 -0.144613856825588     
Sym=    28a
Ene=  -0.536128611137315     
Spin= Alpha
Occup=     2.00000000
           1  1.382849916595643E-002
           2  3.991876903152069E-002
           3  4.783315209275441E-002
           4 -1.479094030049459E-004
           5  2.134299228260991E-004
           6 -1.708181131295186E-004
           7 -4.261180969658054E-005
           8 -3.842030439917210E-003
           9  1.199400327425043E-005
          10 -2.265961065340185E-006
          11 -9.659854045599801E-002
          12 -3.733010453608503E-002
          13  2.355362998909385E-002
          14 -2.700559451004905E-004
          15  8.607518967544653E-002
          16  0.219590200392785     
          17 -5.520883972241812E-002
          18  2.744894404354364E-004
          19 -9.329636128663940E-002
          20  2.153122900320188E-002
          21 -3.088221483903358E-002
          22 -1.880181117201791E-006
          23  0.105426125632877     
          24 -9.781388744558857E-002
          25 -2.374444197758452E-002
          26 -1.574964673354193E-004
          27 -3.972994512085707E-002
          28  0.159899952588151     
          29 -4.136671693650007E-002
          30  1.209811101124144E-004
          31 -8.427411605322080E-002
          32 -0.149918372348916     
          33  2.018262750181089E-002
          34 -1.936383267064210E-004
          35  4.735876994823911E-002
          36  4.257830748411576E-002
          37  4.166319340571524E-002
          38  1.953687997423867E-004
          39 -8.311232673281452E-002
          40  8.764469839274697E-002
          41  8.300715992498062E-002
          42  3.144224534050820E-004
          43 -6.922076593690520E-002
          44 -0.123748124114548     
          45  5.656841789905812E-002
          46 -8.775535039560689E-005
          47  8.736265030825975E-002
          48 -6.240527030121702E-002
          49 -6.376802735707560E-002
          50 -1.507579065623151E-004
          51 -6.347383656553329E-002
          52  0.145186079503624     
          53  1.671277131952670E-002
          54  3.168463366749971E-004
          55  1.750325124171238E-002
          56 -3.148810997566943E-002
          57  0.140116367471967     
          58  1.139235218222926E-004
          59 -2.089660371100826E-002
          60 -0.127551711127377     
          61 -0.113364493077031     
          62 -3.634622937624080E-004
          63  1.438286439268369E-002
          64  0.160035618497908     
          65  1.439435830204506E-002
          66  3.527161040155339E-004
          67  7.084952264475282E-002
          68  0.153654813051626     
          69 -8.998494900486768E-002
          70  1.569818906899729E-004
          71  3.111524052838744E-002
          72 -7.067086663294761E-002
          73  0.155205014050659     
          74  3.078978571255994E-004
          75  1.702130388448725E-002
          76 -0.169961161425386     
          77 -8.837040522405305E-002
          78 -3.245252646873433E-004
          79 -2.765503909498917E-002
          80  0.169373867613852     
          81  3.477051532602251E-002
          82  3.116508944254419E-004
          83  6.430958765593593E-002
          84  7.194170891437533E-002
          85  0.175898488489714     
          86  4.908737000994516E-004
          87 -3.406849205134986E-002
          88 -0.134702707219537     
          89 -0.112533491534850     
          90 -2.592643914343896E-004
          91 -5.248207890171010E-002
          92 -5.407105664197740E-002
          93 -7.253658953616027E-002
          94 -6.389137871811816E-005
          95  3.043565910454851E-002
          96  8.690988624954894E-002
          97  1.163482243597478E-002
          98  1.503101745466357E-004
          99  0.117736830546440     
         100 -2.369562990145883E-002
         101 -1.294905775887777E-002
         102 -1.786293559794616E-004
         103  0.218543965782024     
         104 -1.724788167809446E-002
         105  0.111924796134253     
         106  4.080785201730905E-002
         107 -7.570707262173236E-002
         108  9.348753702767009E-003
         109  5.404619671930848E-002
         110  3.491378629743346E-002
         111  0.126207255802417     
         112  7.081050051375797E-002
Sym=    29a
Ene=  -0.529054825398704     
Spin= Alpha
Occup=     2.00000000
           1 -7.502652667844044E-003
           2 -9.691337184865820E-004
           3 -4.256862880253005E-002
           4  2.231688077138235E-004
           5  6.313003349796951E-004
           6 -5.000516670468098E-004
           7 -1.312486679328854E-004
           8  2.103229006189103E-003
           9 -5.271291796762287E-006
          10  2.250224557996000E-006
          11  4.991558607939234E-002
          12  6.631796451232722E-002
          13 -5.009980189084113E-002
          14  5.284899613694580E-004
          15 -4.911572066973770E-002
          16 -7.530655461735529E-002
          17  8.859227686885128E-002
          18 -9.190295263692490E-005
          19  5.087590455949310E-002
          20 -4.018113767704853E-002
          21 -6.068282282520221E-002
          22  2.816948221988755E-004
          23 -6.829064402467708E-002
          24  6.630949775961555E-002
          25 -3.814087494451834E-002
          26  2.822384534212008E-004
          27  1.832708088447827E-002
          28 -3.620798318997669E-002
          29  7.721597266975908E-002
          30 -1.528010736603663E-004
          31  7.781760035828884E-003
          32  2.222701920825884E-002
          33 -0.135377082130672     
          34  5.358265883280331E-005
          35  2.062400353995863E-003
          36  0.114962929418065     
          37 -3.050903995738907E-002
          38  2.688481619561364E-004
          39  1.322042843486760E-003
          40 -8.030590540655773E-002
          41  4.595475132044109E-002
          42  2.502451083917781E-005
          43  7.554397403048551E-003
          44  6.003845093578426E-002
          45  0.137377004891136     
          46  3.725995322193036E-004
          47  6.498271305041997E-002
          48  4.787360238673511E-002
          49 -0.216055655678775     
          50 -9.521804419067236E-005
          51  1.574713826869459E-002
          52  5.887563543498332E-002
          53 -0.215736928951613     
          54 -8.390232325430358E-005
          55  1.650808175204880E-002
          56 -0.162561401211048     
          57  0.120542827206171     
          58 -1.224645483097174E-004
          59  0.104610516317412     
          60 -0.108449877621579     
          61 -1.020409168173460E-002
          62 -1.484813448818453E-004
          63  9.467607275724799E-002
          64  9.391437617583670E-002
          65  4.992300991710542E-002
          66  3.405257172039184E-004
          67 -1.155843133655442E-002
          68  8.737922572665643E-002
          69 -0.107581001612769     
          70  1.354139951250684E-004
          71 -0.109893469828916     
          72 -1.839969337676456E-002
          73  0.133730572741501     
          74  3.989667848002856E-004
          75  2.930411471160091E-002
          76  1.708349881013467E-002
          77 -8.473380758460967E-002
          78 -6.183334842631764E-005
          79 -6.563834736235033E-002
          80  2.484538628651085E-002
          81 -0.223330298128035     
          82 -3.747827580443213E-004
          83  5.299476738502928E-002
          84 -0.136118124253727     
          85  1.205779601366128E-002
          86 -6.035942952069548E-005
          87 -9.802417065700765E-002
          88 -0.117993462265279     
          89  9.262547396584207E-002
          90  1.883497623976436E-004
          91 -3.974235102121856E-002
          92  0.141037598861180     
          93 -8.142335395455418E-002
          94  2.329958277441722E-004
          95  2.873779015349861E-002
          96 -0.144138621343170     
          97  0.119070861993974     
          98  2.556844269273950E-005
          99 -1.926602877706485E-002
         100 -6.332037788885055E-002
         101 -3.455490583707487E-002
         102  3.281426023710083E-004
         103 -9.599045418492974E-002
         104  6.046739484721085E-002
         105 -4.233115195257642E-002
         106  0.161715696726568     
         107  0.142126308392144     
         108  0.103326799352706     
         109 -3.668879304828127E-002
         110 -0.194578464454308     
         111 -6.924175811231237E-002
         112  1.340926671091221E-002
Sym=    30a
Ene=  -0.522049126255613     
Spin= Alpha
Occup=     2.00000000
           1  8.126454957083495E-005
           2  1.185134874594308E-004
           3  4.439804058147652E-004
           4  4.204419865787585E-002
           5  9.546710689028723E-007
           6  4.967854572614718E-007
           7 -1.451456526164344E-006
           8 -2.080043255829071E-006
           9 -1.072944654846119E-004
          10 -1.307969555391487E-004
          11 -2.077251424390719E-004
          12 -3.993630736773650E-004
          13  3.151559849791970E-004
          14  0.119986769330185     
          15  1.972732639299997E-004
          16  7.930508782986059E-005
          17  1.212458457745571E-005
          18  8.352883296710986E-002
          19 -1.989967977727679E-004
          20 -5.455139612903389E-005
          21  4.231403434051789E-004
          22  5.342593040812698E-002
          23  2.574199791776665E-004
          24 -2.009109974925197E-004
          25 -5.682562086800466E-006
          26  2.209233308128468E-002
          27 -1.867023975886228E-004
          28  5.936688397027621E-005
          29 -1.511127666851413E-004
          30 -8.424910384028681E-003
          31  6.253457960419722E-005
          32  1.053638752404994E-004
          33  1.079396960919642E-004
          34 -0.163413885300982     
          35 -1.076831266803407E-004
          36  3.230341965678519E-004
          37  1.094813678337644E-004
          38 -9.816502056908326E-002
          39  5.092032908244866E-005
          40 -1.348815445271182E-004
          41  1.477838774534419E-004
          42  1.082599548153586E-002
          43  3.588365587331286E-005
          44 -2.304651763980617E-004
          45 -1.183586244347878E-004
          46  0.160748948511010     
          47 -1.303569475871802E-005
          48 -2.357430722301866E-004
          49 -1.619255674988554E-004
          50  0.107239140701718     
          51  3.209459912057416E-005
          52 -1.645893583650505E-004
          53 -1.756866565866205E-004
          54  0.104617674688457     
          55 -4.645760030093055E-005
          56 -2.931472457335423E-004
          57 -1.306778513920846E-004
          58  0.159411393348750     
          59  4.647205241996035E-005
          60 -5.195647768779480E-004
          61 -3.257132020541524E-004
          62  0.255643962799558     
          63 -7.499537464063603E-005
          64 -5.778661973008114E-004
          65 -4.281346478095885E-004
          66  0.292919840793972     
          67 -1.539803655073551E-004
          68 -7.765483793347310E-004
          69 -4.513119008772253E-004
          70  0.336797737036825     
          71 -2.743006955781897E-005
          72 -2.975041682155276E-004
          73 -9.733914007687963E-004
          74  0.327907079698028     
          75  1.240495717956104E-005
          76 -1.468645790227702E-005
          77 -1.941337014884435E-004
          78  0.220485848183207     
          79 -8.285591077539630E-006
          80 -5.335745899057080E-004
          81 -3.188277531700897E-004
          82  0.154799428574635     
          83 -1.991615055909845E-005
          84 -1.430888873558595E-004
          85 -6.730047746243987E-004
          86  0.156977259099239     
          87  2.502681485284703E-005
          88  7.874894383626523E-005
          89 -1.323364879045316E-004
          90  0.203766875844425     
          91  2.727824441472453E-005
          92 -1.825576989161458E-004
          93 -4.925897167438319E-005
          94 -6.141490096777004E-003
          95 -4.845647344407548E-005
          96  5.344598856954531E-004
          97  8.798414803691556E-006
          98 -0.208366276855393     
          99  1.332784381957669E-004
         100  8.529367443855821E-005
         101  3.811457264062513E-004
         102  9.094578713951533E-002
         103  2.754957356180022E-004
         104 -3.154323923143678E-004
         105  2.429078708978716E-004
         106 -8.750710246919177E-006
         107  4.881370040916462E-005
         108 -3.753286058034112E-005
         109 -6.133410623880780E-006
         110 -4.427284443286732E-005
         111 -6.725141115440484E-005
         112  9.023920679673904E-005
Sym=    31a
Ene=  -0.519247468288773     
Spin= Alpha
Occup=     2.00000000
           1  8.291388602664974E-002
           2  0.220708894284817     
           3  0.284319636266986     
           4 -6.373873903093136E-004
           5  2.668669917429293E-003
           6  1.038927011048772E-003
           7 -3.707596928478065E-003
           8  1.816232249736222E-003
           9  7.036891419318455E-006
          10 -6.205486862522066E-006
          11 -0.135127372054255     
          12 -0.168414227964216     
          13 -0.174373409293680     
          14  2.271269542056543E-004
          15  0.113055839871347     
          16  8.896010203007676E-002
          17  7.345814487323478E-003
          18 -5.203741888104390E-006
          19 -0.119356276703013     
          20 -5.745378738148772E-002
          21  5.605884787306773E-002
          22 -3.513870521215393E-004
          23  0.102778444301681     
          24 -8.322256191283914E-002
          25 -0.210541699242292     
          26  3.138431985327688E-004
          27 -0.175106747557531     
          28  6.016524606635509E-002
          29  5.983786314661485E-002
          30 -1.885337207586775E-004
          31  5.378274470512980E-002
          32 -0.131597842493917     
          33 -1.246366195685461E-002
          34 -7.529298602646367E-005
          35  8.447756970371111E-003
          36  0.175258695902760     
          37 -8.352697033700098E-004
          38  4.049160419022454E-004
          39 -2.463040104092327E-002
          40 -0.132949783657332     
          41  4.802663603565260E-002
          42 -1.701043552586972E-004
          43  7.424764983789679E-002
          44  7.064974111528290E-002
          45  2.123066591013157E-002
          46 -5.492725540619921E-005
          47 -1.243936200752633E-002
          48  7.979991638219625E-002
          49 -4.122286769211244E-002
          50 -3.927045770527439E-005
          51  2.695676278387863E-002
          52 -7.049153965040099E-002
          53 -0.130220159175306     
          54 -4.170925160659013E-004
          55 -1.235714886772752E-002
          56 -7.413713415579269E-002
          57 -2.439089665680507E-002
          58 -3.718704355486703E-004
          59  6.404322590123193E-002
          60  2.474292356017277E-002
          61  6.415695437744935E-002
          62 -1.898878469651664E-004
          63 -1.842926578661092E-003
          64 -6.565382041158069E-002
          65 -4.264235910764871E-002
          66 -5.208606613093617E-004
          67 -0.109142628468310     
          68 -0.112897786310077     
          69  5.318617268852867E-002
          70 -4.247129845602419E-004
          71  5.098989898100834E-002
          72  3.483470104240787E-002
          73 -5.950492743316768E-002
          74 -4.680378073315218E-004
          75 -3.957147000837944E-002
          76  0.128791134389732     
          77 -2.950415853928261E-002
          78 -1.691041388844588E-004
          79  4.694083342945336E-002
          80 -6.181520904920192E-002
          81 -2.858197064383788E-002
          82 -3.037526692460753E-004
          83 -4.233831817829245E-002
          84 -4.749500724764442E-002
          85 -5.546570261888049E-002
          86 -3.179305646943467E-004
          87  1.279819929798614E-002
          88  0.140476628134905     
          89 -3.821085666311545E-004
          90  2.162756387812523E-006
          91  2.971557352986347E-002
          92 -0.100191773638302     
          93  5.798511300398381E-002
          94  2.640279115287413E-005
          95 -3.788137532892226E-003
          96  9.320316150839525E-002
          97 -2.940586902810435E-002
          98  4.392971928406686E-004
          99  0.144690839334786     
         100  1.677485458596347E-002
         101 -1.489408018360766E-002
         102 -9.433436952077869E-006
         103  0.135852299608623     
         104 -0.124323470905133     
         105  0.221323872976601     
         106  5.302108161204871E-002
         107  0.126244838680726     
         108  5.153516383953488E-002
         109 -0.106427536242864     
         110 -7.964127263464118E-003
         111 -7.466379890042726E-002
         112  2.843990246693695E-002
Sym=    32a
Ene=  -0.511368361667578     
Spin= Alpha
Occup=     2.00000000
           1  2.277631167011373E-002
           2  7.087535961786302E-002
           3  7.826833557635261E-002
           4 -1.578937291311486E-004
           5  9.663556396988036E-004
           6  7.965006351081524E-004
           7 -1.762856274806956E-003
           8  3.225539301675081E-003
           9 -4.595928554545577E-006
          10 -3.362228470182353E-006
          11 -1.637723636904110E-003
          12 -3.433822978999643E-002
          13 -8.397035119021921E-002
          14  1.996810446692828E-004
          15  7.492709963038767E-003
          16 -3.915266182309499E-002
          17  3.745051866627294E-002
          18 -1.360811566649391E-004
          19 -7.411956674930773E-003
          20  1.190637219765606E-002
          21 -3.168686309971019E-002
          22  8.733832250263953E-005
          23 -1.288066252086886E-002
          24 -4.050579331517730E-002
          25 -6.878003781310810E-002
          26  1.008061038590528E-004
          27 -2.126568231605187E-002
          28 -2.978343340097829E-002
          29  2.827308635288062E-002
          30 -1.501671260977624E-004
          31 -5.181497732765250E-003
          32  9.527784528315431E-003
          33 -7.142972813731312E-002
          34  1.109517709695467E-004
          35 -5.657076792909779E-002
          36  6.954761220245265E-002
          37  3.243819242228631E-002
          38  2.490733205478733E-004
          39  9.109651006282066E-002
          40 -4.502362583465420E-002
          41  0.114432021757686     
          42  1.211356182623060E-005
          43  3.633803143189299E-003
          44  1.139886736375601E-002
          45  0.145987160503699     
          46  3.997009210278993E-005
          47 -1.398267708469825E-002
          48 -0.202003504147612     
          49 -4.973307509950269E-002
          50 -5.349804494792477E-004
          51  2.810842783975291E-002
          52  0.194730489654405     
          53  4.008010439795929E-002
          54  3.230175242057289E-004
          55 -3.032285798957780E-002
          56  8.708125230278470E-002
          57  0.169464082201508     
          58  2.265514446548542E-004
          59 -1.719226505067460E-002
          60 -0.144849536696883     
          61 -0.140807670029057     
          62 -6.356636828765957E-004
          63 -6.842293643361470E-002
          64  0.137871998588580     
          65 -1.384677883183663E-003
          66  8.861205767636245E-005
          67  8.121620536789047E-002
          68 -0.131079958394308     
          69  6.213528318222068E-002
          70 -2.682916211214914E-004
          71 -5.951213730911928E-002
          72  8.272658888155192E-002
          73 -0.220559180021638     
          74 -5.870133874137398E-004
          75  7.634009945674791E-002
          76  5.149407821520819E-002
          77  0.244796553546173     
          78  3.502495873717617E-004
          79 -8.407784471699510E-002
          80 -0.218087132260817     
          81  2.569795562773119E-002
          82 -3.703617184965685E-004
          83  7.059861783692903E-002
          84  0.167571821631807     
          85 -0.172253531897797     
          86 -3.142020217114224E-004
          87 -7.305047776243351E-002
          88  1.111649356268301E-002
          89  0.194776361406697     
          90  2.055227516126340E-004
          91 -5.303819848989299E-002
          92  5.287499085728615E-002
          93 -0.144727848490090     
          94 -2.961007388999161E-005
          95 -2.247557097311274E-002
          96 -7.306158037634691E-003
          97  7.336413145179717E-002
          98  1.832127311551760E-004
          99  1.236527995974866E-002
         100  2.114014484987601E-003
         101 -2.033332103008859E-002
         102  5.332353544498477E-005
         103 -3.427130099447752E-002
         104  2.532576743918108E-002
         105  5.711222408524890E-002
         106 -8.744480140610297E-002
         107 -6.975513521392418E-002
         108 -0.106727513845907     
         109  0.136661188791676     
         110 -5.503093731552433E-002
         111  0.137532655802396     
         112  5.129160462915187E-002
Sym=    33a
Ene=  -0.508157081425506     
Spin= Alpha
Occup=     2.00000000
           1 -6.665190160165807E-002
           2 -0.194482867645715     
           3 -0.247898883376438     
           4  5.623789307009300E-004
           5 -2.158638740242970E-003
           6 -3.730357850741427E-003
           7  5.888996590984396E-003
           8 -1.282668605327971E-002
           9  2.222582967325812E-005
          10  1.270686175420615E-005
          11 -3.225280356883441E-002
          12  0.131952294271201     
          13  0.245138581515910     
          14 -4.718155808435201E-004
          15 -1.917019488896780E-002
          16  0.199620023703103     
          17 -7.790373682497262E-002
          18  4.294490088504884E-004
          19  1.563707025220358E-002
          20 -0.127577890993004     
          21  8.822998133379868E-002
          22 -3.849338111823070E-004
          23  3.709811036787421E-002
          24  0.220040983909284     
          25  0.192409828589451     
          26 -2.261878290116274E-004
          27  1.507415974512542E-002
          28  0.177274437718939     
          29 -4.995673590412199E-002
          30  3.571735152116455E-004
          31  6.538297441851409E-003
          32 -0.149569852820886     
          33  1.266427450653893E-002
          34 -2.321458664338994E-004
          35  3.004233105478790E-002
          36  0.111755555168194     
          37  5.497381318033070E-002
          38  1.310400419442684E-004
          39 -3.909849633181207E-002
          40 -4.219402277062063E-002
          41  5.903475930153422E-002
          42 -5.886771797590306E-005
          43  5.884160010720889E-002
          44 -4.069520412586135E-002
          45  9.524574045075923E-002
          46 -1.258222125953398E-004
          47 -3.186054546456187E-003
          48 -1.632423238095506E-002
          49 -5.936390904474025E-002
          50 -2.220532178935503E-004
          51  4.242960682647707E-003
          52  3.598190112006851E-002
          53 -0.128168213061550     
          54 -2.000864020153874E-004
          55 -1.691679242510933E-002
          56 -9.168596441457127E-002
          57  6.902371020137715E-002
          58 -2.736028129061788E-004
          59  1.293850006760667E-002
          60 -6.071204618149412E-002
          61 -2.381400853477522E-002
          62 -3.831276039985537E-004
          63  1.386690887936155E-002
          64  5.937757004794716E-002
          65 -8.005746500667128E-002
          66 -1.826738475039662E-004
          67 -7.302716275595277E-002
          68 -0.128306551895688     
          69  5.679890010002851E-002
          70 -1.674226917868886E-004
          71  6.162538467719633E-002
          72  5.256010742530590E-002
          73 -9.958882879044455E-002
          74 -2.727893390502078E-004
          75 -2.101179223158743E-002
          76  0.128386402622294     
          77  1.781310656541694E-002
          78  9.557556911755703E-005
          79  2.964514559468089E-002
          80 -0.109340472057427     
          81  2.688250242913119E-002
          82 -1.227502530717305E-004
          83 -2.623479772758289E-002
          84  3.903520104991256E-002
          85 -8.986504449380885E-002
          86 -1.572851007733136E-004
          87  4.717982584058839E-003
          88  0.146002230100707     
          89  2.929368760460757E-002
          90  2.288153074803321E-004
          91 -4.432604690119067E-003
          92 -9.219909896749906E-002
          93  3.614544373115929E-002
          94  4.392527179024185E-005
          95 -1.822880118056127E-002
          96  0.110054235916830     
          97 -2.858864580023457E-002
          98  3.361632064596736E-004
          99  3.192376597819487E-002
         100 -7.330300879087190E-002
         101  5.258434019616690E-002
         102 -1.175341151019322E-004
         103  0.174598800612963     
         104 -0.103110846961632     
         105 -0.218157800459991     
         106  2.014612313933375E-002
         107  8.981941711363639E-002
         108  5.125597044412866E-002
         109 -7.728074566778576E-002
         110  2.080976831223454E-002
         111 -5.386933465631734E-003
         112  4.082554346140919E-002
Sym=    34a
Ene=  -0.504711089558260     
Spin= Alpha
Occup=     2.00000000
           1  5.219598648089535E-003
           2  2.153734845289143E-002
           3  1.130062829883987E-002
           4 -2.754917648744462E-006
           5 -8.523075684535143E-004
           6  9.498975739629089E-004
           7 -9.759000550939469E-005
           8  1.429369084127842E-003
           9 -3.510715471647050E-006
          10 -1.957439166288156E-006
          11  1.857359363070901E-002
          12 -4.868731015792697E-003
          13 -3.273970492796308E-002
          14  1.103007950510416E-004
          15 -2.193021372073115E-002
          16 -9.669664101398192E-003
          17  2.485874759809366E-002
          18 -8.146686824396228E-006
          19  4.519044387322167E-003
          20  3.812735939979619E-002
          21 -7.381445026413280E-002
          22  3.226960358969351E-004
          23 -2.255302966702722E-002
          24 -3.517251144691989E-002
          25  1.447619349950256E-002
          26 -2.297816629486244E-005
          27  2.569129697333141E-002
          28  7.982971671213849E-003
          29 -1.704642177537624E-002
          30  5.725964966999037E-005
          31  1.969755668140751E-002
          32 -8.468725610135678E-003
          33  3.527206641176769E-002
          34 -2.559703891505797E-005
          35  4.711010700223936E-002
          36 -3.859977900226610E-002
          37 -6.657442624484161E-002
          38 -1.287833147583583E-004
          39 -2.465143061490181E-002
          40 -0.115190272307898     
          41 -0.187115669587316     
          42 -2.971400584385328E-004
          43  0.106328588797612     
          44  7.426558819505270E-002
          45  0.133258409376910     
          46  4.579867055929374E-004
          47 -0.136371979606531     
          48 -4.909667676614415E-002
          49 -7.242338099085428E-002
          50 -2.006520161687856E-005
          51  0.103558135028467     
          52  2.110241207200637E-003
          53 -0.255684470941135     
          54 -1.145423214772747E-004
          55 -0.116308493720100     
          56  5.930927387099155E-002
          57  0.151691659863397     
          58  4.886200010944228E-004
          59  0.128637395196798     
          60 -4.416229117843529E-002
          61 -8.658643548031812E-002
          62  4.035812093606696E-005
          63 -4.579011663738490E-002
          64  4.597842684965796E-002
          65 -0.150926163776560     
          66  7.107661756759448E-005
          67  1.643356361836003E-002
          68  0.108164695138326     
          69  0.146096071670247     
          70  3.883218929037125E-004
          71  8.491342168041306E-002
          72  1.135493935890139E-002
          73  1.823890256633832E-002
          74  2.425766430037575E-005
          75 -8.087705616092218E-002
          76 -0.106701361684886     
          77 -2.334174573734780E-002
          78 -1.850379532784049E-004
          79  3.814250318443752E-002
          80  8.538643214937154E-002
          81  0.281937994856154     
          82  6.672691940385776E-004
          83 -7.985887339808259E-002
          84  5.445127601236040E-002
          85 -1.201377310260734E-002
          86 -2.461976909412621E-005
          87  9.619387193751312E-002
          88 -7.220496427870168E-002
          89 -2.598780922338609E-003
          90 -2.530882458127439E-004
          91 -8.238690325644345E-002
          92  0.124450520714882     
          93  0.142154707290721     
          94  1.638721602365306E-004
          95  6.928252085948071E-002
          96 -0.130665014342702     
          97 -8.457251552154781E-002
          98 -3.225084327101310E-004
          99 -4.054904235398399E-002
         100  2.137277356932132E-002
         101 -6.294994750222521E-002
         102  1.478926513939516E-004
         103 -2.467342436058738E-002
         104  7.725253693574156E-002
         105  4.081208580080257E-006
         106 -5.154751383270117E-002
         107  0.249950773140709     
         108 -0.128089483939557     
         109  1.097194418086496E-002
         110  0.268677532617384     
         111 -5.900509916680449E-003
         112 -0.114350401942181     
Sym=    35a
Ene=  -0.503179141465707     
Spin= Alpha
Occup=     2.00000000
           1  1.752550419190418E-005
           2  6.603348269205195E-005
           3  7.804808007487321E-005
           4  6.253425109850485E-003
           5 -8.971985053352020E-007
           6  1.502511079464410E-006
           7 -6.053125741292079E-007
           8  3.533023493914804E-006
           9 -3.711778837310345E-005
          10 -8.853081334643409E-005
          11  2.500056589672590E-005
          12 -4.166778260937977E-005
          13 -4.868915158886937E-005
          14  1.375976302113262E-002
          15 -3.050475005852435E-005
          16 -1.772596249459791E-005
          17  8.507079941072945E-005
          18  1.009135841822651E-002
          19 -1.897481293598575E-006
          20  5.093120970544882E-005
          21 -1.287216658709167E-004
          22  4.286790123282723E-003
          23 -3.093220058104750E-005
          24 -6.191580071085014E-005
          25  4.381610905652693E-007
          26 -2.923452366309514E-003
          27  2.983916999005873E-005
          28  1.998474745958086E-005
          29 -5.531618670300745E-005
          30 -9.006053471475027E-003
          31 -6.384492923751628E-006
          32  2.472084873921563E-005
          33 -3.924145768375810E-005
          34 -2.409986713847954E-002
          35 -1.961302464943885E-005
          36  2.015089660277706E-004
          37  9.686156140721219E-006
          38 -9.615646685266527E-002
          39 -1.105339121566230E-005
          40  9.795831080165800E-005
          41  1.121874425293159E-005
          42 -0.119718518456632     
          43  1.977950408634411E-005
          44  5.600214030984965E-004
          45  2.435716896757209E-004
          46 -0.250426437943167     
          47 -7.129444959043888E-005
          48  4.603577161652196E-004
          49  2.607351010325891E-004
          50 -0.221575054642074     
          51  4.821688494653538E-005
          52  3.463809108065439E-004
          53  2.089136907149664E-004
          54 -0.224009692941302     
          55 -3.113546507936524E-005
          56  6.450282629869565E-004
          57  3.006836650842621E-004
          58 -0.280262126586238     
          59  7.150778496050548E-005
          60  7.189035642472102E-004
          61  4.181410065932428E-004
          62 -0.337808448793410     
          63 -5.930170332567844E-005
          64  3.536528176056744E-004
          65  2.639600369550925E-004
          66 -0.231502327351450     
          67  7.562140562207396E-005
          68 -3.093879012335755E-005
          69 -1.250050952116579E-004
          70  0.133596462634665     
          71 -2.516270376110649E-005
          72 -2.900222406416783E-004
          73 -4.830870874527406E-004
          74  0.260552508283555     
          75 -4.388815276345580E-005
          76 -4.313159206968550E-004
          77 -4.486938370050371E-004
          78  0.243375347795798     
          79 -3.401432731098963E-005
          80 -1.880834863217630E-004
          81 -2.293360745419884E-004
          82  0.212100994143969     
          83 -4.564073883634865E-005
          84 -1.899404728036659E-004
          85 -4.413784328600338E-004
          86  0.208999388478515     
          87  1.134504424945638E-005
          88 -4.147113328507625E-004
          89 -2.730332406959936E-004
          90  0.198331516603761     
          91 -1.190356612096807E-004
          92  3.911643880537368E-005
          93 -8.918766713468561E-005
          94  7.636236728611082E-002
          95  7.599524521487748E-005
          96 -2.158948294284378E-004
          97 -1.767533760672909E-005
          98  7.837423771593914E-002
          99 -6.020254148886150E-005
         100  4.012201259635335E-005
         101 -8.671829321332747E-005
         102  6.453053979628021E-003
         103 -3.108273931658201E-005
         104  1.372393552554689E-004
         105  6.852241873105030E-006
         106 -1.137368492633486E-005
         107  7.821492575994046E-005
         108 -9.964445450246451E-005
         109  8.847171038056173E-005
         110  1.806978562424547E-004
         111  2.822662587053127E-005
         112 -3.341690680243598E-005
Sym=    36a
Ene=  -0.498036955896981     
Spin= Alpha
Occup=     2.00000000
           1 -1.832063395152803E-002
           2 -0.109607325159988     
           3 -3.964883811657600E-002
           4  1.082126663922831E-004
           5  4.243621321442022E-003
           6 -4.029050241336480E-003
           7 -2.145710801055411E-004
           8 -3.524091694924988E-003
           9  9.982249321454035E-006
          10  6.910788331243348E-006
          11 -6.578866329773680E-002
          12  1.632687282882266E-002
          13  0.132830202829568     
          14 -1.660482225139087E-004
          15  0.115115652835318     
          16 -6.324217193876024E-002
          17 -0.132135845539691     
          18  2.748525012044525E-004
          19  9.610213923312510E-004
          20 -0.140663998728159     
          21  0.387573009996591     
          22 -1.319344957030913E-003
          23  8.891505455736705E-002
          24  0.103832587489810     
          25 -0.173991027530698     
          26  4.705387496638541E-004
          27 -7.754856393619056E-002
          28 -0.185169908871659     
          29  0.165785267507905     
          30 -6.063800127042334E-004
          31  2.758687131337147E-002
          32  0.134225021593062     
          33 -3.189402374802779E-002
          34  1.165389156071819E-004
          35  2.794779299793970E-002
          36 -6.630688499255138E-002
          37 -6.622777843908831E-002
          38 -8.753525295552046E-005
          39  2.003776646424364E-002
          40 -9.700557080606692E-003
          41 -8.536096795000948E-002
          42  4.489066061997195E-005
          43 -5.070464584875412E-003
          44  4.114775976695814E-002
          45  2.260678719513814E-002
          46  1.051089916286767E-004
          47 -2.978113656526188E-002
          48 -4.533211394092674E-002
          49 -9.991338401285710E-003
          50 -1.301689353002090E-004
          51  2.668795918166433E-002
          52  2.904196381801693E-002
          53  1.038710546684522E-002
          54  2.730520263477284E-006
          55 -1.369115734513555E-002
          56  6.578837398520010E-002
          57  4.327697575395101E-002
          58  6.595100506929067E-005
          59  1.219343629191900E-002
          60 -2.750626717775673E-002
          61 -4.305125863275964E-002
          62 -2.556691327732391E-004
          63 -1.056316333676524E-002
          64  3.357206961534987E-002
          65  2.724626116854952E-002
          66 -4.064878636446517E-006
          67  4.858909825410935E-002
          68  5.000358759666877E-002
          69 -2.092140763264129E-002
          70 -1.686536393234893E-005
          71 -2.362393372900599E-002
          72 -1.303054747931493E-002
          73  2.812455144886613E-002
          74 -1.242618752522192E-005
          75  4.648057137991911E-003
          76 -5.619322492375407E-002
          77  2.497678203823179E-003
          78 -9.184324195062082E-005
          79 -1.113893132283895E-002
          80  4.362306612341043E-002
          81  5.564617993460392E-004
          82  4.995510840283326E-005
          83  4.751433350493980E-003
          84 -1.824199446592218E-002
          85  2.985644432183790E-002
          86  6.294212257320227E-005
          87 -1.468420156806536E-002
          88 -6.162518863435413E-002
          89  8.462848011270925E-003
          90 -1.008463789317895E-005
          91  4.885107575182589E-003
          92  0.118201762664477     
          93  3.051515744608949E-002
          94  3.499333700472173E-004
          95 -2.206544117190186E-002
          96 -0.153958210499090     
          97  2.589383835070245E-002
          98  6.646459204388489E-006
          99  0.189600626141320     
         100 -0.106532203569012     
         101  0.300895874206105     
         102 -6.950850090329531E-004
         103  2.759996060772080E-002
         104 -0.386505157062107     
         105  9.946185894362583E-002
         106 -3.158155788837300E-002
         107 -2.943063032041695E-003
         108 -6.705951044881925E-002
         109  3.911443229873059E-002
         110  1.320264467561951E-003
         111 -5.852879015880233E-003
         112 -6.322002255879007E-002
Sym=    37a
Ene=  -0.495311467541305     
Spin= Alpha
Occup=     2.00000000
           1  4.721875451644498E-003
           2 -8.136342494876122E-003
           3  2.243779423121685E-002
           4 -2.466064223020871E-004
           5  5.728136586658146E-005
           6  8.684623451672935E-004
           7 -9.257437110338749E-004
           8  3.940708761908439E-003
           9 -9.189044117123572E-006
          10  1.255836242359408E-006
          11  3.225863948967273E-002
          12 -1.958375096109435E-002
          13 -1.861150793065936E-002
          14 -3.084462112380646E-004
          15  9.154914912510246E-003
          16 -0.111269802214697     
          17 -2.595222321207175E-002
          18 -3.011684998299133E-004
          19 -1.311697521941605E-003
          20  0.102370218834196     
          21  1.690058906338957E-002
          22 -1.756252959392401E-006
          23  9.858895963848483E-003
          24 -0.129043380289912     
          25 -3.278959850116803E-002
          26  5.280637590258007E-005
          27  2.988583765374026E-002
          28 -8.032017938439334E-002
          29 -5.895926529713678E-003
          30  2.113437093383339E-004
          31 -3.033487256552821E-002
          32  0.109416831393001     
          33  0.151963750305319     
          34  2.101631914215354E-004
          35  0.103948509738721     
          36 -0.298046306908477     
          37 -3.032182537517931E-002
          38 -5.606767068740327E-004
          39 -3.249904360316801E-002
          40  0.186840550413291     
          41 -0.148770165442875     
          42  8.412720932735390E-005
          43 -4.839968621676709E-002
          44 -0.187177931343545     
          45  0.134109744806234     
          46 -2.969466199802256E-004
          47  1.984263030718679E-002
          48 -0.133354121939409     
          49 -8.058820558221189E-002
          50 -4.578712044566942E-004
          51 -3.856306850221164E-002
          52  0.159195400919962     
          53 -3.077728935326874E-002
          54  1.311042656845299E-004
          55  2.590488209599017E-002
          56 -0.137450915650665     
          57  0.103160655763029     
          58 -3.330814933710749E-004
          59 -0.106570705220471     
          60 -0.116069725106605     
          61 -8.539111379581624E-002
          62 -5.303517766260129E-004
          63  0.127065851069173     
          64  0.198948051284911     
          65 -2.876866082815751E-002
          66  2.420057103172357E-004
          67 -7.606473570112905E-002
          68 -0.116535494142883     
          69 -0.104439047217177     
          70 -2.163635593316107E-004
          71  9.190412337199369E-002
          72  7.391271348990467E-003
          73  1.488102079648750E-002
          74  2.089023492779870E-004
          75 -2.254155458716831E-002
          76  0.172473707469568     
          77 -0.119546950391172     
          78  9.262641409521122E-005
          79  7.228778918311361E-002
          80 -6.623439729228134E-002
          81 -3.834532469211393E-002
          82 -9.299016677999986E-005
          83 -4.365291061994431E-002
          84 -1.259101339286691E-002
          85 -3.054118404501462E-002
          86 -7.183620138739941E-005
          87  6.312659420938590E-003
          88  0.227866539887936     
          89 -5.572414638484968E-002
          90  8.916522636005360E-005
          91  3.817199823745165E-002
          92 -4.100941705962281E-002
          93  0.169591298685226     
          94 -1.354612981018019E-004
          95 -3.603812391864372E-002
          96  4.498295063479511E-002
          97 -9.973465285024687E-002
          98 -3.105764259499702E-004
          99 -4.252630027979756E-002
         100  2.993735613863437E-002
         101  1.851222115919263E-002
         102 -1.350321369243585E-004
         103 -9.604632762101106E-002
         104  1.710083037153933E-002
         105  9.722968205229585E-002
         106 -7.118016244364303E-003
         107 -4.345076849316872E-002
         108  0.109518136270914     
         109 -0.189128858295880     
         110 -4.586864745157048E-003
         111 -5.273859420027105E-002
         112 -7.518875432225459E-002
Sym=    38a
Ene=  -0.485230518776037     
Spin= Alpha
Occup=     2.00000000
           1 -5.592049159607578E-003
           2 -4.999766876382099E-002
           3 -5.011572556308099E-002
           4  7.062543191379352E-005
           5  1.320344628969181E-003
           6 -1.561773025974821E-003
           7  2.414283970056404E-004
           8  1.311699902998073E-003
           9 -4.976662467922459E-006
          10  6.406259939932273E-006
          11  1.601149072494980E-002
          12  4.454061357701621E-002
          13  1.262907459421714E-002
          14 -3.804603076014083E-005
          15  2.102889076994437E-002
          16 -0.127095372423939     
          17 -3.400054908277441E-002
          18 -1.467935180364519E-004
          19  9.042437464068579E-003
          20  7.937429224305284E-002
          21  7.027830428809559E-002
          22 -1.738569902932940E-004
          23  5.750523505136976E-003
          24 -9.668761101080015E-002
          25 -6.263143471189721E-002
          26  3.249923292446025E-005
          27  8.627464937286408E-003
          28 -4.637837393553046E-002
          29  4.080341579505987E-002
          30 -9.467533155328850E-005
          31 -8.141986452572618E-002
          32  4.843104569318057E-002
          33 -3.472647651295592E-002
          34  9.830480871508731E-005
          35 -6.031178201758530E-002
          36 -5.064162039886493E-002
          37  9.448598719476581E-002
          38  1.804703458728106E-004
          39  2.118106300575574E-002
          40  0.214769644418836     
          41  0.188611625753073     
          42  5.955721708508163E-004
          43  7.905623241263770E-003
          44 -0.262085213787952     
          45 -2.535993587145958E-002
          46 -4.585589283571110E-004
          47  4.933639077722518E-002
          48  9.427859205663784E-002
          49  2.550916904030991E-002
          50  2.441034129079869E-004
          51 -8.301028473159340E-002
          52 -6.072668240545307E-002
          53 -0.151380491296695     
          54 -2.819557820581581E-004
          55 -1.158878781518733E-002
          56 -0.248341749235486     
          57 -6.804166461740972E-002
          58 -5.920555125631989E-004
          59 -3.940465346195966E-002
          60  9.502114598656254E-002
          61  7.433740305476021E-002
          62  2.153867705974552E-004
          63  6.870273570818559E-002
          64 -4.922014777831388E-002
          65 -0.226087281623165     
          66 -3.961696351285989E-004
          67 -1.814509346929343E-002
          68  5.396076405001594E-002
          69  0.190759463402805     
          70  3.567358580265149E-004
          71  6.361916304956246E-003
          72  5.001732937980703E-002
          73 -4.534762977021388E-002
          74 -1.013754795972949E-004
          75 -3.920220181088591E-002
          76 -6.947085245957364E-002
          77  6.536907191852223E-002
          78  2.800815506506987E-005
          79 -3.280485700635285E-002
          80 -5.780956384757304E-003
          81  0.177157649676828     
          82  3.845869270419350E-004
          83 -5.632170961125929E-003
          84  5.521459325005454E-002
          85 -9.660877175442791E-002
          86 -9.512468987276846E-005
          87  3.799657424233090E-002
          88 -0.119753953902954     
          89  0.115512264884859     
          90  1.075857657484011E-004
          91  1.316112469058264E-002
          92 -1.851063927892727E-002
          93 -0.220151366535974     
          94 -1.857299142876631E-004
          95 -6.726751732187002E-002
          96  5.184942495002733E-002
          97  0.106809439039029     
          98 -6.534609658844299E-005
          99  3.526693049694993E-002
         100 -7.117380287778187E-002
         101  6.961786971265609E-002
         102 -1.777915953343503E-004
         103 -0.108667584366075     
         104 -3.428997604596534E-002
         105  0.103228633956092     
         106  6.527365979452704E-002
         107  0.101889849758733     
         108  0.219882971437298     
         109  6.423074104348574E-002
         110  0.143466259992707     
         111  2.826850013845736E-002
         112  9.974133513022261E-002
Sym=    39a
Ene=  -0.480455430163833     
Spin= Alpha
Occup=     2.00000000
           1 -1.588580984024076E-003
           2 -1.586173313613257E-002
           3 -1.684648245869276E-002
           4 -5.204027876999252E-005
           5 -1.123118642223278E-004
           6 -3.161840039859702E-004
           7  4.284958682082980E-004
           8 -1.199756004817655E-004
           9 -3.210414774765232E-007
          10  3.327693305474512E-006
          11  3.371178906992435E-003
          12  1.051478993116936E-002
          13  7.587484636041004E-003
          14 -1.389623113092307E-004
          15  2.557779045979051E-003
          16 -2.445663030194950E-002
          17 -1.204408391511641E-002
          18 -8.493344832972334E-005
          19  7.594777621899207E-004
          20  2.183183504433095E-002
          21  1.375012193875583E-002
          22 -9.779980535740592E-006
          23  2.889038270215202E-003
          24 -2.451470425120619E-002
          25 -9.337689405637060E-003
          26  8.716566223251581E-005
          27  4.012099570242023E-003
          28 -2.226628984081465E-003
          29  6.772026993180759E-003
          30  1.242958792451653E-004
          31 -3.703195170572771E-003
          32  3.715342484506366E-003
          33  2.495503493920238E-002
          34  1.010745660471725E-004
          35  1.550392289784028E-002
          36 -3.057517716307282E-002
          37 -2.200332399798482E-002
          38 -1.906003439361552E-005
          39 -5.109895941853333E-002
          40  2.601216441765199E-002
          41 -4.497887509557588E-002
          42 -3.007539596919885E-005
          43  8.050954598386000E-003
          44 -2.112069629505939E-002
          45 -5.607987907789504E-002
          46 -7.665245680969319E-005
          47 -2.894819845459558E-002
          48  0.108082251736239     
          49  2.337364389081611E-002
          50  2.723743381011483E-004
          51  3.598161904390319E-003
          52 -0.110914906074647     
          53 -8.016186308135224E-002
          54 -2.463792195016479E-004
          55 -2.811581970649409E-002
          56  5.044506313373463E-002
          57 -7.711218138020082E-003
          58  1.471918861509462E-004
          59  3.342960435729534E-002
          60  5.316119305224404E-002
          61 -2.588469263496669E-002
          62  1.108387828434623E-004
          63 -1.818476829209889E-002
          64 -2.892524510080721E-002
          65 -6.065607981386310E-002
          66 -1.237309110838864E-004
          67  7.047850762725727E-002
          68  0.144457161169786     
          69  6.465564518169907E-002
          70  3.451018817793265E-004
          71 -0.179830294752192     
          72  0.245005131261939     
          73  9.027411128770189E-002
          74  6.272312503061594E-004
          75  9.528768692518459E-002
          76  0.267813431027061     
          77 -4.978596847381943E-002
          78  3.526631231279710E-004
          79 -6.385405823641127E-002
          80 -0.206894810656352     
          81 -7.636292523128307E-002
          82 -3.462211836565914E-004
          83 -2.117587047556240E-002
          84  0.365177847057612     
          85  0.167380015738627     
          86  7.573701858933653E-004
          87 -8.839852846131922E-002
          88 -9.490120181919551E-002
          89 -0.201900439674995     
          90 -5.400575547722132E-004
          91 -8.145009934174755E-004
          92  9.346058437786494E-003
          93  2.225739545640099E-002
          94 -1.132907418588306E-004
          95 -3.510041611124680E-003
          96 -3.483053525754747E-002
          97 -3.792389063745849E-002
          98 -1.116060571072175E-004
          99  7.004098516651294E-005
         100 -1.190446441745159E-002
         101  3.379433970517071E-003
         102 -3.496519286307003E-005
         103 -2.166103255972381E-002
         104 -5.285247635633066E-003
         105  2.407593860815071E-002
         106  3.581542292735199E-002
         107  0.107266491813795     
         108 -5.834630512316275E-002
         109 -0.157850198025485     
         110 -0.147098812302367     
         111  0.387751442007522     
         112 -2.698746173628007E-002
Sym=    40a
Ene=  -0.474207841632278     
Spin= Alpha
Occup=     2.00000000
           1 -4.689969087224568E-006
           2 -2.971121288911686E-004
           3  7.293567342189152E-004
           4  0.256800630767440     
           5 -8.101843653812222E-006
           6 -1.960236433558847E-005
           7  2.770420798940069E-005
           8  1.068795277217980E-005
           9  2.083535067599947E-004
          10 -3.927292862221160E-003
          11  8.186851180395766E-005
          12 -3.251447089203572E-004
          13  9.208485664579429E-004
          14  0.335014455498238     
          15 -2.720907446656161E-005
          16 -4.482164767741007E-004
          17  6.711674811673006E-004
          18  0.279516381873676     
          19 -2.420748109879820E-005
          20  1.977767096807030E-004
          21  7.075339162223341E-005
          22  4.401526872179821E-002
          23  1.148956907686592E-004
          24 -4.147376067540414E-005
          25 -4.413987529397906E-004
          26 -0.219444492074133     
          27  1.330303805635268E-004
          28  3.902898411749097E-004
          29 -1.036816367163887E-003
          30 -0.372039680319133     
          31 -6.947242117278808E-005
          32  4.812551382641423E-004
          33  2.702636552988787E-004
          34 -0.268147533374919     
          35 -1.745152718769726E-004
          36 -4.184509601725038E-005
          37  7.229666462078868E-005
          38 -0.180080283982655     
          39  4.387419041381646E-005
          40 -3.507361831073813E-005
          41 -1.915812426195299E-004
          42  9.017110333351100E-002
          43 -1.386842524076787E-004
          44 -1.524279643196526E-004
          45  8.826929850605260E-005
          46  5.977514127370859E-002
          47  3.969723106807405E-005
          48  2.743528333060680E-006
          49 -2.750070159221100E-004
          50  3.004104658501408E-002
          51 -6.853553999023531E-005
          52  2.266922303871385E-005
          53  1.678118858054958E-004
          54 -2.254365960025658E-003
          55  9.286553074032853E-005
          56  1.061030764539839E-004
          57 -4.423838295632889E-005
          58 -3.666423330204942E-002
          59 -1.538093688065784E-004
          60  2.255259445135487E-004
          61 -4.235334384474303E-006
          62 -5.654265224456846E-002
          63  1.482614268357986E-004
          64  1.180863867253482E-004
          65 -8.169682107863154E-006
          66 -2.207536586402671E-002
          67 -3.644336727012716E-005
          68  1.432428356095898E-004
          69  2.814375748784256E-005
          70 -5.039315924955758E-002
          71  1.458089879774698E-005
          72  3.814735304959440E-004
          73  6.391205006453966E-004
          74 -0.229791834880050     
          75 -3.600460665775752E-006
          76  4.666350600659569E-004
          77  1.510632238405103E-004
          78 -0.188714379205419     
          79  3.380090666737242E-005
          80 -8.943829685980953E-005
          81  3.091910301266415E-004
          82 -6.121337204162401E-002
          83 -1.106207710132103E-004
          84  1.398858440281623E-004
          85 -2.196054210692495E-004
          86  7.664013039857595E-002
          87 -4.977965720932629E-006
          88 -1.938839228171794E-004
          89 -3.559750661809785E-004
          90  0.193205533943246     
          91 -1.570825774116221E-004
          92 -3.769010399526172E-004
          93 -2.521639057428784E-004
          94  0.299019821186191     
          95  1.867997402364361E-004
          96 -1.127249379598979E-004
          97 -2.857156116186261E-004
          98  0.166988880930833     
          99 -2.390271154171689E-004
         100  1.511759605498434E-004
         101 -1.226993183433485E-004
         102 -2.849709730670509E-002
         103 -1.475293069090024E-004
         104  1.294748485192283E-004
         105  1.239896907684878E-004
         106  2.304191534710986E-004
         107 -1.960902858235343E-004
         108  3.671579043366717E-005
         109 -3.181828916868961E-004
         110  1.627482479629853E-004
         111  1.414653781644058E-004
         112 -6.478388168104433E-005
Sym=    41a
Ene=  -0.470986620954981     
Spin= Alpha
Occup=     2.00000000
           1 -3.681396476901682E-004
           2 -2.189267517036510E-003
           3 -5.338330129772646E-003
           4 -1.916394564028721E-004
           5  5.836895008384129E-005
           6 -1.832810221396845E-004
           7  1.249120720558432E-004
           8 -2.339792967866710E-004
           9  9.327499558801735E-007
          10  3.503467464799694E-006
          11 -1.463876705616115E-003
          12  4.082319215249638E-003
          13  1.741658282692950E-003
          14 -2.496810444713385E-004
          15  5.842918564339705E-004
          16 -1.817833680423213E-003
          17 -8.410917056537872E-004
          18 -1.316644186352011E-004
          19  1.359053298714162E-003
          20 -1.781449401116283E-003
          21  4.001224876784246E-003
          22  6.168001614631957E-005
          23 -2.026135401147240E-003
          24  2.971684400629788E-003
          25 -3.434093294998739E-003
          26  2.392590332595036E-004
          27 -1.327595929859072E-003
          28  1.084597916612458E-003
          29  4.624114378095056E-003
          30  2.369233896208095E-004
          31 -1.334852210583503E-003
          32 -3.765657837083553E-003
          33 -1.459751206593191E-002
          34  1.846316846777708E-004
          35  7.050651555963693E-004
          36  1.895074942271919E-002
          37 -1.904634536648938E-002
          38  2.428429483339351E-004
          39  1.540928579822787E-002
          40 -2.874666215866186E-002
          41  1.852545705518691E-002
          42  6.043166531029791E-006
          43 -0.113016312532781     
          44  5.606662835592210E-002
          45  0.211418515455551     
          46  3.610779836069689E-004
          47  2.849059787465295E-002
          48  0.210055656388866     
          49 -0.347738313400434     
          50 -1.251236340927499E-005
          51 -7.082697641762678E-002
          52 -9.508239088440271E-002
          53  0.204206235092269     
          54  1.166240593253661E-005
          55  0.115311199009291     
          56  0.200678404435265     
          57 -0.115214873395349     
          58  2.408638518437598E-004
          59 -0.169316006351130     
          60  0.169125770904231     
          61 -0.150919624195621     
          62  1.586843313852618E-004
          63  9.383847720293513E-002
          64  6.472319899302859E-002
          65 -6.782330826374100E-002
          66  6.332747647215867E-005
          67 -4.052077847425973E-002
          68  1.787154118314900E-002
          69  1.261763970139534E-002
          70  1.083352495370305E-004
          71  3.550580488173623E-002
          72  2.569251067598219E-002
          73  6.111440749227660E-002
          74  2.866394976944224E-004
          75 -3.601932383936595E-002
          76  4.803391708992733E-002
          77 -7.801011525213546E-002
          78 -5.826701889557912E-006
          79  1.081824952123539E-002
          80 -4.869424691946592E-002
          81  0.154385299029849     
          82  2.533826668844868E-004
          83 -2.841951337438549E-002
          84  5.204354936882018E-002
          85 -0.127993060787328     
          86 -3.325789715157740E-004
          87  1.508105401076438E-002
          88  6.464601352311481E-003
          89  0.110304142883808     
          90 -6.933988827561247E-006
          91 -5.216632349521527E-002
          92  4.803062257046452E-002
          93 -3.028680582416483E-002
          94 -1.909908827691092E-004
          95  8.960574317629403E-003
          96 -2.104898392337826E-002
          97  3.712406411724787E-003
          98 -2.307900369066418E-004
          99  5.649399405699927E-003
         100 -6.910297199028591E-003
         101  1.729800464909560E-003
         102 -4.518592273035889E-005
         103 -1.432545020799820E-003
         104 -3.895698121086027E-003
         105  1.108168976688164E-003
         106  0.386793103148981     
         107 -0.198426957453267     
         108 -9.674843106198205E-002
         109 -0.105234535872039     
         110  0.150673543510392     
         111 -4.615023560800194E-003
         112 -4.280654049756897E-003
Sym=    42a
Ene=  -0.469022063340245     
Spin= Alpha
Occup=     2.00000000
           1  1.114241359742271E-004
           2  1.429556553529605E-003
           3  2.939578086075166E-003
           4  0.156421938447890     
           5  2.648051870279584E-005
           6  5.083773753428002E-005
           7 -7.731825623707585E-005
           8  6.697269268934225E-005
           9 -4.577471181640217E-003
          10 -1.539263061480129E-003
          11 -1.087554499004451E-005
          12 -1.739958115773278E-003
          13 -2.511226328304471E-004
          14  0.183590636739060     
          15 -5.637422838827390E-005
          16  2.349392546273734E-003
          17  2.611853712522666E-004
          18 -0.320706275525343     
          19  1.326497447666362E-004
          20 -1.645833423540147E-003
          21 -2.455056823264201E-003
          22 -0.576480601660106     
          23 -1.750817007634527E-004
          24  2.847955663774322E-003
          25 -4.696037625795388E-004
          26 -0.405324908864750     
          27  3.487023947396332E-004
          28 -2.049088878527026E-003
          29 -3.000686993513880E-004
          30  4.493956131519716E-002
          31  5.758826929091478E-004
          32  1.994385643725387E-003
          33 -2.711095438280202E-004
          34  3.622396866395940E-002
          35 -2.830967367603973E-004
          36 -1.331188900238038E-003
          37 -3.480128680689170E-005
          38 -8.467458461711375E-003
          39  4.301153491422482E-004
          40  1.042445016203801E-003
          41 -1.674250674557263E-004
          42 -4.131466555447058E-002
          43 -2.842506455652783E-004
          44 -6.973163672676453E-004
          45  1.560173492669421E-004
          46 -2.628955908457762E-002
          47  1.101025046488378E-004
          48 -1.919737234049192E-004
          49 -1.086470486018650E-004
          50 -1.098380118491521E-002
          51 -2.295551561975202E-004
          52  2.613135628199364E-004
          53 -1.165990302573493E-004
          54  6.471249933263662E-003
          55  1.508169424683175E-005
          56 -7.606489220209705E-004
          57 -1.546620274206885E-004
          58  2.327548357654562E-002
          59 -2.959977068336028E-004
          60  2.223465396404531E-004
          61  6.659913123353415E-005
          62  2.944333777187597E-002
          63  4.182735484585343E-004
          64  2.946444580205949E-005
          65 -5.033635442523159E-004
          66  6.789157856064025E-003
          67  7.846085474968771E-005
          68  3.974436814300295E-004
          69  2.779192221632562E-004
          70  6.402784614191584E-003
          71 -2.117315985864432E-004
          72  3.033136192106537E-004
          73  2.326622874386599E-004
          74  3.210895499579200E-002
          75 -3.639933820681141E-005
          76  6.373275746102514E-005
          77 -2.170770742548717E-004
          78  2.458804453658146E-002
          79 -1.042379641419101E-004
          80 -1.355939293386069E-004
          81  4.420818554968214E-004
          82  3.896174697544989E-003
          83 -9.439813233159291E-005
          84  3.971120339052156E-004
          85 -1.140214716773084E-004
          86 -1.680250443611149E-002
          87 -2.181178777656726E-005
          88 -3.774010521579221E-004
          89  2.747024267020956E-004
          90 -3.089431748773203E-002
          91  2.111168773202607E-004
          92  5.854443117515297E-004
          93 -2.969915775771385E-004
          94 -3.729539135714177E-002
          95 -3.271668538941897E-004
          96 -5.541011120658828E-004
          97  4.318494323900929E-004
          98  1.804839488070777E-002
          99 -3.205273904440418E-004
         100  1.537203708174159E-003
         101  1.545979929014185E-003
         102  0.406813818445490     
         103  1.955096366807163E-003
         104  1.066276192643393E-004
         105 -2.257597291551011E-003
         106  4.390087578700809E-005
         107 -1.305158444575587E-004
         108  7.070706926293076E-004
         109 -1.915339034092937E-004
         110  3.617045384497313E-004
         111  2.955601452625658E-004
         112 -1.177149877488516E-004
Sym=    43a
Ene=  -0.468878299068601     
Spin= Alpha
Occup=     2.00000000
           1  1.355968631674277E-002
           2  0.177005365668434     
           3  0.302677245671070     
           4 -2.053874662273607E-003
           5  2.753506866613467E-003
           6  6.978741781467330E-003
           7 -9.732248648080796E-003
           8  8.972991299680357E-003
           9  3.158935441872374E-005
          10 -2.567977539560574E-005
          11 -5.085369589587927E-003
          12 -0.190538369006900     
          13 -8.372873146846603E-002
          14 -1.519002679708069E-003
          15 -1.047293174460889E-004
          16  0.236118001212012     
          17  0.125417530060591     
          18  2.631136514963556E-003
          19  8.994697826276989E-003
          20 -0.283088624152531     
          21 -9.161712198943844E-002
          22  4.734083198766259E-003
          23 -1.876487897615397E-002
          24  0.284909728108263     
          25  5.740363924882216E-002
          26  3.569179428659766E-003
          27  3.433722884307000E-002
          28 -0.240380835949776     
          29 -3.995295195915591E-002
          30 -5.791224676207688E-004
          31  6.988839393457381E-002
          32  0.243894246994364     
          33 -3.209016673953929E-002
          34  4.743434194254257E-005
          35 -3.706645259093890E-002
          36 -0.158928991414577     
          37 -7.963971680607876E-004
          38 -5.513035809155711E-004
          39  5.329281427041056E-002
          40  0.116120498982956     
          41 -2.016361055598007E-002
          42  2.614439457293823E-004
          43 -3.192269823709284E-002
          44 -8.968917981854417E-002
          45  1.054201907394685E-002
          46 -5.624602713286723E-005
          47  1.421015291374229E-002
          48 -3.127009290565747E-002
          49 -6.847202282650470E-003
          50  4.675584094393671E-006
          51 -2.651150569959494E-002
          52  3.638254833426074E-002
          53 -1.536560524721448E-002
          54  7.465402190116162E-005
          55 -1.573934750611804E-004
          56 -9.277003416696296E-002
          57 -1.514118686618924E-002
          58 -2.350714146369403E-004
          59 -3.148022228401360E-002
          60  3.133051223443346E-002
          61  1.886920869089754E-002
          62  7.999086756997752E-006
          63  4.760790155078708E-002
          64  9.314167763739171E-004
          65 -5.810002279911271E-002
          66 -9.706478698070008E-005
          67  9.177333384829751E-003
          68  4.774765837251144E-002
          69  3.582681750846482E-002
          70  6.543566705405523E-005
          71 -2.559138204827028E-002
          72  4.025402387857940E-002
          73  3.331489004944596E-002
          74 -1.916683752910439E-004
          75 -3.860167277724014E-003
          76  9.589201900875192E-003
          77 -1.782701255159300E-002
          78 -2.574726614472259E-004
          79 -1.287861288477440E-002
          80 -1.469577626774543E-002
          81  5.145074474703174E-002
          82  4.906559464837475E-005
          83 -1.105751223412830E-002
          84  4.372682214137796E-002
          85 -1.565529431057384E-002
          86  1.641306548014815E-004
          87 -3.378684272868406E-003
          88 -5.063379062102839E-002
          89  2.515190977685966E-002
          90  2.530254658494699E-004
          91  2.365590470272102E-002
          92  5.981660841093599E-002
          93 -4.190144506060294E-002
          94  3.925384695244371E-004
          95 -3.403203157305268E-002
          96 -5.635720547179102E-002
          97  5.890630520036327E-002
          98  1.073371384859001E-004
          99 -3.769387102421307E-002
         100  0.229846917376480     
         101  6.992246788310100E-002
         102 -3.487085237191862E-003
         103  0.237877933233126     
         104 -3.270037264539938E-003
         105 -0.260134400613589     
         106 -3.428903415824685E-003
         107 -1.413752305363301E-002
         108  9.005623830284532E-002
         109 -2.013254235597629E-002
         110  4.077666279683367E-002
         111  3.510835609913156E-002
         112 -1.049576791298549E-002
Sym=    44a
Ene=  -0.463953130447569     
Spin= Alpha
Occup=     2.00000000
           1  3.230248772567135E-006
           2  6.328815708347552E-005
           3  4.049333926697593E-004
           4  7.204111180265137E-002
           5  2.987438622559778E-007
           6  5.852599288828337E-007
           7 -8.840037911388115E-007
           8  7.930678320957840E-006
           9  1.523089968733422E-004
          10 -7.893234651637942E-004
          11  9.196930303091720E-006
          12 -1.907758532151824E-004
          13  1.412348494206687E-004
          14  7.313362122780090E-002
          15 -3.080810188878472E-005
          16  1.409018803038818E-004
          17  2.198632969336286E-004
          18  4.084556306451107E-002
          19  2.280757682048069E-005
          20 -1.790161720174887E-004
          21 -1.683187774469425E-004
          22 -2.314832951151914E-002
          23 -3.703181774038401E-005
          24  3.197442904591098E-004
          25 -2.700568125237482E-005
          26 -6.698908228427225E-002
          27  3.679566314441397E-005
          28 -4.448292270289262E-005
          29 -2.497654525678273E-004
          30 -7.165281048394088E-002
          31  9.785323078077802E-005
          32  1.335393895189600E-004
          33  2.859639014472802E-005
          34 -7.035633065945917E-003
          35 -6.280906425209606E-005
          36 -7.423724575712267E-004
          37 -2.693693775796729E-004
          38  0.428949202877161     
          39  2.493508755240249E-005
          40 -7.105648077709049E-004
          41 -3.390070081546942E-004
          42  0.411633270822019     
          43  4.123195008571186E-005
          44 -4.620721795366772E-004
          45 -3.803316490043380E-004
          46  0.287108875713270     
          47  1.820627988560398E-005
          48 -2.802369179919237E-004
          49 -5.767905232664644E-005
          50  0.128613829171157     
          51  2.398472158583990E-005
          52  1.556607680298785E-004
          53  7.358923613933964E-005
          54 -7.122257346428762E-002
          55 -5.086151425837245E-006
          56  4.706362538395166E-004
          57  2.931364534329680E-004
          58 -0.259045188595014     
          59  5.650456745215769E-005
          60  5.778463730515050E-004
          61  4.460255387509240E-004
          62 -0.311053012314903     
          63 -4.297240126098653E-005
          64  3.420980542241351E-005
          65  9.710529694623794E-005
          66 -4.515587024804695E-002
          67 -8.293246466956890E-006
          68 -7.437164542741070E-006
          69  1.251762109006051E-005
          70 -6.654747098345435E-003
          71 -5.167902688220454E-006
          72 -4.206460494270373E-005
          73 -9.933448392166254E-005
          74  4.894085243911294E-002
          75  8.440384532347920E-006
          76 -4.070691273710246E-005
          77 -1.115398174926305E-004
          78  5.652400036462315E-002
          79 -5.303281181099435E-006
          80 -6.040824798123279E-005
          81 -7.468495050605800E-005
          82  3.154175325581213E-002
          83  1.849154072162500E-005
          84  4.597079489977663E-005
          85  1.467979984198939E-005
          86 -6.386713210348434E-003
          87  1.095072741710108E-005
          88  7.850348570463915E-005
          89  4.727598635236329E-005
          90 -3.911114345296685E-002
          91  3.414198111634616E-005
          92  1.053165326244058E-004
          93  9.039882518810128E-005
          94 -6.488031049666212E-002
          95  2.477247502823994E-005
          96  5.777665441006526E-004
          97  1.125348717710151E-004
          98 -0.449380095193650     
          99 -5.840214082815087E-005
         100  1.727640779005458E-004
         101  3.159457126955363E-005
         102 -3.020921181492187E-003
         103  1.707542149650377E-004
         104  4.830005666822112E-005
         105 -2.544386132431515E-004
         106 -8.920307895554957E-005
         107  1.414698400474012E-005
         108  1.892884633350819E-005
         109 -1.269068443568128E-005
         110 -1.468795459880204E-005
         111  2.888614126111915E-005
         112 -4.072767716574337E-005
Sym=    45a
Ene=  -0.457091767773078     
Spin= Alpha
Occup=     2.00000000
           1  4.935505472642980E-004
           2  1.127711110675447E-002
           3  3.998692669049961E-002
           4 -1.501089219982772E-004
           5  3.193225246196634E-006
           6  1.271663150026219E-003
           7 -1.274856375272415E-003
           8  1.711547346228617E-003
           9 -3.613772559176411E-006
          10 -5.409983298652670E-006
          11  6.591450563791762E-003
          12 -2.451351738438885E-002
          13 -7.674239318483049E-003
          14 -3.874172666602686E-005
          15 -7.270584183409592E-004
          16  1.806929843447105E-002
          17  1.049310347561455E-002
          18 -4.750166116228027E-005
          19 -1.036838255202480E-003
          20 -1.679716433532090E-002
          21 -1.267530114670389E-002
          22  1.420266715083810E-007
          23  3.388175019291772E-003
          24  1.432358905355027E-002
          25  1.412049509534112E-002
          26  3.532023461521977E-006
          27  1.110542283850828E-002
          28 -3.150450024615277E-002
          29 -1.256513617234462E-002
          30  3.935472902882981E-005
          31 -7.224841475932707E-003
          32  5.161812105969594E-002
          33  5.233349750156844E-002
          34 -1.143115798035688E-004
          35  6.649902373400018E-002
          36 -0.105003359759681     
          37 -2.690604573336430E-002
          38 -3.947633585973403E-004
          39 -7.559790333937533E-002
          40  0.138042758514797     
          41 -3.164529670145188E-003
          42  2.805766956241942E-004
          43  2.563904615975195E-003
          44 -0.163060459655272     
          45  1.185854159474123E-002
          46 -1.990749807556490E-004
          47 -4.456081948475312E-002
          48  0.222871854305634     
          49 -4.338897660476111E-002
          50  2.451363835988896E-004
          51 -3.668042776749750E-002
          52 -0.188351317232847     
          53 -0.123791460086673     
          54 -7.497182360071134E-004
          55  1.955892860916736E-003
          56  0.162746534696228     
          57  6.962675745754116E-002
          58  1.253012573563938E-004
          59 -0.105161481627670     
          60  1.135043730438443E-002
          61 -0.240892366072806     
          62 -4.081185312768721E-004
          63 -1.633787653200703E-002
          64  0.110426062285044     
          65 -0.152980132092180     
          66  1.678957692341963E-004
          67  3.533830581519888E-002
          68 -0.117724295223634     
          69  8.590166037733013E-002
          70  1.796273405961765E-004
          71  4.886186743421962E-002
          72 -2.059418760433823E-002
          73 -0.251997937240603     
          74 -7.172278316580048E-004
          75  9.159124966755161E-003
          76 -0.117563804660336     
          77  0.218587715230643     
          78 -5.102689675143200E-005
          79 -5.447466166541436E-003
          80  9.593694297508019E-002
          81 -0.210438266925024     
          82 -5.948776637790070E-004
          83  4.860817805378662E-002
          84 -0.129482852726864     
          85  0.159679000526560     
          86  1.732734631942031E-004
          87 -2.870986363341775E-002
          88  6.231334319774701E-002
          89 -0.121321342178100     
          90  1.637338541056411E-004
          91  9.631880931171570E-002
          92 -8.300724300522445E-002
          93  6.459637242866037E-002
          94  1.333148700857313E-004
          95 -2.575695692899727E-002
          96  5.640803444679399E-002
          97 -1.963226188464187E-002
          98 -2.134493559537513E-005
          99 -2.132961623821959E-002
         100  3.677699983693532E-002
         101  8.031141244421723E-003
         102  3.045251783598640E-005
         103  1.860194573576254E-002
         104  6.861762649581818E-003
         105 -2.200400340419451E-002
         106  0.162266336282889     
         107  0.166357557130971     
         108 -0.172475806670853     
         109  0.245985343455714     
         110 -0.209290198623344     
         111 -5.858982757781556E-002
         112 -2.128644260127637E-003
Sym=    46a
Ene=  -0.450951116109134     
Spin= Alpha
Occup=     2.00000000
           1  7.257696932832083E-006
           2  2.236177709178653E-004
           3 -6.039448542828084E-004
           4 -0.225808595631996     
           5  7.209325901976823E-006
           6  9.876820138809604E-006
           7 -1.708614604078643E-005
           8 -1.007357290672502E-005
           9 -3.551532257902497E-003
          10  9.271994732399989E-004
          11  1.050103355034777E-005
          12  9.311377842318550E-005
          13 -4.077846123131625E-004
          14 -0.148064310672949     
          15 -8.680031108544355E-006
          16  2.588553420033445E-004
          17 -5.319021632819407E-004
          18 -0.201577117391595     
          19 -1.635230986814601E-005
          20  8.107816734900818E-005
          21 -1.890888477443591E-004
          22 -5.637242573908016E-002
          23  4.498525064153572E-006
          24 -1.785198266942789E-004
          25  3.891782320383884E-004
          26  0.139018934735137     
          27 -1.192032032021826E-005
          28 -2.422114862612479E-004
          29  4.910077166859445E-004
          30  0.222721754531922     
          31  2.416387887296275E-005
          32  1.503418527580974E-004
          33 -2.665682140341643E-005
          34 -0.105099810377048     
          35  9.042023749689290E-005
          36  3.138488682671147E-004
          37 -2.769424516233005E-005
          38 -0.105262399198554     
          39 -3.711984382669880E-005
          40 -1.748823064557482E-004
          41 -4.073990424511949E-005
          42  3.548248197350919E-002
          43  3.309281756782570E-005
          44 -3.124084865484142E-005
          45 -6.327874499824396E-005
          46  7.543281332580946E-002
          47  2.464899636399285E-006
          48 -2.917922401278022E-004
          49 -1.604049780507191E-004
          50  0.138621758974227     
          51  3.250968022749838E-005
          52 -2.030525237301675E-004
          53 -7.439801782224810E-005
          54  0.118183580951733     
          55  1.221900711126701E-005
          56 -1.377798464049315E-005
          57 -3.060652226230584E-005
          58  2.642350354143975E-002
          59  3.396438913601903E-005
          60  9.389086467440021E-005
          61  1.246684048185859E-004
          62 -7.362096649971291E-002
          63 -1.126062671478858E-007
          64  1.697455800104698E-004
          65  2.069303220354404E-004
          66 -8.384385675619509E-002
          67  3.106038061390385E-005
          68  1.888587508804385E-004
          69  1.713989662338839E-004
          70 -0.135091686335290     
          71 -8.850931580262470E-006
          72  4.770532643634350E-004
          73  8.112273020916828E-004
          74 -0.387413633261406     
          75  1.670855955285662E-005
          76  2.308424806958930E-004
          77  2.780888123667321E-004
          78 -0.164547247659809     
          79 -2.084838234899373E-005
          80 -2.958129720410012E-004
          81 -3.827736764637416E-004
          82  0.207936147930708     
          83 -3.631310645937157E-005
          84 -4.462640038293896E-004
          85 -8.899863093052860E-004
          86  0.419710677268937     
          87 -7.776253963159542E-005
          88 -4.335757158349669E-004
          89 -4.803276549819350E-004
          90  0.320494790009376     
          91 -4.627497843363968E-005
          92 -2.990182930659976E-005
          93 -1.210496488104040E-004
          94  0.110766879377056     
          95 -5.201934337002163E-005
          96  1.339803254471003E-004
          97  1.589724356975049E-004
          98 -0.201509730944149     
          99 -4.562163404229184E-005
         100 -8.548723740881765E-005
         101  3.855716216429428E-004
         102  0.166634494989581     
         103  3.008774101791864E-005
         104  2.979977093974160E-005
         105 -1.853407952248413E-005
         106 -2.185416097141300E-005
         107 -4.418307131802739E-005
         108 -3.062205485068211E-005
         109 -5.608079381323612E-005
         110  4.565316827995618E-005
         111  2.911976177144591E-005
         112 -1.145230264175468E-007
Sym=    47a
Ene=  -0.445226936074436     
Spin= Alpha
Occup=     2.00000000
           1 -5.089839980125643E-006
           2 -1.536883290283524E-004
           3  4.334115134747762E-004
           4  0.163101109577193     
           5 -6.004065051109692E-006
           6 -3.584302646304582E-006
           7  9.588367697414273E-006
           8  7.472173372583854E-006
           9  3.073063449832692E-003
          10  8.729625311859122E-005
          11 -1.064020945537978E-005
          12 -4.762837387939363E-005
          13  2.270787203253763E-004
          14  8.239975922666755E-002
          15  3.972902517994376E-006
          16 -1.461172870145730E-004
          17  3.146566932715396E-004
          18  0.118200102398817     
          19  1.371368004826866E-005
          20 -5.295393053823258E-005
          21  9.788542320689314E-005
          22  2.788126239708774E-002
          23 -1.494896493890545E-005
          24  1.301545769977359E-004
          25 -2.498449601588551E-004
          26 -8.806985702111124E-002
          27  6.620844394067327E-007
          28  1.442241859332279E-004
          29 -2.699231806791424E-004
          30 -0.126432440078854     
          31 -1.389873117491684E-005
          32 -1.507372659528035E-004
          33  4.702444378696136E-005
          34  0.108182966130991     
          35  6.276306977239208E-005
          36 -2.996736992829026E-004
          37 -8.839141364050676E-005
          38  0.100497113709500     
          39 -1.752795209042819E-005
          40  1.614995421381026E-004
          41  6.818540201662917E-006
          42 -5.190721083403767E-002
          43 -2.927190297995663E-006
          44 -3.906717122492804E-005
          45  2.244843870835611E-004
          46 -5.563979987472774E-002
          47 -1.699911444937773E-005
          48 -3.515078230692195E-004
          49 -4.157095917102121E-004
          50  0.226431983656213     
          51 -5.344917272791987E-005
          52 -6.768120910612860E-004
          53 -3.889654373977797E-004
          54  0.338254247756685     
          55  2.794564980566446E-005
          56 -4.207115167158481E-004
          57 -2.532950902446094E-004
          58  0.232981036652674     
          59 -1.875716935085283E-004
          60  1.060454046936533E-004
          61 -1.592560722639672E-004
          62 -2.061889445768798E-002
          63  2.376163316794648E-005
          64  5.717533998234399E-004
          65  1.137730066328642E-004
          66 -0.260488437351163     
          67 -1.051813373944871E-005
          68  2.205133635191813E-004
          69  6.652162531144508E-004
          70 -0.308104720734614     
          71  1.030992824748058E-004
          72 -3.383758006930128E-005
          73 -3.386671193227239E-004
          74  1.719139819740576E-002
          75 -2.308319405693400E-006
          76 -4.432191128392250E-004
          77 -3.899226572600219E-004
          78  0.307333870423630     
          79 -7.962307402824403E-007
          80 -3.749496039911917E-004
          81 -1.024868109594997E-003
          82  0.377376153656182     
          83  4.657934539707357E-005
          84 -3.255567625520739E-004
          85 -1.979722424071732E-004
          86  0.175041921912743     
          87 -1.335257431530516E-005
          88  3.425270730444847E-004
          89  2.072150054536839E-004
          90 -0.193074971381694     
          91  8.122904225002713E-005
          92  4.405678531037064E-005
          93  2.113254032497566E-004
          94 -0.120745407275763     
          95  3.379600546343884E-005
          96 -4.473501182939627E-005
          97 -1.369789028237854E-004
          98  0.116165409928999     
          99  3.718475309301075E-005
         100  6.202285989066780E-005
         101 -2.843037443489768E-004
         102 -0.118303716865754     
         103 -1.229801498214621E-005
         104 -2.179687649340782E-005
         105  4.644835651762418E-006
         106  1.636598301618139E-004
         107 -8.945692688212345E-006
         108 -6.527715568418153E-006
         109  2.333423905823915E-004
         110 -2.280643806827351E-004
         111 -4.549132835940094E-005
         112 -3.158514694895640E-005
Sym=    48a
Ene=  -0.438647172865517     
Spin= Alpha
Occup=     2.00000000
           1 -1.709318158298128E-003
           2  1.786393669029492E-002
           3  3.082467021523916E-002
           4 -4.666558824155343E-005
           5  2.019152594938485E-003
           6  3.346252381676804E-004
           7 -2.353777833106165E-003
           8  2.718559159739004E-003
           9 -2.185638514905504E-006
          10 -5.463760278660858E-006
          11  3.250224920955730E-003
          12 -1.436015203405787E-003
          13 -1.551885115090070E-002
          14  5.156839390384143E-005
          15  8.089465992363938E-003
          16 -4.587563161366691E-003
          17  2.211389205261798E-002
          18 -2.211247120444770E-005
          19  2.874507406872555E-003
          20 -9.969465636885142E-003
          21 -7.739824676862563E-003
          22  3.234083177203320E-005
          23  3.016010303389867E-003
          24  2.973265291330767E-003
          25  5.269077492826136E-003
          26 -2.915249311997196E-005
          27  1.192878763432540E-002
          28 -3.842011819517155E-002
          29 -8.182769922699926E-003
          30 -8.700624581090828E-005
          31 -1.599546871373583E-002
          32  1.583254532556607E-002
          33 -4.170862269870206E-002
          34  8.402857052232639E-005
          35 -0.157448478213928     
          36 -1.208174505244428E-002
          37  0.205850807553102     
          38  1.191732897644466E-004
          39 -9.930676245831382E-003
          40  0.168893257633471     
          41  0.104077026190002     
          42  2.653526565347212E-004
          43  4.878482631691372E-003
          44 -8.922053789107645E-002
          45 -0.203434715119453     
          46 -3.915538239068894E-004
          47  6.064966576223349E-003
          48  0.181932785275139     
          49  0.197340621032190     
          50  7.185287987560006E-004
          51  2.047479500419021E-002
          52 -0.192226696555287     
          53 -0.105907630651900     
          54 -2.969073072043505E-004
          55 -6.554700293853434E-003
          56  0.190473221019941     
          57  0.125934533468090     
          58  5.833155922203426E-004
          59  2.933916054915342E-002
          60 -0.188839674241646     
          61 -0.128973256919800     
          62 -6.217224444479056E-004
          63  8.849049404854490E-003
          64  0.140691246121274     
          65  0.223466838869317     
          66  3.958098189379068E-004
          67  3.337924984276962E-002
          68 -2.848285705938967E-002
          69 -0.268699363115813     
          70 -6.082021227071055E-004
          71  5.101552605828814E-002
          72 -0.125308568172619     
          73  0.130193444184094     
          74  1.371254456213484E-004
          75 -1.782064565182251E-004
          76  7.133769946665162E-002
          77 -0.145145221620431     
          78 -1.011334820204362E-004
          79  3.267647080008515E-002
          80 -7.436181639704796E-002
          81  9.522631924356974E-002
          82  2.032032473518074E-004
          83  1.146190657751129E-002
          84  6.626126213316604E-003
          85 -0.181994678857449     
          86 -3.823325947735103E-004
          87 -5.158405019923945E-003
          88  5.285603566070667E-002
          89  0.141485273757836     
          90  1.988461864591173E-004
          91 -2.350268361577658E-002
          92  1.173965120136240E-002
          93 -0.123366410997722     
          94 -8.971425158932683E-005
          95 -7.679125935529231E-002
          96  3.234999462520498E-002
          97  8.210833817168285E-002
          98  1.475890840977852E-004
          99  2.889427231603272E-002
         100 -7.343808783161891E-003
         101  6.077017775995140E-002
         102 -2.142513381677331E-004
         103 -3.809232130723845E-003
         104  7.302269146369892E-003
         105 -1.590151556902866E-002
         106 -2.351451353272202E-002
         107  0.207641125603955     
         108 -0.241151390306887     
         109 -0.172426816119764     
         110  0.120515464662619     
         111 -4.296767877796695E-002
         112  7.156318250948467E-002
Sym=    49a
Ene=  -0.434516348106033     
Spin= Alpha
Occup=     2.00000000
           1  1.037956534887140E-005
           2  9.659387317694142E-005
           3 -5.413009279857556E-004
           4 -0.194980863360275     
           5  3.698877303353372E-006
           6 -5.037368827031457E-006
           7  1.338491523678085E-006
           8 -1.385732313550030E-005
           9 -4.773851818985426E-003
          10 -2.203994902575709E-003
          11  1.402775345909511E-005
          12  1.606176724844524E-005
          13 -9.777191955957123E-005
          14 -4.531485092395673E-002
          15 -2.787696566970709E-006
          16  6.846908966743283E-005
          17 -2.348057677246115E-004
          18 -6.751442284861539E-002
          19 -3.091168623035800E-005
          20  7.684131187735039E-005
          21 -1.311316647865920E-005
          22 -6.725726546938795E-003
          23  5.172334432674578E-005
          24 -1.604164436850587E-004
          25  1.226419965947210E-004
          26  5.796059473676795E-002
          27  5.518491124786657E-006
          28 -4.910966617098974E-005
          29  1.566407384316027E-004
          30  6.782544347622343E-002
          31  8.222916196137026E-006
          32  2.016633546128008E-004
          33  1.160808762105182E-005
          34 -0.145928442322237     
          35 -6.031866570316172E-005
          36  6.418551409297741E-004
          37  2.671519108611608E-004
          38 -0.366674067822428     
          39  5.620473208554555E-005
          40  4.703621119984460E-005
          41  7.039615539111772E-005
          42 -4.534509638350646E-002
          43 -1.841826345368136E-006
          44 -3.896739533243862E-004
          45 -2.446669560049438E-004
          46  0.245262240991711     
          47  1.530806440916065E-005
          48 -8.152168822811800E-004
          49 -4.981116350582818E-004
          50  0.414887107514372     
          51  8.182785676983212E-006
          52 -4.303845144152888E-004
          53 -2.285224620087504E-004
          54  0.244624620213969     
          55  1.253728469798793E-005
          56  2.470703239577876E-004
          57  1.249713391985736E-004
          58 -0.145721099121557     
          59 -8.932529205692992E-007
          60  7.788384020845763E-004
          61  4.989278489893988E-004
          62 -0.376473801462383     
          63 -1.704453336540010E-005
          64  1.355742717720673E-004
          65  8.662042473562019E-005
          66 -9.837157526653838E-002
          67 -4.613509131645571E-006
          68 -5.792728147341404E-005
          69 -1.037986513342273E-005
          70  5.039254079538753E-002
          71 -1.958367646564533E-005
          72 -2.103152497389820E-004
          73 -4.432634052611557E-004
          74  0.215397561514659     
          75 -1.801276832683498E-005
          76 -1.363592762480131E-004
          77 -1.298111018365345E-004
          78  8.189189459260597E-002
          79 -2.013492740307247E-006
          80  2.180793197904606E-004
          81  3.112093267171613E-004
          82 -0.149613611437277     
          83  3.104375742863652E-006
          84  2.461549021942317E-004
          85  4.977406615775515E-004
          86 -0.234463964063316     
          87 -1.005813876332957E-005
          88  9.110618406758194E-005
          89  1.612887561391966E-004
          90 -9.025968813928700E-002
          91  7.162259899903242E-006
          92 -1.216464650259184E-004
          93 -1.119220060840361E-004
          94  9.634986836131094E-002
          95 -2.991118946132503E-005
          96 -3.343884470218607E-004
          97 -3.077947067552985E-005
          98  0.230268050529236     
          99 -1.095094427734114E-004
         100 -4.478583999701262E-005
         101  1.794144243916475E-004
         102  0.115568192392262     
         103 -4.196887088539436E-006
         104 -1.830406514222304E-007
         105  6.812150994102792E-005
         106 -6.999532200121185E-006
         107 -5.546520337829470E-005
         108  5.204167376608803E-005
         109  5.001253150804052E-005
         110 -5.340915039246517E-006
         111 -2.058946319181580E-005
         112  2.501475306118107E-005
Sym=    50a
Ene=  -0.423241640279030     
Spin= Alpha
Occup=     2.00000000
           1  1.078260834394365E-002
           2 -0.798761970807959     
           3  0.551180919391527     
           4 -2.026624506144149E-003
           5 -4.096964751276591E-002
           6  3.359470731090947E-002
           7  7.374940201856445E-003
           8 -7.602818921965795E-003
           9 -4.123862309967988E-005
          10 -7.059419965645234E-005
          11  1.998248073985968E-002
          12  1.097781308694361E-002
          13 -3.389881309619952E-003
          14 -1.407772829602535E-005
          15  3.579410481843884E-002
          16  1.550399496813946E-002
          17  3.157771611324917E-002
          18 -1.498319349563809E-004
          19 -2.091698134943916E-002
          20 -1.818486256422540E-002
          21 -2.011926095460010E-002
          22 -2.553720752704658E-005
          23 -1.831412980137646E-002
          24  9.251973766715481E-003
          25 -5.482005253690853E-002
          26  2.011071526096281E-004
          27  2.514768240404084E-002
          28  4.057869470958032E-002
          29  6.521619657616627E-002
          30 -1.531698848186193E-005
          31 -2.792178691475177E-003
          32 -6.425279066129183E-003
          33 -3.595039999449352E-003
          34 -2.545039383836043E-005
          35  1.434620762679290E-002
          36  1.787729708705907E-002
          37 -5.989256056648482E-003
          38  8.009787689407625E-005
          39 -1.717540102215174E-003
          40 -4.225982046001744E-003
          41  1.205338592240235E-002
          42  2.937935899967644E-005
          43  1.677569871756189E-003
          44  1.781212197497680E-003
          45 -3.186198212968009E-003
          46 -2.198479067323142E-005
          47  1.491594287838277E-003
          48  2.601595372833382E-003
          49  4.234162300231973E-003
          50 -3.040912460588715E-005
          51  1.101135825728800E-003
          52 -3.065599518016205E-003
          53  6.156350481650898E-004
          54 -2.520594316636257E-005
          55 -2.793506134989625E-004
          56  2.601535354040055E-003
          57 -4.306989799176058E-005
          58  2.711839040399361E-005
          59  4.459995058795531E-003
          60 -4.576410255269545E-003
          61  3.427989797123454E-003
          62  3.371440547218194E-005
          63 -2.014801415004889E-003
          64 -1.480424416924880E-004
          65  5.776145503386198E-003
          66  3.821193432429403E-006
          67 -2.287188865746452E-004
          68  2.647445499003151E-004
          69 -3.542782127707907E-003
          70 -2.991089454981884E-005
          71 -2.088148627619008E-004
          72 -2.076962583650103E-003
          73  3.433390104229933E-003
          74  4.788146281100656E-006
          75 -2.033929114561536E-004
          76  8.549520431492089E-004
          77 -2.851162393696108E-003
          78  1.815719676294542E-005
          79 -4.462481388275406E-004
          80 -2.111219279578964E-003
          81  3.663414512232600E-003
          82  2.760034765982212E-005
          83  9.979807188585763E-004
          84  4.419737110750775E-004
          85 -6.001112950412631E-003
          86 -1.297982963557239E-005
          87 -2.051652325351811E-003
          88 -2.672116375254319E-003
          89  6.840987513223038E-003
          90 -1.452880960761232E-005
          91 -3.835649822201214E-004
          92 -1.184247688962972E-003
          93 -8.798595372975717E-003
          94 -1.138199155093487E-005
          95 -6.438599441608294E-005
          96  1.550277967211724E-003
          97  1.206897463722647E-002
          98  8.510402160457339E-006
          99 -0.156634850031761     
         100 -3.470694550994855E-002
         101 -0.173971571828827     
         102  4.198578753227279E-004
         103  1.960343500527763E-002
         104  1.839538989239825E-003
         105  3.130878005600168E-002
         106 -7.740771040951688E-004
         107  1.482861836874415E-003
         108 -3.425999115059570E-003
         109 -3.307365803165221E-003
         110  3.927381261893806E-003
         111 -2.943529323636621E-004
         112  3.005809130620963E-003
Sym=    51a
Ene=  -0.417229947655629     
Spin= Alpha
Occup=     2.00000000
           1 -2.435413364689653E-005
           2 -5.387894346966111E-004
           3  2.156940253271492E-003
           4  0.848089220765880     
           5 -5.191291201756235E-005
           6  1.186627007397097E-004
           7 -6.674978872214736E-005
           8  4.889040817573884E-005
           9  2.902548936056836E-002
          10  2.896123111783890E-002
          11 -4.234963012409156E-006
          12  6.975192892808227E-005
          13 -3.927488484015968E-004
          14 -0.159489227803413     
          15 -1.978150819111335E-005
          16  3.032467647414546E-004
          17 -7.250388062109319E-004
          18 -0.241696055889065     
          19 -1.280540681976495E-006
          20 -3.345022327963755E-005
          21  6.707436745630460E-005
          22  6.998434836371292E-003
          23 -6.467060117510063E-005
          24 -2.468658285754537E-004
          25  4.970886144427529E-004
          26  0.248556105834757     
          27 -3.269118168687121E-005
          28 -1.762809307510435E-004
          29  4.835241134529530E-004
          30  0.163180097434413     
          31  3.077479140177042E-005
          32 -4.425652198914497E-005
          33 -5.805523367133725E-005
          34  5.160834580698888E-002
          35  9.557956536487689E-005
          36  2.047207552885812E-004
          37 -6.250618374321800E-006
          38 -7.992109440636889E-002
          39 -8.460224054258037E-006
          40  1.163460641268764E-004
          41  9.703810163889442E-005
          42 -8.335528500941107E-002
          43 -6.228904665158836E-006
          44 -4.379578029292370E-005
          45 -5.696712708125553E-005
          46  3.601259829924513E-002
          47  6.509138722939993E-006
          48 -1.902346502468909E-004
          49 -9.983445699556182E-005
          50  0.100141335725091     
          51  9.467452630254662E-006
          52 -1.146062039110983E-004
          53 -5.253848046782071E-005
          54  5.864593418257227E-002
          55  3.537124607126173E-007
          56  9.976806628648922E-005
          57  4.793081753558330E-005
          58 -5.064134222304167E-002
          59  2.745835102687881E-005
          60  1.785179576500729E-004
          61  1.478685505371196E-004
          62 -9.643651041661049E-002
          63 -4.807066084605421E-006
          64 -2.660234966770466E-005
          65  1.616772061729452E-005
          66  8.740780636630138E-003
          67  3.383061230808986E-006
          68 -9.209285218580100E-005
          69 -1.466996598862747E-004
          70  8.507126570280218E-002
          71 -2.415446763568706E-005
          72  3.553377119682953E-005
          73  4.888661215197683E-005
          74 -1.054893661186068E-002
          75 -2.620350734907542E-006
          76  9.334709434747397E-005
          77  1.570156055529717E-004
          78 -8.473360461116156E-002
          79 -1.179208799736007E-005
          80  7.676062349437773E-005
          81  1.780526479547422E-004
          82 -6.754591478521839E-002
          83  2.074371715259791E-006
          84 -1.995117685216596E-005
          85 -7.692617715382244E-005
          86  2.031126610570611E-002
          87 -2.273269514301100E-005
          88 -1.319225925306519E-004
          89 -1.042700576351986E-004
          90  8.716221682156025E-002
          91  2.205875525052588E-005
          92  5.003688648817615E-005
          93 -1.412540287463508E-005
          94 -3.043147492843339E-002
          95 -4.061607031701792E-005
          96  8.055013872131163E-006
          97  1.191156418045366E-004
          98 -2.468777176077272E-002
          99 -1.007359877803647E-004
         100  2.975074669674430E-004
         101 -7.253588468222525E-004
         102 -0.185033747840130     
         103  5.738247084681180E-005
         104 -8.230124845078563E-005
         105  5.469255215680786E-005
         106 -1.139441651239970E-005
         107 -6.463705816447969E-006
         108 -2.017584042592257E-006
         109 -7.147476630759904E-006
         110  3.364814081042469E-005
         111 -2.429407077591498E-006
         112  1.598231191903793E-005
Sym=    52a
Ene=  -0.408858006989611     
Spin= Alpha
Occup=     2.00000000
           1  2.636565332121118E-002
           2  3.156806040584328E-002
           3 -0.282007011103888     
           4  5.416987871674614E-004
           5 -1.352848894208824E-002
           6 -5.909299854588009E-003
           7  1.943778879667625E-002
           8 -1.935492375648759E-002
           9  1.091774645863364E-005
          10  4.506667838327968E-005
          11  1.847191255845394E-002
          12 -0.139800376498156     
          13  0.125665802347440     
          14 -3.824425111829224E-004
          15 -7.754647144530892E-002
          16  7.787581325286586E-002
          17 -0.228116973042521     
          18  8.113013705021534E-004
          19  9.242486690073656E-003
          20 -3.296115909271462E-002
          21  9.900919258968807E-002
          22 -3.419954733099967E-004
          23 -7.136094593144780E-002
          24  7.189685328687186E-002
          25 -0.228165015026541     
          26  5.838236018696330E-004
          27  1.828959743902140E-002
          28 -9.680765383262502E-003
          29  0.184231061263265     
          30 -4.440686700008639E-004
          31  4.494971154673234E-002
          32  0.127598573805645     
          33 -1.871916233054770E-002
          34  2.016989853527722E-005
          35  7.756904848037063E-002
          36 -1.312738737600420E-002
          37 -0.128650830458618     
          38 -3.651696497731290E-005
          39  1.355829771138881E-002
          40  3.300424901163147E-002
          41  5.044918014451892E-002
          42  2.511036606293427E-004
          43 -1.543023858707625E-002
          44 -3.673315611785032E-002
          45 -2.936668261011678E-002
          46 -1.927625484779278E-005
          47  6.985188806204129E-003
          48  1.739597314884065E-002
          49  3.171196299081854E-002
          50 -7.605066173293225E-005
          51 -3.923897381725022E-003
          52 -1.919061641149244E-002
          53 -1.225599549072892E-002
          54 -2.493358508628373E-004
          55 -1.575820064449771E-003
          56  8.354908563210866E-003
          57  1.119997888127226E-002
          58  7.843457764131520E-006
          59 -2.409216601893715E-003
          60 -1.692886583842440E-002
          61 -1.060571624530318E-002
          62  1.114264227783940E-004
          63  4.669902346041626E-003
          64  1.150917904080694E-002
          65  1.896154964529246E-002
          66  1.257090588604485E-004
          67  5.407824007856710E-003
          68 -1.070799693921898E-003
          69 -2.289919541547103E-002
          70 -2.374375902225416E-004
          71 -9.669352628337717E-004
          72 -9.786227158306071E-003
          73  1.506683946583544E-002
          74 -2.500065021305006E-005
          75 -5.068989029912343E-004
          76  2.945646202664813E-003
          77 -1.218818564322611E-002
          78  1.521116690266019E-004
          79 -3.948058299561276E-003
          80 -1.134240692625021E-002
          81  1.772251174044857E-002
          82  2.162314585626346E-004
          83  1.012632760711609E-002
          84  2.251639589659043E-003
          85 -3.356097680745121E-002
          86 -8.674970213409351E-005
          87 -1.459928002755314E-002
          88 -1.421141745845690E-002
          89  3.849509330003905E-002
          90 -1.555560488568775E-004
          91  3.171677835977552E-002
          92  2.053499592411776E-003
          93 -6.991332403187664E-002
          94 -4.575267513360826E-005
          95  1.114829842985584E-002
          96  9.355518451391379E-003
          97  4.179596786129976E-002
          98  1.237174006096008E-004
          99 -0.386102414220423     
         100  0.242472200091746     
         101 -0.652220560259630     
         102  2.005816675385200E-003
         103  0.109295010849484     
         104 -0.156684365567297     
         105  0.112309299592320     
         106 -3.189153493865811E-003
         107  2.220190736683459E-002
         108 -1.480634003293375E-002
         109 -1.429537726741742E-002
         110  1.911169844019304E-002
         111 -1.343034261109309E-003
         112 -4.545895465690928E-003
Sym=    53a
Ene=  -0.405169425131611     
Spin= Alpha
Occup=     2.00000000
           1  1.961055803820018E-006
           2  5.713632719548932E-005
           3 -1.812616526083669E-004
           4 -6.459884702590760E-002
           5  3.690288719433558E-006
           6 -1.573983168934434E-005
           7  1.204954296991078E-005
           8 -5.431782242842456E-006
           9 -2.591808710395599E-003
          10 -3.524530392399841E-003
          11  8.559688024637117E-007
          12 -3.695554610245171E-005
          13  9.116045106791075E-005
          14  3.022258270232555E-002
          15 -2.407643806707793E-005
          16 -2.551913793175560E-005
          17  1.463917422065599E-004
          18  5.221350323345364E-002
          19  2.117353021012592E-005
          20 -3.764008830701297E-005
          21 -2.319574717278341E-005
          22 -6.829608962234791E-003
          23 -5.704877111754779E-005
          24  1.487853182830300E-004
          25 -8.293887138840326E-005
          26 -5.399407555383051E-002
          27 -2.754097385800770E-005
          28  6.307468262950488E-005
          29 -7.111907564124677E-005
          30 -2.644025711881959E-002
          31 -2.112460810429698E-004
          32  1.107230430956817E-004
          33  1.362546402891726E-004
          34  6.503702344042302E-002
          35  9.855685926016115E-004
          36 -3.675628645076507E-004
          37 -1.648544730943555E-003
          38  0.254756309624646     
          39 -1.890711512099784E-004
          40 -2.992331098756972E-005
          41  2.919600050405595E-004
          42 -2.599808794117586E-002
          43 -7.501426307879521E-005
          44  4.945601717168316E-004
          45  2.600368350045176E-004
          46 -0.355951031768050     
          47  3.595629227610255E-005
          48 -1.290159281539000E-005
          49  1.142454562671517E-004
          50  4.367806545168389E-002
          51  7.400967210818226E-006
          52 -8.170091282307899E-004
          53 -4.204024615077642E-004
          54  0.373656191176084     
          55 -2.995221758480866E-005
          56 -4.846782062250759E-004
          57 -2.972347675154270E-004
          58  0.269973001912576     
          59  6.596384289282248E-005
          60  1.163798904626127E-004
          61  2.085832207545067E-004
          62 -0.125136289145408     
          63 -2.439773157052026E-005
          64  6.404166143454090E-004
          65  5.123437392281109E-004
          66 -0.323805639310066     
          67 -1.135649805273659E-005
          68 -3.146254577803217E-004
          69 -4.650190480786907E-004
          70  0.231736965818857     
          71  6.344281951276291E-005
          72 -2.525800970206631E-004
          73 -3.287646942301119E-004
          74  0.169791747263685     
          75 -2.018011917980715E-005
          76  2.353720545365992E-004
          77  3.411062289791854E-004
          78 -0.177825791469467     
          79 -1.885113776761991E-005
          80  3.170255096595360E-004
          81  8.129115629083608E-004
          82 -0.335069216997662     
          83  7.403320470234520E-005
          84  1.204666386329280E-004
          85 -4.288187370456593E-005
          86 -6.954387360991647E-002
          87 -7.603802940242626E-005
          88 -3.942389585470388E-004
          89 -3.595632224642720E-004
          90  0.303494550517502     
          91  1.679855859666412E-004
          92 -1.573021509897316E-004
          93 -4.384351705903665E-004
          94  6.410183236318069E-002
          95  2.475446420082389E-004
          96  4.201343782002954E-004
          97 -2.208159588766915E-004
          98 -0.234628864995722     
          99 -3.505706653385243E-005
         100  3.565515512521633E-005
         101 -6.250086869223096E-005
         102 -1.389066027974400E-002
         103  2.926455951043400E-005
         104  1.743043743642630E-006
         105 -4.369606398116246E-005
         106 -1.422721601918153E-005
         107  6.743633161531103E-005
         108 -6.762607375181414E-005
         109 -6.153463306581671E-005
         110  9.592345325210044E-005
         111 -8.892368386042109E-006
         112 -9.804488765487957E-005
Sym=    54a
Ene=  -0.400489179758375     
Spin= Alpha
Occup=     2.00000000
           1 -6.743227001507253E-003
           2  1.129477989253326E-002
           3  4.778622878436787E-002
           4 -2.490907251876968E-005
           5  3.271846003718856E-003
           6  8.313506664538923E-004
           7 -4.103196670172748E-003
           8  3.987590663761065E-003
           9  2.332478795388080E-006
          10 -5.640533435493452E-006
          11 -3.116573418030114E-003
          12  2.414182536896724E-002
          13 -2.072051919649203E-002
          14  2.468756469025891E-005
          15  7.488284255171997E-003
          16 -5.077029010993512E-003
          17  4.702841971412155E-002
          18 -1.324321972673269E-004
          19  4.094238516082148E-004
          20  2.497248420840568E-005
          21 -2.257169423738453E-002
          22  1.141550926939683E-004
          23  3.337447168420395E-003
          24  4.246903615233192E-003
          25  7.393281235334402E-002
          26 -1.824880709301313E-004
          27 -2.134745896118588E-002
          28  2.612888729613195E-002
          29 -4.875837704022198E-002
          30  1.706222716118566E-004
          31 -0.124088304513417     
          32  7.456563571194637E-002
          33  7.488226359428836E-002
          34  8.677741376614529E-005
          35  0.468040622797160     
          36  4.344590242389743E-002
          37 -0.734728741991290     
          38 -8.663293859825125E-004
          39 -6.689744789872838E-002
          40 -3.352583507256587E-002
          41  0.184635428760008     
          42 -6.131134120646484E-006
          43 -2.537880254419264E-002
          44 -7.341776138536353E-002
          45 -5.417501446350693E-002
          46  5.423058497088382E-004
          47  1.548929414844681E-002
          48  3.087702708797090E-002
          49  7.666688075646809E-002
          50  1.925663310109406E-004
          51  2.003388789360653E-003
          52 -4.540094340246561E-002
          53 -6.743144317063778E-003
          54 -7.748544455399580E-004
          55 -8.899798425245938E-003
          56  1.895796925145439E-002
          57  7.710036529957510E-003
          58 -5.436730496213944E-004
          59  3.673556814891461E-002
          60 -6.718533472674286E-002
          61  3.125287836776533E-002
          62  8.927451362404760E-005
          63 -1.710048363659871E-002
          64  1.229852991844474E-002
          65  4.530665264903370E-002
          66  7.417313284607898E-004
          67 -1.418883479545334E-002
          68 -1.015158359034680E-002
          69 -4.242041928874624E-002
          70 -5.177218642974984E-004
          71  2.812369254264171E-002
          72 -5.836087296794078E-002
          73  1.292568839248818E-002
          74 -3.738853874450094E-004
          75 -3.228686425664044E-003
          76  1.910690481756889E-002
          77 -1.753027646072321E-002
          78  3.340838756964229E-004
          79 -7.985226098982872E-003
          80 -4.626691011834792E-002
          81  3.870744152463279E-002
          82  6.548815282146248E-004
          83  3.911563338856586E-002
          84  1.738280843362656E-002
          85 -8.956708404469214E-002
          86 -9.126305379279439E-005
          87 -2.286811427427607E-002
          88 -3.377118004516078E-002
          89  8.311175145553908E-002
          90 -4.763775730548065E-004
          91  9.867171262261912E-002
          92 -4.914285501192769E-002
          93 -0.232047141919278     
          94 -4.754502239901900E-004
          95  0.113096179360256     
          96  6.092197322335621E-002
          97 -0.155034881398167     
          98  5.854417207565726E-004
          99  6.155796529299412E-002
         100 -3.206297017111912E-002
         101  0.129959120275431     
         102 -4.247916424710683E-004
         103 -1.334507930601008E-002
         104  3.633102247418061E-002
         105 -3.363072030528107E-002
         106 -5.659026490710885E-003
         107  3.465921076212783E-002
         108 -3.647235768180412E-002
         109 -4.069639169110058E-002
         110  3.912430903902818E-002
         111  7.173994258486890E-003
         112 -3.577663872769239E-002
Sym=    55a
Ene=  -0.389228934904433     
Spin= Alpha
Occup=     2.00000000
           1 -2.570434382677356E-005
           2  4.171538316128511E-005
           3  3.486093784277963E-004
           4  9.639813810367781E-002
           5  2.795029925873837E-006
           6  4.375665689339938E-005
           7 -4.655168681927321E-005
           8  1.921181731819128E-005
           9  3.612194145484621E-003
          10  8.767714584209024E-003
          11  4.400987391655704E-005
          12  4.267609602174007E-005
          13 -2.314228243771911E-004
          14 -7.847958359215265E-002
          15  9.103839545464928E-006
          16  2.285921169875672E-004
          17 -4.972299529950546E-004
          18 -0.207163295217388     
          19 -4.292370225661088E-005
          20  2.960217585180774E-005
          21  2.329996900775615E-005
          22  2.821976509589001E-002
          23  1.151303958822802E-004
          24 -3.415554854502835E-004
          25  7.203116516971917E-004
          26  0.208311819236344     
          27  1.627317876060079E-005
          28 -7.103716225558515E-005
          29 -1.722327030032885E-005
          30  4.664475738467038E-002
          31 -3.185762377813017E-005
          32  5.870185954475743E-004
          33  1.372405043982006E-004
          34 -0.366952503506775     
          35  5.294323425320807E-005
          36  1.535568795805019E-004
          37 -1.274450608339116E-004
          38 -7.116326852065323E-002
          39 -2.048708167646901E-009
          40 -6.557075326655877E-004
          41 -1.862666540493105E-004
          42  0.384680751588334     
          43  4.710627417012610E-005
          44  1.303291536579259E-004
          45  1.288494398058869E-004
          46 -9.545944108077664E-002
          47  1.061002873218790E-005
          48  4.514567001919274E-004
          49  2.823261907471442E-004
          50 -0.225423028318530     
          51 -1.460143878491901E-006
          52  3.469282792540039E-005
          53  4.216045681912389E-005
          54 -3.564559424602831E-002
          55 -1.382696672929151E-005
          56 -4.206721374151943E-004
          57 -2.570329799387859E-004
          58  0.226024465365238     
          59  1.894093606520097E-005
          60 -3.736509252091345E-004
          61 -1.708393736720467E-004
          62  0.159344509115128     
          63 -2.438320157451190E-005
          64  4.182829195682182E-004
          65  2.561270340351456E-004
          66 -0.211503915436104     
          67  1.092743311600972E-005
          68  2.968368959822527E-004
          69  4.083632353723812E-004
          70 -0.240505256877231     
          71  6.217548963467546E-005
          72 -2.187470036259872E-004
          73 -2.876195447310998E-004
          74  0.127570554336066     
          75 -5.679023590629272E-006
          76 -2.717466491306523E-004
          77 -4.773854204771939E-004
          78  0.243907341165050     
          79  2.219556965494058E-005
          80 -6.793149792114607E-006
          81 -2.156474954831104E-005
          82 -4.536625402647106E-003
          83 -6.577898868538605E-006
          84  2.671199880945893E-004
          85  4.958689927309892E-004
          86 -0.224232776427748     
          87 -2.027034186774416E-005
          88  1.035160814641126E-004
          89  1.494594461715235E-004
          90 -9.455236977503996E-002
          91 -6.752414928741884E-005
          92 -4.771857809128037E-004
          93 -4.239148469790216E-004
          94  0.416132874940134     
          95  3.611587578082382E-005
          96  9.349533272202361E-005
          97  2.748117599906374E-005
          98 -0.116751401831173     
          99 -3.708884363325684E-005
         100 -3.643195595853780E-005
         101  5.817941412275543E-004
         102  0.140751667936363     
         103 -1.210592094394453E-005
         104  9.196425259695209E-005
         105 -3.856572593962159E-005
         106  2.425604863770647E-005
         107  1.331747901739110E-005
         108 -2.809322470333083E-005
         109 -9.956001174107382E-006
         110 -3.419780034928008E-005
         111  3.439350262446299E-006
         112  7.110279803400617E-006
Sym=    56a
Ene=  -0.367409916734015     
Spin= Alpha
Occup=     2.00000000
           1 -2.070810619460462E-004
           2 -2.915689370215924E-004
           3  1.293364850114949E-003
           4  1.725763990734520E-006
           5  8.958250513662866E-005
           6 -2.090303271517937E-005
           7 -6.867947242144929E-005
           8 -2.116931204879372E-005
           9  9.526450078629082E-007
          10  4.562866359263791E-007
          11 -6.629479134589551E-004
          12  2.231754202585786E-003
          13 -1.245957952657920E-003
          14 -2.274814441511348E-006
          15 -2.580702208782408E-004
          16 -3.598541639161473E-004
          17  2.048117160318560E-003
          18  7.821181178630765E-006
          19 -2.876920199177919E-003
          20  4.746445488111180E-003
          21 -2.397215583494993E-003
          22  1.968905951595760E-005
          23  4.566604291237520E-003
          24 -4.264033203409632E-003
          25  9.539005322744940E-003
          26 -4.550887187614043E-005
          27 -9.141511161857520E-003
          28  1.535563446248371E-002
          29 -7.149924120585706E-003
          30  3.206357642690985E-005
          31  8.739036612078324E-004
          32 -3.033792255008736E-003
          33  2.148659853211945E-002
          34 -4.516745816868025E-005
          35  2.991449288099096E-002
          36  4.891786330535122E-003
          37 -3.031627980649648E-002
          38 -7.178633620986503E-006
          39  2.505215282972823E-003
          40  9.841980044559471E-003
          41  3.303211012745395E-002
          42  8.131729108040799E-005
          43 -5.417553033245484E-003
          44 -4.038768692311794E-003
          45 -2.465657055716841E-002
          46 -4.332438299856291E-005
          47  1.222766677684805E-002
          48  1.167246691050111E-002
          49  3.117716950236059E-002
          50  1.616884809209902E-005
          51  2.077962054920974E-003
          52 -8.021011069616791E-003
          53 -5.810104677082178E-003
          54 -2.741226546713921E-005
          55  1.111341640190855E-002
          56  1.521014676085312E-002
          57  2.659735690481518E-002
          58  1.000185234698061E-004
          59 -2.414162110078226E-002
          60 -3.399104173260531E-002
          61 -3.194957401633256E-002
          62 -9.026605794723611E-005
          63  6.215097343807066E-002
          64  3.471725566473863E-002
          65  0.108742991162705     
          66  1.957996194023299E-004
          67  5.946538887927054E-002
          68 -0.170988115849112     
          69  1.449629827206760E-002
          70 -2.510758582479475E-004
          71 -0.451182985523340     
          72  0.722408645640350     
          73  0.216006777273883     
          74  1.235687520291907E-003
          75  5.268568968030139E-002
          76 -0.143595344007510     
          77 -0.100845529605383     
          78 -3.470790297148074E-004
          79 -0.102182070331750     
          80  0.222132730129287     
          81  7.307379574637479E-002
          82  4.841378356570806E-004
          83  2.094691029440588E-002
          84 -6.841193339360135E-002
          85 -2.608781593699001E-002
          86 -1.654208965379581E-004
          87 -9.741078552685434E-002
          88  0.214910214313909     
          89  8.033307496313874E-002
          90  3.212240858870005E-004
          91  6.709114307158896E-002
          92 -4.340193890120945E-002
          93  3.080508092073754E-002
          94  2.435556025212933E-006
          95 -3.245309155821386E-002
          96  6.482352740512048E-002
          97 -1.768285788166508E-002
          98  8.050543541588229E-005
          99  1.390026604557984E-003
         100 -1.595978254710853E-003
         101  6.382025840367245E-003
         102 -2.926695297095737E-005
         103 -1.700195962815722E-003
         104  5.008283255553773E-003
         105  2.120910701499680E-004
         106 -1.149690037371568E-002
         107  1.724424478458169E-002
         108 -2.412153328585737E-002
         109  0.151539464625484     
         110  0.102595190449589     
         111 -0.133496215502285     
         112  7.631877962702480E-003
Sym=    57a
Ene=  -0.362764859600003     
Spin= Alpha
Occup=     2.00000000
           1 -7.649871800615363E-004
           2  6.075538296774155E-003
           3  5.585312013138164E-004
           4 -8.957379399263473E-006
           5  3.535742537384430E-004
           6  1.164953372904449E-004
           7 -4.700695910288879E-004
           8  1.042501451457968E-003
           9 -2.369574415538435E-006
          10 -3.110622747925045E-006
          11  4.696480925133215E-003
          12 -5.999415411460457E-003
          13  2.400730147091639E-003
          14  5.927976618493448E-006
          15 -2.769892112720563E-004
          16  6.632146946376798E-004
          17 -2.906823968707709E-003
          18  5.739733045461637E-005
          19  1.017490991660504E-003
          20 -1.984388682026936E-003
          21  1.223394168443564E-003
          22 -2.791411169961002E-005
          23  1.521126638041156E-003
          24 -1.705187463589818E-004
          25 -4.591119417416491E-003
          26 -3.258495085259752E-005
          27  1.242305749185048E-002
          28 -1.856185876394333E-002
          29  4.951573412289764E-003
          30 -2.085586562105827E-005
          31 -3.914876296749237E-003
          32  1.460991320462377E-002
          33  1.482367177138583E-002
          34  4.789668930939787E-005
          35  9.681785346218439E-003
          36 -6.507541944129754E-002
          37  6.097277061013464E-002
          38 -1.040621498131915E-004
          39 -5.162356788226447E-002
          40  7.620593962935876E-002
          41  4.536292288789427E-003
          42  1.157531160667137E-004
          43  8.949283991296808E-002
          44 -0.149010074140507     
          45  0.178024719783881     
          46 -5.152835838185546E-005
          47 -1.445924033194592E-002
          48  5.522294857585593E-002
          49 -6.282985048573131E-002
          50  2.345305723428880E-005
          51  9.946130696979924E-002
          52 -0.157289694062612     
          53  0.176627383710655     
          54 -1.188933542363777E-004
          55 -4.894552490584716E-002
          56  7.560429412465246E-002
          57 -0.160203449280828     
          58 -6.574692232224745E-006
          59  0.446289896983880     
          60 -0.511872347548222     
          61  0.548067955181055     
          62 -3.428590167410132E-004
          63 -4.825955063765363E-002
          64  0.163972379678478     
          65 -7.029660197287779E-002
          66  1.903470722245100E-004
          67 -6.085428823265826E-002
          68  1.664538525578769E-002
          69  0.108512827310878     
          70  2.610381745505277E-004
          71  3.729849403439358E-003
          72  4.678035486471925E-002
          73 -3.245044093563265E-002
          74 -2.787034049298239E-005
          75 -9.283432550251875E-003
          76 -6.135019820489061E-003
          77  2.377477222802254E-002
          78  3.105302434478558E-005
          79 -6.517847621293767E-003
          80  1.421083944634062E-002
          81 -4.059437036975829E-003
          82  2.280107177512824E-005
          83 -1.221835001509276E-002
          84  1.326235217297919E-004
          85  2.780953053859561E-002
          86  6.934386309989039E-005
          87  7.767390339710605E-004
          88  2.978378190422467E-003
          89 -1.521144956429892E-002
          90 -4.274425507320411E-005
          91 -5.602693343211223E-003
          92  4.127156842947904E-003
          93  3.556596234284720E-002
          94 -1.875393313745446E-005
          95 -1.966665877098531E-002
          96  1.925335230148612E-004
          97  1.261575832161234E-002
          98  3.221446094623408E-005
          99 -1.082120095271977E-002
         100  9.764064943276045E-003
         101 -3.395342994183696E-003
         102 -2.710188458863531E-005
         103  2.145048911649440E-003
         104 -2.803556369996552E-003
         105 -4.698626287216219E-004
         106  0.139270992898344     
         107 -0.102770287335489     
         108 -0.154128535022428     
         109  2.959839427976136E-002
         110 -1.015337567753101E-002
         111  3.505977301475436E-003
         112 -1.557103947875786E-005
Sym=    58a
Ene=  -0.297092605191258     
Spin= Alpha
Occup=     0.00000000
           1 -1.161978167305645E-005
           2  1.184934851586309E-005
           3  4.832105070966401E-005
           4  5.586806051798724E-003
           5  8.645491536251913E-006
           6  4.994777859906220E-005
           7 -5.859327013531411E-005
           8 -3.301128248779916E-005
           9 -1.147042794111164E-002
          10  7.751192131238795E-003
          11  2.024516615537817E-005
          12 -7.245650493689565E-006
          13 -5.278829955104041E-006
          14 -9.987632705479099E-003
          15 -1.294202001116198E-005
          16  4.999234465578884E-004
          17 -1.145596959389401E-003
          18 -0.432726279056727     
          19 -3.278076129196202E-005
          20 -3.947688327922511E-004
          21  9.274538489975685E-004
          22  0.339310038821746     
          23  5.788321571373181E-005
          24 -2.451849494887959E-004
          25  5.794297451557149E-004
          26  0.187200825924378     
          27  2.229242693953094E-005
          28  4.786108139033883E-004
          29 -1.130457497193757E-003
          30 -0.464122985999667     
          31 -1.012575914654511E-005
          32  4.483209428976349E-004
          33  8.463210689842890E-005
          34 -0.273494862801386     
          35 -1.203371938302071E-004
          36 -6.637583811660266E-004
          37 -2.318834275001298E-004
          38  0.313460160448435     
          39  4.457726213951109E-005
          40  3.380678866605532E-005
          41 -2.696862543291249E-005
          42  7.055503342303367E-003
          43 -5.454832400204150E-005
          44  1.518742346771932E-004
          45  9.503895066518869E-005
          46 -0.109870984738847     
          47  7.481522421169589E-006
          48  7.817185653600713E-005
          49  5.322330835088079E-005
          50 -3.694662496409507E-002
          51 -1.848681572036836E-006
          52 -2.448720380180283E-004
          53 -1.260918325618786E-004
          54  0.118613133000198     
          55 -7.754705715658175E-006
          56  2.669224240855675E-005
          57  8.998435121860896E-006
          58 -1.512102292049368E-002
          59  2.059479084571924E-005
          60  1.740634506300201E-004
          61  1.443136431405016E-004
          62 -9.927004083193457E-002
          63  8.939578801562567E-006
          64 -1.612760151239171E-004
          65 -1.211783105340894E-004
          66  9.160088012838508E-002
          67 -2.040734307412026E-005
          68 -2.440762183858095E-004
          69 -3.324164709921637E-004
          70  0.193625819568646     
          71 -2.438453022345787E-006
          72  2.170414790837002E-006
          73  3.176184661172112E-006
          74 -4.748537316251998E-003
          75  1.254232214098216E-006
          76  2.179895355718439E-004
          77  3.727003988115695E-004
          78 -0.183296765030522     
          79 -1.992652764919883E-006
          80 -1.109146104070710E-004
          81 -2.050230975568882E-004
          82  9.559082669522848E-002
          83  5.434458506027765E-006
          84 -1.495909659564671E-004
          85 -2.678568779139161E-004
          86  0.125569388921704     
          87  3.772529426989926E-005
          88  2.209818151469373E-004
          89  2.965800783409436E-004
          90 -0.173992180552120     
          91  2.240007708951025E-005
          92  2.235289505490491E-004
          93  1.748083490872441E-004
          94 -0.209836903206322     
          95  1.817824499999765E-004
          96 -3.087250551433981E-004
          97 -3.478781044874565E-004
          98  0.306996102627607     
          99 -8.769738325021495E-005
         100 -3.149752467007467E-004
         101  1.059389549635359E-003
         102  0.411284502564359     
         103  1.784516241115757E-005
         104  3.946094016645766E-005
         105  1.434323232860198E-005
         106  6.923343291250895E-006
         107  3.139880200523507E-006
         108 -2.642271932453813E-006
         109  3.377423704273713E-006
         110  4.608065208659312E-006
         111  7.282771919371316E-006
         112 -6.393689304913187E-005
Sym=    59a
Ene=  -0.275074239207167     
Spin= Alpha
Occup=     0.00000000
           1  3.450825793904777E-005
           2 -1.575306102987605E-004
           3  1.791987299538198E-004
           4  9.462255690312472E-002
           5 -5.149516909404872E-005
           6  1.890075536051708E-004
           7 -1.375123845111220E-004
           8 -3.383050239184897E-006
           9  2.827921134948949E-002
          10  4.301544278010964E-002
          11 -7.497975664064599E-005
          12  2.317778597045900E-004
          13 -8.694222900420800E-004
          14 -0.299530939960837     
          15  4.152685410949477E-006
          16 -6.107032924312857E-005
          17  1.488367082635909E-004
          18  5.160700449597926E-002
          19 -3.562823973737093E-005
          20 -3.412297928977163E-004
          21  7.118161849960294E-004
          22  0.265634343946432     
          23  1.267718304946168E-005
          24  3.338757053168452E-004
          25 -7.501074107400084E-004
          26 -0.288626467794998     
          27 -4.472250685794716E-005
          28 -2.410663129258909E-005
          29 -3.652503569038312E-005
          30 -7.398439551127009E-003
          31  2.352177934260919E-005
          32 -5.981851170976632E-005
          33 -1.656011447782105E-005
          34  4.985494676913547E-002
          35 -1.690945712689004E-005
          36  1.189635922750839E-004
          37  5.436293290781643E-005
          38 -8.832267573368813E-002
          39  4.905050103544418E-008
          40 -6.974430570790014E-005
          41 -4.129857880278391E-005
          42  5.509233929324969E-002
          43  3.143955874819448E-005
          44 -4.500417394197608E-004
          45 -2.395304596589687E-004
          46  0.238740408739053     
          47  3.515025306739183E-006
          48 -1.861566729486366E-004
          49 -1.112530264260423E-004
          50  9.890019637407009E-002
          51 -5.424843160920599E-006
          52  5.664651183006885E-004
          53  3.184827286660134E-004
          54 -0.293726268349121     
          55  4.276219552751090E-006
          56 -1.827732347976587E-004
          57 -1.030347042412056E-004
          58  9.725172681290006E-002
          59 -2.253182621999251E-005
          60 -4.172104822536714E-004
          61 -2.724652231162033E-004
          62  0.207943729238695     
          63  9.188970507288443E-007
          64  5.920055071716487E-004
          65  3.855647997000527E-004
          66 -0.311773323114019     
          67  3.844635125691925E-006
          68  2.859361355068026E-004
          69  4.524964387650318E-004
          70 -0.257659678167981     
          71  6.177524304575197E-006
          72 -4.682097191683811E-004
          73 -8.097911341708350E-004
          74  0.415245483433948     
          75  4.959530909201031E-006
          76  1.887215332878304E-004
          77  3.189545696730499E-004
          78 -0.162120652128157     
          79  2.250140140549378E-006
          80  4.037450034839083E-004
          81  7.338400307367928E-004
          82 -0.340355807041629     
          83 -1.519291710951777E-006
          84 -4.791618914549224E-004
          85 -8.439654938952557E-004
          86  0.400799626142420     
          87 -3.372053297406152E-005
          88 -4.182445293142223E-005
          89 -1.310802554741280E-005
          90  3.982325858712991E-002
          91  6.180331393301873E-005
          92  2.304563238099191E-004
          93  1.370510120703812E-004
          94 -0.174474228969641     
          95 -5.192863576794584E-005
          96 -9.177134296931759E-005
          97 -5.906224218393725E-005
          98  6.813138699214319E-002
          99  5.879687046298035E-005
         100 -2.512982185939789E-004
         101  6.049142337869363E-004
         102  0.244521508816120     
         103  3.296282225836157E-005
         104  2.957918470798399E-005
         105 -9.161732710457910E-006
         106 -2.011677747074134E-006
         107  3.182532026457932E-006
         108 -8.778668599864029E-006
         109 -1.132638547127353E-005
         110  3.246755612700898E-006
         111 -3.084444414377495E-006
         112  1.479753088103790E-005
Sym=    60a
Ene=  -0.274239554022671     
Spin= Alpha
Occup=     0.00000000
           1  5.449309198114314E-005
           2 -2.464773847975072E-004
           3  2.847744578849269E-004
           4  0.150524285126539     
           5 -8.289737851088009E-005
           6  3.015259890384992E-004
           7 -2.186286105276192E-004
           8 -5.909070300701965E-007
           9  4.621939406674069E-002
          10  6.866730485020242E-002
          11 -1.089500499187623E-004
          12  3.583096553098423E-004
          13 -1.387023300192280E-003
          14 -0.479127002435623     
          15 -1.203576117540418E-006
          16 -1.225090081795913E-004
          17  3.057937115817492E-004
          18  0.108837382828851     
          19 -4.549135962075866E-005
          20 -5.280181973973720E-004
          21  1.068513673628656E-003
          22  0.398737918633588     
          23 -4.877869277647616E-006
          24  5.598207008084096E-004
          25 -1.206844912187404E-003
          26 -0.466762153106277     
          27 -5.777040606093750E-005
          28 -9.271210044706781E-005
          29  2.276396818766459E-005
          30  1.909602050575904E-002
          31  2.067680958346554E-005
          32 -8.222020326711985E-005
          33 -5.179181265983537E-005
          34  8.051665189291962E-002
          35 -3.786750501083099E-005
          36 -9.969980974331893E-005
          37 -1.631916001062086E-005
          38  5.313812164219097E-002
          39 -1.448753608744853E-005
          40  2.472140311897506E-004
          41  2.901251346211637E-005
          42 -0.147226284870846     
          43  5.359394635690040E-006
          44  2.854644941078325E-004
          45  1.785055080711517E-004
          46 -0.152145910522549     
          47 -1.991796901093083E-005
          48 -1.868891394702085E-004
          49 -1.353929323434930E-004
          50  9.511689088260608E-002
          51  7.007895421133888E-006
          52 -1.583313167074762E-004
          53 -8.835612153369872E-005
          54  8.438817882500167E-002
          55  7.798291664768323E-006
          56  3.065272136909209E-004
          57  1.744461165387143E-004
          58 -0.157816722802239     
          59  1.380751028473530E-005
          60 -4.917026132810729E-005
          61 -1.427666185038722E-006
          62  1.897928834938832E-002
          63  1.042775768856193E-005
          64 -2.727503292117315E-004
          65 -1.991724822713475E-004
          66  0.150367332057255     
          67  1.334215760914066E-005
          68 -5.550250678937709E-006
          69 -4.893924300907019E-005
          70  2.557783919295620E-002
          71 -3.823075072832867E-006
          72  3.144151767846883E-004
          73  5.314212288054628E-004
          74 -0.270170873446188     
          75 -3.097317484064798E-006
          76 -2.852650595784084E-004
          77 -4.854291737990114E-004
          78  0.241768479721765     
          79  1.906657937534752E-006
          80 -1.431518270377988E-004
          81 -2.649976013537698E-004
          82  0.121764398126616     
          83 -4.367809447336621E-006
          84  3.847887122577469E-004
          85  6.832380675738964E-004
          86 -0.321484360686505     
          87  1.285469609411554E-005
          88 -1.504678576278380E-004
          89 -2.724481840795799E-004
          90  0.128730979358424     
          91 -2.409238996748956E-005
          92 -1.986633833305440E-004
          93 -1.285736479047648E-004
          94  0.191457805374889     
          95 -7.726625762847421E-005
          96  1.525056116945892E-004
          97  3.599781815943000E-005
          98 -0.155719219713216     
          99  7.294249325684259E-005
         100 -3.730060471045393E-004
         101  8.983535423133940E-004
         102  0.369735505143349     
         103  6.171631370611941E-005
         104  4.197979670717934E-005
         105 -1.465913221906039E-005
         106  4.925175920915226E-006
         107 -9.480732516441744E-006
         108 -3.904711653827162E-006
         109  6.219395573322129E-006
         110 -7.466158522235966E-006
         111 -5.385403675233524E-006
         112  5.386999728643378E-005
Sym=    61a
Ene=  -0.269348752861058     
Spin= Alpha
Occup=     0.00000000
           1  1.679569815191104E-005
           2 -9.198779819930747E-005
           3  1.502874468952264E-004
           4  7.076571456390197E-002
           5 -4.075208192489511E-005
           6  1.350056970966104E-004
           7 -9.425361517171531E-005
           8  3.147510578244834E-005
           9  2.858482907175412E-002
          10  3.131506678071794E-002
          11 -3.679184643162550E-005
          12  1.892307569791676E-004
          13 -6.704278127432987E-004
          14 -0.233716950295063     
          15  9.093650351006285E-006
          16 -2.589264606649711E-004
          17  6.004087128253767E-004
          18  0.223526538002074     
          19 -3.273634466277332E-005
          20 -1.394152005874944E-005
          21  3.352590743585186E-005
          22  1.834461360056319E-002
          23  4.953916346684943E-005
          24  2.501427810156278E-004
          25 -6.017558904430296E-004
          26 -0.237131875314421     
          27 -4.213976350817408E-005
          28 -2.189581409191020E-004
          29  4.904179329490899E-004
          30  0.209903203430175     
          31  3.364794942996391E-005
          32  9.879932138202888E-006
          33  3.562208882542360E-005
          34 -5.078702822847574E-003
          35  4.304907209071635E-005
          36  4.780405518529359E-004
          37  1.424255764575747E-004
          38 -0.248581812332252     
          39  3.695150861377185E-005
          40 -5.228747412564426E-004
          41 -1.319212598026173E-004
          42  0.311091190832585     
          43 -3.067099867646239E-005
          44 -2.094274549989368E-004
          45 -1.965566006423276E-004
          46  0.135143138309443     
          47  2.045293437238510E-005
          48  9.009617873256726E-004
          49  5.865829932820188E-004
          50 -0.476796480882801     
          51  3.858362688095645E-006
          52 -3.940579624386219E-004
          53 -2.253082701250257E-004
          54  0.205672265919879     
          55 -3.230625205838443E-005
          56 -6.783392514463222E-004
          57 -3.926010589066037E-004
          58  0.344223729067761     
          59  2.204979994095866E-006
          60  8.508031107430099E-004
          61  4.778666254234956E-004
          62 -0.412221748613060     
          63 -1.431351107111535E-005
          64 -1.457278949892804E-004
          65 -6.310992957976171E-005
          66  6.640113306375445E-002
          67 -1.384736690289892E-005
          68 -3.101086177287220E-004
          69 -4.503693944457274E-004
          70  0.267051177133546     
          71  1.700618360732955E-005
          72 -3.499127211542337E-005
          73  4.915389903714099E-006
          74 -1.027119036787748E-002
          75 -8.234482989418411E-006
          76  2.866809141914503E-004
          77  4.959239761532931E-004
          78 -0.238854528363234     
          79 -3.268221183046371E-006
          80 -2.411429943206503E-004
          81 -4.168849755907026E-004
          82  0.194943803488062     
          83  2.297552437829205E-007
          84 -9.880510720887513E-005
          85 -1.741758255788642E-004
          86  8.001012291899794E-002
          87 -3.370377125166168E-006
          88  2.861315000434937E-004
          89  5.054551135783931E-004
          90 -0.269744593730309     
          91  5.053495520892976E-005
          92  1.866941691640511E-004
          93  8.155386816575453E-005
          94 -0.123199792129024     
          95 -1.080112608421306E-004
          96 -1.421508813300103E-004
          97  4.476081371871294E-005
          98  6.169615143289706E-002
          99  3.136795732894974E-005
         100 -3.743600845621509E-005
         101  1.109611187852721E-004
         102  2.926373123072117E-002
         103  1.060416276286457E-005
         104  2.531441540713502E-005
         105 -1.554752457672318E-005
         106 -8.825123907340737E-006
         107  5.306643779136523E-006
         108  2.880282931510019E-005
         109  3.320092205611577E-007
         110  5.939391192276608E-006
         111  2.042533699170466E-005
         112  2.096538910516911E-005
Sym=    62a
Ene=  -0.233787215649646     
Spin= Alpha
Occup=     0.00000000
           1 -5.690526765770485E-005
           2  7.159229040157307E-005
           3  2.125001318812866E-004
           4  3.905006345145905E-002
           5 -2.028926643222194E-005
           6  1.355533006815071E-004
           7 -1.152640342492851E-004
           8  1.322223930919279E-004
           9  2.577593372254211E-002
          10  2.310184987782861E-002
          11  1.117632889382066E-004
          12  1.696844991483834E-004
          13 -3.444767995527318E-004
          14 -0.155916319240393     
          15 -1.602237727303642E-005
          16 -2.693053229496962E-004
          17  6.397937181787476E-004
          18  0.249318154418393     
          19 -2.138106425976988E-005
          20  2.451662934202307E-004
          21 -4.554835358572013E-004
          22 -0.165184827848696     
          23  1.034051966685193E-004
          24  9.036787255093939E-006
          25 -1.601246513880405E-006
          26 -3.934163248835097E-002
          27  9.083896688421446E-006
          28 -2.018536569375269E-004
          29  5.623602366426969E-004
          30  0.221729940670075     
          31  5.861006761140410E-006
          32  3.834705589451801E-004
          33  1.492200480322875E-004
          34 -0.235540975109147     
          35  7.649948189506502E-005
          36  6.867397444763014E-006
          37 -2.640188352263709E-005
          38  6.225955291691797E-002
          39  7.658936183409712E-005
          40 -2.772542120331137E-004
          41  1.351276834770229E-005
          42  0.150956247154134     
          43  4.548881687241546E-006
          44  7.767478144192890E-004
          45  5.019051134240249E-004
          46 -0.439894518141422     
          47  2.866061634012374E-005
          48 -4.816348705830079E-004
          49 -2.869533533943981E-004
          50  0.266588536830223     
          51 -1.978412012378322E-005
          52 -3.069230322195448E-004
          53 -1.726501164096858E-004
          54  0.151653082201381     
          55  2.585537619672825E-005
          56  8.280247665197344E-004
          57  4.848961740168339E-004
          58 -0.426279636034393     
          59  9.001385971468176E-006
          60 -5.523665529102870E-004
          61 -3.174399952164791E-004
          62  0.280491627963371     
          63 -2.801739395919495E-005
          64 -1.505641674877098E-004
          65 -8.284037826628654E-005
          66  6.981111822926429E-002
          67  1.887707267057035E-005
          68 -8.615883163507173E-005
          69 -1.189484734654145E-004
          70  6.900990224496910E-002
          71 -3.305725947722685E-005
          72 -3.148579362194373E-004
          73 -4.651931405580932E-004
          74  0.241965525740563     
          75  2.605320571060045E-005
          76  4.577734911801570E-004
          77  7.613031162871644E-004
          78 -0.385096091065761     
          79  2.287966592951320E-005
          80 -1.705843949840026E-004
          81 -3.808562421217139E-004
          82  0.168223596846734     
          83 -7.573009347616573E-005
          84 -2.319823443857856E-004
          85 -3.422306504151725E-004
          86  0.200287075934097     
          87  7.667115156884077E-005
          88  5.079959526669627E-004
          89  7.023223615791673E-004
          90 -0.406910999853218     
          91 -1.102798889465948E-004
          92 -1.789558204420362E-004
          93 -1.851063324638702E-004
          94  0.218313511916372     
          95 -9.443040489094413E-005
          96 -8.045916133713023E-005
          97  9.479706214234622E-005
          98 -3.274340224765397E-003
          99 -1.188982695560617E-004
         100  7.143228810347356E-005
         101  2.172226424083566E-005
         102 -2.788813800684754E-002
         103 -5.524258262153698E-006
         104  2.173629466362232E-005
         105 -3.089121242589843E-006
         106  6.767760112396615E-006
         107  1.798150496556561E-005
         108 -1.622271178049155E-005
         109 -7.960907096648586E-006
         110 -1.697859942767339E-005
         111  2.014952707475004E-005
         112  1.770617877254083E-005
Sym=    63a
Ene=  -0.213436581620363     
Spin= Alpha
Occup=     0.00000000
           1  0.260235367347240     
           2 -0.399410565839590     
           3 -0.506536146194875     
           4  1.008016527864582E-003
           5 -1.733709247792511E-002
           6 -0.198495277148706     
           7  0.215832369626631     
           8 -0.391738021483316     
           9  8.189306457546367E-004
          10  9.504256427084732E-004
          11 -0.429949876253103     
          12 -0.331907120199803     
          13 -0.418049127549715     
          14  1.044966204287198E-003
          15  7.814156349267798E-002
          16 -6.938868995391395E-002
          17  0.130960043908944     
          18 -5.740602282722633E-004
          19 -7.872994464897339E-002
          20 -6.873400888787407E-002
          21 -5.726053907534319E-002
          22 -2.185940290468332E-005
          23 -1.488152832964223E-002
          24 -1.784670652250883E-002
          25  8.662393060517132E-003
          26  1.967085965938000E-004
          27 -9.325706613758172E-002
          28 -6.835026096168091E-002
          29 -8.797774448756457E-002
          30 -1.129011839161677E-004
          31  3.663429696741902E-002
          32  3.797580510082198E-002
          33 -1.964437388277878E-002
          34  3.144093753198232E-004
          35 -2.403370565550768E-002
          36 -2.443613910963178E-002
          37 -1.535323243072763E-002
          38 -2.744549416244046E-004
          39  1.120816312144619E-002
          40  9.169342052452270E-003
          41 -1.022377463146161E-002
          42  9.547107439171873E-005
          43 -6.458212249513095E-003
          44 -8.287996200912712E-003
          45 -1.813993303799924E-003
          46 -1.561507472930918E-004
          47 -1.255426631691682E-003
          48 -6.318442993659878E-004
          49  2.984928374068981E-004
          50 -2.618710330745823E-005
          51 -1.684771512046400E-004
          52 -1.242084349518166E-003
          53  4.156701288034747E-004
          54  1.635414081573634E-004
          55 -6.545307368884548E-004
          56 -3.062397848108553E-004
          57 -1.493421680476158E-004
          58 -1.755238123955734E-004
          59  4.824938799627423E-005
          60 -4.020821256452872E-003
          61  1.455403415371962E-003
          62  4.061353516229171E-005
          63  3.375753611661444E-003
          64  2.648368806819126E-003
          65 -2.972907626427201E-003
          66  1.156236864890090E-004
          67  5.882547639307792E-004
          68  4.273946424721406E-004
          69 -1.513580201509711E-004
          70 -6.713524378493390E-005
          71  3.946092022560474E-004
          72  1.059993493848555E-005
          73 -2.365824596516087E-004
          74  1.694694441498923E-004
          75 -6.958982229943205E-005
          76  6.534921663942568E-005
          77  1.309207487953801E-004
          78 -1.820737415778656E-004
          79  2.893227907149839E-005
          80 -3.484785343705829E-005
          81 -9.734721597043197E-006
          82  5.581724504170578E-005
          83  2.718524197660988E-004
          84  1.778585376873815E-004
          85 -4.334263926439023E-005
          86  1.149942983151396E-004
          87  4.018523447302459E-004
          88  5.176695273550204E-004
          89 -4.069129181021513E-004
          90 -2.080842107831396E-004
          91  6.197405583402998E-003
          92  2.722468633557828E-003
          93 -3.063088718523517E-003
          94  2.305655252572814E-004
          95  5.148647068352683E-003
          96  2.853084386225033E-003
          97 -7.591654301501159E-003
          98 -2.274198454059387E-004
          99  0.143218633007991     
         100  6.851687414515460E-002
         101  5.426974946250195E-002
         102 -1.447239310919024E-004
         103  6.298476536089752E-002
         104  8.164528895437269E-002
         105 -3.220629437990440E-002
         106  1.547010504728079E-003
         107  2.333708439754877E-004
         108 -7.428465584486732E-004
         109  5.535368994972580E-005
         110 -5.290723566734890E-005
         111 -1.016116184748383E-004
         112 -8.727144999031511E-004
Sym=    64a
Ene=  -0.210262984421245     
Spin= Alpha
Occup=     0.00000000
           1  5.454212944812031E-005
           2 -8.591777992320604E-005
           3 -9.295871748761626E-005
           4  5.012943868429751E-003
           5 -7.208535171370066E-006
           6 -2.664610012964530E-005
           7  3.385463530101537E-005
           8 -7.551515214218544E-005
           9  3.971125530979118E-003
          10  3.789304340159816E-003
          11 -9.002637816026732E-005
          12 -5.264368027690198E-005
          13 -1.505766403298072E-004
          14 -2.221773360513185E-002
          15  1.923435709472290E-005
          16 -5.505898590581026E-005
          17  1.202663927621757E-004
          18  3.447235603950470E-002
          19 -2.735246648730870E-005
          20  3.026409629675903E-005
          21 -9.262377240806547E-005
          22 -2.842845145086051E-002
          23  2.477887828226230E-005
          24 -2.452960690043957E-005
          25  3.652622191755239E-005
          26  6.885401032259032E-003
          27 -2.590520866617787E-005
          28 -2.465823428378660E-005
          29  3.350992184071347E-005
          30  2.080340329256850E-002
          31  3.466939734235751E-005
          32  6.724915666809032E-005
          33  3.720247985986934E-005
          34 -4.326411856481577E-002
          35  8.231931289410255E-006
          36  3.242178651254848E-005
          37  4.761638453881769E-005
          38 -3.041831098337140E-002
          39 -2.640300955215963E-005
          40 -1.654776459082604E-004
          41 -8.016490183892189E-005
          42  9.849005115181361E-002
          43 -7.343873350638364E-005
          44 -2.014703580904607E-005
          45 -1.021236272807256E-004
          46  3.899281392997488E-002
          47  6.629093114457849E-005
          48 -6.507659213884962E-004
          49 -3.580308455209507E-004
          50  0.357246456177307     
          51 -1.457242628655625E-005
          52  8.989988714086774E-004
          53  5.024434470781255E-004
          54 -0.466212981393121     
          55 -1.240954383637083E-005
          56 -4.305723558427614E-004
          57 -2.626600301554662E-004
          58  0.223290114454573     
          59  3.180046721555603E-005
          60 -2.786616470382667E-004
          61 -2.443505959651606E-004
          62  0.182077701146085     
          63  3.027744282004066E-005
          64  1.004232050775631E-003
          65  7.013556226275543E-004
          66 -0.517598516053368     
          67 -5.307946078275850E-005
          68 -5.123498700867406E-004
          69 -7.745519768221922E-004
          70  0.470423340708759     
          71  9.284037740961758E-005
          72  2.258747540398744E-004
          73  2.356372942713043E-004
          74 -0.163124802865382     
          75 -4.573433012297167E-005
          76  2.497434092769055E-004
          77  4.538459191708917E-004
          78 -0.202052699344002     
          79 -3.690336909269140E-005
          80 -5.227550682128238E-004
          81 -9.015024696143889E-004
          82  0.426888476146402     
          83  6.337592266608589E-005
          84  4.096380663084799E-004
          85  6.706857677889928E-004
          86 -0.353886106602908     
          87 -9.768754980630122E-005
          88 -3.867773434996949E-005
          89 -3.902206320662196E-005
          90  3.108506845869599E-002
          91  6.189763049039968E-005
          92  1.508646925769211E-004
          93  1.548235258758804E-004
          94 -0.139489429001038     
          95 -5.939155109410491E-006
          96 -1.193859461204774E-004
          97 -1.966832779336013E-005
          98  8.239858909770083E-002
          99  1.944606569473499E-005
         100  2.177712029730266E-005
         101  3.840226143264240E-005
         102  1.772859430758163E-003
         103  1.107954987746205E-005
         104  2.543784348384769E-005
         105 -9.567104556898834E-006
         106 -5.808827797252096E-005
         107  1.045844817617221E-005
         108  1.694316568682039E-005
         109  4.747709133533091E-005
         110  3.429147886667514E-005
         111 -1.288055484365049E-005
         112 -1.986852670293948E-005
Sym=    65a
Ene=  -0.196480335110218     
Spin= Alpha
Occup=     0.00000000
           1 -1.171628871924944E-004
           2  2.093916018182580E-004
           3  5.331063919100620E-005
           4 -6.718166990661364E-002
           5  6.230503349972534E-005
           6 -1.554386323722507E-004
           7  9.313359887252539E-005
           8  7.703265434071279E-005
           9 -5.754398483925831E-002
          10 -5.945345575297196E-002
          11  1.569771981066361E-004
          12 -5.058792753449679E-005
          13  1.066547127510678E-003
          14  0.314769493881773     
          15 -3.387208039989412E-005
          16  5.437232255327976E-004
          17 -1.264279915579711E-003
          18 -0.449294394409419     
          19  1.224609842462762E-004
          20 -5.072586706765127E-004
          21  1.115553635854369E-003
          22  0.388601440225065     
          23 -2.161428825228585E-004
          24  2.707143405496582E-004
          25 -6.628207505765403E-004
          26 -0.159192786368241     
          27  7.249569067975744E-005
          28  1.238234653565897E-004
          29 -3.937786160234938E-004
          30 -0.161541428654603     
          31 -1.097626154781479E-004
          32 -9.043929557960945E-004
          33 -3.515307778523623E-004
          34  0.554724348704607     
          35 -8.450905537029665E-005
          36  5.630872112422273E-004
          37  9.844125957195711E-005
          38 -0.381285494866402     
          39  4.352002227271392E-005
          40 -8.899791186678837E-005
          41 -4.319092199047863E-005
          42  6.196617417082355E-002
          43 -1.052165115460161E-005
          44  5.728071963395564E-005
          45  5.320947301340325E-005
          46 -4.667816031781055E-002
          47 -9.218219755510034E-006
          48 -2.945889528948041E-005
          49 -7.408747210836093E-006
          50  1.251963481101535E-002
          51 -8.021448181989265E-007
          52 -6.558404157671947E-005
          53 -3.475069187189749E-005
          54  3.273299011147791E-002
          55 -8.922669652771469E-007
          56  1.057758298176637E-004
          57  6.377608813400790E-005
          58 -5.579795668692295E-002
          59 -1.369164481801483E-006
          60 -9.764076349210414E-005
          61 -4.428694557878063E-005
          62  4.250595060386368E-002
          63 -5.614144249621718E-006
          64  2.164557042537378E-005
          65 -3.459577372994597E-006
          66 -1.235276074449727E-002
          67 -1.386455636438589E-005
          68 -4.061719987568555E-005
          69 -2.403976085720032E-005
          70  9.941970945035395E-003
          71 -6.063591520814373E-006
          72 -1.866922484886180E-004
          73 -3.564676438395351E-004
          74  0.173836273979749     
          75  2.310121143305780E-005
          76  3.368832459274769E-004
          77  5.548618576517550E-004
          78 -0.278576148670006     
          79  1.740805064264302E-005
          80 -2.195338316843074E-004
          81 -4.715337092161168E-004
          82  0.212671062846480     
          83 -3.823501954524593E-005
          84  3.932489020897527E-005
          85  8.644085438394728E-005
          86 -1.464131735546605E-002
          87  1.234104522668945E-004
          88  3.278216910873817E-004
          89  2.612918476390116E-004
          90 -0.196258087265781     
          91 -1.568394985428448E-004
          92 -3.948470739075809E-004
          93 -3.371633027835100E-004
          94  0.296934394755387     
          95  1.296168200639261E-004
          96  5.244046322609690E-004
          97  6.940862543794830E-005
          98 -0.369097412088072     
          99  1.447746267525023E-004
         100 -6.499871560569310E-005
         101 -5.135293925190488E-004
         102 -0.101412497842936     
         103 -4.519837486795981E-005
         104 -1.206892703685296E-004
         105  1.536542464078033E-005
         106  1.122430206652987E-005
         107  2.913935074206038E-006
         108 -2.965934658785152E-006
         109  4.771681588885665E-006
         110 -1.479884217061209E-005
         111 -1.174504992366491E-005
         112  3.764090645797681E-005
Sym=    66a
Ene=  -0.164082812904207     
Spin= Alpha
Occup=     0.00000000
           1 -5.949359479146103E-007
           2 -1.081420688084977E-005
           3  4.520184785182627E-005
           4  1.718214943482064E-002
           5 -2.227343068214653E-005
           6  1.008791604295189E-004
           7 -7.860572974737238E-005
           8  3.705249371009295E-005
           9  1.806636734292745E-002
          10  2.173385163833056E-002
          11  2.051275825602067E-005
          12  5.793013084707554E-005
          13 -2.484404255393090E-004
          14 -9.114989842377096E-002
          15 -1.577346975989302E-005
          16 -1.255867244193381E-004
          17  3.011824810964498E-004
          18  0.114435570444666     
          19  1.584798726717988E-005
          20  1.188485233375730E-004
          21 -3.095302639805555E-004
          22 -0.112066758598198     
          23 -2.829788255388333E-005
          24 -8.414027990392479E-005
          25  2.719433667087781E-004
          26  8.921606195697622E-002
          27  2.458969491530296E-005
          28  2.526345186439957E-005
          29 -1.066068040340663E-004
          30 -4.632883487321066E-002
          31 -8.729020176070559E-005
          32  1.558485175303840E-004
          33 -2.502974548862786E-005
          34 -7.755428275517902E-002
          35 -4.017376490716037E-005
          36 -4.647278392390882E-004
          37 -2.569057338163134E-004
          38  0.326996941776201     
          39  1.066389505468930E-005
          40  1.038960047955825E-003
          41  3.967032334329259E-004
          42 -0.588149853439413     
          43  9.676631275084839E-005
          44 -2.979870897036085E-004
          45 -1.870809306316012E-004
          46  0.190778675496289     
          47 -7.142314007220015E-005
          48 -1.486035470885457E-004
          49 -1.579555087359319E-004
          50  6.341644431687075E-002
          51  3.473983077773466E-005
          52  5.630893475646671E-004
          53  3.191658689581398E-004
          54 -0.285635795555547     
          55 -2.432136498140453E-005
          56 -7.335374515138561E-004
          57 -4.480914736559607E-004
          58  0.378962056803275     
          59 -4.775238690327169E-006
          60  5.942271229232648E-004
          61  3.818305838270649E-004
          62 -0.323050042638048     
          63 -8.580139020828850E-006
          64 -3.612385388000093E-004
          65 -2.989864222968259E-004
          66  0.189100652623926     
          67  4.024937371963377E-005
          68  1.992707070898976E-004
          69  3.148893539461727E-004
          70 -0.187692198267010     
          71 -3.659183228844227E-005
          72 -3.508913437181839E-004
          73 -5.301899821417719E-004
          74  0.274589769216407     
          75  4.114187742096590E-005
          76  3.604527449527963E-004
          77  5.899358862457221E-004
          78 -0.302884992265520     
          79  4.512299180954128E-005
          80 -2.179361082093325E-004
          81 -5.062808137895559E-004
          82  0.223502773449328     
          83 -1.030819888233379E-004
          84  8.686449406962317E-005
          85  2.117406892306723E-004
          86 -5.335036557981458E-002
          87  1.874008447572682E-004
          88  2.792954813145562E-004
          89  1.335355551730297E-004
          90 -0.138198196335460     
          91 -1.549629648621434E-004
          92 -5.370151836060685E-004
          93 -5.167684829511843E-004
          94  0.484213192119994     
          95 -1.393543679244075E-005
          96  2.176979806497940E-004
          97  2.994595761204886E-006
          98 -0.151103719224024     
          99 -4.899100772449302E-005
         100 -5.422938614841858E-005
         101  1.979856338632549E-004
         102  7.203203626150567E-002
         103  1.957412497871501E-005
         104 -6.078798762586217E-006
         105  1.678164424460290E-005
         106  5.236703962027113E-006
         107 -4.605477977599242E-005
         108  6.325383011637778E-006
         109 -1.391773625409569E-005
         110 -3.311994702618798E-005
         111 -2.602171011810322E-006
         112  8.334175235363722E-005
Sym=    67a
Ene=  -0.125684819163084     
Spin= Alpha
Occup=     0.00000000
           1 -4.582638073108095E-005
           2  5.385712453741658E-006
           3  1.944542706241107E-004
           4  3.973690156843333E-002
           5 -1.306103924106954E-004
           6  4.771228483763485E-004
           7 -3.465124559656531E-004
           8  2.090239754708621E-004
           9  5.460687493727009E-002
          10  7.745287832465705E-002
          11  6.033510799552605E-005
          12  3.742082519480843E-004
          13 -5.949114708899164E-004
          14 -0.243055021236323     
          15 -2.687831188021911E-005
          16 -2.909973731775480E-004
          17  6.663459680354751E-004
          18  0.281447128168553     
          19  1.695058396420187E-004
          20  3.201904123307705E-004
          21 -8.973609725464208E-004
          22 -0.318650069445950     
          23 -2.230961141777754E-004
          24 -3.951428628905315E-004
          25  7.785509918229028E-004
          26  0.386909782956862     
          27  8.090293516700513E-005
          28  3.832695732331547E-004
          29 -1.278135819398451E-003
          30 -0.465519048926537     
          31 -1.386890138652231E-004
          32 -5.869297621816653E-004
          33 -4.229953447373143E-004
          34  0.312557476705419     
          35 -2.211591014071739E-004
          36  2.777426396492072E-005
          37 -8.590679245017827E-006
          38 -0.146667686188264     
          39 -5.190871654237627E-005
          40  2.884817928470793E-005
          41 -1.647036199392790E-004
          42 -4.399835222056280E-003
          43 -1.568040384153275E-005
          44 -4.725719235251715E-004
          45 -2.628260189586032E-004
          46  0.229999943363763     
          47 -5.322933050920403E-005
          48  5.060711575895381E-004
          49  3.096613534773714E-004
          50 -0.279258138408181     
          51  9.631113992178887E-006
          52 -5.622906507925772E-004
          53 -3.263482692671123E-004
          54  0.298778382126785     
          55  1.744169547642537E-005
          56  5.252674327952937E-004
          57  3.254811420204992E-004
          58 -0.273236341256410     
          59 -2.085020711733612E-005
          60 -4.411952959522576E-004
          61 -2.398363913629986E-004
          62  0.213039134485629     
          63  1.064534787403490E-005
          64  2.972066348285664E-004
          65  1.561222000837647E-004
          66 -0.155475331520743     
          67 -3.146512881495023E-005
          68  1.511926057099236E-004
          69  2.554452849845185E-004
          70 -0.155900578236233     
          71  6.059256886195429E-006
          72 -1.963159210505263E-004
          73 -4.078565087724880E-004
          74  0.194666687535811     
          75  1.917521807310011E-005
          76  2.909692320371219E-004
          77  4.765466414562920E-004
          78 -0.242089745663415     
          79 -5.222437361001104E-005
          80 -3.305033137068859E-004
          81 -5.608116704308854E-004
          82  0.266429716361365     
          83  1.041113479871140E-004
          84  3.217242239213127E-004
          85  4.752674676239535E-004
          86 -0.263470748787524     
          87 -2.257670678224996E-005
          88 -2.942326085264974E-004
          89 -5.211063804392379E-004
          90  0.255326344449450     
          91  1.069439022904152E-005
          92 -5.587975761283285E-005
          93  4.445343171778695E-006
          94 -9.087601649626384E-002
          95  3.747498214674339E-004
          96  2.222169742768220E-004
          97 -2.496429604098104E-004
          98 -7.642766027400702E-002
          99  2.027616481776963E-004
         100 -4.553987445957555E-004
         101  6.077211293897970E-004
         102  0.310201435030605     
         103 -2.205801007756084E-005
         104 -1.940112220992803E-004
         105 -3.100678116865652E-005
         106  3.301916202747677E-005
         107  1.833897557081751E-006
         108 -1.010445481498191E-005
         109  1.222586482765041E-006
         110  5.602675140430847E-005
         111 -4.021153460237756E-005
         112 -5.286897282168434E-005
Sym=    68a
Ene=  -0.117425702820551     
Spin= Alpha
Occup=     0.00000000
           1 -3.966540196537783E-005
           2  4.437390030508415E-006
           3  1.572827473325325E-004
           4  2.973957752926072E-002
           5 -1.225656420675233E-004
           6  4.161224058312355E-004
           7 -2.935567637637122E-004
           8  1.785173672029487E-004
           9  4.338901787470419E-002
          10  6.402602208709045E-002
          11  4.521751830067585E-005
          12  3.242218550982978E-004
          13 -4.523068953807040E-004
          14 -0.187585124277617     
          15 -2.299666519574485E-005
          16 -2.153762230077161E-004
          17  4.890951166583450E-004
          18  0.213456772579233     
          19  1.852917316092794E-004
          20  2.225441745948426E-004
          21 -7.050304155559348E-004
          22 -0.247471068159594     
          23 -2.547072914256195E-004
          24 -3.153048978337100E-004
          25  5.689584000723254E-004
          26  0.320309651668498     
          27  9.463898941184814E-005
          28  3.060783813000055E-004
          29 -1.188440125518948E-003
          30 -0.420474722266917     
          31 -2.017659172376875E-004
          32 -6.535249494983999E-004
          33 -4.973917228534143E-004
          34  0.362384798360834     
          35 -2.422062238443110E-004
          36  2.481442243434334E-004
          37 -3.366764422165978E-005
          38 -0.244621152829689     
          39  1.571330256484002E-004
          40 -2.550342725859669E-004
          41 -1.359710511955227E-004
          42  0.160263262705241     
          43 -1.357779966520969E-004
          44  4.225979637443854E-004
          45  2.687589330475470E-004
          46 -0.278627445373880     
          47  4.187064617250693E-005
          48 -5.156800351605540E-004
          49 -2.750730881746599E-004
          50  0.276603217580272     
          51 -2.144975028537648E-005
          52  4.661007948730982E-004
          53  2.905175209605811E-004
          54 -0.259001107108609     
          55 -2.562794214132869E-005
          56 -4.284700757011725E-004
          57 -2.575104602923869E-004
          58  0.218953655617322     
          59  4.985096494141383E-006
          60  2.882439606243024E-004
          61  1.897359026684266E-004
          62 -0.161829503842731     
          63  4.021602401460080E-005
          64 -1.954263289703709E-004
          65 -1.454669826304809E-004
          66  0.114441921904982     
          67 -7.706312011688737E-005
          68 -3.065354107973112E-004
          69 -4.237841443677710E-004
          70  0.225165757174740     
          71  3.553742517648764E-005
          72  3.537677057682235E-004
          73  4.503054176606379E-004
          74 -0.237245841012316     
          75 -5.780660965411280E-006
          76 -3.083819685307890E-004
          77 -5.344807374371442E-004
          78  0.273583749059665     
          79  6.992678355819998E-005
          80  4.084925352966576E-004
          81  6.297404454323133E-004
          82 -0.299679383863765     
          83 -6.796709528083538E-005
          84 -3.254498100283937E-004
          85 -5.520514281518094E-004
          86  0.310936374339518     
          87  2.539113437969474E-004
          88  5.479171344940131E-004
          89  4.874173976165048E-004
          90 -0.332797932958733     
          91 -2.902900218426045E-004
          92 -2.472890985022268E-004
          93 -2.579482734930361E-004
          94  0.146927895552281     
          95  4.524490929180352E-004
          96  3.270502322207988E-004
          97 -2.030685039914184E-004
          98 -0.185452524322325     
          99  2.370293497464613E-004
         100 -4.162126633676206E-004
         101  4.529137487972059E-004
         102  0.259641976184694     
         103 -2.409704663689337E-005
         104 -2.067832063489577E-004
         105 -3.949366974249272E-005
         106 -3.779035307871395E-006
         107  1.564545480776168E-005
         108 -1.814039869401342E-007
         109  2.153898340161241E-005
         110 -8.497587751404544E-005
         111 -1.955854505496065E-005
         112 -7.131259035507332E-005
Sym=    69a
Ene=  -5.624462074923754E-002
Spin= Alpha
Occup=     0.00000000
           1  2.156813683316532E-006
           2  2.827935875790645E-007
           3 -5.851196758324976E-006
           4 -3.693805300319547E-004
           5  1.766349364598493E-005
           6 -2.521349563254433E-005
           7  7.550001986559403E-006
           8 -6.807242430672812E-006
           9 -9.059915255869477E-004
          10 -1.869995136927764E-003
          11  1.354922378649517E-005
          12 -3.315222810825312E-005
          13  7.182784082276446E-006
          14  3.051881269961666E-003
          15 -1.414226534887337E-005
          16 -4.837335039795445E-007
          17 -7.363139216524523E-007
          18 -3.659418597330191E-003
          19  1.129821342247538E-005
          20 -2.483266699473294E-005
          21  2.078400214426221E-005
          22  5.429908096125649E-003
          23 -4.320186216782538E-005
          24  2.884543150217801E-005
          25 -4.700844792151200E-007
          26 -1.014438310939827E-002
          27  3.470543663410336E-005
          28 -4.073377287339674E-005
          29  5.914858078704849E-005
          30  1.761377636736229E-002
          31 -1.298480953608941E-004
          32  8.775065796756944E-005
          33 -3.394818719227032E-005
          34 -2.949215252524421E-002
          35 -5.896865163013719E-005
          36 -1.163519185378330E-004
          37 -2.016163405754620E-004
          38  0.157944501086021     
          39  2.360907757071985E-005
          40  8.596964941809498E-004
          41  3.505759854488829E-004
          42 -0.404256136181256     
          43 -9.605401117619949E-007
          44 -6.688474207623973E-004
          45 -6.217185771529092E-004
          46  0.492331903372160     
          47  9.187540741457886E-006
          48  6.008327928737617E-004
          49  3.395683114856106E-004
          50 -0.299315745299784     
          51  5.519003064955567E-005
          52 -3.771755569582501E-004
          53 -2.590522652010592E-004
          54  0.226645828078011     
          55  1.925730099351536E-005
          56  4.277701004226442E-004
          57  2.530664433104562E-004
          58 -0.217062524153501     
          59  6.254331404218672E-005
          60 -4.620474687653851E-004
          61 -3.300921668388734E-004
          62  0.284528788265699     
          63  1.580164240724728E-004
          64  1.068938407658366E-003
          65  7.084911340704995E-004
          66 -0.490922598371592     
          67 -2.025790044079001E-004
          68 -4.127576937535836E-004
          69 -7.301203776594973E-004
          70  0.459193863471821     
          71  2.136589805553718E-004
          72  4.586612820814522E-004
          73  4.124003314943809E-004
          74 -0.256932440930797     
          75 -1.103411555700788E-004
          76 -1.654174109229946E-004
          77 -2.955269738908452E-004
          78  0.186332193274935     
          79  1.458977611658544E-004
          80  3.220932143782739E-004
          81  3.929685529791140E-004
          82 -0.188401068303901     
          83 -2.017534605322381E-004
          84 -2.437042674720630E-004
          85 -3.566786573246278E-004
          86  0.249402788001858     
          87  3.106311906271153E-004
          88  7.856858244559623E-004
          89  6.909307505951930E-004
          90 -0.430890397637226     
          91 -2.366738268349767E-004
          92 -2.768307451009824E-004
          93 -5.155633769668639E-004
          94  0.361483390264216     
          95 -8.915429563007762E-005
          96  1.419858993099623E-004
          97 -4.235296437342885E-005
          98 -9.976251584584524E-002
          99 -4.678531895465263E-005
         100  1.562642579011571E-005
         101 -4.575621370752440E-006
         102 -6.637898510445689E-003
         103  2.411184756919931E-005
         104  5.903337640284360E-006
         105  3.251558217070897E-005
         106 -8.129705782038118E-005
         107 -2.640264866324670E-005
         108  1.756996419179935E-005
         109  1.158709401723510E-004
         110 -1.643526177826071E-004
         111 -3.899816318097395E-006
         112  1.500414191487766E-004
Sym=    70a
Ene=  -4.148879718772102E-003
Spin= Alpha
Occup=     0.00000000
           1 -5.308272923593233E-004
           2 -1.616193059114791E-003
           3  2.593999076545872E-003
           4 -1.509869694696631E-005
           5 -8.227271447128605E-002
           6  6.745677718791177E-002
           7  1.481593728337429E-002
           8 -1.189790595502564E-002
           9  4.181190844677867E-005
          10 -2.643933073304774E-004
          11 -3.324502010159334E-002
          12  4.255425166292279E-002
          13 -2.479750972542068E-003
          14  9.781774864666308E-005
          15  1.243553733240445E-002
          16  8.447284802069898E-003
          17  5.080484403899800E-004
          18 -7.050185250091725E-005
          19  0.115943677798511     
          20 -4.264604846232493E-002
          21 -3.323924320944169E-002
          22  1.953322689378539E-004
          23 -0.117345389148651     
          24 -6.761687627727503E-003
          25 -0.105962885625285     
          26 -6.030049283877782E-005
          27  0.134904937646515     
          28 -0.144541266330315     
          29 -7.105136250169722E-002
          30  7.090399695446068E-004
          31 -0.336232411466957     
          32  5.172402822364333E-003
          33 -0.296781711316404     
          34 -5.702297683499029E-004
          35 -2.027621714188417E-002
          36  4.673523298679445E-002
          37  9.967821264822349E-002
          38  3.173953047983283E-004
          39  0.152421921645589     
          40 -2.164206579605082E-002
          41  1.176792239493356E-002
          42 -1.018776732584450E-004
          43 -0.128731741706328     
          44 -0.104376339856526     
          45 -7.634925775245765E-003
          46 -1.077578832573101E-004
          47  4.964515585213254E-002
          48 -1.272721000025704E-003
          49  3.906184059572138E-002
          50 -5.676887449793431E-006
          51 -4.277294194227649E-002
          52 -2.984019980754649E-002
          53  1.410622791690814E-002
          54 -1.919811038441910E-005
          55 -1.378843704522239E-003
          56 -5.855885429982392E-003
          57  3.437113587893652E-003
          58 -1.971151228363295E-005
          59 -1.988965428555494E-002
          60 -2.985377687064607E-002
          61  1.745476988079981E-003
          62 -4.614552822682536E-005
          63  1.390477851245073E-003
          64 -1.377587333198659E-002
          65 -2.438557664820569E-002
          66 -7.237039479628041E-005
          67 -0.124048802580210     
          68 -6.875564411063585E-002
          69 -7.362860706307187E-002
          70 -2.597980076994725E-004
          71  4.943759492584609E-002
          72  9.420343110990555E-002
          73 -4.359944534545645E-002
          74  5.642972308591233E-005
          75  4.485340433676063E-002
          76  3.357754009314851E-002
          77  1.220559046172382E-002
          78  4.052889852956937E-005
          79 -1.643930344908770E-002
          80  2.912876422528162E-002
          81  2.482662912427708E-002
          82  1.199655754945998E-004
          83  0.127680947579430     
          84  0.105821062806253     
          85  2.325011239571852E-002
          86  1.170281339880792E-004
          87  0.194563780869563     
          88  7.422273876855109E-002
          89 -0.157549550547025     
          90 -6.562466416817526E-005
          91 -0.447247124129827     
          92 -0.293207846364433     
          93 -0.130091184291089     
          94 -6.526000365414704E-004
          95  0.968586499197231     
          96  4.679465565999155E-002
          97  0.141110030006247     
          98  2.304982055819563E-004
          99  0.122669488545439     
         100 -5.000676234975639E-003
         101 -2.639129505859386E-002
         102 -6.234592653505551E-005
         103 -2.250845552827108E-002
         104 -0.106939876920647     
         105 -3.255595052486827E-002
         106  1.057763889200218E-002
         107  3.887207761827052E-002
         108 -1.190183305991525E-002
         109 -1.772380373392896E-003
         110 -2.290310842113453E-002
         111 -0.137199611673720     
         112 -0.701899019199052     
Sym=    71a
Ene=   2.385991042252934E-002
Spin= Alpha
Occup=     0.00000000
           1 -2.447752009360313E-003
           2  1.508942844760926E-002
           3 -3.089046803129532E-003
           4  2.340475546501175E-005
           5 -0.679905704757902     
           6  0.804169486407915     
           7 -0.124263781650012     
           8 -0.287967132908868     
           9  4.894901652943205E-004
          10 -3.490579022393499E-003
          11 -2.055722958808669E-002
          12  0.124923263878846     
          13 -6.515264210392903E-002
          14  3.038256768704966E-004
          15 -0.264028629374094     
          16  9.705763199806859E-003
          17 -7.271919907119175E-002
          18  2.113674962750797E-004
          19  0.152282539152897     
          20  7.878290367493358E-002
          21  3.079793334482560E-002
          22  3.130477634260748E-005
          23  1.943511220560280E-002
          24 -4.121276733053204E-002
          25  3.999747133838773E-002
          26 -1.879472359320619E-004
          27 -0.222297099925859     
          28 -1.574848832321061E-002
          29 -0.108379732558071     
          30  3.588381091021525E-004
          31  0.150276594936823     
          32  5.422057001205029E-002
          33 -4.566134021054220E-002
          34 -1.211057136169278E-004
          35 -9.438518190300649E-002
          36 -2.853978842233083E-002
          37 -7.082622833449286E-002
          38 -3.436547368271661E-006
          39  5.291467685691589E-002
          40  1.762305937069097E-002
          41 -5.580772755979014E-002
          42 -3.366529813107768E-005
          43 -3.202331599031030E-002
          44 -1.990429711653524E-002
          45 -2.033849210912310E-002
          46 -4.991842110015826E-005
          47 -1.496170705447611E-002
          48 -7.105423710213915E-003
          49  6.362629687955975E-006
          50 -1.624577604503782E-005
          51  5.089052605773238E-003
          52 -2.751951467469825E-003
          53  2.766942779587992E-003
          54 -4.157848872621792E-007
          55 -4.091900670834166E-003
          56 -4.415193414367281E-003
          57  2.024130467761473E-003
          58 -8.990112355625841E-006
          59 -7.923942813957944E-003
          60 -1.926002564035744E-002
          61  1.490166007181876E-003
          62 -3.020943382128712E-005
          63  3.022303775002804E-002
          64  6.705179284841592E-003
          65 -1.731254292150930E-002
          66 -1.845098463580598E-005
          67  1.748898898832964E-002
          68  9.959685935633645E-003
          69  8.513852501603610E-003
          70  3.370591288954731E-005
          71 -4.125574870147315E-003
          72 -1.056024179698078E-002
          73  5.010669836170564E-003
          74 -5.945337040831456E-006
          75 -7.309438193974237E-003
          76 -3.834522821675579E-003
          77 -1.121989188267902E-003
          78 -5.002269092805177E-006
          79  3.594282721633711E-003
          80 -3.522983877750789E-003
          81 -3.406440263201505E-003
          82 -1.353429004108502E-005
          83 -1.653951594015481E-002
          84 -1.227645302302525E-002
          85 -2.517667505062575E-003
          86 -1.601061527420127E-005
          87 -2.059904259113139E-002
          88 -5.083894523451007E-003
          89  1.726655316652845E-002
          90  1.378210344121694E-005
          91  6.999779370185623E-002
          92  3.942045688713437E-002
          93  6.052146127141115E-003
          94  6.965118035241001E-005
          95 -8.900144396878044E-002
          96  1.579576788411634E-002
          97 -2.470473484368317E-002
          98  6.290759291431042E-005
          99  0.289517064502204     
         100  7.416211705105089E-002
         101 -8.550957493170229E-002
         102  1.851591017613991E-004
         103  3.658504752919731E-002
         104 -9.891574430690006E-002
         105 -1.359142441356964E-002
         106  1.074483096068533E-002
         107 -1.965830261754037E-003
         108 -3.386070326152095E-003
         109  1.548273361925441E-003
         110  1.777778809975799E-003
         111  1.741745547788263E-002
         112  7.062988171516225E-002
Sym=    72a
Ene=   3.017350553505636E-002
Spin= Alpha
Occup=     0.00000000
           1 -7.726921209130366E-003
           2  1.303807067876835E-003
           3  1.433359381598252E-002
           4 -1.539669729328550E-005
           5  0.629008777159550     
           6  0.218321474272226     
           7 -0.847330251431776     
           8 -0.439902254419122     
           9  2.630641876681414E-003
          10 -3.706786462993945E-003
          11 -9.180582012295255E-003
          12 -7.768648484586042E-003
          13  3.698469307051915E-002
          14 -1.115492145921499E-004
          15 -6.470400425430856E-002
          16 -7.981493022370349E-002
          17  6.416991960808356E-002
          18 -2.400258719955655E-004
          19  3.015215623571499E-002
          20 -7.666912141911305E-003
          21  4.080581993341202E-002
          22 -1.340709600457944E-004
          23 -9.143741883519040E-002
          24  6.129390250643845E-003
          25  1.246869424038247E-002
          26 -1.320948314036657E-005
          27  9.295978145622709E-002
          28  2.407536370084110E-002
          29  4.223246699257079E-002
          30 -1.088643861093858E-004
          31 -4.721894522568419E-002
          32 -1.528166403403559E-002
          33  1.078287987885909E-002
          34  3.198146202215279E-005
          35  2.306824640915543E-002
          36  1.139984784650964E-002
          37  2.133428560667309E-002
          38 -5.327283833907779E-006
          39 -1.135918469413905E-002
          40 -2.621442709701501E-003
          41  1.322092223447720E-002
          42  2.157166226040199E-005
          43  7.990747397130642E-003
          44  5.114302001911849E-003
          45  5.121362415860796E-003
          46  6.980716332025753E-006
          47  4.051245950070171E-003
          48  1.868463244150072E-003
          49 -7.268804007198178E-005
          50  6.520983018604229E-006
          51 -1.420195340887855E-003
          52  6.430772610883048E-004
          53 -7.210143730130738E-004
          54 -1.200850093620471E-006
          55  1.206578929298860E-003
          56  1.109444206367616E-003
          57 -5.223855521043051E-004
          58  3.237232177840913E-006
          59  1.878091060977697E-003
          60  4.704111977661212E-003
          61 -3.399512669235631E-004
          62  5.741945746253685E-006
          63 -7.452825411062919E-003
          64 -1.595863658199524E-003
          65  4.260706020980221E-003
          66  8.568872136151546E-006
          67 -7.154353425764533E-003
          68 -3.483499082456095E-003
          69 -3.503583893478659E-003
          70 -1.647399376507879E-005
          71  2.273393357201709E-003
          72  4.646770458055126E-003
          73 -2.218356501061557E-003
          74  4.023605602530165E-006
          75  2.212170726499320E-003
          76  1.589920428592108E-003
          77  3.737024394898222E-004
          78  8.389856774781380E-007
          79  4.716324095218804E-007
          80  2.133261369294769E-003
          81  1.143727791402059E-003
          82  7.300906027506242E-006
          83  3.950930506083518E-003
          84  4.418407004195941E-003
          85  1.468129123971989E-003
          86  3.854299619369060E-006
          87  1.093508166927610E-002
          88  3.646835228956091E-003
          89 -7.492395859199583E-003
          90  1.472336823273552E-006
          91 -2.600576412763844E-002
          92 -1.210692119564380E-002
          93 -4.024313193888784E-003
          94 -3.242860604789637E-005
          95  2.906698988140513E-002
          96 -6.857867147113579E-003
          97  2.833558441387504E-003
          98 -2.027432920273145E-005
          99 -9.758581317319236E-002
         100  1.915348154853135E-002
         101  2.023318838904076E-002
         102  7.056031163044367E-006
         103  8.434284877578137E-002
         104  2.522806204130398E-002
         105  8.306055941928796E-002
         106 -2.926028078718641E-003
         107  5.501142479604349E-004
         108  6.976759770266734E-004
         109  1.257129435280645E-004
         110 -1.699579043143142E-003
         111 -5.719485103383838E-003
         112 -1.814229776945274E-002
Sym=    73a
Ene=   3.121161548569931E-002
Spin= Alpha
Occup=     0.00000000
           1 -2.569242849609637E-006
           2  2.613761105268629E-005
           3 -9.183289261371568E-006
           4  3.366350178272551E-003
           5  8.343848293675326E-004
           6  3.308113021285355E-003
           7 -4.142497850652888E-003
           8 -2.772680377812663E-003
           9 -0.777404017285160     
          10  0.629237884591746     
          11 -1.730504191907665E-005
          12  3.824456717941902E-005
          13  1.156072236538526E-005
          14  1.104795441502092E-002
          15 -3.920821200325772E-005
          16  7.952235566817285E-006
          17  3.963043005016826E-005
          18  2.924184022066954E-002
          19  6.008611427647823E-005
          20  3.829834540509533E-005
          21 -4.487549042386108E-005
          22 -1.064617665985533E-002
          23  1.273290749216190E-005
          24 -8.188155138552702E-006
          25 -1.574390771877234E-005
          26 -1.880073275610474E-003
          27 -4.579549801661111E-005
          28 -3.724857624071725E-005
          29 -5.394802899751131E-006
          30  1.535840731152482E-002
          31  8.293737300645784E-006
          32  2.814982927285607E-005
          33 -3.879271368530495E-005
          34 -5.764155224415940E-003
          35 -2.315209933254176E-005
          36 -3.239861281747038E-006
          37 -8.622994046448135E-006
          38  2.077130081074745E-003
          39  3.450630761181983E-005
          40 -1.571348494099521E-006
          41 -1.197032620165420E-005
          42 -4.338434773551966E-004
          43 -2.896914189017972E-005
          44 -1.995304974305471E-005
          45 -5.816964484826171E-006
          46  1.939094253364788E-004
          47  5.035429879918154E-006
          48 -2.180938191842116E-006
          49  6.732378763637640E-006
          50 -8.667078843532947E-005
          51 -6.584608062865908E-006
          52 -5.223486452399111E-006
          53  3.810069229904997E-006
          54  3.933939832733079E-005
          55 -5.003124613377943E-007
          56 -2.086442825520807E-006
          57  1.477281423460339E-006
          58 -2.495804814066736E-005
          59 -5.963007909591797E-006
          60 -9.816931924143595E-006
          61  8.569613934752695E-007
          62  2.882834486360318E-005
          63  9.620383783631944E-006
          64 -4.894271391798120E-007
          65 -7.229474284220669E-006
          66 -6.192313517275573E-005
          67 -1.700204723659237E-005
          68 -7.015252886500576E-006
          69 -9.146795864485109E-006
          70 -1.442634579692075E-005
          71  7.738629805099494E-006
          72  1.207213272804748E-005
          73 -5.947495190564461E-006
          74  8.452370455712969E-006
          75  4.449298312353944E-006
          76  4.493326507112682E-006
          77  1.821600499873115E-006
          78 -1.148362719669764E-005
          79 -1.336798144838199E-006
          80  4.234954966204453E-006
          81  3.122713695555121E-006
          82  2.188020271040689E-005
          83  1.274511556802458E-005
          84  1.128991727616643E-005
          85  2.991906066634195E-006
          86 -5.186265270699382E-005
          87  2.502563026236782E-005
          88  7.189404390349064E-006
          89 -1.876879286849505E-005
          90  1.169397918249222E-004
          91 -4.815929266929611E-005
          92 -2.888388764110395E-005
          93 -1.798480864807558E-005
          94 -2.811151184663133E-004
          95  8.614144749120779E-005
          96 -1.181396409961772E-005
          97  1.245557545472062E-005
          98  1.738910838899582E-003
          99  1.178974490596111E-004
         100  7.983299143031040E-005
         101 -1.200910978147791E-004
         102 -3.685172064563926E-002
         103 -4.578318451462457E-005
         104 -6.505068654708167E-005
         105 -2.763942579032177E-005
         106  4.007900077972681E-006
         107  7.101096687536522E-006
         108 -3.219254769397095E-006
         109  8.093628593410485E-007
         110 -3.464232837100790E-006
         111 -1.509429410306324E-005
         112 -5.618168631065526E-005
Sym=    74a
Ene=   6.850989784104239E-002
Spin= Alpha
Occup=     0.00000000
           1  4.185426640149438E-006
           2  7.710617602089369E-005
           3 -2.927586404570830E-004
           4 -9.661160337540796E-002
           5 -1.043069347053873E-003
           6  3.854075793345700E-003
           7 -2.811006446291827E-003
           8  1.031278324444206E-003
           9  0.636769846504552     
          10  0.787871567025714     
          11  4.670303156327406E-006
          12 -3.687624769244325E-004
          13  1.102999326295819E-003
          14  0.400821924194391     
          15  6.022248675485841E-005
          16  1.917790864317292E-004
          17 -2.971633604655381E-004
          18 -0.108291629806857     
          19 -4.318046362576533E-005
          20  3.985668692873209E-006
          21  1.120763871835267E-004
          22  3.747809802441585E-002
          23  1.034820343832561E-004
          24  4.250470029965754E-005
          25 -4.396419873037839E-005
          26 -2.692109379461147E-002
          27  2.821437899513884E-005
          28 -2.490545820586350E-006
          29  1.762661620244645E-004
          30  3.488395145060982E-002
          31  1.823280730683802E-005
          32  5.444044711798902E-005
          33  1.723315051104840E-004
          34 -1.078095790503298E-002
          35  1.747006020846155E-004
          36 -1.802226828433551E-005
          37  1.022525307969482E-004
          38  3.645943586931846E-003
          39 -9.752525152972910E-005
          40 -2.003880042568797E-005
          41  1.321795046272622E-004
          42 -6.161380163873838E-004
          43  9.553321228718303E-005
          44  2.582357804454235E-005
          45  5.530359909837088E-005
          46  2.379951462688008E-004
          47  1.128697964611511E-005
          48  5.780245451708420E-006
          49 -1.630527410190058E-006
          50 -1.007429631249067E-004
          51 -1.122884394011660E-005
          52  7.175658779843017E-006
          53 -5.553742144588434E-006
          54  4.049382421102478E-005
          55 -1.778665196137043E-005
          56  2.001542902616657E-005
          57 -1.516154011659040E-005
          58 -2.234196305547052E-005
          59  4.882719981094617E-005
          60  6.410370079311608E-005
          61 -5.234780871878814E-006
          62  2.314280270517270E-005
          63 -1.267957815788091E-004
          64 -1.090687749971769E-005
          65  2.023839874891789E-005
          66 -5.247381600729165E-005
          67  1.081984407105466E-004
          68  1.531108663594673E-005
          69  7.260633044968954E-006
          70 -5.314522026867824E-005
          71 -4.308198471532753E-005
          72 -5.110795323065233E-005
          73  2.055135014349684E-005
          74  2.277334126682511E-005
          75  3.485093819729337E-005
          76 -1.871486218247113E-005
          77  5.229239871685418E-006
          78 -2.152192839886503E-005
          79 -3.581800600555218E-005
          80 -2.400345064529721E-005
          81  2.518828269477347E-006
          82  3.841552120733411E-005
          83  7.047919210506787E-005
          84  6.951714535981948E-006
          85 -1.150784378446833E-005
          86 -9.743449225513123E-005
          87 -1.425746888381552E-004
          88 -2.748152891548159E-005
          89  4.881476896385391E-005
          90  2.427752236399214E-004
          91  6.605887920269066E-005
          92 -3.320252375850711E-006
          93  9.585762727253115E-005
          94 -6.171917120268152E-004
          95 -3.065413125029778E-005
          96  4.283659087957776E-005
          97  1.702938342189882E-004
          98  3.390237918548198E-003
          99 -5.630571731470576E-005
         100  1.709855068217461E-004
         101 -1.980211070658547E-004
         102 -9.943670529018585E-002
         103 -1.159644449837786E-004
         104  2.268867290808009E-005
         105 -1.822712867634327E-005
         106 -3.434415067652721E-006
         107  2.162582969399930E-006
         108  3.515948393489225E-005
         109 -4.791207224737254E-005
         110  2.901232272167748E-005
         111 -4.040109763532465E-005
         112 -1.385342035381428E-004
Sym=    75a
Ene=   8.413787410181257E-002
Spin= Alpha
Occup=     0.00000000
           1 -3.903988857472704E-003
           2 -8.926018450109379E-003
           3  1.175292759914642E-002
           4 -6.916404599737719E-005
           5  0.120018267000576     
           6 -8.379130339463295E-002
           7 -3.622696360594320E-002
           8  5.049173472261373E-002
           9  1.736760986454343E-004
          10  3.922821472021918E-004
          11 -6.908609354295195E-002
          12  8.302789220017810E-002
          13  2.044261590506688E-002
          14  1.608772979481477E-004
          15  7.102332221614441E-002
          16  5.339510228433870E-002
          17  1.304402899143942E-002
          18 -1.650611584948836E-005
          19 -5.977345675949533E-002
          20  2.081852372952276E-002
          21  2.223105186481229E-002
          22 -1.235641840531423E-005
          23  1.053275609618592E-003
          24  5.241642291248492E-002
          25  3.139610529950059E-002
          26 -8.657193691411019E-005
          27 -0.219438372870782     
          28  0.138072881223221     
          29 -7.669511828885880E-002
          30  5.643662836360923E-004
          31  0.246425055451016     
          32  5.367534681656955E-002
          33 -0.193220643401528     
          34 -1.258627188253811E-004
          35 -0.343710492144445     
          36  0.106448843548684     
          37 -0.245669925800485     
          38  7.747013568923006E-005
          39  0.377718739998665     
          40  1.707435219010257E-002
          41 -0.247154118045697     
          42 -5.919044861308645E-005
          43 -0.411850192098193     
          44 -3.997125059273322E-002
          45 -0.131767016835339     
          46 -2.819477360504410E-004
          47  0.153713462729211     
          48  3.049492809110151E-002
          49  4.584369040892947E-002
          50  1.254009785007626E-004
          51 -5.455901387164941E-002
          52 -3.297664009132383E-002
          53  3.293693149735422E-002
          54 -4.199692061164576E-005
          55  0.188823151907924     
          56 -9.307379783535731E-002
          57  7.343302274174912E-002
          58 -6.903854787540647E-005
          59 -0.240129573898607     
          60 -0.238454722357396     
          61  4.395612990436507E-002
          62 -4.447340221966308E-004
          63  0.597899934761321     
          64  3.967793115329706E-002
          65  5.929677891519229E-002
          66  2.603376023875733E-004
          67 -0.488912440374392     
          68 -1.659907818480555E-002
          69  0.123468713234440     
          70 -3.687027173474215E-007
          71  0.157861613814673     
          72  0.141439159478417     
          73 -3.535516413339184E-002
          74  2.057614398847493E-004
          75 -0.242621090778386     
          76  7.653859928643773E-002
          77 -2.804892400549354E-002
          78 -2.858518312393897E-005
          79  0.119398945281997     
          80  3.009504129269196E-002
          81 -2.842659247031733E-002
          82  4.709079370419767E-005
          83 -0.385905476647061     
          84 -0.114069368924797     
          85  5.439975021801633E-002
          86 -1.635588916184258E-004
          87  0.369860470555025     
          88 -6.010336584890710E-002
          89 -2.575175785355476E-003
          90  1.671303793707566E-004
          91 -0.111023655196657     
          92  3.223835533933305E-002
          93 -9.997686971348868E-002
          94 -2.563212786066269E-004
          95 -1.378070273453498E-002
          96 -0.100822902305157     
          97 -9.743640492948506E-002
          98 -7.494478555944782E-005
          99  0.103629067922486     
         100 -2.382317060778603E-002
         101 -9.196737179922235E-002
         102  8.319445370475896E-005
         103 -8.896940102710325E-002
         104  5.244726226423645E-002
         105  4.069668065496368E-002
         106 -0.104444781915082     
         107  7.411851078370334E-002
         108 -0.224918233468498     
         109  0.247262267187476     
         110 -7.521233479261222E-002
         111  0.320961955879544     
         112  0.141091965291123     
Sym=    76a
Ene=   9.142447667624373E-002
Spin= Alpha
Occup=     0.00000000
           1  7.203640019636589E-003
           2  6.933598779253029E-003
           3 -1.597488808513682E-002
           4  4.611078843903678E-005
           5 -0.140245665804658     
           6  6.856748432959829E-002
           7  7.167818147506019E-002
           8 -5.208903856499929E-002
           9 -3.816979987818566E-005
          10 -1.676623405658926E-005
          11  0.143402830945081     
          12 -0.141648334226474     
          13 -5.537315128667700E-002
          14  3.661637995010601E-005
          15 -0.183677228028192     
          16 -0.100889766156604     
          17 -1.380485750534876E-003
          18 -1.397153001835512E-004
          19  0.280329381991057     
          20 -7.626842953111171E-002
          21 -9.408373109165173E-002
          22  2.190444963656724E-004
          23 -0.196798427556436     
          24 -9.927338015792068E-002
          25 -9.782813142767939E-002
          26  7.820443727765755E-005
          27  0.470954153625132     
          28 -0.282814971307901     
          29  3.218225579041262E-002
          30 -3.504886323483005E-004
          31 -0.458854242659581     
          32 -0.238234098919654     
          33  0.138217502672619     
          34 -4.134297507884734E-004
          35  0.266782548365094     
          36 -8.642936756690876E-002
          37  0.180037068638392     
          38 -5.959963194087200E-005
          39 -0.448239739782444     
          40 -6.609421896257917E-004
          41  0.159558435926494     
          42  2.187251192465633E-004
          43  0.205596866386399     
          44  0.232654063801349     
          45  6.524667957310221E-002
          46  3.767325456364425E-004
          47  0.131135041154179     
          48  0.101864417360287     
          49 -7.352254877850048E-002
          50  1.441747932083271E-004
          51  2.582109971629025E-002
          52  4.928897603577053E-002
          53 -7.638484564453223E-002
          54 -9.291860193940205E-006
          55  0.187513762380971     
          56 -1.596559803804359E-002
          57  1.469853245900419E-002
          58  1.785953869738392E-005
          59 -5.312386301384835E-002
          60  4.439879361614535E-002
          61  1.672888814572834E-002
          62  5.585999320250121E-005
          63  0.142621785629321     
          64  2.240482912986918E-002
          65  0.233698866826069     
          66  4.494581605527403E-004
          67 -0.413100452258628     
          68 -6.484218024359119E-002
          69  7.764794747967700E-002
          70 -5.901654426023584E-005
          71  7.997074949939550E-002
          72  9.749341320911789E-002
          73 -4.163134210728850E-002
          74  9.637763623954269E-005
          75 -0.198097926615517     
          76  6.291042686437553E-002
          77 -7.221708628708133E-002
          78 -9.925149252402626E-005
          79  8.052383094780171E-003
          80 -1.104896898008289E-002
          81 -8.731201435839998E-002
          82 -1.738528417058372E-004
          83 -0.296270557865320     
          84 -0.168430070918426     
          85 -2.593711521688177E-002
          86 -3.097756649013672E-004
          87  0.213477769663652     
          88 -0.118776347589890     
          89 -1.420081234109741E-002
          90 -6.707062084111260E-005
          91 -6.768954704432133E-002
          92 -7.448059041136698E-002
          93 -8.776937872897639E-002
          94 -2.890752566646996E-004
          95 -5.186624475130725E-002
          96 -0.125527017511303     
          97 -0.164539526836124     
          98 -1.551125234046579E-004
          99 -0.158580063485962     
         100 -1.050243315141934E-002
         101  0.121612141815377     
         102 -3.495080746939606E-004
         103  0.217875563655678     
         104 -0.237526673905774     
         105 -1.227990816144243E-002
         106 -0.209357249101596     
         107 -6.082691984135486E-002
         108 -0.121941951696000     
         109  0.226433401506786     
         110  6.808657229978683E-002
         111  0.337624565961591     
         112  0.218792888981716     
Sym=    77a
Ene=   0.103589944687353     
Spin= Alpha
Occup=     0.00000000
           1 -1.397930283253555E-002
           2  1.452505505870077E-002
           3  1.214401093342131E-002
           4 -3.149682592813349E-005
           5 -0.103444280574146     
           6 -1.586441605869545E-002
           7  0.119308696632841     
           8  4.999515143780007E-002
           9 -3.457484766817835E-004
          10  5.641285177518271E-004
          11  0.139195199662780     
          12 -0.139407557269968     
          13  1.098800552787221E-003
          14 -1.149536971499389E-004
          15 -0.603558988064830     
          16 -0.328699386597935     
          17  0.160357725268807     
          18 -7.711219615597797E-004
          19 -4.585040420851508E-002
          20 -0.104093325276585     
          21  0.402978085180452     
          22 -1.283824035543058E-003
          23 -0.441446272303779     
          24  0.114261800946723     
          25  0.361616774618504     
          26 -7.305784196099330E-004
          27  1.074148652247915E-002
          28  0.111174352704928     
          29  0.148612998378554     
          30 -3.489604316527685E-004
          31 -6.694691998082403E-003
          32  4.590953892530863E-002
          33  2.666076729939022E-002
          34  2.759187813614208E-004
          35 -3.676720905335214E-002
          36  0.115672922534154     
          37 -1.417228640490381E-002
          38  2.101527803459383E-005
          39  0.174010003657127     
          40  2.962693811636086E-002
          41 -1.859993911143447E-003
          42  1.199022972455789E-004
          43 -8.621439831290253E-002
          44 -2.762970158536915E-002
          45 -7.030279039726005E-003
          46 -7.821396452295608E-005
          47  3.650322006197641E-002
          48 -3.717028714381438E-003
          49  2.245395750624018E-002
          50  2.332956596043921E-005
          51 -3.184739359147673E-002
          52 -1.563433921793920E-002
          53  2.101082120855989E-002
          54 -8.748282831968290E-006
          55 -1.285225946252113E-002
          56 -2.845850089669884E-003
          57 -3.910424880072399E-003
          58 -8.784427644333296E-006
          59  1.548198104036553E-003
          60 -1.681047742007790E-002
          61  2.155007217957006E-003
          62 -3.484125291695230E-005
          63  2.885217946683299E-002
          64  1.371210452904202E-002
          65 -2.871644441472205E-002
          66  1.223304086241046E-005
          67  3.728686601597074E-002
          68  4.082211516929570E-002
          69  4.800054160703799E-003
          70  1.391757474112963E-005
          71  3.253997793886881E-002
          72  1.391377897544559E-002
          73  2.008216355040183E-002
          74  7.542360558008445E-005
          75  1.351180622583992E-002
          76 -8.867921654339648E-003
          77  4.483205391807727E-002
          78  6.186416404272208E-005
          79  9.931215187486944E-002
          80  3.667907939548457E-002
          81  7.415337009034087E-002
          82  2.287878608824865E-004
          83  8.807894894156443E-003
          84  8.548424318027444E-002
          85  5.457743498134937E-002
          86  1.668231539067369E-004
          87  6.025064455519575E-002
          88  7.933225544400274E-002
          89  1.158557702658985E-002
          90  2.069852051597615E-004
          91 -9.178581901027269E-002
          92  6.864168180134192E-002
          93  2.138410810049305E-002
          94  1.461359041168182E-005
          95  1.576429159895353E-002
          96  1.561732963722439E-002
          97  4.306166676205792E-002
          98  1.680940409494237E-005
          99 -0.256623850278377     
         100 -9.035745129389686E-002
         101  0.216526277353297     
         102 -5.811736735100214E-004
         103  0.701616904784058     
         104  0.417189778289696     
         105  0.611877412018334     
         106 -5.386359046683513E-004
         107  3.442125074141044E-002
         108  8.566391776764274E-004
         109 -3.882483466177902E-002
         110 -0.139262987364826     
         111 -0.100008231453171     
         112 -6.690770611718114E-002
Sym=    78a
Ene=   0.111386794937615     
Spin= Alpha
Occup=     0.00000000
           1 -1.469060220333601E-003
           2  1.398567451703859E-002
           3 -7.831811504963392E-003
           4  6.037467944042417E-005
           5 -7.408278746796844E-002
           6  9.578369596435410E-002
           7 -2.170090849638566E-002
           8 -2.363544689780276E-002
           9 -9.989373499674901E-005
          10 -5.327720612701603E-004
          11 -2.533295314962914E-002
          12 -2.674506902357561E-002
          13  5.154782135136574E-002
          14 -3.144988222235102E-004
          15  7.169593901609737E-002
          16 -3.952438180644850E-002
          17 -4.096777473042287E-002
          18  1.503539473988163E-004
          19 -0.429322046163578     
          20  3.940227172633071E-002
          21  0.189677904639356     
          22 -5.941690232434543E-004
          23  0.339737147605105     
          24  4.652996326747516E-002
          25  0.108016454587625     
          26 -5.763340075384851E-006
          27 -0.205213465046329     
          28  8.317647006243298E-002
          29  0.201568405394663     
          30 -9.158708242581320E-004
          31  0.224665852794200     
          32  0.156017553805558     
          33  0.271187729394622     
          34  8.150570385114782E-004
          35  0.314787459367297     
          36 -0.128977985007298     
          37  0.199126319010158     
          38 -1.969011207071464E-004
          39 -0.132456847199623     
          40 -0.136839479873256     
          41  0.240049140792537     
          42 -2.576469490865727E-004
          43 -6.247726226589564E-002
          44  4.622073013532918E-002
          45  0.150265005914134     
          46  3.570514748541765E-004
          47  0.312342604954237     
          48  5.512559210188116E-002
          49  3.333992137268563E-002
          50  8.895988805621663E-005
          51 -0.239555028300609     
          52  1.073995686250089E-002
          53  3.433317066088711E-002
          54  7.522510582436918E-005
          55  0.233075516853270     
          56 -6.913347762445601E-003
          57  5.859282137474963E-003
          58  3.767417924320967E-006
          59 -8.008750812067754E-002
          60  2.551722920367270E-002
          61  6.477508629016356E-002
          62  1.248450584219772E-004
          63  9.739291550011744E-002
          64 -8.750341580374332E-003
          65  0.189430028394222     
          66  1.996051126484216E-004
          67 -0.210238032651643     
          68 -1.614310916566711E-002
          69  0.149834114887816     
          70  2.935220523914030E-004
          71 -1.790630348679238E-002
          72 -3.752750749485228E-002
          73 -1.552319847910779E-002
          74 -8.844502840357585E-005
          75 -7.682308547907070E-002
          76  4.839637839056234E-002
          77 -3.963769549236130E-002
          78  9.638737406258104E-007
          79 -0.243526025937887     
          80 -0.108680426684363     
          81 -0.118508680070528     
          82 -4.348139895026496E-004
          83 -3.597182635448258E-003
          84 -0.152201139855108     
          85 -2.909390576049306E-002
          86 -1.376693229176912E-004
          87 -0.207697254981084     
          88 -0.260958512611447     
          89  9.259779334670884E-002
          90 -3.864386972168388E-004
          91  9.604419754492557E-002
          92 -0.172854371243948     
          93  0.233857623051328     
          94  3.346657877647060E-004
          95  0.135836328554890     
          96  5.898138577088828E-003
          97  0.438501261048372     
          98 -8.489873748507573E-005
          99 -6.479072456945487E-002
         100  3.904935127818477E-002
         101  4.992578268500494E-002
         102  1.740856529562565E-004
         103 -3.561146386253299E-002
         104  0.410639059921511     
         105 -6.288202077116066E-002
         106 -0.190709062432547     
         107  0.192881845949875     
         108 -0.150590797129591     
         109  9.442685842847733E-002
         110  0.270352733870748     
         111  0.187182196533731     
         112 -0.454932239894600     
Sym=    79a
Ene=   0.119108315127444     
Spin= Alpha
Occup=     0.00000000
           1 -3.458422952509920E-003
           2 -4.842228983797749E-003
           3  8.419152222175187E-003
           4 -3.597349508919535E-005
           5  3.447761118593513E-002
           6 -4.935561082960362E-002
           7  1.487799964366849E-002
           8  3.162058191491232E-002
           9 -4.185382532307700E-005
          10  2.809695125091958E-004
          11  6.325267821182179E-003
          12  1.314585428278723E-002
          13 -7.987694079210149E-003
          14  7.612550056125353E-005
          15 -0.123363960158691     
          16 -4.371543893244073E-002
          17  4.923424575192065E-002
          18 -1.978860648053678E-004
          19  8.833963124305606E-002
          20 -2.475163503900199E-002
          21  4.334604361737821E-002
          22 -1.217323516338496E-004
          23 -0.164644811087583     
          24  1.496130833444244E-002
          25  4.855539171058230E-002
          26 -1.752603103060539E-004
          27 -6.481270188305808E-003
          28  1.478220937435893E-002
          29 -4.897858781467034E-002
          30  3.093867757277165E-004
          31  0.119265097064721     
          32 -8.558973851897737E-002
          33 -0.103328472254930     
          34 -2.965775582087816E-004
          35 -0.131977804680765     
          36 -9.316982220530284E-002
          37 -4.385021947463832E-002
          38 -9.151005254902128E-005
          39  7.023167988845619E-004
          40 -0.112574462641686     
          41 -0.189225494870367     
          42 -4.243189827763592E-004
          43  7.729817352250153E-002
          44 -0.224187743014038     
          45 -2.034518265707796E-002
          46 -3.127558949483856E-004
          47 -0.432466616818932     
          48 -0.190506402275940     
          49  0.122889658947279     
          50 -2.315253343830448E-004
          51  8.332717508425442E-004
          52  4.557607474021703E-002
          53  0.145115893887990     
          54  2.505189993503334E-004
          55 -0.112852063064818     
          56  5.981547793861853E-002
          57  0.130535018826169     
          58  2.484197216090219E-004
          59 -0.154844839329048     
          60 -9.456820559668883E-002
          61  3.104202291072871E-002
          62 -9.160681500108619E-005
          63 -0.157768664884703     
          64 -0.204426140709788     
          65 -6.366640214610363E-002
          66 -6.480205344266194E-004
          67 -4.165150635747615E-003
          68 -0.290107140592572     
          69 -0.143088865192705     
          70 -3.781952737693629E-004
          71 -0.270875668538487     
          72 -0.110286321100047     
          73 -0.139869172844530     
          74 -5.169447708595133E-004
          75  0.159449475763654     
          76  1.662117891052402E-002
          77 -0.234878264798377     
          78 -3.704213909462235E-004
          79 -0.452269426677226     
          80 -6.745423343670323E-002
          81 -0.357457116000664     
          82 -9.297827698854372E-004
          83 -9.575757210325607E-002
          84 -0.302576015035877     
          85 -0.158875817400040     
          86 -5.779928362697865E-004
          87 -1.028779772754928E-002
          88 -0.220271836549259     
          89 -0.137418520662954     
          90 -7.024912705001879E-004
          91  4.107738810787068E-002
          92 -0.226110918257568     
          93 -6.794306703529029E-002
          94 -1.954350391770080E-004
          95  8.064409690491819E-002
          96 -0.165608292502875     
          97 -3.786154469721018E-002
          98 -2.467958346747976E-004
          99  1.859242408133126E-002
         100 -3.799878469286648E-002
         101 -8.813924535869442E-003
         102 -7.885263424352908E-005
         103  0.127574985380873     
         104 -5.833346373578530E-003
         105  0.137483269892621     
         106  0.470391816873837     
         107  0.137979734387231     
         108  0.136966002769826     
         109  4.921427675499170E-002
         110  0.624062131772084     
         111  0.373763760425061     
         112  8.369327609653486E-002
Sym=    80a
Ene=   0.126029823627232     
Spin= Alpha
Occup=     0.00000000
           1  4.894516725416155E-003
           2  2.868392359387830E-003
           3 -9.836180972932075E-003
           4  3.475528207724822E-005
           5 -3.624738688373307E-002
           6  4.022908188359575E-002
           7 -3.981694999862685E-003
           8 -2.651306277196442E-002
           9  3.339523931603796E-005
          10 -1.937358060343323E-004
          11  3.335408946585249E-002
          12 -3.945860328687202E-002
          13 -9.969490782762920E-003
          14 -3.559874534989476E-005
          15  4.703104504406234E-002
          16  4.781559178763404E-003
          17 -4.573421006649094E-002
          18  1.342717875180730E-004
          19 -3.729784562464421E-002
          20  1.209355077905410E-002
          21 -4.490806863137076E-002
          22  1.231762371035285E-004
          23  0.129416370697714     
          24 -3.863798329568149E-002
          25 -4.510885981604271E-002
          26  1.182914792106301E-004
          27  6.051530476907918E-002
          28 -6.166097752853757E-002
          29  5.381009133780082E-002
          30 -3.393995656226639E-004
          31 -2.630083165415798E-002
          32 -4.539193345616496E-002
          33  0.145786361675670     
          34  7.235723404516171E-005
          35  0.121307635051359     
          36 -1.868750658031652E-002
          37  1.486515397822584E-002
          38 -3.500230210487921E-005
          39  0.171329993268713     
          40 -9.739953366865958E-002
          41  0.261429694462549     
          42  1.695306968576549E-005
          43  9.897260627503948E-003
          44 -0.151511487178314     
          45  0.257089710066111     
          46  9.192304188103688E-005
          47 -0.100893527705800     
          48 -0.161233169516953     
          49  0.279570714972228     
          50 -3.549292611467789E-006
          51 -0.416414730935781     
          52  0.100100903587669     
          53  0.350667840969064     
          54  5.792001315475752E-004
          55 -3.913188346009322E-002
          56  0.203113380013945     
          57  0.145690008695781     
          58  5.627427663373978E-004
          59 -0.115439197967815     
          60  5.378432337740580E-002
          61  0.129960878287539     
          62  2.733735702071305E-004
          63 -0.229475398319334     
          64 -0.126477742676398     
          65  0.175237130248527     
          66 -8.093381171922052E-005
          67  7.872769589558018E-002
          68 -0.113532439564081     
          69  5.484476986167441E-002
          70 -3.881022091418707E-005
          71 -0.113608223122706     
          72 -4.874550192752414E-002
          73  9.418806223584293E-002
          74  1.156813534684040E-004
          75  1.131162214902653E-002
          76 -0.123833546534685     
          77 -6.261355326131590E-003
          78 -1.807869673558717E-004
          79  0.417533367980840     
          80  0.111137345542630     
          81  0.143944738148517     
          82  5.067723293419471E-004
          83 -0.427504719100595     
          84  1.865625125486286E-002
          85  0.104009195406561     
          86  9.450709495929041E-005
          87  0.323303856854656     
          88  0.124513768232648     
          89  0.143400350352855     
          90  6.063465911142818E-004
          91 -0.317575464388581     
          92  0.131260698400227     
          93  9.534178572158354E-002
          94  5.514814498234554E-005
          95 -8.457600685686714E-002
          96 -9.892110099110034E-002
          97  3.693736857681899E-002
          98 -9.340036393837413E-005
          99 -4.445818700637919E-002
         100  7.941787159275968E-003
         101  2.137339139333668E-002
         102  2.294228130751443E-007
         103 -4.199866479062305E-002
         104 -2.200779647887296E-002
         105 -0.126823422759625     
         106  0.385014411658324     
         107  0.594297501288412     
         108  0.229072077121252     
         109 -8.500899820811822E-002
         110 -0.401860786931608     
         111  0.178474284890101     
         112  4.023724025917613E-002
Sym=    81a
Ene=   0.135742977296833     
Spin= Alpha
Occup=     0.00000000
           1  3.229064748358786E-003
           2 -1.652914740303222E-003
           3 -6.278987884494898E-003
           4  1.489393915122392E-005
           5 -5.994782889725207E-003
           6  2.045984519551387E-002
           7 -1.446506230578866E-002
           8  9.472012962276984E-003
           9 -1.079850750351044E-005
          10 -9.737753345704580E-005
          11  1.088633113705530E-002
          12 -1.773242449268105E-002
          13  3.540960065043087E-003
          14 -1.843061740153858E-005
          15 -7.019881799348216E-004
          16 -3.079098965570948E-002
          17 -2.863718744890634E-002
          18  4.329538053734261E-005
          19 -0.123260103002474     
          20 -4.814333492932993E-003
          21  5.558137086751234E-002
          22 -1.730923377013308E-004
          23  9.988720476632372E-002
          24 -2.026316529805315E-003
          25  8.333451536241722E-003
          26 -5.744890658588823E-006
          27 -6.619144600149930E-002
          28 -1.660640437989922E-002
          29  3.488920337854630E-002
          30 -1.219321670178991E-004
          31  6.881808057178226E-002
          32 -8.430724151067510E-003
          33  7.108128030096570E-003
          34  2.743983161526338E-005
          35 -1.369137674022244E-002
          36 -4.562029789376709E-002
          37 -1.772576071151271E-002
          38 -8.647760651658940E-005
          39 -6.559398533505593E-002
          40  1.117893025823187E-002
          41  6.171839620036602E-003
          42  4.626778995344205E-005
          43 -0.200910363123676     
          44  0.126362984087142     
          45  1.110649589224635E-002
          46  1.565469681763418E-004
          47 -2.758855096474834E-002
          48  9.210668103773742E-002
          49  0.175573731211316     
          50  4.040420680822995E-004
          51  0.111585276566407     
          52  5.374416704281254E-003
          53  0.165193567859296     
          54  1.801810291702975E-004
          55 -0.559655244001668     
          56  0.251298030221217     
          57  2.083111404927138E-002
          58  4.913840052919783E-004
          59  0.315014532202026     
          60  0.184360967560941     
          61 -7.738915193385888E-002
          62  2.195766367389137E-004
          63 -0.134173706192719     
          64  0.312425731461218     
          65 -1.435343369091052E-002
          66  7.417102558079082E-004
          67 -0.128823017477138     
          68  0.280565302370968     
          69 -0.210527680548566     
          70 -2.094985858495386E-004
          71  0.341291032236129     
          72  0.225952111838004     
          73 -4.045922059563500E-002
          74  2.939032485066280E-004
          75 -0.568783024431445     
          76  0.231957942695818     
          77 -0.157125990497691     
          78 -8.664869093005777E-005
          79  0.109223508449078     
          80 -7.128603913792925E-002
          81 -0.148260909210646     
          82 -3.868622114792806E-004
          83  4.569924363234266E-002
          84  3.768548340334363E-002
          85 -0.217307558907840     
          86 -3.927930334890121E-004
          87 -0.171576637276999     
          88  0.132752867934610     
          89 -0.146881905303747     
          90 -4.503578083859131E-005
          91 -0.140163433250626     
          92 -2.781428614487382E-002
          93 -8.855676651095143E-002
          94 -1.487466486925518E-004
          95  1.811589633402495E-003
          96 -0.116708758444027     
          97  2.913565590774900E-002
          98 -1.391789713024092E-004
          99 -4.723796368671936E-003
         100 -2.862572462110194E-002
         101 -1.755170087870635E-002
         102  1.627935168887452E-005
         103  2.054166903787021E-002
         104  0.118471059483958     
         105 -5.219704414499671E-002
         106  7.894452520854717E-002
         107  8.010494905399396E-002
         108  0.572913266378351     
         109  0.603833725786245     
         110  8.524363813517134E-002
         111 -1.726531348605206E-004
         112  4.488876682694579E-002
Sym=    82a
Ene=   0.142971217600770     
Spin= Alpha
Occup=     0.00000000
           1  4.075725190401586E-002
           2 -4.522170596709756E-002
           3 -5.166910050664186E-002
           4  9.452010698153351E-005
           5  5.658983356886313E-002
           6  3.222478890199798E-002
           7 -8.881462247086111E-002
           8  8.653272333441832E-002
           9 -6.211356407591297E-005
          10 -2.464655503479939E-004
          11  0.280800495909777     
          12 -0.179216923883877     
          13 -0.150663741912483     
          14  3.288879961331800E-004
          15 -0.299066414091004     
          16 -0.282042658825661     
          17 -0.235525231256061     
          18  2.641955295600626E-004
          19 -0.332019231301122     
          20 -1.918663357862555E-003
          21  8.729346765491373E-002
          22 -2.663865091707017E-004
          23  0.637511573239913     
          24 -0.247969378654227     
          25 -8.917604458542473E-002
          26 -1.073701765990362E-005
          27 -0.349560670405799     
          28 -0.264616867323766     
          29  0.102282858417527     
          30 -5.241937929872432E-004
          31  2.608792008309031E-002
          32 -7.588338676932217E-002
          33 -1.308543569972912E-002
          34 -4.988087089031038E-005
          35 -3.860268952929929E-002
          36 -5.237515343771292E-002
          37 -5.845389012839811E-002
          38 -8.581241806616125E-005
          39 -8.885412984245500E-002
          40 -6.946573901263660E-003
          41 -3.880693205836742E-002
          42  1.320158515538345E-005
          43  9.555984101190593E-002
          44 -2.335098038134238E-002
          45 -7.366238182590941E-002
          46 -1.414683735962978E-004
          47 -0.139768895516351     
          48 -1.243054232311743E-002
          49 -4.218352135555885E-002
          50 -5.943982540758467E-005
          51  0.183037764691515     
          52 -2.068121163173753E-002
          53 -9.622186565177696E-002
          54 -1.501411122760733E-004
          55 -4.168143620811166E-003
          56 -6.807709603179399E-002
          57  1.027523252819174E-002
          58 -1.211826728627476E-004
          59 -3.378276056439503E-002
          60 -4.445392885494463E-002
          61 -4.082262790566428E-002
          62 -1.310046433764505E-004
          63 -8.076311549595588E-004
          64 -6.940168199773121E-002
          65 -3.112146791475640E-002
          66 -1.827477097217002E-004
          67 -0.117577774784620     
          68 -0.107448613429600     
          69 -0.100791317429671     
          70 -2.974328207351484E-004
          71  1.611303333912338E-002
          72  7.257242518355435E-002
          73 -5.883330869262905E-002
          74 -3.364476058378489E-005
          75  0.186216036383130     
          76 -1.003382438399106E-002
          77  5.776526464550692E-002
          78  1.050395164137046E-004
          79 -2.465965360657262E-002
          80  8.067801298287643E-002
          81  8.166341569533456E-002
          82  2.796558435936237E-004
          83  8.318752840810793E-002
          84  6.556095854428197E-002
          85  5.339092089071504E-002
          86  1.589474079284631E-004
          87  0.258654421149581     
          88  3.362894987235803E-003
          89 -0.121329360393337     
          90 -1.352074245364132E-004
          91 -0.216962117297981     
          92 -8.475496769137987E-002
          93 -0.219753093046275     
          94 -4.226741980327196E-004
          95 -3.313763830803298E-004
          96 -0.248594138923389     
          97 -9.062404895414138E-003
          98 -2.793354849728668E-004
          99 -2.815888871166188E-002
         100 -0.371939884737573     
         101 -0.143553667145175     
         102 -7.374894865395631E-005
         103  0.390446835174908     
         104  0.254970456094815     
         105 -0.590411244658370     
         106  5.613919012701559E-002
         107 -0.198030906125814     
         108 -5.710739840753890E-002
         109 -0.137218490031566     
         110 -7.330399294009909E-002
         111 -0.126886009561095     
         112  0.164271329817374     
Sym=    83a
Ene=   0.144769832374569     
Spin= Alpha
Occup=     0.00000000
           1  1.321679858526188E-002
           2 -3.361984174261618E-002
           3 -1.451707633874410E-004
           4 -3.553890804188963E-005
           5  0.113935376901955     
           6 -0.120220306125306     
           7  6.284929223351058E-003
           8  4.050145983847638E-002
           9  1.285159978920122E-005
          10  4.809883239142024E-004
          11  0.167456635605352     
          12 -1.668978249735306E-002
          13 -0.155088584043270     
          14  4.543014417974896E-004
          15 -0.316405343793713     
          16 -6.190422482402921E-002
          17 -9.455786237964997E-003
          18 -9.311063543974112E-005
          19  0.415320718937280     
          20  5.705696680782836E-002
          21 -0.194194326546174     
          22  6.594245083091516E-004
          23 -1.535968569893940E-002
          24 -0.185854598031923     
          25 -4.114050358845842E-002
          26 -1.665065073526466E-004
          27 -5.194828536398292E-002
          28 -8.142232754058358E-002
          29 -0.113666047337700     
          30  2.843698978351844E-004
          31  8.524529290648200E-002
          32 -0.142431136728479     
          33  4.129303137960678E-003
          34 -3.680143618156256E-004
          35 -6.071785501565707E-002
          36 -8.384738353201263E-002
          37 -4.698259420022368E-002
          38 -5.353806539051963E-005
          39  6.953031968014364E-002
          40 -0.177212486594870     
          41 -0.102022680214815     
          42 -5.016178360213473E-004
          43 -0.387775800426913     
          44 -1.150740745162634E-003
          45  0.109548471687664     
          46  1.721688983543304E-004
          47  0.351941140860841     
          48 -7.581030884199629E-003
          49  9.708006979559967E-002
          50  6.317735684669345E-005
          51 -0.514830268450515     
          52  4.977303866111246E-002
          53  0.249945554950576     
          54  3.800980246156537E-004
          55  0.136706538690191     
          56  9.820585403876630E-002
          57 -1.646554171961372E-002
          58  1.854747906486920E-004
          59 -3.211504891106541E-002
          60  7.767677997232571E-003
          61  0.135062373375925     
          62  1.587588774293097E-004
          63  0.119381983328251     
          64  0.109199035302076     
          65 -9.283185782958173E-003
          66  2.416730752394783E-004
          67 -6.952292553344340E-002
          68  0.168290307367598     
          69  7.707921278939332E-002
          70  3.116843859095767E-004
          71  0.122576865931347     
          72  3.239069441869055E-002
          73 -3.678734359573754E-002
          74 -9.832760570659523E-006
          75  0.103251161351504     
          76  6.705300683846591E-002
          77  0.143014882299913     
          78  3.702701785181075E-004
          79 -0.304101361195470     
          80 -5.171282647076132E-002
          81  2.228609781486685E-002
          82 -5.089304940580387E-005
          83  0.452585662121328     
          84  8.554268673619152E-002
          85  3.045792640900186E-002
          86  2.550665384643282E-004
          87 -0.279812869892804     
          88 -6.193595245053504E-002
          89 -5.629088542181981E-002
          90 -3.055997681095831E-004
          91  0.110286047470032     
          92 -6.403990802781856E-002
          93  9.406177908573024E-002
          94  1.741698429418755E-004
          95 -0.112482065418008     
          96 -6.887354197112218E-002
          97 -5.260974465726595E-002
          98 -1.012319386742574E-004
          99  4.020437301982904E-002
         100 -0.171251001303997     
         101 -6.050445743099928E-002
         102 -9.286334258556313E-005
         103  0.253072073831485     
         104 -0.413393803149543     
         105 -0.136634572705346     
         106 -0.139416733503479     
         107  0.537480756420732     
         108 -3.652423032018817E-003
         109 -0.101946854098806     
         110  0.161995230195363     
         111 -0.342569364707203     
         112  0.157072925305281     
Sym=    84a
Ene=   0.153634948782553     
Spin= Alpha
Occup=     0.00000000
           1  1.967064282148942E-002
           2 -4.409747219669724E-002
           3 -6.984230750897068E-003
           4 -1.871443084926324E-005
           5  0.141574209277906     
           6 -0.117702361882174     
           7 -2.387184739573237E-002
           8  6.742832863929851E-002
           9 -5.271089258601427E-005
          10  3.840235450054846E-004
          11  0.183923572330422     
          12 -1.831806472985477E-002
          13 -0.171712117511663     
          14  4.684997722186465E-004
          15 -0.359438862073273     
          16 -0.118916468788480     
          17 -4.812895780870216E-002
          18 -3.913499018231570E-005
          19  0.266414058770312     
          20  6.710427337680261E-002
          21 -0.123883085379074     
          22  4.475045683739431E-004
          23  0.162848909851528     
          24 -0.216285609074830     
          25 -3.165637064944170E-002
          26 -1.767481154996057E-004
          27 -0.248434518293072     
          28 -7.641322561102060E-002
          29 -8.607032868797485E-002
          30  1.723852342299519E-004
          31 -0.154230985452003     
          32  0.119879107705848     
          33 -7.781840251360114E-002
          34  1.118037219874290E-004
          35  5.233947216871389E-003
          36  0.166300076656939     
          37  3.380273069293347E-002
          38  3.086170740327291E-004
          39  0.242565746909063     
          40  6.239607840606688E-002
          41  3.538463516744711E-002
          42  7.107893826929117E-005
          43 -5.685052941148215E-003
          44 -6.226098367787650E-002
          45 -2.515318946742793E-002
          46 -9.098667423628367E-005
          47  2.425621674454707E-002
          48 -6.090847141319094E-003
          49 -4.153908094133515E-002
          50 -7.743468462459309E-005
          51  6.386064799936511E-002
          52 -6.195211801953037E-002
          53 -7.374973555779016E-002
          54 -1.893331165206958E-004
          55 -2.204735674418847E-002
          56 -6.090634165334506E-002
          57 -4.788548522174931E-002
          58 -1.858811629477777E-004
          59  4.115582920426170E-002
          60 -1.734531826307372E-002
          61 -4.742128816278598E-002
          62 -6.638790753686586E-005
          63 -3.034573714724447E-002
          64 -1.757402167385282E-002
          65 -6.459397194512126E-002
          66 -1.732098065975971E-004
          67  0.348638866900867     
          68  3.800455670292482E-002
          69  9.354729384723903E-002
          70  2.553727327382614E-004
          71 -0.161916244967161     
          72 -0.176753689808041     
          73  0.126454874501683     
          74  6.990467897379207E-006
          75 -0.317368687131358     
          76 -5.699269665798430E-002
          77 -0.195578663449432     
          78 -4.541159220576732E-004
          79  0.240133713482681     
          80 -9.881507901599863E-002
          81 -0.150569185873792     
          82 -4.367191839290932E-004
          83 -0.384225883553596     
          84 -0.138463118393490     
          85 -0.118709035757066     
          86 -4.101091822171562E-004
          87 -0.261537846566309     
          88  6.237779467348489E-002
          89  0.213049617369128     
          90  3.970966614714679E-004
          91  0.272921991903908     
          92  0.152490929852327     
          93  0.278982904334951     
          94  5.284400052451616E-004
          95  0.145503703408614     
          96  0.448227881264641     
          97  1.223794733335181E-002
          98  5.357806977996354E-004
          99  7.892679414435355E-002
         100 -0.238635773377226     
         101 -0.100732266155842     
         102  1.228968774623228E-005
         103  0.315645939326452     
         104 -0.269399775662956     
         105 -0.256651414837367     
         106 -2.683029571232583E-002
         107 -0.123416283257449     
         108 -5.168142120988692E-002
         109  0.236901240063668     
         110  2.068415946582801E-002
         111  0.384602501624157     
         112 -0.394850217327106     
Sym=    85a
Ene=   0.164009773753549     
Spin= Alpha
Occup=     0.00000000
           1 -8.175387632443238E-004
           2  4.955734841412457E-003
           3 -2.328474830831432E-003
           4  8.256354925539952E-006
           5 -2.189229625761314E-002
           6  2.354382794960092E-002
           7 -1.651531691987778E-003
           8 -5.264895409387300E-003
           9  1.301625611994273E-005
          10 -8.102177313841204E-005
          11 -2.029419025621166E-002
          12 -5.794990746414539E-003
          13  2.357369755593824E-002
          14 -5.700516650019707E-005
          15  5.935822327875254E-002
          16  1.364567790422258E-002
          17 -7.084861695115899E-003
          18  3.360379396350105E-005
          19 -6.266207250770194E-002
          20 -1.716301091712256E-002
          21  2.262084969881771E-002
          22 -8.546427092283415E-005
          23 -3.148417209506882E-003
          24  2.807262637099055E-002
          25 -8.327123146009483E-004
          26  3.147794230663369E-005
          27  3.046305987909028E-002
          28 -8.955765876091150E-003
          29  1.291328923138013E-002
          30 -2.578704423271050E-005
          31  7.491869986665425E-002
          32 -6.136733201445847E-002
          33  2.370132325912716E-002
          34 -9.867266654911440E-005
          35 -5.521015414744947E-002
          36 -2.531076730799845E-002
          37 -0.110062537751489     
          38 -9.347480783613155E-005
          39  0.222432374017485     
          40 -7.026776844688450E-002
          41  6.254622988824125E-002
          42 -7.725567674946141E-005
          43 -1.409845650737215E-002
          44 -0.207872355332015     
          45  0.101242876204309     
          46 -1.852258365128303E-004
          47  0.469914681072718     
          48 -6.368800044189728E-002
          49 -0.245076095970352     
          50 -4.553530080155534E-004
          51 -0.405710511455435     
          52 -0.115832234650252     
          53 -0.183275861951816     
          54 -3.911957220374495E-004
          55  0.299579603858925     
          56 -0.144788848880938     
          57 -0.333125401203274     
          58 -6.598136912921224E-004
          59  0.213725955053016     
          60  0.117166973653171     
          61 -2.114232028277076E-002
          62  2.137543154701776E-004
          63 -0.480336757458067     
          64 -4.068738002998058E-002
          65 -0.256199934728446     
          66 -4.621207589689416E-004
          67  0.346321833138380     
          68 -3.117744155569643E-002
          69 -0.312529926481133     
          70 -5.436368710171104E-004
          71 -0.129952524908958     
          72 -3.697690355960650E-002
          73 -0.106685263845180     
          74 -2.825387822453737E-004
          75 -3.538806839563107E-002
          76  5.125876139985318E-002
          77 -0.271057014358115     
          78 -4.662933581661582E-004
          79  6.194688811329050E-002
          80  7.281476740149727E-002
          81 -0.251107720121890     
          82 -4.460731917210645E-004
          83 -0.155655391785606     
          84  2.372156720838753E-002
          85 -0.176225166978488     
          86 -3.710156559355454E-004
          87  7.087860455968630E-002
          88  0.262412426880691     
          89 -0.181703591524356     
          90  1.239525060630064E-004
          91 -0.431711754151054     
          92  5.373136634760822E-002
          93 -7.218228951386556E-002
          94 -1.786765749046230E-004
          95 -7.518902084286802E-002
          96 -0.264806996672499     
          97 -6.117750313693635E-002
          98 -3.161206550426574E-004
          99 -1.116592486821771E-002
         100  2.165435418534633E-002
         101  5.345196208140178E-004
         102 -6.031897997213069E-006
         103 -4.797878783432523E-002
         104  5.725099710298331E-002
         105  1.588165311668363E-002
         106 -0.376990109483811     
         107  1.381587380654752E-002
         108 -0.344989745788684     
         109  0.220952040425989     
         110  0.194736744804835     
         111  7.319172790493177E-002
         112  0.223657878390791     
Sym=    86a
Ene=   0.182944909739234     
Spin= Alpha
Occup=     0.00000000
           1  1.563865003089269E-002
           2  1.492535651011398E-002
           3 -4.525082671151740E-002
           4  1.340951692522127E-004
           5 -0.131331623444324     
           6  0.176888651125098     
           7 -4.555702768077373E-002
           8 -2.942010892054801E-003
           9 -5.859495140901752E-005
          10 -7.022457991704952E-004
          11  7.933454504794935E-003
          12 -0.163279223514607     
          13  8.928243052448201E-002
          14 -3.479996019443621E-004
          15  0.254282541039354     
          16 -0.132014161353208     
          17 -0.161812838334517     
          18  2.692625928047060E-004
          19 -0.486465648200932     
          20 -0.188496131071958     
          21  0.115108207357503     
          22 -5.573566149984503E-004
          23  8.652283237318964E-002
          24  5.166718883183435E-002
          25 -0.196966432572879     
          26  5.309116935574114E-004
          27  0.254937490551759     
          28 -0.139432174269855     
          29  6.178129341569461E-002
          30 -1.016120956848049E-004
          31 -0.611756652613328     
          32  7.106178612325061E-003
          33 -0.209242515095731     
          34 -1.152387019348672E-004
          35 -7.553900334035521E-002
          36  0.381953068016553     
          37  1.985608002098849E-002
          38  6.094267687191199E-004
          39  0.176264123590773     
          40  0.172049787900407     
          41 -0.194871405292233     
          42  2.389020765888531E-004
          43 -6.170319281457236E-002
          44  9.541287955580338E-002
          45 -3.316589596029625E-002
          46  6.555735322036837E-005
          47  1.280120077209077E-002
          48 -4.974922299116249E-004
          49 -3.834409985372295E-002
          50 -2.057248713331185E-005
          51 -0.241014846871027     
          52  0.110947778883849     
          53  0.161011475406219     
          54  3.815714415124883E-004
          55  5.773491684254477E-002
          56  0.123700156615206     
          57  8.931659562572043E-003
          58  2.626880716163148E-004
          59 -4.887221920379500E-002
          60 -2.826595711486303E-002
          61  0.108088876054661     
          62  6.222200962130508E-005
          63  0.111037448952197     
          64  7.661957908205114E-002
          65 -7.767183013529314E-002
          66  8.303481064911327E-005
          67  6.896345904114692E-002
          68  0.105449409187969     
          69  5.801908917421991E-002
          70  1.868857325481382E-004
          71 -4.231440216431358E-002
          72 -7.568246915542670E-002
          73 -8.998349698178733E-002
          74 -2.532482131096115E-004
          75  0.121411250124398     
          76  9.256303560039381E-002
          77 -2.810487478946083E-002
          78  5.954876943740121E-005
          79 -0.271039307101840     
          80  3.479351943287966E-002
          81 -0.175645063921960     
          82 -3.386397239910572E-004
          83  3.220481202953322E-003
          84  1.208849880528000E-002
          85  7.052541363320178E-002
          86  1.380931071803250E-004
          87 -1.643146533526041E-002
          88  9.937785085064338E-002
          89 -7.984346903782909E-003
          90  1.797888142818191E-004
          91  0.217139441684336     
          92  0.292655488642858     
          93  5.231872913352070E-002
          94  3.277420675001239E-004
          95 -1.407633066062488E-003
          96  0.378626200620360     
          97 -0.420984591340379     
          98  3.732420546705380E-004
          99 -0.141588294368741     
         100 -2.864283324697887E-002
         101  6.046047521926441E-002
         102 -2.648009520021781E-004
         103 -4.972909899403279E-002
         104  0.390580100809803     
         105 -0.179992960206494     
         106 -4.173478042169680E-002
         107  0.297861622553163     
         108  7.560500597579835E-002
         109  1.190643639742524E-002
         110  0.288902979506290     
         111 -4.540621006456221E-002
         112  8.896155949412002E-002
Sym=    87a
Ene=   0.186817683411718     
Spin= Alpha
Occup=     0.00000000
           1 -1.786096012811449E-003
           2  4.060819940490637E-003
           3  4.567061187317851E-003
           4 -4.860849346360004E-006
           5 -6.966464699118835E-003
           6 -1.451830587308335E-002
           7  2.148477057220219E-002
           8 -3.348714765190656E-002
           9  5.565440897755426E-005
          10  6.862330363978939E-005
          11  5.211211184467955E-002
          12 -1.343462629497339E-002
          13 -3.335852846704412E-002
          14  4.770561830687324E-005
          15 -3.260738441888965E-002
          16  3.309090610184805E-002
          17  3.191890950248609E-004
          18  4.205018843994077E-005
          19  0.103143162517207     
          20  6.393629414662194E-002
          21 -9.018013443346155E-002
          22  3.177415958160204E-004
          23  4.379828457695474E-002
          24 -1.896380088614700E-002
          25  1.468785746822212E-002
          26 -1.291794148184260E-005
          27  3.248585017338978E-002
          28  4.084665946230919E-002
          29  4.684892673070189E-002
          30 -2.304968491386622E-004
          31  1.286199849403747E-002
          32  2.726007423606796E-002
          33  0.160125900794174     
          34  2.152787428210901E-004
          35  5.066610864336805E-002
          36  0.111539728750581     
          37 -3.532128858929073E-002
          38  1.167179997071913E-004
          39  0.255903192652688     
          40  1.061526394224233E-002
          41  0.172051249955553     
          42  1.376999235184873E-004
          43 -0.338422118881592     
          44  7.782983117216154E-002
          45  8.890475272062244E-002
          46  2.695961137414852E-004
          47  0.387248904148201     
          48  0.260996804533552     
          49  5.013323515614470E-002
          50  5.166252087551241E-004
          51  0.264088367860561     
          52 -0.200546884128813     
          53  2.445240152252774E-003
          54 -3.639197698855796E-004
          55 -0.561248175177924     
          56  0.138365426748789     
          57 -8.836517238405228E-003
          58  2.113598736041325E-004
          59  0.228234792585520     
          60  1.685319735774779E-003
          61 -0.204977788476401     
          62 -2.285447232708943E-004
          63  6.381036040428473E-002
          64  0.220983804884557     
          65 -6.974521579863927E-002
          66  3.108942400097766E-004
          67 -5.502859884467620E-002
          68 -0.114299942956778     
          69  2.751647862428656E-002
          70 -1.795630426674416E-004
          71 -0.142217826566029     
          72 -6.889471945605570E-002
          73 -0.197968947643341     
          74 -4.546304604323760E-004
          75  0.549588319123640     
          76 -6.850220794041566E-002
          77  9.868660772554322E-002
          78  1.297046277083426E-004
          79 -0.337983867915414     
          80  0.176066664258388     
          81 -0.108122710332385     
          82 -8.552622926821101E-006
          83 -0.299575838568972     
          84 -0.169315683569601     
          85  0.191557856078853     
          86  1.045507790145635E-004
          87  0.275443934414058     
          88  3.965339185484705E-002
          89  0.113742343302514     
          90  4.037109392561283E-004
          91 -0.219483113608837     
          92  0.128125979771869     
          93  0.148970623452118     
          94  1.724087434731620E-004
          95 -7.271569869310164E-002
          96 -3.477095415532978E-002
          97  7.498788379671842E-002
          98 -2.450203325399401E-005
          99 -6.033055085016306E-002
         100  2.307476381928961E-002
         101  6.029989455802599E-002
         102 -6.975764057854751E-005
         103 -1.129829354180588E-002
         104 -0.145199733026769     
         105 -1.669299899831434E-002
         106 -0.311529783750107     
         107 -0.193512300233444     
         108  0.415152731381047     
         109 -0.388007950701788     
         110  0.234441302495166     
         111  0.219335776860768     
         112 -3.525998661036186E-002
Sym=    88a
Ene=   0.201147917416275     
Spin= Alpha
Occup=     0.00000000
           1 -3.292150420719114E-003
           2 -3.378420237934090E-002
           3  2.229600537306003E-002
           4 -9.945911703879352E-005
           5  0.152517946922975     
           6 -0.113236199093458     
           7 -3.928174782951770E-002
           8  0.110337006513605     
           9 -1.100142112008750E-004
          10  3.722198454444402E-004
          11 -0.164375103456527     
          12  0.198543901732881     
          13  1.974369037504055E-003
          14  2.317826967727105E-004
          15 -0.123530937107734     
          16  5.303036435665982E-002
          17  0.127039102560264     
          18 -2.803276460040202E-004
          19  0.110455142782813     
          20 -2.797824082847752E-003
          21  0.172993925777516     
          22 -4.636541408433281E-004
          23 -9.019795277431054E-002
          24 -2.328306232943620E-002
          25  0.149305986449478     
          26 -4.640498241129519E-004
          27 -0.483905515342384     
          28 -1.877976348696615E-002
          29 -0.192814161944229     
          30  6.792737512883166E-004
          31  8.641254383568110E-002
          32  0.249213988058703     
          33 -0.322747318018729     
          34  1.336351838112783E-005
          35 -9.228865067359622E-002
          36 -0.166824638975067     
          37 -1.935151068957476E-002
          38 -2.694660818239538E-004
          39 -0.359000085234334     
          40  0.350398395504128     
          41  2.476655164252610E-002
          42  7.142980912884429E-004
          43  0.454747789407015     
          44  0.193167266263126     
          45  0.120146441306165     
          46  3.506045456398587E-004
          47  4.927697682543578E-002
          48  0.118589407775575     
          49 -0.215618948208161     
          50  1.439173683354150E-005
          51 -0.253155008127329     
          52  0.227428336872387     
          53 -1.520363711665037E-003
          54  4.254127230960636E-004
          55  0.130836998954500     
          56  0.315221828659161     
          57 -6.887270394568812E-002
          58  5.536840905037411E-004
          59  0.138979147400377     
          60  0.249166196224346     
          61  0.129319145124664     
          62  6.033909135335495E-004
          63 -0.265608952131638     
          64  0.184762700636098     
          65  0.203036502249035     
          66  6.627581533016428E-004
          67 -0.174719209320711     
          68 -6.003136599237708E-002
          69 -2.200813329641163E-002
          70 -1.708924639715518E-004
          71 -6.094292767698265E-003
          72  3.800625271503760E-002
          73 -0.101360734392734     
          74 -1.316793686871198E-004
          75  0.187900830183479     
          76  1.680998385985948E-002
          77  2.253721315916261E-002
          78  6.151696077127985E-005
          79 -8.612475438837755E-002
          80  0.106747313444756     
          81 -5.201768238013596E-003
          82  1.302150050640972E-004
          83 -0.155888372438164     
          84 -3.785313909702773E-002
          85  8.656602823050824E-002
          86  7.984259263271096E-005
          87  0.266387526336498     
          88  1.247669584654461E-002
          89  1.062143408476056E-002
          90  1.314738081150365E-004
          91  7.785721600848421E-002
          92  0.139035189920267     
          93 -0.177011571976057     
          94 -1.038640158074063E-004
          95  9.868610013666602E-002
          96  0.196742456858634     
          97 -0.110042385803975     
          98  3.125346409686921E-004
          99  0.354593025274849     
         100 -6.055046368482832E-002
         101 -0.298951418705016     
         102  5.851543476411720E-004
         103  3.961967396081374E-002
         104  9.785728718557959E-002
         105  0.115872866294685     
         106 -0.258201718954836     
         107  0.191163840982041     
         108  0.220842741403736     
         109 -8.884167782550126E-002
         110  2.479371044532330E-002
         111  9.127812872861234E-002
         112 -5.637456936551670E-002
Sym=    89a
Ene=   0.211736046349898     
Spin= Alpha
Occup=     0.00000000
           1  8.297420683563057E-003
           2 -7.636837790275529E-003
           3 -2.073889571907579E-002
           4  4.294076954658093E-005
           5 -1.175613990784111E-002
           6  6.209002472848935E-002
           7 -5.033388482064825E-002
           8  7.538158822286628E-002
           9 -1.518602670999572E-004
          10 -2.662181089807249E-004
          11 -0.120667615107685     
          12 -8.268181209517238E-003
          13  8.904139353610245E-002
          14 -1.892773140995429E-004
          15  0.117726441858146     
          16 -0.117089586961947     
          17 -1.736698627997296E-002
          18 -9.855954161480775E-005
          19 -0.204003853184344     
          20 -0.211666417890247     
          21  0.162059216715410     
          22 -6.797291478439696E-004
          23 -0.151773119689246     
          24 -6.243346898217823E-003
          25 -0.107565229973028     
          26  1.612702569878328E-004
          27  9.118671903524379E-002
          28 -0.165659122050624     
          29 -0.126033393257661     
          30  4.649214266183078E-004
          31 -2.793173628297340E-002
          32 -0.228302629503932     
          33 -0.247717817254219     
          34 -7.126650339748341E-004
          35 -9.371364135772867E-002
          36 -0.259488137220037     
          37  7.508919149226728E-003
          38 -2.786451112663868E-004
          39 -0.192421790709878     
          40 -0.236603085729102     
          41 -0.223149051967110     
          42 -6.716640604129197E-004
          43 -0.257656728618551     
          44 -3.272581464774445E-002
          45  2.411535173100372E-002
          46  3.348205664748883E-005
          47  0.288111058292277     
          48  8.877669354702415E-002
          49 -7.420504242865224E-002
          50  4.788529463773965E-005
          51 -8.460624529553230E-002
          52 -9.222802794297524E-002
          53  5.012797288636209E-002
          54 -1.019523625181224E-004
          55 -0.214504390685108     
          56  9.593720400509505E-002
          57 -8.151519127403548E-002
          58  6.596502336048641E-005
          59  0.122117134447837     
          60 -3.281341815610165E-002
          61 -7.510537551926960E-002
          62 -1.264546199183626E-004
          63  6.705036194839238E-003
          64  0.109423780452141     
          65 -0.132464103091915     
          66 -2.754126950241971E-005
          67  0.187661997743589     
          68 -0.182973020397919     
          69  7.988647972101798E-002
          70 -2.510892525453492E-005
          71 -0.106335399070212     
          72 -2.807320902129323E-002
          73  0.187565936772703     
          74  2.972115896403327E-004
          75 -3.858046756292483E-002
          76 -0.423532923844315     
          77  0.135954968227993     
          78 -2.207140270220199E-004
          79  0.343186044799715     
          80 -0.176204041965377     
          81  0.189955561018275     
          82  1.820976945579126E-004
          83 -5.207459542594427E-002
          84 -0.310119432733505     
          85 -0.227672059589553     
          86 -7.554509371634072E-004
          87 -0.305991966399072     
          88 -0.120985381165944     
          89  5.629180669911899E-002
          90 -2.550341996815364E-004
          91  0.233238760138322     
          92 -0.396244142521720     
          93 -4.402388990281479E-002
          94 -3.414341776902000E-004
          95  0.170958508999451     
          96 -0.126797348112446     
          97 -0.193274131066789     
          98 -2.508394821433596E-004
          99  0.106648986158251     
         100 -4.999898408835460E-002
         101 -0.112217085154800     
         102  1.153328052953157E-004
         103  4.062624775721547E-002
         104  0.288384508665486     
         105 -1.654071549527225E-002
         106 -0.256822078724074     
         107  5.420544578432115E-002
         108  0.173272214945154     
         109 -0.353459828707603     
         110 -0.293980293210904     
         111  0.359131359816461     
         112  0.142003357369890     
Sym=    90a
Ene=   0.257046957219357     
Spin= Alpha
Occup=     0.00000000
           1  5.768502928810147E-003
           2  1.474713823572982E-002
           3 -3.510764106365579E-003
           4  3.166179130180311E-005
           5 -5.607208978698783E-002
           6 -1.425657807419639E-003
           7  5.749774759440747E-002
           8 -0.130380404185894     
           9  2.342331829473650E-004
          10  4.519260247424973E-005
          11  0.371632068026353     
          12 -0.130109950605214     
          13 -0.207522340396900     
          14  3.896776425762281E-004
          15 -0.118048582270102     
          16  6.583385797589597E-002
          17 -0.227601406055026     
          18  6.599482645393701E-004
          19 -0.111777248126432     
          20  0.328187588785747     
          21 -0.311344160485192     
          22  1.239443600796778E-003
          23  0.227283995920317     
          24  0.269125671569643     
          25 -2.035315455358284E-002
          26  4.088374196945864E-004
          27  0.119128384742297     
          28  0.392439275593199     
          29  0.192117575518110     
          30 -2.013353776433373E-004
          31  0.118182944671411     
          32  0.190556270898175     
          33  3.706011315742105E-002
          34  6.345771155976723E-004
          35 -9.106080902948968E-002
          36  0.242844286725775     
          37 -3.199578393988527E-002
          38  2.677557840810068E-004
          39 -5.297959865028802E-002
          40  0.190153408283691     
          41 -0.318404931177569     
          42  1.587657865945049E-004
          43  0.151152570766571     
          44  3.816375544573468E-002
          45 -0.222204380802192     
          46 -2.333697989537943E-004
          47 -0.107290208966945     
          48  8.606443891111212E-002
          49 -0.342403472737248     
          50 -2.091542592612313E-004
          51 -0.224492313549196     
          52  0.215514190947902     
          53  9.080628401847582E-003
          54  4.237366897491705E-004
          55  7.796721389295655E-002
          56  0.321133559199942     
          57 -9.045549320729401E-002
          58  5.250661894262702E-004
          59 -8.988386370102408E-003
          60 -3.910606609480485E-002
          61  0.131297529899803     
          62  8.486382332950669E-005
          63 -3.145490217838549E-002
          64  9.016784804118268E-002
          65 -0.192723935575410     
          66 -8.987307232402842E-005
          67 -2.565389765827873E-002
          68 -0.149544684445790     
          69 -0.173664072092666     
          70 -4.524703776617858E-004
          71  1.201567036836556E-002
          72  0.102843156822175     
          73  3.868545384626907E-003
          74  1.180709457489015E-004
          75 -3.569542211791781E-003
          76 -0.186774267443126     
          77  2.012242854869406E-002
          78 -1.783169640856861E-004
          79  0.163363898920449     
          80 -6.571515609247705E-002
          81  9.168881885002707E-002
          82  1.137591248641356E-004
          83  1.185608597496915E-002
          84 -0.152670888683607     
          85 -0.162304105062338     
          86 -4.868181780088724E-004
          87  2.395838064137300E-002
          88 -0.103128513035607     
          89 -0.126746056081689     
          90 -4.025744749481330E-004
          91  0.111633609535481     
          92 -0.137212186519698     
          93 -0.238396548903150     
          94 -3.437932086518455E-004
          95  9.371796428424789E-002
          96 -4.713182550735197E-002
          97  0.153795990615612     
          98 -7.587740870607517E-005
          99 -0.383545268304577     
         100 -1.616530236091398E-002
         101  0.383100357509428     
         102 -8.803671799008815E-004
         103 -3.785805897871864E-002
         104 -0.301814039404034     
         105  5.739482570842269E-002
         106 -0.238298386192603     
         107  0.162322928506805     
         108  0.221113042923121     
         109 -0.125994769505798     
         110 -0.134262972779009     
         111  0.183348711626477     
         112 -0.138787247375295     
Sym=    91a
Ene=   0.289258431840911     
Spin= Alpha
Occup=     0.00000000
           1  4.432253811714820E-002
           2 -3.971478259597212E-002
           3 -5.859743176671056E-002
           4  1.283279715256317E-004
           5 -5.316365531191272E-003
           6  6.413630554128195E-002
           7 -5.881994001009069E-002
           8  6.629030136649670E-002
           9 -1.290903933453242E-004
          10 -3.337802356974682E-004
          11  0.146907030707514     
          12 -8.380680572144747E-002
          13 -0.180436661508981     
          14  4.445183671497981E-004
          15  2.574207536146363E-003
          16 -9.004046569185299E-002
          17 -0.281936636849431     
          18  6.085271751130497E-004
          19 -0.237988476386414     
          20  1.641008274541454E-002
          21 -0.209240404448936     
          22  6.081799315271448E-004
          23 -9.864038831621177E-002
          24  0.231071263626550     
          25 -0.138112031491764     
          26  5.593980865085268E-004
          27  6.877379808891830E-002
          28  0.213368370404740     
          29 -0.175023888105755     
          30  8.134961216772848E-004
          31  7.750578720028105E-002
          32  8.755188724059046E-002
          33 -0.236955522392040     
          34 -4.806376357488640E-005
          35 -8.406347989771780E-002
          36 -9.372392177533903E-002
          37 -2.445583847713681E-002
          38 -1.247836438208946E-004
          39  6.308222931767773E-002
          40  1.987058983226265E-002
          41  1.655301173573205E-002
          42  1.708728858181824E-006
          43  1.788804931629363E-002
          44 -0.102829979598706     
          45  0.174874046036773     
          46 -4.043113768515973E-006
          47  2.224643858376538E-002
          48 -0.343413529551931     
          49  0.295058120602791     
          50 -3.043000944364963E-004
          51 -8.374565816406074E-002
          52 -0.169094651040843     
          53 -0.105925786302047     
          54 -4.410942606536272E-004
          55  3.333804387344633E-002
          56 -0.356280386888864     
          57 -0.206521897548824     
          58 -9.235007407831648E-004
          59  0.403668115882612     
          60  0.335910597001255     
          61 -0.185513049359624     
          62  4.014114042403477E-004
          63 -0.340351058579187     
          64  0.207354018054092     
          65  0.303269053843647     
          66  8.415160472991829E-004
          67 -0.273582766598202     
          68  0.138216621399541     
          69 -0.168012007528702     
          70 -2.003023007817812E-004
          71  0.362177068215331     
          72  0.259789005116236     
          73  2.444451067239609E-002
          74  4.031449638145676E-004
          75  1.204744968609691E-002
          76 -4.304770768892896E-002
          77  0.337948719912932     
          78  6.091961978063696E-004
          79 -0.203338479907877     
          80 -4.807848033151336E-002
          81  0.111006928347241     
          82  1.891891329800008E-004
          83 -2.632023188499845E-002
          84 -0.326872312291370     
          85  7.867412162378461E-002
          86 -2.402516408101318E-004
          87  3.850974458107695E-004
          88 -4.737065953798617E-002
          89  5.448760128187175E-002
          90  5.511227345230381E-005
          91  7.785577867280341E-002
          92  0.114963611459881     
          93  0.114724723326380     
          94  2.732385315163353E-004
          95  4.433090538140273E-002
          96  0.151348218489617     
          97 -0.128702056724469     
          98  1.518585798331453E-004
          99 -9.183319811114465E-002
         100 -0.125136238436393     
         101  0.136365448853349     
         102 -5.136977149457455E-004
         103  3.593683202255788E-002
         104 -8.333721101889398E-002
         105  8.188003666642550E-002
         106  0.375008486502706     
         107 -9.913279756132937E-002
         108 -0.315149158150679     
         109 -0.200119706122414     
         110 -7.342661542996354E-003
         111  0.248291750213580     
         112 -2.795793161245473E-002
Sym=    92a
Ene=   0.297134535198482     
Spin= Alpha
Occup=     0.00000000
           1 -7.824796322571163E-002
           2  7.474330410986871E-002
           3  0.106764709587646     
           4 -2.304527977749953E-004
           5  2.985761693392243E-003
           6 -0.124034190538372     
           7  0.121048428844980     
           8 -0.161553154280436     
           9  3.250905794987350E-004
          10  6.367367037242432E-004
          11 -0.127289355184144     
          12  0.116224739060806     
          13  0.250529348404090     
          14 -6.330697522242067E-004
          15 -4.991643882908067E-002
          16  0.213547401211625     
          17  0.421577170150976     
          18 -8.200924308364667E-004
          19  0.360421863013046     
          20  8.193322834136232E-002
          21  0.313696206637053     
          22 -7.883404897136688E-004
          23  0.255900034063094     
          24 -0.300037008749558     
          25  0.248293594259021     
          26 -8.715112954241773E-004
          27 -0.149570359331188     
          28 -0.275670248134085     
          29  0.355336141395498     
          30 -1.408743299740787E-003
          31 -0.351097437876816     
          32  4.802550927790761E-002
          33  0.281464842387444     
          34  4.038177328117287E-004
          35  0.108116332027972     
          36  0.410966058421764     
          37  8.592988202409572E-002
          38  6.221407414467853E-004
          39  0.152627810316205     
          40  6.390427270027282E-002
          41 -0.137351865808468     
          42  4.350091145945962E-005
          43 -4.556198706272784E-002
          44  2.010155157567278E-002
          45 -0.148102105537041     
          46 -1.535044621761099E-004
          47 -0.124295308172573     
          48 -0.181395219935884     
          49  8.097519045499331E-003
          50 -3.177729593638494E-004
          51 -0.145659259901626     
          52  2.068892230199414E-002
          53  2.165411293242059E-002
          54  6.240850728948002E-005
          55  4.026346655843291E-002
          56 -0.117129822053953     
          57 -0.158655271189874     
          58 -4.053969655310246E-004
          59  0.141494811850989     
          60  3.490514676098226E-002
          61 -4.373675723801358E-002
          62  8.172119846137631E-006
          63 -6.954086760009884E-002
          64  9.192740788836508E-002
          65 -0.142164466107919     
          66  2.892056136882194E-005
          67 -0.123063295327671     
          68  5.602233245078365E-002
          69 -0.301493487080390     
          70 -4.818725029950124E-004
          71  0.306511691603767     
          72  0.285380312611818     
          73  1.914089652855613E-002
          74  4.008782866200032E-004
          75 -1.788814995748251E-002
          76 -0.208700279480676     
          77  0.281283288270967     
          78  3.066565748285795E-004
          79 -4.620203266991860E-002
          80 -0.122228317915550     
          81  8.574168715491595E-002
          82  4.137190929149699E-005
          83  6.966595397054133E-002
          84 -0.359666191215956     
          85 -0.115013395750085     
          86 -6.509494416225548E-004
          87 -5.441219071836807E-002
          88 -4.808524367514648E-002
          89 -0.156039146853909     
          90 -3.308042635199383E-004
          91 -9.447557485444215E-003
          92  4.758042567335523E-002
          93 -2.059073712874067E-003
          94  7.057560388835273E-005
          95 -7.067349761970701E-002
          96 -2.058299995710131E-002
          97  1.268350743165637E-002
          98 -7.982762569629817E-005
          99  7.106794106909912E-002
         100  0.192078043934978     
         101 -0.158928226701387     
         102  6.636773219328248E-004
         103 -9.955170209279841E-002
         104  9.547788506398582E-002
         105 -0.121548582194922     
         106  0.161799838388428     
         107  7.598739786141681E-002
         108 -0.131296750792054     
         109 -0.259908108497479     
         110 -3.223269276934081E-002
         111  0.280079802083145     
         112  5.018556604451317E-003
Sym=    93a
Ene=   0.330060230161490     
Spin= Alpha
Occup=     0.00000000
           1 -1.898906791284341E-002
           2  1.826817080432199E-002
           3  5.364230262144717E-002
           4 -1.282232688578214E-004
           5  4.995979345975755E-002
           6 -0.134339067626464     
           7  8.437927416670649E-002
           8 -0.186840225399614     
           9  4.765912638446908E-004
          10  5.225593220969499E-004
          11  0.428623578612464     
          12  4.737839037908924E-003
          13 -0.218470897322544     
          14  5.693182759519069E-004
          15 -0.229396863262935     
          16  0.542251421866680     
          17 -0.107732465151613     
          18  8.890663829328642E-004
          19 -3.060688053855992E-002
          20  0.369967928382936     
          21  0.159705689028850     
          22  1.143010636651111E-005
          23  0.234481357902759     
          24  0.366262643256800     
          25  0.345296596316876     
          26 -4.623687755097952E-004
          27 -0.260715680838012     
          28 -0.197030775555731     
          29  0.206054951686854     
          30 -5.916285794100870E-004
          31 -0.316476577762624     
          32  0.149701629372581     
          33 -0.292207832757672     
          34  1.895210386442873E-004
          35  0.122730330725326     
          36 -7.936735012627881E-002
          37  0.204481506866728     
          38 -6.938055009497287E-005
          39 -0.243057144124220     
          40 -0.116552453371111     
          41 -7.795509060898136E-002
          42 -2.444676529726133E-004
          43 -9.265409947296500E-002
          44  9.654614686350191E-002
          45  0.248269460395585     
          46  4.573805069852868E-004
          47  0.256137339613977     
          48 -8.863751686048092E-002
          49  0.145914062022642     
          50 -6.985157934334363E-006
          51  3.823163981420589E-002
          52 -0.256263399056785     
          53  0.208415210160747     
          54 -2.588890349155960E-004
          55 -0.234823541692295     
          56 -0.269756820565489     
          57  5.006496897523059E-002
          58 -4.825031013310697E-004
          59  1.697993703862648E-002
          60 -5.655817234595793E-002
          61 -0.178854779841014     
          62 -3.130218450048564E-004
          63  3.488825658856140E-002
          64 -0.116465294113791     
          65  1.438494008986122E-002
          66 -2.332742453524615E-004
          67  2.604669194914327E-002
          68 -0.131692405499042     
          69  9.791353946381735E-002
          70  4.336886631056598E-005
          71 -0.179422229244267     
          72 -0.112229966147506     
          73 -1.732027026660705E-002
          74 -1.895443347371520E-004
          75  9.885705365421564E-004
          76  9.367472049580159E-003
          77 -0.165068952262949     
          78 -3.117369923376350E-004
          79  9.875721899176781E-002
          80  4.316485622671304E-003
          81 -1.072030413946953E-002
          82 -2.479417829338186E-005
          83  4.858703486957301E-002
          84  0.144268152925581     
          85 -3.580951556440178E-002
          86  1.128310161125246E-004
          87  4.852609199000996E-002
          88 -5.728436554108218E-002
          89 -5.299871444233280E-002
          90 -1.886219607720698E-004
          91  0.103238139893377     
          92  2.324217818959005E-003
          93 -0.106892122548927     
          94 -7.392825280869722E-005
          95  0.110721053010558     
          96  2.165490343669998E-002
          97 -0.354449340752375     
          98 -1.264109097012990E-004
          99 -3.290340986164717E-002
         100 -0.123263662154249     
         101 -2.814200475185134E-002
         102 -1.105941275687117E-004
         103 -0.348818799522896     
         104  3.101306493017155E-002
         105  0.311920712578323     
         106  3.989096900409611E-002
         107  7.436822419038945E-002
         108 -0.117281989724296     
         109  8.424483916301422E-002
         110 -2.627483365799889E-002
         111 -0.118616153015650     
         112  0.178445850237579     
Sym=    94a
Ene=   0.341847649177843     
Spin= Alpha
Occup=     0.00000000
           1 -3.244838646205494E-002
           2  3.080944089230370E-002
           3  3.465707689227139E-002
           4 -7.282650629718985E-005
           5 -2.273457775356362E-002
           6 -1.158273930846069E-002
           7  3.431731706202432E-002
           8 -1.930871563722034E-002
           9  9.841833046805794E-007
          10  1.384190203447904E-004
          11 -0.156487280774220     
          12  6.942776503622909E-002
          13  0.153797927774486     
          14 -3.562317316418222E-004
          15  1.321131474191641E-002
          16 -0.183284735336596     
          17  0.159147482185415     
          18 -6.141848909171877E-004
          19  5.401011238584930E-002
          20 -8.265640160846589E-003
          21  1.616685435878604E-002
          22 -5.740854029140394E-005
          23  2.768431149556678E-002
          24 -0.144517455677762     
          25 -0.164627411877892     
          26  2.633801170302689E-004
          27  9.981772622198933E-002
          28  0.144407578732851     
          29  1.534268313997499E-002
          30  7.964394363565061E-005
          31 -2.199136535915864E-002
          32  6.157710790651480E-002
          33 -4.957683788156291E-004
          34  1.278055450554167E-004
          35  4.098661494098405E-002
          36  6.624236039897381E-002
          37  7.188453799740177E-002
          38  1.648612816811503E-004
          39  3.734817321421037E-002
          40 -0.165304178301412     
          41 -0.214173161747685     
          42 -4.880558122421461E-004
          43  0.111026312200037     
          44 -0.257033667015336     
          45  6.366311696863795E-002
          46 -3.275097661569261E-004
          47  0.254556754734213     
          48 -0.233950829919542     
          49 -0.235236272290133     
          50 -7.318994804958123E-004
          51 -0.213971196490712     
          52 -0.351559190440181     
          53  2.922379466485418E-002
          54 -6.215612560768689E-004
          55 -0.333829391277717     
          56  5.490020577019866E-002
          57 -0.124921008799139     
          58 -6.855844111454718E-005
          59  7.302987347512936E-002
          60 -0.144527847261571     
          61 -0.250301640231122     
          62 -5.530702912314832E-004
          63 -0.195059123933303     
          64 -0.208745019380301     
          65  2.645469409715749E-002
          66 -4.661567093803463E-004
          67 -0.281583648651304     
          68 -0.356606397103273     
          69 -0.350949004341911     
          70 -9.265381566523731E-004
          71 -4.792597028231387E-002
          72  3.600920147361925E-002
          73 -6.362111819567098E-002
          74 -1.172568290799242E-004
          75 -2.159177683860515E-002
          76  0.340574559502803     
          77 -0.276193428679059     
          78 -1.455920509038610E-004
          79 -4.263860887840667E-002
          80  3.941610546131281E-002
          81  0.378218869472204     
          82  8.383576730286434E-004
          83  0.127791433806191     
          84  0.112404951967189     
          85  0.196987729336724     
          86  5.539688390197465E-004
          87  0.288090182439743     
          88 -0.545933338731748     
          89  0.166774870956742     
          90 -4.595190292028050E-004
          91  0.415817178404960     
          92  7.309542213504504E-002
          93  5.281304972667516E-002
          94  3.123422718876542E-004
          95 -8.006884992656998E-002
          96  0.184353071137160     
          97 -1.547296491033055E-002
          98  2.027884773719225E-004
          99 -1.447391839046394E-002
         100  0.135885150153584     
         101  3.585965600317097E-002
         102  6.426077457076876E-005
         103  0.153716352117920     
         104 -3.162234049072178E-003
         105 -0.178652322652602     
         106 -0.101268442242884     
         107 -1.880443225604963E-003
         108  0.150301018322348     
         109  0.355780765865466     
         110 -0.285422150428715     
         111 -0.157663566869806     
         112 -3.440691358129170E-002
Sym=    95a
Ene=   0.350030642185502     
Spin= Alpha
Occup=     0.00000000
           1  6.751234772972306E-002
           2 -5.864240220244943E-002
           3 -8.804075296616581E-002
           4  1.972523114241564E-004
           5  1.176203061193454E-002
           6  8.311912896657557E-002
           7 -9.488115957851011E-002
           8  9.752939876453923E-002
           9 -1.653784814454357E-004
          10 -4.946576292924313E-004
          11  0.121676298038351     
          12 -0.182517356687538     
          13 -0.161223021014301     
          14  2.909553058492455E-004
          15  0.108086474877125     
          16  0.203387566441050     
          17 -0.204367042950831     
          18  7.506005394228669E-004
          19 -6.798384031245062E-003
          20 -0.170168940643854     
          21 -5.977186421036384E-002
          22 -4.173028191551697E-005
          23 -0.127838469375628     
          24  4.792426299061706E-002
          25  0.271757120799652     
          26 -6.321705399730362E-004
          27 -0.169953411611520     
          28 -0.244286008955524     
          29 -4.030795721151973E-002
          30 -1.845534453803290E-004
          31 -0.139818281872993     
          32 -2.935831765892087E-002
          33  9.464217641265635E-002
          34 -6.124063690572540E-005
          35 -2.336367807662896E-002
          36  0.153015678321835     
          37 -5.818809602461809E-002
          38  1.984207572275907E-004
          39  0.404863608131057     
          40  3.759315212037768E-002
          41  0.101669432325043     
          42  8.789302939115274E-005
          43  0.230726367004501     
          44 -0.393013568331239     
          45  0.112003915829717     
          46 -5.213513335804443E-004
          47  0.108197696786647     
          48  0.102782280664549     
          49 -0.206589126333165     
          50 -6.768294395361275E-005
          51  3.848119823684261E-002
          52 -9.934737538197948E-002
          53 -0.229706786796263     
          54 -4.349184693955647E-004
          55 -5.423367270397298E-003
          56  0.374935438096647     
          57  0.151436977901768     
          58  8.934417402159291E-004
          59 -0.197964607995743     
          60 -5.569009430490938E-002
          61  9.311473844208032E-002
          62  2.007607303012333E-005
          63 -0.165838163345685     
          64 -0.244653049814053     
          65  0.262105910934342     
          66 -1.835369859245251E-004
          67 -6.551588566357797E-002
          68 -0.172975954996147     
          69  3.873829016201453E-002
          70 -8.042459204835862E-005
          71  0.116208867324227     
          72  5.993072481645691E-002
          73  0.351819369839159     
          74  7.370433945106660E-004
          75 -0.413011054109968     
          76 -9.724209151141192E-002
          77  0.172814516871393     
          78  2.210115640361562E-004
          79 -0.180069382922402     
          80 -0.468575499946450     
          81  3.862284314303253E-002
          82 -4.735243599469668E-004
          83  0.350273185994448     
          84 -0.181068237465315     
          85  0.232190629147844     
          86  2.638718162799493E-004
          87  8.594475564991497E-002
          88 -0.118554654752856     
          89 -0.149568241078874     
          90 -3.767901368087109E-004
          91 -0.209106229472192     
          92  8.359677361014616E-002
          93  0.272568645011407     
          94  3.120072982303481E-004
          95 -6.729106528643103E-002
          96 -7.451344138964895E-002
          97 -9.842313398717183E-002
          98 -1.220627081145794E-004
          99  1.617619714754667E-002
         100 -0.220148207932006     
         101 -9.240012505057316E-002
         102 -2.248691540139898E-005
         103 -0.216656655885885     
         104  2.708676298161856E-003
         105  0.216941865683929     
         106 -0.198234474034647     
         107 -0.210960567063704     
         108  0.306801449316367     
         109  7.169605592029217E-003
         110  0.100030613546630     
         111 -5.641699417740848E-002
         112  0.111609365887135     
Sym=    96a
Ene=   0.360727868247943     
Spin= Alpha
Occup=     0.00000000
           1  0.144863206189818     
           2 -0.127982704754453     
           3 -0.200500959147894     
           4  4.538810615021403E-004
           5  4.503551292460375E-003
           6  0.219444311582076     
           7 -0.223947862874537     
           8  0.280405298535202     
           9 -5.609050651517281E-004
          10 -1.193427950546753E-003
          11  3.638477859585182E-002
          12 -0.360913318466971     
          13 -0.239413549817282     
          14  3.519319922554554E-004
          15  0.282705699027805     
          16  0.165208761006480     
          17 -0.327404213657311     
          18  1.022165953554574E-003
          19  2.918348431973212E-002
          20 -0.438136948927585     
          21 -0.217689126210205     
          22  6.407975810915571E-005
          23 -0.311168708607858     
          24 -5.612243041620657E-002
          25  0.437583852110764     
          26 -1.162597378176704E-003
          27 -0.258223694981097     
          28 -0.326361611790605     
          29 -0.103283367644743     
          30 -2.476997474654350E-004
          31 -4.584653309850021E-002
          32 -7.755174958619203E-002
          33  0.300571433483784     
          34 -6.172456494452143E-005
          35  0.125619257702663     
          36  5.834586329162806E-002
          37  8.362543392738173E-002
          38  1.061555669771369E-004
          39 -9.709185999572482E-002
          40 -7.289703488249141E-002
          41  6.932199622239124E-003
          42 -9.362052719429071E-005
          43 -9.345657860807753E-002
          44  0.165643695464184     
          45 -0.219811105311488     
          46  4.817477256521958E-005
          47 -0.113969186351789     
          48 -6.447366397629739E-002
          49 -6.076934158886459E-002
          50 -1.829912617724005E-004
          51 -9.317610638504573E-002
          52  6.888972756221885E-002
          53  0.125838009735161     
          54  2.715726304001744E-004
          55 -3.657583972301607E-002
          56 -9.822838447111856E-002
          57 -0.131348757722890     
          58 -3.427290318870149E-004
          59  3.573001873381232E-002
          60 -0.114512490093831     
          61 -5.655612926317156E-002
          62 -2.878826284680568E-004
          63  8.109922350258457E-002
          64  8.224725883733429E-003
          65 -0.334181075736730     
          66 -4.026888747936062E-004
          67 -5.711575458016457E-002
          68  4.327238234978954E-002
          69 -0.339744092787363     
          70 -5.273926115195959E-004
          71  5.307038323444044E-002
          72  9.744748151207998E-002
          73 -0.243500735106183     
          74 -3.527811160479813E-004
          75  0.233895213248575     
          76  0.140527185009847     
          77 -0.111199476511690     
          78 -5.207743924439235E-005
          79  5.971417056277131E-002
          80  0.268841220860395     
          81  0.152547858333803     
          82  6.402733791471976E-004
          83 -0.135176482444226     
          84  1.502761938077469E-002
          85 -0.115672961799162     
          86 -2.149163790741614E-004
          87 -1.367949986705332E-002
          88 -0.144137639323160     
          89  0.108295423493172     
          90 -2.112844086663097E-005
          91  0.161046662040951     
          92  9.962810919108740E-003
          93 -9.501967417479011E-003
          94  6.989638193221878E-005
          95 -8.912261434793159E-002
          96  7.313104821017646E-002
          97  0.236716562239048     
          98  2.044692032254143E-004
          99  1.746706276980164E-002
         100 -0.348105019351977     
         101 -0.123031715252766     
         102 -2.465932556602346E-005
         103 -0.260092413932741     
         104 -5.506420073165309E-002
         105  0.328568834167941     
         106  3.583069674173225E-002
         107  0.140067767220567     
         108 -8.128261577737540E-002
         109  5.999761878168655E-002
         110 -0.174581684643235     
         111  7.538357856412420E-002
         112 -0.172030994771121     
Sym=    97a
Ene=   0.380068762694416     
Spin= Alpha
Occup=     0.00000000
           1  5.364019102298711E-002
           2 -6.956990628123075E-002
           3 -7.526822172079480E-002
           4  1.463627747048671E-004
           5  2.565391848021271E-002
           6  8.274131049569856E-002
           7 -0.108395228975911     
           8  0.213399526397220     
           9 -4.531041410763209E-004
          10 -4.173816106955436E-004
          11 -0.282061813866754     
          12  6.277732285897408E-002
          13 -6.638855027481400E-002
          14  2.731735333924577E-004
          15  2.435461367736424E-002
          16 -0.267167341594774     
          17 -2.258937079743775E-002
          18 -2.496053652436531E-004
          19 -5.705337977273683E-002
          20 -4.165904593262448E-002
          21 -0.180458393642284     
          22  4.369021169026407E-004
          23 -8.450511087894398E-002
          24 -4.668253166035376E-003
          25 -0.117739237633368     
          26  3.117103392708340E-004
          27 -7.457544667170604E-002
          28  0.241209730423496     
          29 -0.178750416820291     
          30  5.772481619977268E-004
          31  7.287647748845352E-003
          32  0.382597340744824     
          33  5.165059493772121E-002
          34  5.698060144426879E-004
          35  0.173741734715363     
          36  6.462209349930040E-002
          37  0.113407810257139     
          38  1.402560845396710E-004
          39 -0.167554382094464     
          40  0.202994151089851     
          41  0.183768895491432     
          42  5.066483384124664E-004
          43  0.100975877966806     
          44  0.348917980678836     
          45  0.234630524367627     
          46  8.704455446685938E-004
          47  0.191419934351965     
          48  9.010062710411439E-002
          49  1.128422469172039E-002
          50  1.860702442641501E-004
          51  0.139640949517086     
          52 -0.150413390975721     
          53  0.451659852626415     
          54  2.053607387995011E-004
          55 -0.235647227633218     
          56 -0.336826084430138     
          57  0.192587368266581     
          58 -4.457212338320960E-004
          59 -0.205607486994849     
          60 -0.206885496595071     
          61 -9.801121653448898E-002
          62 -5.012588447295924E-004
          63  7.550550477476153E-002
          64 -0.359430494344403     
          65 -0.271458569780155     
          66 -1.035630879655459E-003
          67  4.676699270144312E-003
          68 -0.130704811609161     
          69 -0.194858810222501     
          70 -4.420690099571790E-004
          71  4.135922866848752E-002
          72  0.150020184312072     
          73  3.595584753780220E-002
          74  2.280606929786770E-004
          75 -0.155768702688176     
          76 -0.353565508612755     
          77  2.782001430418142E-002
          78 -3.611409580824349E-004
          79  0.132385692771156     
          80 -0.294005443236332     
          81 -0.131939197285056     
          82 -6.279273679060644E-004
          83  0.246417236437191     
          84 -8.718756034403717E-002
          85 -0.166056595627116     
          86 -4.349820896244234E-004
          87  0.125001353505207     
          88 -2.612986524384056E-002
          89 -0.470391737690696     
          90 -7.919995818635586E-004
          91 -0.187590708387986     
          92  0.350027813593444     
          93 -7.376654547414607E-002
          94  3.069470386933494E-004
          95 -9.801899892353477E-002
          96  8.009329717240177E-002
          97 -1.924225478638758E-002
          98  1.329395087840975E-004
          99  9.226173756108746E-002
         100  9.864486186735053E-002
         101  4.938019072320950E-003
         102  8.968287018801229E-005
         103  0.189995654868650     
         104 -0.100786915799570     
         105 -3.495241364697293E-002
         106 -0.101504573256939     
         107  0.239214946252840     
         108 -0.155262241414549     
         109 -0.160388213055142     
         110  9.980960201391423E-002
         111  1.745913989588332E-002
         112 -5.027199903224411E-004
Sym=    98a
Ene=   0.400315001689282     
Spin= Alpha
Occup=     0.00000000
           1 -3.798272679536478E-002
           2  1.340889821173336E-002
           3  7.441713372670958E-002
           4 -1.970730810067929E-004
           5  6.578331377036467E-002
           6 -0.133097736052028     
           7  6.731442228166341E-002
           8 -8.859146466182466E-002
           9  2.432135051507026E-004
          10  5.716058898705483E-004
          11  0.108959409025009     
          12  0.260015873319391     
          13 -0.121450760121441     
          14  5.642288803648080E-004
          15 -0.246815859338125     
          16  7.821715318055250E-002
          17 -6.643919344135055E-002
          18  2.639899000882897E-004
          19 -0.154556858919341     
          20  0.234010509509239     
          21  0.167926058389409     
          22 -1.652423250442504E-004
          23  1.623559601819017E-002
          24  0.270096783589025     
          25 -0.214726845527293     
          26  8.256945239443226E-004
          27  0.114920657060473     
          28 -4.390459805253583E-002
          29 -0.185422722563019     
          30  5.144769330218051E-004
          31 -5.914709177862943E-002
          32 -1.025980599131149E-002
          33 -0.164859897519138     
          34 -2.229131662096160E-004
          35  0.195023129169059     
          36 -0.299867177404451     
          37  0.138867306521854     
          38 -3.515397988799227E-004
          39  6.063480919900830E-002
          40 -0.386170689459425     
          41  0.353209938603943     
          42 -4.566706797241850E-004
          43 -0.132377483120086     
          44 -0.133436224373393     
          45 -0.105968234744255     
          46 -2.811961160389230E-004
          47 -8.489564679976426E-002
          48  0.253918317835364     
          49 -7.495839038939318E-002
          50  3.688931556760499E-004
          51  0.151657970360057     
          52  0.138052219035754     
          53 -8.670490942461864E-002
          54  1.675281704760697E-004
          55  0.165240201375179     
          56  0.193411100439557     
          57  0.200720749773874     
          58  6.153871186612895E-004
          59 -0.364083152381975     
          60 -0.182632260528996     
          61  0.249486874461510     
          62 -4.808872499211271E-005
          63 -6.086390819057872E-002
          64 -0.326851215669559     
          65 -0.365073162662168     
          66 -1.061238139780738E-003
          67  2.242000804080736E-002
          68  0.262568013618428     
          69 -0.542850289061074     
          70 -5.725066800949073E-004
          71  0.344377472217533     
          72  0.256218396391241     
          73 -0.116542026224937     
          74  8.797438787185044E-005
          75  0.129997196370850     
          76  0.181269851328238     
          77  0.150184508282182     
          78  5.128156287252759E-004
          79 -0.110579353227627     
          80  0.222465412229864     
          81  0.182092634506132     
          82  6.522611530382118E-004
          83 -8.178786262779594E-002
          84 -0.204880498220946     
          85 -9.357910601690186E-002
          86 -4.367445064901674E-004
          87 -0.126145509278132     
          88 -2.733189012410741E-002
          89  7.350701240370722E-002
          90  8.471416469644161E-005
          91 -3.633610773929240E-003
          92  0.215101932510543     
          93  0.245965897472836     
          94  5.344044910670632E-004
          95 -2.304995801953712E-002
          96  0.155958623251397     
          97 -0.178334133638407     
          98  1.307042265689332E-004
          99  0.174901027410140     
         100  7.360168394108237E-002
         101 -4.225669479325646E-002
         102  1.361609696896090E-004
         103  2.103671795362503E-002
         104  0.102138361309205     
         105  2.302900862204875E-002
         106 -0.136841527859786     
         107 -7.447807331812220E-002
         108  9.620656810133592E-002
         109  1.792560241567196E-003
         110 -0.128118959435789     
         111  0.184585413364946     
         112  3.043479861803802E-002
Sym=    99a
Ene=   0.420121689319069     
Spin= Alpha
Occup=     0.00000000
           1 -1.793925587177680E-002
           2  8.827792254442499E-003
           3  3.513887717737773E-002
           4 -8.964154332898877E-005
           5  2.783244355553894E-002
           6 -6.143539733179139E-002
           7  3.360295377625246E-002
           8 -5.314849231493992E-002
           9  1.380312169585831E-004
          10  2.585230382907715E-004
          11  8.526471398968270E-002
          12  0.105978039358762     
          13 -6.108704035344398E-002
          14  2.532222969079956E-004
          15 -9.651300583302569E-002
          16  5.688507246108655E-002
          17 -6.087075031607453E-002
          18  2.262183557404195E-004
          19 -6.596477042615076E-002
          20  6.208298560326133E-002
          21  8.216974224895353E-002
          22 -1.439334059360016E-004
          23 -1.713013212468458E-002
          24  0.105817150966007     
          25 -7.812414536203528E-002
          26  3.065250604290364E-004
          27  8.885363060522093E-002
          28 -8.239998697565051E-002
          29 -8.237461161601066E-002
          30  1.471476769619252E-004
          31  0.112812448453427     
          32 -0.166209140619546     
          33  2.211538409797248E-002
          34 -3.141390399485224E-004
          35 -1.476306986748829E-003
          36 -0.190674743921342     
          37 -4.822965416117434E-002
          38 -3.231772517357117E-004
          39 -0.196116091750216     
          40 -1.696522881107512E-003
          41  0.168737058423146     
          42  1.964208981306448E-004
          43  0.227542720081236     
          44  0.195205075660092     
          45 -0.394200289287580     
          46 -1.045135963482317E-004
          47 -0.123198075143819     
          48 -0.275379850651059     
          49 -0.368909077148655     
          50 -9.249552574929940E-004
          51 -0.293483949856068     
          52 -7.483406867775617E-002
          53  0.260403782820076     
          54  1.555714203878438E-004
          55 -0.304729936982485     
          56 -9.257683668138417E-002
          57 -0.321860796569854     
          58 -5.738009249524280E-004
          59  0.110245458543964     
          60 -0.309287788005545     
          61 -0.319523399399636     
          62 -9.653641893655716E-004
          63  0.278536788611212     
          64 -0.120035657105428     
          65 -0.175429686391209     
          66 -4.558861017024531E-004
          67  0.327573844317604     
          68  1.801017439057608E-002
          69  2.313493916215959E-002
          70  4.502591283315577E-005
          71  0.188837959812018     
          72 -5.264709892773226E-002
          73  0.424995564380160     
          74  7.636309481466946E-004
          75 -0.285311023149375     
          76  0.187822165110040     
          77  0.340040326547953     
          78  8.930441723159366E-004
          79 -0.356711430536322     
          80 -0.149559007737293     
          81 -7.814811343293988E-002
          82 -3.251588765335413E-004
          83 -0.137016486425328     
          84 -0.127009775176745     
          85  0.485593582009924     
          86  7.860687537585981E-004
          87  0.221145438252464     
          88  0.351162544683333     
          89  0.310153368134971     
          90  1.031070653594413E-003
          91 -9.465772695469810E-002
          92 -6.272229067451300E-002
          93 -0.141299931046113     
          94 -3.221676139252008E-004
          95  2.280666912755972E-002
          96 -2.585468917203729E-002
          97  0.143191751543884     
          98  7.284020360880976E-005
          99  8.060948809501593E-002
         100  8.447397237272617E-003
         101 -2.313635846031875E-002
         102  6.685346841093815E-005
         103 -1.451495067933174E-002
         104  5.877210992455205E-002
         105  2.086318558447669E-002
         106 -2.645184648890840E-002
         107  0.246598381090725     
         108 -4.696171648481674E-003
         109  4.268748352077196E-002
         110  0.180807618837076     
         111  2.647104610256823E-002
         112 -6.745082709628925E-002
Sym=   100a
Ene=   0.455157165044955     
Spin= Alpha
Occup=     0.00000000
           1  4.105860380923780E-002
           2 -9.629094242167582E-002
           3 -1.166367884371693E-002
           4 -5.020658924438214E-005
           5  0.147178247018690     
           6 -9.218795920038909E-002
           7 -5.499028781830096E-002
           8  0.136337926942503     
           9 -1.813554672558782E-004
          10  2.414994685460623E-004
          11 -7.948284759949212E-002
          12  0.437681093411071     
          13 -0.432442117409991     
          14  1.582818681954728E-003
          15 -0.364189673374025     
          16  8.291404008348238E-002
          17 -0.237837800508169     
          18  7.202301341816226E-004
          19 -0.228905326961228     
          20  0.189905753312924     
          21  0.183169777232273     
          22 -2.695588011942867E-004
          23 -7.577338293572808E-002
          24  0.347437360699014     
          25 -0.276793332583418     
          26  1.133034544871109E-003
          27  0.229356300255789     
          28 -0.257669326970806     
          29 -0.363696399382570     
          30  4.639908774245672E-004
          31 -0.147442839415854     
          32 -3.909698197520751E-002
          33  0.396927893523301     
          34 -1.140662681645590E-004
          35  7.085036455574521E-002
          36  0.272935581872104     
          37 -5.648271426466636E-003
          38  4.799211418192489E-004
          39  0.156830067605853     
          40  0.142198017028879     
          41  4.882765967159659E-002
          42  2.574919707052320E-004
          43 -0.171883775945752     
          44  0.153899330607658     
          45 -9.844739066540600E-002
          46  1.690392122187297E-004
          47 -0.173248750179379     
          48  6.321820183318300E-002
          49  0.186614835508547     
          50  3.337694271553847E-004
          51 -4.483405015242699E-002
          52  0.299499332951581     
          53 -0.107643174337561     
          54  4.575120389204997E-004
          55  9.598449008991129E-002
          56 -1.003669555133652E-002
          57 -0.300700542782712     
          58 -3.591337270348537E-004
          59  0.247654790347377     
          60  6.761511161550658E-002
          61 -6.978499384315122E-002
          62  4.712706318017138E-005
          63  4.363694948096453E-002
          64  0.310591667965609     
          65 -0.108688207018389     
          66  4.076120695499830E-004
          67 -8.565792505767229E-002
          68 -0.303360357392992     
          69  3.890587195580470E-002
          70 -3.253908407454041E-004
          71 -0.263983723437838     
          72 -8.423992030412193E-002
          73 -9.832673588918150E-002
          74 -2.980743602979886E-004
          75 -4.417227728389408E-002
          76 -0.130638474047841     
          77 -0.323496447125914     
          78 -8.031255560631004E-004
          79  6.141569721119694E-002
          80 -0.286580357917814     
          81  0.125617309762514     
          82 -7.963658443102672E-005
          83  0.198826202149278     
          84  2.113599257306724E-002
          85  0.148814555323497     
          86  3.343776912724653E-004
          87  0.112277955280248     
          88 -0.246310136763943     
          89 -1.180881401570180E-002
          90 -3.105913799693212E-004
          91 -6.594425517005426E-002
          92 -6.133712899973447E-002
          93  0.184447604858309     
          94  9.261971594841262E-005
          95 -0.124548163620293     
          96 -0.115836515596827     
          97  9.399257337131529E-002
          98 -8.493889206135006E-005
          99  0.418722737140549     
         100  0.226152830294400     
         101 -0.127189120780026     
         102  5.259239351889960E-004
         103  4.001662622982723E-002
         104  0.135372713323682     
         105  4.804566493493809E-002
         106  0.122346669468789     
         107  1.354083810378113E-002
         108 -6.220448189836833E-002
         109  7.974584955816454E-002
         110 -6.584837401346201E-002
         111 -0.109592058339796     
         112  4.925358627197617E-002
Sym=   101a
Ene=   0.457995603436019     
Spin= Alpha
Occup=     0.00000000
           1 -0.151619572044009     
           2  0.183470277509423     
           3  0.193585707918047     
           4 -3.822199653448047E-004
           5 -7.512155207037284E-002
           6 -0.160176858273186     
           7  0.235298410343558     
           8 -0.445132220279578     
           9  9.262799177416610E-004
          10  8.828332286902405E-004
          11  0.495970407690729     
          12 -3.818336118337129E-002
          13  0.340289418409373     
          14 -9.972025691760784E-004
          15  0.164171173088642     
          16  7.066925416400406E-002
          17 -7.672318793130779E-002
          18  2.941518038759627E-004
          19  5.870337931940774E-002
          20 -0.274726780128796     
          21  8.863026330149212E-002
          22 -5.631992836756822E-004
          23 -0.131479390180990     
          24 -0.220118208592012     
          25 -8.795415895764262E-003
          26 -2.687896480914040E-004
          27  3.549557977217469E-002
          28  2.045854942088389E-003
          29 -6.695067020118404E-003
          30  1.609930991511992E-004
          31  0.246156760430965     
          32 -0.337598283696616     
          33 -0.135082534472341     
          34 -6.029955219939364E-004
          35 -0.292325373344582     
          36 -0.191966969982626     
          37 -0.271277983852563     
          38 -4.235560124079342E-004
          39 -6.209230100843739E-003
          40  0.223041662940515     
          41  0.112322091261042     
          42  4.395183547370528E-004
          43 -0.111128818171410     
          44  0.223203136413795     
          45  0.197333728835520     
          46  6.097731389197023E-004
          47 -3.868379754632704E-002
          48  0.364128693400915     
          49  0.199460506018565     
          50  9.121108569231652E-004
          51  0.227762918786465     
          52  0.296723206642542     
          53  0.180037953992448     
          54  7.603498825965884E-004
          55  9.659055311188051E-002
          56 -0.236574820934978     
          57  2.027286849474282E-002
          58 -4.262844865706918E-004
          59  4.850957058887317E-002
          60  0.109048218461075     
          61  6.482265543400773E-002
          62  2.958159480282350E-004
          63 -0.173800689682505     
          64  7.792501108667226E-002
          65 -0.289284382438437     
          66 -2.548112970075150E-004
          67  5.135181104564340E-002
          68 -0.264139877341138     
          69 -0.241707479357043     
          70 -7.254586671779135E-004
          71 -9.632903953630792E-002
          72  1.720924856615842E-002
          73  6.407138045332543E-004
          74  9.133282942099209E-006
          75 -0.123816060941329     
          76 -5.757165043065763E-002
          77 -0.198515758516335     
          78 -4.694457626300008E-004
          79 -7.138764159332295E-002
          80 -0.329436174301298     
          81  0.175178155525047     
          82 -1.922596955020191E-005
          83  0.164721633602776     
          84 -0.134222733545300     
          85  0.267502183333706     
          86  3.742308857207619E-004
          87  0.224369295229112     
          88 -0.142882527854426     
          89  2.801133810328014E-002
          90 -9.664934896069492E-005
          91  3.069928852413470E-002
          92  0.159463394920336     
          93  0.105120890557677     
          94  2.838811216891939E-004
          95 -4.390326038082034E-002
          96  0.216112855651237     
          97  0.158091482228391     
          98  3.809166940405784E-004
          99 -0.135644455556326     
         100 -0.254814273681863     
         101  3.510116131256359E-003
         102 -2.476158305177714E-004
         103 -0.112405706191908     
         104  0.107285911797183     
         105 -7.633505792425202E-002
         106 -7.256558135731271E-002
         107  0.127636768801326     
         108 -0.190211470259519     
         109  9.373206786736318E-002
         110 -5.749445240738223E-002
         111 -3.863238742859507E-003
         112 -0.169271285296562     
Sym=   102a
Ene=   0.467966145431939     
Spin= Alpha
Occup=     0.00000000
           1  0.114677689664913     
           2 -0.104626855387121     
           3 -0.175515144839008     
           4  3.995346399042993E-004
           5 -3.523790786007096E-002
           6  0.216160718642615     
           7 -0.180922810782544     
           8  0.321356524289150     
           9 -7.429825876168150E-004
          10 -9.983895403739300E-004
          11 -0.410540198608502     
          12 -0.295754578966663     
          13 -9.870468577464972E-003
          14 -2.122763754765881E-004
          15  7.538372704938788E-002
          16 -9.438121956713945E-002
          17  0.286192169195121     
          18 -8.733444078358827E-004
          19  0.100319141141745     
          20  0.198428829568633     
          21 -0.175985310802034     
          22  7.117150232368144E-004
          23  0.214534292309568     
          24  9.520999227064906E-003
          25  0.179220499543062     
          26 -4.396535346550350E-004
          27 -0.165701726652739     
          28  0.156917829894460     
          29  0.275107751394322     
          30 -4.763245540664905E-004
          31 -0.126001344357740     
          32  0.284022883773236     
          33 -0.222252866606332     
          34  5.112414398108890E-004
          35  0.160997055752575     
          36 -5.360434654758175E-002
          37  0.196938698186877     
          38 -2.559746537035965E-005
          39 -8.769261571810946E-002
          40 -0.179942310004716     
          41  9.462349865140475E-003
          42 -2.969787974303771E-004
          43 -0.337135416962382     
          44  6.158488603522529E-002
          45  5.877941543284882E-002
          46  1.989493568110470E-004
          47 -0.124572041637022     
          48  0.321880548607517     
          49  0.268740837968946     
          50  9.028732319907594E-004
          51  0.151810081483459     
          52  0.379352757602705     
          53 -6.851969351449363E-002
          54  6.486919591502205E-004
          55  0.199696529548958     
          56 -4.243379458620952E-002
          57 -9.868869205964799E-002
          58 -1.833361876524043E-004
          59  7.056607737424456E-002
          60  7.700157654746560E-002
          61  0.105580238469006     
          62  2.846542667246931E-004
          63 -0.119225827047441     
          64  0.153560166403283     
          65 -0.309097304431866     
          66 -1.414158357504020E-004
          67  0.276104694707788     
          68 -0.219482642807462     
          69 -0.120690092879429     
          70 -4.802543374522263E-004
          71 -5.652024006901200E-002
          72 -0.104021725843670     
          73  0.214258141770073     
          74  2.826700940223380E-004
          75 -0.157946580020650     
          76  0.220181539385217     
          77 -4.195799609768080E-002
          78  1.705003374028329E-004
          79 -0.274068369533996     
          80 -0.203318163440965     
          81  0.246414369956581     
          82  2.837417724890871E-004
          83  3.579456670158900E-002
          84 -0.201002524698002     
          85  0.439848892464660     
          86  6.380801150422222E-004
          87  0.200804496596729     
          88  8.302036182509048E-002
          89  0.273994232679415     
          90  5.792978313892501E-004
          91 -1.401544900094673E-002
          92 -0.145355626813713     
          93 -3.132837704033844E-002
          94 -2.299344457335403E-004
          95  0.138178540750231     
          96 -0.150708385416278     
          97 -0.285859290518202     
          98 -3.583242409269575E-004
          99 -0.181847612912220     
         100  7.310637893309831E-002
         101  8.889901664587840E-002
         102 -1.687072132655775E-004
         103  6.847570442827870E-002
         104 -0.185690168542745     
         105  3.440030553801518E-002
         106  2.102282872868130E-002
         107  3.067940686826239E-003
         108 -9.937231718044369E-002
         109  0.182330229402298     
         110 -6.586220877170670E-002
         111  2.471139089390980E-002
         112  0.190387161173803     
Sym=   103a
Ene=   0.495795161063338     
Spin= Alpha
Occup=     0.00000000
           1  3.565277472070898E-002
           2 -5.356588014299003E-002
           3 -3.321465111180032E-002
           4  4.809440738308207E-005
           5  4.858502199994732E-002
           6 -1.815116339810395E-003
           7 -4.676990566013692E-002
           8  9.375507175063040E-002
           9 -1.692125703460411E-004
          10 -6.526968474337391E-005
          11 -6.823425049015659E-002
          12  0.116117918393590     
          13 -0.190783939365569     
          14  6.221575365781313E-004
          15 -0.127622523429755     
          16  5.913509862641440E-002
          17 -7.182417938420950E-002
          18  2.567971368853550E-004
          19 -4.664445334761636E-002
          20  5.303859571150456E-002
          21  7.578325196202604E-002
          22 -1.447311856334727E-004
          23  2.440929245628990E-003
          24  7.819060863785936E-002
          25 -6.949679984578751E-002
          26  2.889457389353302E-004
          27  0.125935022349878     
          28 -0.131832103168098     
          29 -5.170336552603346E-002
          30 -8.877126158888665E-005
          31 -2.991899594279715E-002
          32 -0.112279109504561     
          33  0.252918747284509     
          34 -1.002169111123739E-004
          35 -0.204972658733307     
          36  0.336869485625382     
          37 -0.170953886162922     
          38  4.544630852949675E-004
          39  4.826914485629236E-002
          40  0.400398558036851     
          41 -0.352810154506417     
          42  4.158850425811865E-004
          43  0.205237288831227     
          44 -3.697631172952241E-002
          45  0.303961962803605     
          46  2.267094964161203E-004
          47  0.164412784272299     
          48  0.215674463247734     
          49 -0.115328580922910     
          50  2.841493528717398E-004
          51  0.306794490354391     
          52 -0.179859084163595     
          53  0.427977716803828     
          54  1.133734585528308E-004
          55 -4.313808655056654E-002
          56 -0.346457300134398     
          57  0.504750580769089     
          58 -8.877242962307272E-005
          59 -0.131900680767717     
          60  0.254650053384252     
          61  0.183314747369127     
          62  7.146661632345595E-004
          63 -0.293227169453904     
          64 -6.413415018092999E-002
          65  5.382451589931972E-002
          66 -4.156000060654741E-005
          67  0.218807006874376     
          68  5.900143116142747E-002
          69 -8.346853967737338E-003
          70  8.642259441437023E-005
          71  7.677940529142302E-002
          72 -0.106702991141865     
          73  0.191735977355811     
          74  2.380526987774883E-004
          75  6.253370796383113E-002
          76  0.477290355317239     
          77  0.143734088105010     
          78  8.532881467010009E-004
          79 -0.255679946857173     
          80  0.295621206316703     
          81  0.320209564613222     
          82  1.023431671896483E-003
          83 -6.131935065887079E-002
          84 -0.255887131155948     
          85 -2.846724539879545E-002
          86 -3.512466410322579E-004
          87 -0.193330749480660     
          88  0.116994577183296     
          89  0.133577473834892     
          90  3.152798302532944E-004
          91  4.689350120031229E-002
          92 -0.361393886128367     
          93 -7.069909591762540E-002
          94 -5.113299539833912E-004
          95  3.508763541838821E-002
          96 -0.190064829943280     
          97  0.150717780160348     
          98 -1.969372038793634E-004
          99  0.115375905375168     
         100  0.108738937380932     
         101 -1.943163281588500E-002
         102  1.664571030627077E-004
         103 -6.024699076518749E-003
         104  4.768780648391118E-002
         105 -6.452490381899361E-003
         106 -0.208940890610395     
         107  0.150961001710280     
         108 -0.170919540992886     
         109  0.171841582752294     
         110 -0.183168603755735     
         111  0.185606382835570     
         112 -1.398809733584332E-002
Sym=   104a
Ene=   0.518985293254989     
Spin= Alpha
Occup=     0.00000000
           1 -0.174614505317993     
           2  0.161601894382176     
           3  0.244139042914874     
           4 -5.503071448193271E-004
           5  1.544772222171936E-002
           6 -0.246900369400824     
           7  0.231452647179105     
           8 -0.395849714459260     
           9  9.020574060697174E-004
          10  1.210140326836467E-003
          11  0.330123030347619     
          12  0.487768290001110     
          13  0.199141877944503     
          14 -9.540054610760833E-005
          15  0.188216089394935     
          16 -0.345769274439309     
          17 -0.451864798795214     
          18  8.145091930273032E-004
          19 -0.134086924617697     
          20 -0.495301988377153     
          21 -0.299712837595653     
          22  2.055632345042977E-004
          23 -0.238468899247527     
          24 -0.201059946109663     
          25  0.142420586427360     
          26 -5.690042532117563E-004
          27 -0.310168997672462     
          28  0.213075660141825     
          29 -0.154443605903263     
          30  4.182265912387038E-004
          31 -0.156681606486824     
          32  0.636535954176357     
          33  0.137100832089263     
          34  9.950222401819938E-004
          35  0.349842804073211     
          36  0.237570429723745     
          37  0.327628534258750     
          38  5.216335651419871E-004
          39 -3.466706711993819E-002
          40 -9.536958837484451E-002
          41 -6.299441298456344E-002
          42 -1.999920697022957E-004
          43 -9.176867110263991E-002
          44 -1.230747467889976E-002
          45 -1.437230291137702E-002
          46 -2.772820110706968E-005
          47 -2.867967238120217E-002
          48  3.564874939088088E-004
          49  7.014164161507999E-002
          50  7.811346261414089E-005
          51 -1.853776649390380E-002
          52  5.305221551354231E-002
          53 -8.155340022408122E-002
          54  1.286273338012327E-005
          55  3.528311122313287E-002
          56  5.104762737212722E-002
          57 -6.092539909431477E-002
          58  3.003226312894730E-005
          59  1.595661921889566E-002
          60 -1.927517980202050E-002
          61  3.482266970466782E-004
          62 -3.494179973327199E-005
          63  3.119182703754026E-002
          64  2.680840118604706E-002
          65 -2.291209152081906E-002
          66  1.413573147317178E-005
          67  0.122327969799766     
          68 -3.708244707404878E-002
          69  8.697366349617365E-002
          70  1.027302870659902E-004
          71 -1.300664509915687E-002
          72 -9.543934925105439E-002
          73  0.134816228943759     
          74  1.446683901766759E-004
          75  2.620951961569502E-003
          76  0.201624381760839     
          77  7.064978987376110E-002
          78  3.805392123039931E-004
          79 -0.107628379442568     
          80  0.114548170461360     
          81  0.103418940292183     
          82  3.527923318940546E-004
          83 -1.723720482866447E-002
          84 -7.343566500289787E-002
          85  4.349627038907143E-003
          86 -7.385920977462764E-005
          87 -5.014598625110656E-002
          88  7.676674882612683E-002
          89  3.982034319303895E-002
          90  1.423750362928534E-004
          91 -8.846403746650101E-002
          92 -0.214065432533286     
          93 -5.800265357573048E-002
          94 -3.283585531767257E-004
          95  6.971222504320936E-002
          96 -0.318640988123109     
          97 -0.210268870839503     
          98 -5.249004321992604E-004
          99  0.201385458608301     
         100  4.994971841691927E-002
         101 -0.115818677903211     
         102  3.467819920594210E-004
         103  0.133756858824933     
         104 -4.287350008784594E-002
         105  4.780090616124635E-002
         106  5.279599289325894E-002
         107 -3.502339030429288E-002
         108  1.765977716297887E-002
         109  7.267373862402145E-002
         110 -5.359167639454169E-002
         111  3.723363846580931E-002
         112  0.224456679879687     
Sym=   105a
Ene=   0.551828619831729     
Spin= Alpha
Occup=     0.00000000
           1  1.653328575138476E-002
           2 -3.548731780318894E-002
           3 -3.365684388397113E-003
           4 -1.906703868444548E-005
           5  5.139310562188681E-002
           6 -3.596905537937739E-002
           7 -1.542405024250942E-002
           8  3.571171314679829E-002
           9 -3.930201145260500E-005
          10  9.446004253814362E-005
          11  9.817875899401545E-003
          12  0.199323020741052     
          13 -0.219010849288396     
          14  7.656820043283080E-004
          15 -9.374200758983144E-002
          16  6.175652065366376E-002
          17 -0.209607285633656     
          18  6.262941625097482E-004
          19 -3.646238173864196E-003
          20 -0.153326262456207     
          21  5.719434289495617E-002
          22 -3.410782027128561E-004
          23 -7.373863717069505E-002
          24 -9.554045035740723E-002
          25  5.049845184184192E-003
          26 -1.043089659690714E-004
          27  8.798024938414437E-002
          28 -5.005461550240053E-002
          29  1.937047030851031E-002
          30 -2.137255889328027E-004
          31  8.811741509854091E-003
          32 -7.511352256088459E-002
          33  0.212524639777291     
          34 -2.023747446343198E-005
          35  0.101921357930737     
          36  5.554232954153085E-002
          37  0.134925448314761     
          38  1.661014568341885E-004
          39 -0.272090206461360     
          40 -0.392910992674066     
          41 -0.488689098719950     
          42 -9.385381097381636E-004
          43 -0.316998256934007     
          44 -0.134423673331511     
          45  0.173793015941069     
          46 -6.141319372622827E-005
          47  0.183771903378936     
          48 -2.272676003552493E-002
          49  0.173703773584545     
          50  1.534479065861985E-004
          51  7.415838384397926E-002
          52 -0.165330388842490     
          53 -0.159559643429428     
          54 -4.998971923444618E-004
          55  0.166857692450898     
          56  8.173437625405802E-002
          57  0.299380696978881     
          58  5.120338682481051E-004
          59 -0.122234122940100     
          60  0.176023774909753     
          61  0.291536564173868     
          62  6.968925813175650E-004
          63 -0.233263865650003     
          64  8.449910843666648E-002
          65 -0.150379516629838     
          66 -3.912384302345095E-005
          67  8.702949148972852E-002
          68 -7.707592562010364E-002
          69 -0.206912300900852     
          70 -4.500483715114212E-004
          71  0.144443598162501     
          72  0.130944904329138     
          73  0.157397753005653     
          74  4.617718936732017E-004
          75 -0.202219869034765     
          76 -0.233429374148497     
          77  0.202539778251954     
          78  1.277509520577093E-004
          79  6.948134243188017E-002
          80 -0.152159561364664     
          81 -0.422477121157080     
          82 -1.059028030740983E-003
          83 -0.230106066947742     
          84  0.275255140678459     
          85  0.272784790653643     
          86  8.539934106003177E-004
          87  0.417854817318296     
          88  0.140134721311295     
          89  0.213573688856690     
          90  5.430469035420744E-004
          91  0.390850226484399     
          92  0.177454589801775     
          93 -0.599845269147423     
          94 -2.596020378150589E-004
          95 -0.141109040799791     
          96  0.212717708208863     
          97  0.292310613736242     
          98  4.469138894602770E-004
          99  0.101359684230906     
         100  0.159355715767799     
         101  1.747910343094727E-002
         102  1.455672746723057E-004
         103 -2.943525955059609E-002
         104  6.664177988057304E-002
         105 -1.219986428114823E-002
         106  3.461791060330057E-002
         107 -0.151836621156327     
         108  2.989161931524308E-002
         109 -0.138666751003339     
         110  0.268439468436699     
         111 -0.138091555122877     
         112 -0.187896958292982     
Sym=   106a
Ene=   0.585838665919672     
Spin= Alpha
Occup=     0.00000000
           1 -4.408775203644985E-002
           2  4.311065616010498E-002
           3  5.175230877710063E-002
           4 -1.108579415055747E-004
           5 -1.060939616535427E-002
           6 -3.241692232371054E-002
           7  4.302631848906481E-002
           8 -6.856581041814290E-002
           9  1.423090107030076E-004
          10  1.902708364756427E-004
          11 -5.048767686883333E-002
          12  7.728364398648124E-002
          13  0.170674501809636     
          14 -3.823907043286973E-004
          15  0.107078109018958     
          16 -0.257418334982457     
          17  2.917328454269627E-002
          18 -3.667629239662762E-004
          19 -0.130547313453819     
          20  9.998156206328650E-002
          21 -0.256118500139064     
          22  8.077325142236374E-004
          23  9.834572376242551E-002
          24  0.200224837942133     
          25  0.169517941611807     
          26 -2.034776513003547E-004
          27 -8.066518039229448E-002
          28 -0.151077162769029     
          29  4.988383806708210E-002
          30 -2.673098580613303E-004
          31 -4.814388976950163E-002
          32 -4.587239072289624E-002
          33 -1.651338132616982E-002
          34 -7.484800336870938E-005
          35  3.315901417072489E-002
          36 -5.746571820144993E-002
          37  1.776634299291828E-002
          38 -9.708395682497063E-005
          39 -8.676348394021403E-003
          40 -5.369192849486196E-002
          41  9.787207093401130E-002
          42  7.076190373603827E-006
          43  6.789516367802038E-002
          44  4.505250887212333E-002
          45 -0.388380060248349     
          46 -3.651925094006440E-004
          47  3.851696010699110E-002
          48 -0.355922447837025     
          49 -0.313142009764684     
          50 -1.012302057026582E-003
          51 -7.409532611459721E-003
          52 -0.478223864963959     
          53  0.137276078583808     
          54 -7.747499937843692E-004
          55  2.214453884996458E-002
          56 -5.966051111601964E-002
          57  0.512103179512657     
          58  4.773965012601662E-004
          59 -0.117271018745945     
          60  0.266434493373362     
          61  0.310216709843224     
          62  8.781327665233932E-004
          63  1.612974757895584E-002
          64  0.273472783139078     
          65 -4.607876043101943E-002
          66  5.068009899099801E-004
          67 -3.673564967167887E-002
          68  0.357154847492315     
          69 -5.035412721821095E-002
          70  2.927624302921808E-004
          71 -0.148855729414697     
          72  6.873705826278326E-002
          73 -0.516948234227492     
          74 -8.945135282539485E-004
          75  7.654172800097660E-002
          76 -0.326757704664448     
          77 -0.506648502678866     
          78 -1.411400442195175E-003
          79 -7.149854273758024E-003
          80 -0.509822076141528     
          81  0.209858710486161     
          82 -1.613570765709140E-004
          83  0.104322482894285     
          84 -0.211189227390447     
          85  0.426680849755599     
          86  6.036430064766163E-004
          87 -1.099912394939194E-002
          88  0.261380068347076     
          89  0.266365702288029     
          90  7.961737921785481E-004
          91 -5.877053666019660E-002
          92 -8.694484269193092E-002
          93  1.469351417684110E-002
          94 -1.399213183966513E-004
          95  3.843227958479838E-002
          96 -6.124229444625367E-002
          97 -3.409548131620517E-002
          98 -9.409812044865877E-005
          99  7.890176960672743E-002
         100  1.429199023705262E-002
         101 -9.837400330411654E-002
         102  2.525285074367086E-004
         103  0.135528612799650     
         104 -0.138958941170768     
         105  0.141173661551541     
         106  1.934564406090107E-003
         107 -1.979668559877471E-002
         108 -2.429173730537330E-003
         109  1.244178899510410E-002
         110 -6.731946384749100E-002
         111  1.856374374178670E-002
         112  3.928563792440911E-002
Sym=   107a
Ene=   0.595871718739692     
Spin= Alpha
Occup=     0.00000000
           1 -9.776534909755884E-002
           2  9.882513926442030E-002
           3  0.110621919870399     
           4 -2.311307460881206E-004
           5 -3.048488645977394E-002
           6 -6.070306401843731E-002
           7  9.118795047821125E-002
           8 -0.148374401570968     
           9  2.990220366094916E-004
          10  3.757328204092814E-004
          11 -0.137838187981812     
          12  0.107871473840908     
          13  0.444565346334262     
          14 -1.086060094568294E-003
          15  0.239523198401331     
          16 -0.591375533033227     
          17  0.167712807980976     
          18 -1.107995836553309E-003
          19 -0.337800901146957     
          20  0.369379268827328     
          21 -0.570133949190938     
          22  1.972972555460692E-003
          23  0.255011622322633     
          24  0.610906611963790     
          25  0.339816103128957     
          26 -1.602620092550677E-004
          27 -8.964918153059856E-002
          28 -0.524662012800661     
          29  3.112189180472912E-002
          30 -6.163207218616337E-004
          31 -0.110071333342287     
          32 -0.334536479633212     
          33  9.185585850624407E-002
          34 -5.171292797773851E-004
          35 -0.109180845654710     
          36  1.862426249768219E-002
          37 -9.385572714388087E-002
          38 -1.767536403604266E-005
          39  5.062258197487805E-002
          40  4.755025650491519E-004
          41 -8.744775172677324E-002
          42 -6.898906037899385E-005
          43 -9.127784342819682E-003
          44 -0.102252025408433     
          45  0.120076899024632     
          46 -4.614269470721629E-005
          47 -3.867400214004421E-002
          48  0.200301313588251     
          49  3.809895982925253E-002
          50  4.155742190498469E-004
          51  6.334328706594786E-002
          52  0.183501558783275     
          53  5.143936119308512E-002
          54  4.104075669861948E-004
          55 -1.948021677946546E-002
          56 -5.804811291259798E-002
          57 -0.125512450263485     
          58 -2.580741502475222E-004
          59  6.085646731941415E-002
          60 -3.000713113602289E-002
          61 -9.195154349951924E-002
          62 -1.644796650845683E-004
          63 -8.328280052560280E-002
          64 -6.617227359169234E-002
          65  3.224231596744502E-002
          66 -1.041122034197243E-004
          67 -4.463548771664372E-002
          68 -0.139927848333136     
          69 -6.282223448348220E-002
          70 -2.575125948545708E-004
          71  0.104315038793872     
          72  3.955466541667833E-002
          73  0.179050994586201     
          74  3.866466564703929E-004
          75 -6.287934335135596E-002
          76  1.545891469812267E-002
          77  0.224731924961443     
          78  4.723589325121390E-004
          79  7.361057634159603E-002
          80  0.161336332995409     
          81 -0.225402301769208     
          82 -2.821526595144875E-004
          83 -0.108628608956342     
          84  0.223212888633348     
          85 -0.117080931133673     
          86  2.832143383896248E-005
          87  4.615376164530512E-002
          88 -0.182832149639815     
          89  1.069990935036248E-002
          90 -2.134094467310941E-004
          91  0.116465000198322     
          92  2.812964361139029E-002
          93  2.666309598563964E-002
          94  9.436198302057912E-005
          95 -6.377448215705914E-002
          96  0.101544224328879     
          97  9.776818576324954E-002
          98  1.837701355395454E-004
          99  0.213232614052092     
         100 -3.970920179469358E-002
         101 -0.279300126067851     
         102  6.518012745816661E-004
         103  0.319426265379857     
         104 -0.325820055460718     
         105  0.353425197587643     
         106 -6.326403509838695E-002
         107  5.468015699581130E-002
         108 -3.955451609396537E-002
         109 -5.974159081051475E-002
         110  0.101625526594867     
         111 -7.963434915612665E-002
         112 -6.489372609581961E-002
Sym=   108a
Ene=   0.608057683729982     
Spin= Alpha
Occup=     0.00000000
           1  1.488717023306138E-002
           2 -1.727511615987628E-002
           3 -1.506521982000145E-002
           4  2.764306261498008E-005
           5  8.631737379475524E-003
           6  4.403605175188897E-003
           7 -1.303534255466442E-002
           8  2.417983017592773E-002
           9 -4.355271972995876E-005
          10 -3.692587489216070E-005
          11  2.012208437975831E-002
          12  1.810683627276764E-002
          13 -9.387424628475707E-002
          14  2.716435308067157E-004
          15 -3.799440747941843E-002
          16  8.899687408252091E-002
          17 -6.414864701249913E-002
          18  2.688293349361773E-004
          19  6.241970262997203E-002
          20 -0.103257721211276     
          21  7.897198436001793E-002
          22 -3.356287666768973E-004
          23 -4.351923619426853E-002
          24 -0.143295570491119     
          25 -2.836101580510739E-002
          26 -9.472275035365151E-005
          27 -2.230939363530138E-002
          28  0.136867788818003     
          29  3.404810768724698E-002
          30  6.943591512764431E-005
          31 -4.726879909711931E-002
          32  0.161023169430437     
          33 -7.205008406702787E-002
          34  2.419015602312266E-004
          35  0.104579301910981     
          36  1.243813037143527E-003
          37  9.552901879015115E-002
          38  5.120832442986871E-005
          39  0.246785432646526     
          40 -0.210550062762634     
          41  6.349702305394851E-002
          42 -3.500733223333366E-004
          43  0.142711857814756     
          44 -0.467754157586886     
          45 -0.293516672620639     
          46 -1.132398478375956E-003
          47 -0.327637987073025     
          48  0.430844222567047     
          49 -0.449420688126008     
          50  2.944706022477686E-004
          51  0.264210975981806     
          52  0.265275667306112     
          53  0.544781280136872     
          54  1.108431060751732E-003
          55 -0.135137381219789     
          56 -0.411902950965825     
          57  1.948295697904012E-002
          58 -7.794092649460152E-004
          59  0.200366805028125     
          60  0.193144616790392     
          61 -0.109570556461196     
          62  2.393680846358715E-004
          63 -0.179222613780744     
          64  0.134338870925316     
          65  0.214809235860708     
          66  5.196390829515520E-004
          67 -0.220855411987871     
          68  4.964829185575803E-002
          69 -0.123131554038540     
          70 -1.614686175873170E-004
          71  0.117518827550758     
          72  0.156955660982315     
          73 -8.364583251872060E-002
          74  3.470995659824155E-005
          75 -6.001737124710742E-002
          76 -0.286601969177941     
          77  7.609355883736489E-002
          78 -1.859666074367528E-004
          79  0.206121428505063     
          80 -5.164212738059685E-002
          81 -0.394202066148224     
          82 -8.889758021578134E-004
          83 -0.196156053383144     
          84  0.424761286153910     
          85  0.103861582419067     
          86  7.118905699792709E-004
          87 -1.124037993541772E-003
          88 -0.252261625881908     
          89  0.369172320358619     
          90  3.138808375291881E-004
          91  5.971741052207705E-002
          92 -0.228362671558915     
          93  0.269704653518935     
          94 -2.820265798615035E-006
          95  8.093261982536197E-002
          96 -0.155519857293220     
          97 -0.200591606291832     
          98 -3.328637339729776E-004
          99 -3.998638253648167E-002
         100  4.610400350013381E-002
         101  5.771057271329987E-002
         102 -1.124443443079177E-004
         103 -5.025645199327806E-002
         104  5.157814860341488E-002
         105 -6.230893098035467E-002
         106 -0.299371836788640     
         107  0.311387926727233     
         108 -0.210054020403577     
         109 -0.149306282481014     
         110  0.197655622492615     
         111 -0.227765384692217     
         112  0.152071022805150     
Sym=   109a
Ene=   0.620452928684895     
Spin= Alpha
Occup=     0.00000000
           1  3.100882828688825E-002
           2 -7.427651926503546E-002
           3 -7.597100244829980E-003
           4 -4.138323896582150E-005
           5  9.225845732888363E-002
           6 -5.707790521191449E-002
           7 -3.518055211696914E-002
           8  0.103440235838799     
           9 -1.644271579707078E-004
          10  1.587363294346812E-004
          11 -0.165797887360911     
          12  0.557702690390018     
          13 -0.457453953675695     
          14  1.744814217800357E-003
          15 -8.533954096129413E-002
          16 -0.135467035276444     
          17 -0.502666353011355     
          18  1.175178931390956E-003
          19 -3.769575973441994E-002
          20 -0.361841830586806     
          21 -0.237688387769546     
          22  2.029746675158050E-004
          23  0.187080592801205     
          24 -0.291394480217836     
          25  0.492728916641427     
          26 -1.613839082271698E-003
          27  7.895538004299585E-002
          28 -5.336154549775841E-002
          29  0.812309143263039     
          30 -1.847959409447252E-003
          31  8.456225953501087E-003
          32 -0.379228693254405     
          33 -0.322917135188367     
          34 -4.312318887279380E-004
          35 -0.236460376366988     
          36 -0.219269657744561     
          37 -0.182281195800727     
          38 -4.952550686803357E-004
          39  2.440317405633781E-002
          40  3.979739363284326E-002
          41  8.557787239966394E-002
          42  1.217279577903866E-004
          43  6.535253638315124E-002
          44 -2.368647809182219E-002
          45  5.856489897910172E-002
          46  2.222077627190288E-005
          47 -2.257760694236972E-002
          48  7.515516211594396E-002
          49  6.212792359995591E-003
          50  1.464700995266363E-004
          51 -4.960484324470331E-003
          52  9.795931817882715E-002
          53  9.594337696083569E-003
          54  2.008855326591852E-004
          55 -4.081018097028297E-002
          56 -1.185064334176737E-003
          57 -0.126101933265571     
          58 -1.493530749017247E-004
          59  1.985047441005735E-002
          60 -8.829637099256026E-002
          61 -0.110434289108077     
          62 -3.068045334704623E-004
          63  3.906093965126555E-002
          64 -0.109047386516714     
          65  8.022566769611164E-002
          66 -9.599888119012369E-005
          67 -3.283183979142491E-002
          68  7.897360670861217E-002
          69  3.858552831072964E-002
          70  1.686862815709986E-004
          71 -2.412764349379117E-002
          72 -5.537062100302402E-003
          73 -8.177703928694481E-002
          74 -1.649764154855680E-004
          75  4.394995731422496E-002
          76  5.404935469230606E-003
          77 -7.393553739289763E-002
          78 -1.421287030717093E-004
          79 -1.573506958039120E-002
          80 -2.015101072511462E-002
          81  9.399025908980362E-002
          82  1.724093033677446E-004
          83  6.516552732631818E-002
          84 -9.390144089254235E-002
          85 -3.572304530636139E-002
          86 -1.818557916599680E-004
          87 -5.831778279653971E-002
          88  3.014308901619537E-002
          89 -8.284587468317997E-002
          90 -9.881481075940867E-005
          91 -1.666994112086865E-002
          92  0.106149131349553     
          93  6.907517529909268E-002
          94  1.868869967036765E-004
          95  4.454883117242167E-002
          96  0.162977174293537     
          97 -5.403697780890029E-002
          98  1.377621099079430E-004
          99  6.056568545513408E-002
         100  0.699896832987162     
         101  0.163935983427970     
         102  2.644284363435079E-004
         103  6.897341983244248E-002
         104 -5.343100784955463E-002
         105  4.571659189122903E-002
         106 -2.934792490521137E-002
         107  2.754970862335332E-002
         108  2.787288226124290E-004
         109  1.861017164079165E-002
         110 -5.062543677002966E-002
         111  4.659739944135277E-002
         112 -3.553458630026848E-002
Sym=   110a
Ene=   0.676113728639445     
Spin= Alpha
Occup=     0.00000000
           1  5.800892850918650E-003
           2 -9.204183670905470E-003
           3 -4.868459928707412E-003
           4  5.648461071643321E-006
           5  6.369556308610101E-003
           6 -6.193354390505913E-004
           7 -5.750220869559510E-003
           8  1.502934153666866E-002
           9 -2.864964769328033E-005
          10 -3.797687963032250E-006
          11 -1.914953486827736E-002
          12  4.831842223871712E-002
          13 -5.421617773886551E-002
          14  1.927025713616346E-004
          15 -8.999043885072330E-003
          16 -2.732982739417551E-003
          17 -5.063338476003542E-002
          18  1.294384781048886E-004
          19  1.092965646558503E-002
          20 -4.734934603499492E-002
          21 -1.956797053206858E-002
          22 -2.930403539702489E-006
          23  3.559567527852867E-002
          24 -6.117651963850444E-002
          25  6.348274618484977E-002
          26 -2.452393050595708E-004
          27 -4.818697118860479E-003
          28  3.868603590242761E-002
          29  0.138635715313689     
          30 -2.142294067574937E-004
          31  3.061287628764985E-003
          32 -3.015011136289577E-002
          33 -0.165344598986850     
          34 -6.886665946998623E-005
          35 -5.348519205119794E-002
          36 -0.111409921773552     
          37 -7.486388315981428E-002
          38 -2.287737950452745E-004
          39  7.382935087305514E-002
          40  0.209780688558843     
          41  0.372578159595258     
          42  5.819934413502694E-004
          43 -7.145352314623689E-002
          44  0.416794846543930     
          45 -0.384818708866752     
          46  3.355006175723263E-004
          47  6.153230820068058E-002
          48 -0.416266204077117     
          49 -9.267233028192726E-002
          50 -8.803808795394977E-004
          51 -7.131934801990740E-002
          52 -0.403761914932889     
          53 -2.897160780784018E-002
          54 -8.122305337170500E-004
          55  0.118265781817046     
          56  2.333088037314502E-002
          57  0.411009649162225     
          58  5.215428310494705E-004
          59 -4.041180679053921E-002
          60  0.289610754456393     
          61  0.375066965071335     
          62  1.029384337447391E-003
          63 -1.229544592664350E-002
          64  0.496560681871108     
          65 -0.408915533806510     
          66  3.584171117649345E-004
          67  3.525461445577358E-002
          68 -0.580797034621099     
          69 -0.101161577689752     
          70 -9.044012781437474E-004
          71  3.048625649505775E-002
          72 -5.404846515862799E-002
          73  0.424723914796068     
          74  7.499747140339148E-004
          75 -0.114666240343595     
          76  0.157861541318440     
          77  0.323307298243919     
          78  8.394564393648352E-004
          79  6.182555026382423E-002
          80  0.277994963214057     
          81 -0.214942616214069     
          82 -1.221076574097137E-004
          83 -7.530130025308926E-002
          84  0.290283595465131     
          85 -0.218034407702110     
          86 -9.476186725607611E-005
          87  5.429709231383006E-002
          88 -0.504798928585595     
          89 -3.789414635540858E-002
          90 -6.622905861439716E-004
          91 -0.101201073647828     
          92 -6.274327068703357E-002
          93  0.431028553551359     
          94  3.075816271890504E-004
          95  5.704187007712382E-002
          96 -3.750088956494547E-002
          97 -0.157631775551581     
          98 -1.525128930229807E-004
          99 -2.589378249859919E-002
         100  8.751154481494566E-002
         101  4.047162041446013E-002
         102 -3.267058418637158E-005
         103  1.214405620747989E-004
         104 -3.690717640746909E-003
         105 -9.279848608045748E-003
         106  0.117579466195240     
         107 -8.175153150637339E-002
         108  1.370830483265213E-002
         109 -1.424661021504492E-002
         110  8.025001617066439E-002
         111 -0.115035707523184     
         112  8.066101871615046E-002
Sym=   111a
Ene=   0.694782463016451     
Spin= Alpha
Occup=     0.00000000
           1 -2.222141174427412E-003
           2  2.595051499436926E-003
           3  2.590386564333214E-003
           4 -4.680397248645653E-006
           5 -7.849696640098288E-006
           6 -1.807463527211485E-003
           7  1.815313223851584E-003
           8 -5.080373659132441E-003
           9  9.761454656949459E-006
          10  7.403462456809726E-006
          11  3.037704327117172E-003
          12 -6.365772046567253E-003
          13  1.510819171258144E-002
          14 -4.873024961451844E-005
          15  4.140427490636820E-003
          16 -6.721938423766736E-003
          17  1.047979740434200E-002
          18 -3.465100487512430E-005
          19 -8.852037959469920E-003
          20  1.464973245889237E-002
          21 -3.369233989547635E-003
          22  2.712895783905913E-005
          23 -1.411463040265180E-002
          24  3.022159039623634E-002
          25 -4.402095503866675E-003
          26  4.725297859499436E-005
          27  1.143386027491564E-002
          28 -3.786059872195020E-002
          29 -3.875748814569398E-002
          30  1.969460966173829E-005
          31  1.971178678247826E-002
          32 -4.485316198943886E-002
          33  3.416028825758305E-002
          34 -6.941431229934186E-005
          35  0.187920722859416     
          36 -0.157414225523435     
          37  0.141530104521305     
          38 -1.728512739796094E-004
          39  4.473758120416827E-002
          40 -0.594272318243866     
          41  3.027376472302349E-002
          42 -9.162313701255244E-004
          43 -0.142065625251855     
          44 -0.391411327787555     
          45 -0.435554636846502     
          46 -1.160185106351338E-003
          47 -0.216792823710225     
          48  0.108675478021435     
          49 -0.318555035776169     
          50 -1.591768064747405E-004
          51  0.118898544583435     
          52  2.954169824759346E-002
          53  0.254039398315253     
          54  3.354999086278789E-004
          55 -2.750510602310327E-002
          56 -0.197747876587089     
          57  0.118557637938556     
          58 -2.471906369216316E-004
          59  0.186945047201465     
          60  0.277617349086336     
          61  5.040395488524212E-002
          62  6.010548580553087E-004
          63  1.036083246687613E-002
          64  0.441152015153732     
          65  0.199291537556137     
          66  1.040078916788432E-003
          67  5.030476581200779E-003
          68 -0.288550592217648     
          69  0.413205364711857     
          70  3.176343854724565E-004
          71 -0.196331313385430     
          72 -0.225573321488043     
          73  0.199372462103138     
          74  1.138992066901095E-004
          75  3.095812897132179E-002
          76  0.252069021346399     
          77  3.344790039748254E-003
          78  3.047905579623969E-004
          79 -0.129940042655126     
          80  0.116133663616575     
          81  0.257342249083685     
          82  6.775504371448921E-004
          83  0.235194482682498     
          84 -0.294917648567753     
          85 -0.253428229662482     
          86 -8.636362804801453E-004
          87  0.164435869997431     
          88  0.144366230023841     
          89 -0.655463179224104     
          90 -9.046843330552941E-004
          91 -6.733631811932797E-002
          92  0.593162414247018     
          93 -0.331852635067875     
          94  4.448008882797945E-004
          95 -0.174881384375003     
          96  0.286151324310334     
          97  0.131669376566134     
          98  4.816687416233816E-004
          99  1.869170857576887E-002
         100 -2.202064369190220E-002
         101 -1.720295436287455E-002
         102  3.471229815142432E-005
         103  3.802771104399710E-003
         104 -3.172989058468245E-003
         105  2.260497102212709E-002
         106 -0.128880434931572     
         107  0.119619676187884     
         108 -9.454176862134840E-002
         109  0.102667294037671     
         110 -0.132431745454560     
         111  0.160909648963170     
         112 -0.142065579356933     
