 [Molden Format]
 [Atoms] Angs
O       1      8     -0.76468532     -2.21603199     -0.12073973
C       2      6     -1.41644538     -1.19201647     -0.06875831
C       3      6     -2.87812954     -1.19931754      0.03646599
C       4      6     -3.54601338     -2.40248950      0.15137901
C       5      6     -4.93776293     -2.42621034      0.27466718
C       6      6     -5.65642111     -1.25821924      0.28133222
C       7      6     -5.00962772     -0.01058095      0.15986704
C       8      6     -5.70717263      1.21524910      0.14895483
C       9      6     -5.03548102      2.40286285      0.01257101
C      10      6     -3.64416288      2.42067475     -0.11947678
C      11      6     -2.92572602      1.24150234     -0.10484613
C      12      6     -3.59757549      0.01193219      0.03654353
C      13      6     -1.46277993      1.29459492     -0.25339463
O      14      8     -0.86916841      2.30814379     -0.50801167
N      15      7     -0.78731330      0.05436497     -0.09225819
C      16      6      0.60365975      0.07231539     -0.03954177
N      17      7      1.28475282      1.12616533      0.20588477
C      18      6      2.62207532      0.88220847      0.19143602
C      19      6      3.62168468      1.82521914      0.41780983
C      20      6      4.93865286      1.42687656      0.36834321
C      21      6      5.26195572      0.09605285      0.09768759
CL     22     17      6.92685437     -0.36328490      0.04399724
C      23      6      4.29336999     -0.86293606     -0.12875120
C      24      6      2.96913428     -0.45971632     -0.08351769
S      25     16      1.53052739     -1.41159456     -0.29785518
H      26      1     -2.97411089     -3.31797540      0.14776562
H      27      1     -5.44356695     -3.37532191      0.36537804
H      28      1     -6.73232155     -1.27739129      0.37639804
H      29      1     -6.78288732      1.20109078      0.24666148
H      30      1     -5.57870256      3.33548970      0.00354728
H      31      1     -3.10997686      3.35184077     -0.23230034
H      32      1      3.34765781      2.84671265      0.62366499
H      33      1      5.73173746      2.13778111      0.53789806
H      34      1      4.55815815     -1.88702365     -0.33595620
 [GTO]
           1   0
s              4   1.000000
     73.88926573     -0.01198412
     12.72434297     -0.05472052
      1.02245525      0.58055871
      0.38968300      0.47700799
p              4   1.000000
      7.61966643      0.05713170
      1.97566572      0.28574555
      0.69648330      0.55178731
      0.27728200      0.26323149
s              7   1.000000
      0.57971233     -0.18782982
      0.07115450      0.90752468
      0.03359728      0.23832975
     73.88926573      0.00397972
     12.72434297      0.01817173
      1.02245525     -0.19279337
      0.38968300     -0.15840599
p              7   1.000000
      2.76717072     -0.01183273
      0.15304476      0.58147838
      0.05897927      0.60726778
      7.61966643     -0.02807908
      1.97566572     -0.14043819
      0.69648330     -0.27119236
      0.27728200     -0.12937298
 
           2   0
s              4   1.000000
     35.13425759     -0.01198412
      6.05040988     -0.05472053
      0.48617625      0.58055871
      0.18529380      0.47700799
p              4   1.000000
      5.66280348      0.05713170
      1.46828038      0.28574555
      0.51761427      0.55178730
      0.20607116      0.26323149
s              7   1.000000
      0.38350848     -0.19604582
      0.04707223      0.94722135
      0.02222627      0.24875471
     35.13425759      0.00548572
      6.05040988      0.02504826
      0.48617625     -0.26575012
      0.18529380     -0.21834989
p              7   1.000000
      1.83062075     -0.01160125
      0.10124670      0.57010322
      0.03901771      0.59538812
      5.66280348     -0.02512833
      1.46828038     -0.12567995
      0.51761427     -0.24269354
      0.20607116     -0.11577755
 
           3   0
s              4   1.000000
     35.15862186     -0.01198412
      6.05460561     -0.05472052
      0.48651340      0.58055871
      0.18542230      0.47700799
p              4   1.000000
      5.66673042      0.05713170
      1.46929858      0.28574555
      0.51797322      0.55178731
      0.20621406      0.26323149
s              7   1.000000
      0.38350848     -0.19602334
      0.04707223      0.94711274
      0.02222627      0.24872619
     35.15862186      0.00548208
      6.05460561      0.02503168
      0.48651340     -0.26557418
      0.18542230     -0.21820533
p              7   1.000000
      1.83062075     -0.01160000
      0.10124670      0.57004182
      0.03901771      0.59532400
      5.66673042     -0.02511163
      1.46929858     -0.12559641
      0.51797322     -0.24253223
      0.20621406     -0.11570060
 
           4   0
s              4   1.000000
     35.00640002     -0.01198412
      6.02839175     -0.05472053
      0.48440700      0.58055871
      0.18461950      0.47700799
p              4   1.000000
      5.64219589      0.05713170
      1.46293714      0.28574555
      0.51573061      0.55178731
      0.20532124      0.26323149
s              7   1.000000
      0.38350848     -0.19616446
      0.04707223      0.94779460
      0.02222627      0.24890525
     35.00640002      0.00550485
      6.02839175      0.02513564
      0.48440700     -0.26667717
      0.18461950     -0.21911159
p              7   1.000000
      1.83062075     -0.01160785
      0.10124670      0.57042733
      0.03901771      0.59572662
      5.64219589     -0.02521633
      1.46293714     -0.12612008
      0.51573061     -0.24354346
      0.20532124     -0.11618300
 
           5   0
s              4   1.000000
     34.89995310     -0.01198412
      6.01006071     -0.05472052
      0.48293402      0.58055871
      0.18405811      0.47700799
p              4   1.000000
      5.62503919      0.05713170
      1.45848867      0.28574555
      0.51416239      0.55178730
      0.20469691      0.26323149
s              7   1.000000
      0.38350848     -0.19626413
      0.04707223      0.94827613
      0.02222627      0.24903171
     34.89995310      0.00552089
      6.01006071      0.02520885
      0.48293402     -0.26745384
      0.18405811     -0.21974973
p              7   1.000000
      1.83062075     -0.01161339
      0.10124670      0.57069956
      0.03901771      0.59601094
      5.62503919     -0.02529005
      1.45848867     -0.12648880
      0.51416239     -0.24425548
      0.20469691     -0.11652267
 
           6   0
s              4   1.000000
     34.98208599     -0.01198412
      6.02420467     -0.05472052
      0.48407055      0.58055871
      0.18449127      0.47700799
p              4   1.000000
      5.63827705      0.05713170
      1.46192105      0.28574555
      0.51537241      0.55178731
      0.20517864      0.26323149
s              7   1.000000
      0.38350848     -0.19618716
      0.04707223      0.94790425
      0.02222627      0.24893404
     34.98208599      0.00550851
      6.02420467      0.02515232
      0.48407055     -0.26685419
      0.18449127     -0.21925703
p              7   1.000000
      1.83062075     -0.01160911
      0.10124670      0.57048931
      0.03901771      0.59579135
      5.63827705     -0.02523314
      1.46192105     -0.12620412
      0.51537241     -0.24370574
      0.20517864     -0.11626042
 
           7   0
s              4   1.000000
     35.14537293     -0.01198412
      6.05232403     -0.05472053
      0.48633006      0.58055871
      0.18535242      0.47700799
p              4   1.000000
      5.66459501      0.05713170
      1.46874490      0.28574555
      0.51777803      0.55178731
      0.20613635      0.26323149
s              7   1.000000
      0.38350848     -0.19603556
      0.04707223      0.94717178
      0.02222627      0.24874170
     35.14537293      0.00548406
      6.05232403      0.02504069
      0.48633006     -0.26566982
      0.18535242     -0.21828391
p              7   1.000000
      1.83062075     -0.01160068
      0.10124670      0.57007520
      0.03901771      0.59535887
      5.66459501     -0.02512071
      1.46874490     -0.12564182
      0.51777803     -0.24261992
      0.20613635     -0.11574243
 
           8   0
s              4   1.000000
     34.98176276     -0.01198412
      6.02414901     -0.05472052
      0.48406608      0.58055871
      0.18448956      0.47700799
p              4   1.000000
      5.63822496      0.05713170
      1.46190754      0.28574555
      0.51536765      0.55178731
      0.20517674      0.26323149
s              7   1.000000
      0.38350848     -0.19618746
      0.04707223      0.94790570
      0.02222627      0.24893443
     34.98176276      0.00550856
      6.02414901      0.02515255
      0.48406608     -0.26685654
      0.18448956     -0.21925897
p              7   1.000000
      1.83062075     -0.01160912
      0.10124670      0.57049013
      0.03901771      0.59579220
      5.63822496     -0.02523336
      1.46190754     -0.12620524
      0.51536765     -0.24370790
      0.20517674     -0.11626145
 
           9   0
s              4   1.000000
     34.89961296     -0.01198412
      6.01000213     -0.05472052
      0.48292932      0.58055871
      0.18405631      0.47700800
p              4   1.000000
      5.62498437      0.05713170
      1.45847445      0.28574555
      0.51415738      0.55178731
      0.20469491      0.26323149
s              7   1.000000
      0.38350848     -0.19626445
      0.04707223      0.94827767
      0.02222627      0.24903212
     34.89961296      0.00552094
      6.01000213      0.02520908
      0.48292932     -0.26745633
      0.18405631     -0.21975178
p              7   1.000000
      1.83062075     -0.01161340
      0.10124670      0.57070043
      0.03901771      0.59601183
      5.62498437     -0.02529029
      1.45847445     -0.12648998
      0.51415738     -0.24425776
      0.20469491     -0.11652376
 
          10   0
s              4   1.000000
     35.00884556     -0.01198412
      6.02881289     -0.05472052
      0.48444084      0.58055871
      0.18463240      0.47700799
p              4   1.000000
      5.64259006      0.05713170
      1.46303934      0.28574555
      0.51576664      0.55178731
      0.20533559      0.26323149
s              7   1.000000
      0.38350848     -0.19616218
      0.04707223      0.94778358
      0.02222627      0.24890235
     35.00884556      0.00550449
      6.02881289      0.02513396
      0.48444084     -0.26665938
      0.18463240     -0.21909697
p              7   1.000000
      1.83062075     -0.01160772
      0.10124670      0.57042109
      0.03901771      0.59572010
      5.64259006     -0.02521464
      1.46303934     -0.12611163
      0.51576664     -0.24352715
      0.20533559     -0.11617522
 
          11   0
s              4   1.000000
     35.15373706     -0.01198412
      6.05376441     -0.05472053
      0.48644580      0.58055871
      0.18539654      0.47700800
p              4   1.000000
      5.66594311      0.05713170
      1.46909444      0.28574555
      0.51790125      0.55178731
      0.20618541      0.26323149
s              7   1.000000
      0.38350848     -0.19602784
      0.04707223      0.94713450
      0.02222627      0.24873190
     35.15373706      0.00548281
      6.05376441      0.02503500
      0.48644580     -0.26560943
      0.18539654     -0.21823430
p              7   1.000000
      1.83062075     -0.01160025
      0.10124670      0.57005412
      0.03901771      0.59533686
      5.66594311     -0.02511498
      1.46909444     -0.12561315
      0.51790125     -0.24256456
      0.20618541     -0.11571602
 
          12   0
s              4   1.000000
     35.33270257     -0.01198412
      6.08458375     -0.05472052
      0.48892227      0.58055871
      0.18634038      0.47700800
p              4   1.000000
      5.69478807      0.05713170
      1.47657351      0.28574555
      0.52053786      0.55178731
      0.20723509      0.26323149
s              7   1.000000
      0.38350848     -0.19586393
      0.04707223      0.94634254
      0.02222627      0.24852391
     35.33270257      0.00545627
      6.08458375      0.02491381
      0.48892227     -0.26432370
      0.18634038     -0.21717789
p              7   1.000000
      1.83062075     -0.01159114
      0.10124670      0.56960637
      0.03901771      0.59486923
      5.69478807     -0.02499292
      1.47657351     -0.12500270
      0.52053786     -0.24138575
      0.20723509     -0.11515367
 
          13   0
s              4   1.000000
     35.04372497     -0.01198412
      6.03481942     -0.05472052
      0.48492349      0.58055871
      0.18481634      0.47700800
p              4   1.000000
      5.64821178      0.05713170
      1.46449697      0.28574555
      0.51628050      0.55178731
      0.20554016      0.26323149
s              7   1.000000
      0.38350848     -0.19612971
      0.04707223      0.94762668
      0.02222627      0.24886116
     35.04372497      0.00549925
      6.03481942      0.02511007
      0.48492349     -0.26640589
      0.18481634     -0.21888869
p              7   1.000000
      1.83062075     -0.01160591
      0.10124670      0.57033239
      0.03901771      0.59562746
      5.64821178     -0.02519058
      1.46449697     -0.12599128
      0.51628050     -0.24329475
      0.20554016     -0.11606436
 
          14   0
s              4   1.000000
     73.06665269     -0.01198412
     12.58268219     -0.05472052
      1.01107220      0.58055871
      0.38534464      0.47700799
p              4   1.000000
      7.53483628      0.05713170
      1.95367053      0.28574555
      0.68872932      0.55178731
      0.27419501      0.26323149
s              7   1.000000
      0.57971233     -0.18803895
      0.07115450      0.90853510
      0.03359728      0.23859510
     73.06665269      0.00402410
     12.58268219      0.01837441
      1.01107220     -0.19494369
      0.38534464     -0.16017278
p              7   1.000000
      2.76717072     -0.01185744
      0.15304476      0.58269264
      0.05897927      0.60853590
      7.53483628     -0.02837917
      1.95367053     -0.14193910
      0.68872932     -0.27409069
      0.27419501     -0.13075564
 
          15   0
s              4   1.000000
     61.18388523     -0.01198412
     10.53637131     -0.05472052
      0.84664239      0.58055871
      0.32267637      0.47700799
p              4   1.000000
      7.21186545      0.05713170
      1.86992902      0.28574555
      0.65920784      0.55178731
      0.26244200      0.26323149
s              7   1.000000
      0.47894987     -0.18778824
      0.05878681      0.90732378
      0.02775758      0.23827700
     61.18388523      0.00397084
     10.53637131      0.01813119
      0.84664239     -0.19236325
      0.32267637     -0.15805259
p              7   1.000000
      2.28619608     -0.01156652
      0.12644335      0.56839639
      0.04872781      0.59360559
      7.21186545     -0.02466055
      1.86992902     -0.12334033
      0.65920784     -0.23817563
      0.26244200     -0.11362227
 
          16   0
s              4   1.000000
     35.47917322     -0.01198412
      6.10980721     -0.05472052
      0.49094908      0.58055871
      0.18711285      0.47700799
p              4   1.000000
      5.71839564      0.05713170
      1.48269460      0.28574555
      0.52269573      0.55178731
      0.20809418      0.26323149
s              7   1.000000
      0.38350848     -0.19573142
      0.04707223      0.94570228
      0.02222627      0.24835577
     35.47917322      0.00543474
      6.10980721      0.02481548
      0.49094908     -0.26328045
      0.18711285     -0.21632072
p              7   1.000000
      1.83062075     -0.01158377
      0.10124670      0.56924441
      0.03901771      0.59449121
      5.71839564     -0.02489389
      1.48269460     -0.12450735
      0.52269573     -0.24042921
      0.20809418     -0.11469735
 
          17   0
s              4   1.000000
     57.66212620     -0.01198412
      9.92989527     -0.05472052
      0.79790945      0.58055871
      0.30410304      0.47700799
p              4   1.000000
      6.79674876      0.05713170
      1.76229546      0.28574555
      0.62126368      0.55178731
      0.24733578      0.26323149
s              7   1.000000
      0.47894987     -0.18893896
      0.05878681      0.91288360
      0.02775758      0.23973709
     57.66212620      0.00421033
      9.92989527      0.01922473
      0.79790945     -0.20396528
      0.30410304     -0.16758523
p              7   1.000000
      2.28619608     -0.01167529
      0.12644335      0.57374140
      0.04872781      0.59918765
      6.79674876     -0.02610192
      1.76229546     -0.13054938
      0.62126368     -0.25209663
      0.24733578     -0.12026331
 
          18   0
s              4   1.000000
     35.77967805     -0.01198412
      6.16155662     -0.05472052
      0.49510737      0.58055871
      0.18869767      0.47700799
p              4   1.000000
      5.76682985      0.05713170
      1.49525287      0.28574555
      0.52712291      0.55178731
      0.20985671      0.26323149
s              7   1.000000
      0.38350848     -0.19546406
      0.04707223      0.94441051
      0.02222627      0.24801655
     35.77967805      0.00539107
      6.16155662      0.02461610
      0.49510737     -0.26116512
      0.18869767     -0.21458269
p              7   1.000000
      1.83062075     -0.01156891
      0.10124670      0.56851412
      0.03901771      0.59372858
      5.76682985     -0.02469306
      1.49525287     -0.12350290
      0.52712291     -0.23848958
      0.20985671     -0.11377204
 
          19   0
s              4   1.000000
     34.96895807     -0.01198412
      6.02194394     -0.05472052
      0.48388889      0.58055871
      0.18442203      0.47700799
p              4   1.000000
      5.63616114      0.05713170
      1.46137242      0.28574555
      0.51517900      0.55178731
      0.20510164      0.26323149
s              7   1.000000
      0.38350848     -0.19619943
      0.04707223      0.94796353
      0.02222627      0.24894961
     34.96895807      0.00551048
      6.02194394      0.02516134
      0.48388889     -0.26694986
      0.18442203     -0.21933564
p              7   1.000000
      1.83062075     -0.01160979
      0.10124670      0.57052283
      0.03901771      0.59582634
      5.63616114     -0.02524222
      1.46137242     -0.12624954
      0.51517900     -0.24379345
      0.20510164     -0.11630226
 
          20   0
s              4   1.000000
     35.11234200     -0.01198412
      6.04663583     -0.05472053
      0.48587299      0.58055871
      0.18517822      0.47700799
p              4   1.000000
      5.65927121      0.05713170
      1.46736452      0.28574555
      0.51729140      0.55178731
      0.20594262      0.26323149
s              7   1.000000
      0.38350848     -0.19606607
      0.04707223      0.94731921
      0.02222627      0.24878040
     35.11234200      0.00548899
      6.04663583      0.02506320
      0.48587299     -0.26590857
      0.18517822     -0.21848008
p              7   1.000000
      1.83062075     -0.01160238
      0.10124670      0.57015856
      0.03901771      0.59544593
      5.65927121     -0.02514337
      1.46736452     -0.12575518
      0.51729140     -0.24283881
      0.20594262     -0.11584685
 
          21   0
s              4   1.000000
     34.95047254     -0.01198412
      6.01876057     -0.05472053
      0.48363309      0.58055871
      0.18432454      0.47700799
p              4   1.000000
      5.63318172      0.05713170
      1.46059990      0.28574555
      0.51490666      0.55178731
      0.20499322      0.26323149
s              7   1.000000
      0.38350848     -0.19621673
      0.04707223      0.94804711
      0.02222627      0.24897157
     34.95047254      0.00551327
      6.01876057      0.02517405
      0.48363309     -0.26708469
      0.18432454     -0.21944642
p              7   1.000000
      1.83062075     -0.01161075
      0.10124670      0.57057008
      0.03901771      0.59587570
      5.63318172     -0.02525501
      1.46059990     -0.12631355
      0.51490666     -0.24391705
      0.20499322     -0.11636123
 
          22   0
s              4   1.000000
      8.63176214     -0.03295496
      2.43135540     -0.17245169
      0.43597983      0.75185111
      0.21450386      0.35896273
p              4   1.000000
     10.93586220     -0.01434249
      1.13011156      0.27551776
      0.51077182      0.58467508
      0.24691837      0.21449865
s              7   1.000000
      0.19149958     -0.34504619
      0.03755940      1.08874429
      0.01853657      0.12947152
      8.63176214      0.00817121
      2.43135540      0.04275954
      0.43597983     -0.18642210
      0.21450386     -0.08900510
p              7   1.000000
      0.41034134     -0.06319548
      0.06273906      0.67886436
      0.03084798      0.40424882
     10.93586220      0.00341355
      1.13011156     -0.06557399
      0.51077182     -0.13915429
      0.24691837     -0.05105127
 
          23   0
s              4   1.000000
     35.21844805     -0.01198412
      6.06490818     -0.05472053
      0.48734125      0.58055871
      0.18573781      0.47700799
p              4   1.000000
      5.67637297      0.05713170
      1.47179875      0.28574555
      0.51885460      0.55178731
      0.20656496      0.26323149
s              7   1.000000
      0.38350848     -0.19596832
      0.04707223      0.94684689
      0.02222627      0.24865636
     35.21844805      0.00547319
      6.06490818      0.02499105
      0.48734125     -0.26514312
      0.18573781     -0.21785116
p              7   1.000000
      1.83062075     -0.01159694
      0.10124670      0.56989152
      0.03901771      0.59516703
      5.67637297     -0.02507071
      1.47179875     -0.12539176
      0.51885460     -0.24213703
      0.20656496     -0.11551207
 
          24   0
s              4   1.000000
     35.19368345     -0.01198412
      6.06064350     -0.05472053
      0.48699856      0.58055871
      0.18560721      0.47700799
p              4   1.000000
      5.67238151      0.05713170
      1.47076382      0.28574555
      0.51848976      0.55178731
      0.20641971      0.26323149
s              7   1.000000
      0.38350848     -0.19599106
      0.04707223      0.94695680
      0.02222627      0.24868522
     35.19368345      0.00547687
      6.06064350      0.02500785
      0.48699856     -0.26532139
      0.18560721     -0.21799763
p              7   1.000000
      1.83062075     -0.01159821
      0.10124670      0.56995365
      0.03901771      0.59523192
      5.67238151     -0.02508763
      1.47076382     -0.12547639
      0.51848976     -0.24230047
      0.20641971     -0.11559004
 
          25   0
s              4   1.000000
     12.38693884     -0.03295496
      3.48909644     -0.17245169
      0.62564925      0.75185111
      0.30782198      0.35896273
p              4   1.000000
      7.15266618     -0.01434249
      0.73915624      0.27551776
      0.33407337      0.58467508
      0.16149844      0.21449865
s              7   1.000000
      0.16124732     -0.33754039
      0.03162593      1.06506080
      0.01560824      0.12665510
     12.38693884      0.00414252
      3.48909644      0.02167761
      0.62564925     -0.09450957
      0.30782198     -0.04512251
p              7   1.000000
      0.34551743     -0.06456941
      0.05282782      0.69362353
      0.02597475      0.41303761
      7.15266618      0.00460503
      0.73915624     -0.08846213
      0.33407337     -0.18772513
      0.16149844     -0.06887036
 
          26   0
s              4   1.000000
      8.30941816      0.05675242
      1.52052115      0.26014135
      0.42241742      0.53284611
      0.14019655      0.29162544
s              7   1.000000
      0.92936822     -0.06732782
      0.05643440      0.66944937
      0.02166600      0.51461000
      8.30941816     -0.02902145
      1.52052115     -0.13302834
      0.42241742     -0.27248121
      0.14019655     -0.14912833
p              4   1.000000
      0.64737396      0.05713170
      0.16785440      0.28574555
      0.05917387      0.55178731
      0.02355814      0.26323150
 
          27   0
s              4   1.000000
      8.30897659      0.05675242
      1.52044035      0.26014135
      0.42239498      0.53284611
      0.14018910      0.29162544
s              7   1.000000
      0.92936822     -0.06732839
      0.05643440      0.66945502
      0.02166600      0.51461435
      8.30897659     -0.02902263
      1.52044035     -0.13303375
      0.42239498     -0.27249230
      0.14018910     -0.14913440
p              4   1.000000
      0.64737396      0.05713170
      0.16785440      0.28574555
      0.05917387      0.55178731
      0.02355814      0.26323150
 
          28   0
s              4   1.000000
      8.30907715      0.05675242
      1.52045875      0.26014135
      0.42240009      0.53284611
      0.14019079      0.29162544
s              7   1.000000
      0.92936822     -0.06732826
      0.05643440      0.66945373
      0.02166600      0.51461335
      8.30907715     -0.02902236
      1.52045875     -0.13303252
      0.42240009     -0.27248978
      0.14019079     -0.14913302
p              4   1.000000
      0.64737396      0.05713170
      0.16785440      0.28574555
      0.05917387      0.55178731
      0.02355814      0.26323150
 
          29   0
s              4   1.000000
      8.30906972      0.05675242
      1.52045739      0.26014135
      0.42239971      0.53284611
      0.14019067      0.29162544
s              7   1.000000
      0.92936822     -0.06732827
      0.05643440      0.66945383
      0.02166600      0.51461343
      8.30906972     -0.02902238
      1.52045739     -0.13303261
      0.42239971     -0.27248996
      0.14019067     -0.14913313
p              4   1.000000
      0.64737396      0.05713170
      0.16785440      0.28574555
      0.05917387      0.55178731
      0.02355814      0.26323150
 
          30   0
s              4   1.000000
      8.30897335      0.05675242
      1.52043975      0.26014135
      0.42239481      0.53284611
      0.14018904      0.29162544
s              7   1.000000
      0.92936822     -0.06732839
      0.05643440      0.66945507
      0.02166600      0.51461437
      8.30897335     -0.02902264
      1.52043975     -0.13303379
      0.42239481     -0.27249238
      0.14018904     -0.14913445
p              4   1.000000
      0.64737396      0.05713170
      0.16785440      0.28574555
      0.05917387      0.55178731
      0.02355814      0.26323150
 
          31   0
s              4   1.000000
      8.30943541      0.05675242
      1.52052430      0.26014135
      0.42241830      0.53284611
      0.14019684      0.29162544
s              7   1.000000
      0.92936822     -0.06732780
      0.05643440      0.66944915
      0.02166600      0.51460985
      8.30943541     -0.02902141
      1.52052430     -0.13302812
      0.42241830     -0.27248078
      0.14019684     -0.14912810
p              4   1.000000
      0.64737396      0.05713170
      0.16785440      0.28574555
      0.05917387      0.55178731
      0.02355814      0.26323150
 
          32   0
s              4   1.000000
      8.30914006      0.05675242
      1.52047026      0.26014135
      0.42240329      0.53284611
      0.14019185      0.29162544
s              7   1.000000
      0.92936822     -0.06732818
      0.05643440      0.66945293
      0.02166600      0.51461276
      8.30914006     -0.02902220
      1.52047026     -0.13303175
      0.42240329     -0.27248819
      0.14019185     -0.14913215
p              4   1.000000
      0.64737396      0.05713170
      0.16785440      0.28574555
      0.05917387      0.55178731
      0.02355814      0.26323150
 
          33   0
s              4   1.000000
      8.31019741      0.05675242
      1.52066374      0.26014135
      0.42245704      0.53284611
      0.14020969      0.29162544
s              7   1.000000
      0.92936822     -0.06732682
      0.05643440      0.66943941
      0.02166600      0.51460235
      8.31019741     -0.02901937
      1.52066374     -0.13301878
      0.42245704     -0.27246164
      0.14020969     -0.14911762
p              4   1.000000
      0.64737396      0.05713170
      0.16785440      0.28574555
      0.05917387      0.55178731
      0.02355814      0.26323150
 
          34   0
s              4   1.000000
      8.31051923      0.05675242
      1.52072263      0.26014135
      0.42247340      0.53284611
      0.14021512      0.29162544
s              7   1.000000
      0.92936822     -0.06732640
      0.05643440      0.66943529
      0.02166600      0.51459919
      8.31051923     -0.02901851
      1.52072263     -0.13301484
      0.42247340     -0.27245356
      0.14021512     -0.14911320
p              4   1.000000
      0.64737396      0.05713170
      0.16785440      0.28574555
      0.05917387      0.55178731
      0.02355814      0.26323150
 
 [MO]
 Sym= Hole
 Ene= -0.9411711    
 Spin= Alpha
 Occup= 0
           1 -6.1318139E-03
           2 -1.0461235E-02
           3 -2.7863406E-02
           4  0.1009677    
           5  4.8662275E-03
           6  1.6033708E-03
           7  4.0543289E-03
           8 -8.8154124E-03
           9  5.2231303E-03
          10 -1.5448354E-02
          11 -1.3796332E-03
          12 -9.1336645E-02
          13  2.6368487E-03
          14  3.3637148E-03
          15 -4.2589214E-03
          16 -2.6622945E-03
          17  1.9803917E-04
          18  2.7394231E-02
          19  4.0502455E-03
          20  0.1625417    
          21 -4.5187990E-04
          22 -4.0051951E-03
          23 -7.0437923E-04
          24 -6.8086428E-03
          25 -2.0946807E-03
          26 -1.4335170E-02
          27 -4.7514588E-03
          28 -7.8454189E-02
          29  1.3436042E-03
          30  5.1724032E-04
          31 -6.8166043E-04
          32 -2.0591617E-03
          33  1.2380467E-03
          34 -1.5092338E-02
          35 -1.2583491E-02
          36 -0.2498744    
          37 -2.2523905E-06
          38 -2.7922553E-04
          39 -7.6928647E-04
          40 -5.7631228E-03
          41 -3.8382893E-03
          42 -1.8084208E-02
          43 -1.1511781E-02
          44 -0.1237920    
          45  1.4017416E-03
          46 -8.6497120E-04
          47 -1.6220361E-04
          48 -1.5566931E-03
          49  6.4186375E-03
          50  3.6808200E-02
          51  1.2099558E-02
          52  0.1901613    
          53  1.4187339E-04
          54  4.0834397E-03
          55  2.5177766E-03
          56  2.5418913E-03
          57 -6.4959022E-05
          58 -2.8932143E-03
          59  2.0741054E-03
          60  9.2722904E-03
          61  7.2328560E-04
          62  1.4322676E-03
          63  9.6167329E-05
          64 -1.6780157E-03
          65  3.9635277E-03
          66 -2.4999413E-03
          67 -1.1035624E-02
          68 -0.1674595    
          69 -3.5139048E-04
          70  1.4648356E-03
          71 -2.6349227E-03
          72 -6.7305244E-03
          73 -1.0282833E-03
          74 -2.6500704E-02
          75 -1.7792700E-03
          76 -0.1700069    
          77 -2.1396528E-03
          78 -4.1528447E-03
          79 -2.1535154E-03
          80 -9.8234275E-04
          81  2.4510726E-02
          82  6.3748874E-02
          83  6.9183423E-03
          84  1.3417754E-02
          85 -1.2829245E-02
          86 -9.9230243E-04
          87 -7.4165640E-04
          88 -4.2421971E-03
          89 -5.9994031E-03
          90  1.0522132E-02
          91  6.2714643E-03
          92  0.3412077    
          93  1.8238885E-04
          94 -4.3519228E-03
          95  7.5430784E-04
          96 -2.5594800E-03
          97  1.4695887E-02
          98 -3.7281107E-02
          99 -2.2564262E-02
         100 -9.2888862E-02
         101 -6.7881974E-03
         102 -4.2411443E-03
         103  3.2880080E-03
         104 -5.4311254E-03
         105  5.4834043E-03
         106  0.1286661    
         107 -1.0025901E-02
         108  0.1477154    
         109 -6.0534752E-03
         110 -1.1819930E-02
         111  3.1261144E-03
         112 -9.1457674E-03
         113 -2.4570160E-02
         114  5.7405572E-02
         115 -5.7045817E-02
         116 -0.3526711    
         117  7.7448045E-03
         118 -3.2674838E-03
         119  1.0650469E-02
         120  2.1205604E-02
         121  1.1322851E-02
         122 -2.8700525E-02
         123 -2.6416188E-02
         124  0.2504248    
         125 -6.2188292E-03
         126  1.8222397E-03
         127 -4.2572957E-03
         128 -7.3662056E-03
         129 -3.8131896E-02
         130  1.8961115E-02
         131 -0.1295751    
         132  0.2130619    
         133  1.7171696E-02
         134 -8.0006551E-03
         135  1.2559757E-02
         136 -6.1340462E-03
         137  1.4491973E-02
         138 -1.1981492E-02
         139  5.7281133E-02
         140 -0.2531199    
         141 -7.9935845E-03
         142  3.6665646E-03
         143 -6.4949892E-03
         144  1.5493493E-02
         145  3.2591331E-03
         146 -9.6513104E-05
         147  2.9259007E-02
         148 -0.1504887    
         149 -4.8116236E-03
         150  3.4933423E-03
         151  2.7679218E-04
         152  1.3437551E-03
         153 -1.2585404E-04
         154 -4.2830026E-03
         155 -3.1408250E-02
         156  0.1517643    
         157  6.2229214E-05
         158 -1.6469342E-03
         159  5.1482324E-04
         160 -5.1596025E-03
         161  2.0785788E-03
         162 -7.2563225E-03
         163 -4.8214991E-02
         164  0.2166107    
         165 -2.0963438E-04
         166  3.6300492E-04
         167  5.0978693E-03
         168 -1.6497746E-02
         169 -8.4993953E-05
         170  3.5601065E-03
         171  1.8393239E-02
         172 -9.1545865E-02
         173  9.4401425E-05
         174 -1.2394661E-04
         175 -2.8704507E-03
         176  1.3536044E-02
         177 -4.9153197E-04
         178  1.3795180E-03
         179  9.4067957E-03
         180 -3.4599401E-02
         181  2.7418868E-03
         182 -2.1140452E-03
         183  2.1789211E-03
         184 -2.3793646E-03
         185 -9.6901711E-03
         186  1.1366867E-02
         187  4.0043894E-02
         188 -0.2569748    
         189  4.2238594E-03
         190 -2.0211975E-03
         191 -4.4966252E-03
         192  1.4189161E-02
         193  9.4212554E-03
         194  3.2515638E-02
         195 -0.1066395    
         196  0.1834608    
         197 -5.3276238E-04
         198 -1.8181372E-03
         199  4.8542321E-03
         200 -3.5244809E-03
         201 -4.8149275E-03
         202  8.5509231E-04
         203  4.0665269E-03
         204  1.2196172E-03
         205  1.1603524E-02
         206 -3.9194827E-03
         207 -1.1532789E-04
         208  2.3320889E-04
         209  1.8319601E-04
         210  5.7338499E-03
         211  9.6548162E-03
         212 -6.6996581E-05
         213 -5.9152878E-04
         214  5.7842769E-04
         215 -2.6735046E-04
         216  7.1639996E-03
         217  7.8785386E-05
         218  1.0028962E-04
         219 -3.7161965E-04
         220  9.3295804E-04
         221 -8.8694189E-03
         222  1.9201764E-04
         223 -5.6573737E-04
         224 -2.8659680E-04
         225  5.9611592E-03
         226 -9.6740089E-03
         227  9.3299762E-04
         228 -2.6126367E-03
         229  1.1843522E-03
         230  1.4533802E-02
         231 -3.0535462E-03
         232  4.7646664E-04
         233  1.8562131E-03
         234  2.2421406E-04
         235 -9.9806045E-04
         236  2.1845286E-04
         237  3.5422010E-04
         238 -7.3234655E-04
         239 -1.9015748E-03
         240  5.9306850E-03
         241 -5.0065983E-03
         242  1.9515092E-03
         243 -1.0271764E-03
         244 -6.5917819E-04
         245  7.5724506E-04
 Sym= Particle
 Ene= -0.9411711    
 Spin= Alpha
 Occup= 2
           1  1.3951407E-03
           2 -1.4681117E-02
           3  1.0236610E-02
           4 -0.2635835    
           5  3.1774834E-05
           6  4.6035075E-03
           7 -1.7151515E-03
           8  6.0578514E-02
           9 -5.3190514E-03
          10  1.6006621E-02
          11 -1.0816496E-02
          12  0.3250298    
          13  2.6810912E-03
          14 -5.4169823E-03
          15  5.0292700E-03
          16 -0.1088494    
          17  1.1778177E-03
          18  2.4313625E-02
          19  1.4270710E-02
          20  0.2652063    
          21 -5.6269369E-04
          22 -4.5000790E-03
          23 -2.6481140E-03
          24 -5.5061929E-02
          25 -1.0357383E-03
          26 -3.1451106E-02
          27 -2.1323161E-02
          28 -0.3492862    
          29  2.7050127E-04
          30  5.8660628E-03
          31  5.5428986E-03
          32  6.5083116E-02
          33  4.0112788E-04
          34 -8.5871313E-03
          35 -4.8024133E-03
          36 -0.1028170    
          37  9.5293341E-05
          38  2.4047808E-03
          39  1.0755849E-03
          40  1.7692301E-02
          41 -4.0183833E-04
          42  2.9671289E-02
          43  1.4975214E-02
          44  0.3413289    
          45  5.2913144E-04
          46 -3.5285247E-03
          47 -1.4037600E-03
          48 -4.7006536E-02
          49  6.3407933E-04
          50  3.2615650E-04
          51  4.7297878E-04
          52 -6.9077159E-03
          53 -2.7236858E-04
          54  2.3896042E-04
          55 -6.3365116E-04
          56  1.4964619E-03
          57  2.8846314E-04
          58 -3.0653181E-02
          59 -2.2474587E-02
          60 -0.3394153    
          61 -1.1978462E-04
          62  4.7154566E-03
          63  3.7035544E-03
          64  4.7984231E-02
          65 -4.5380538E-04
          66  1.0161404E-02
          67  8.0479290E-03
          68  0.1194691    
          69 -1.7913054E-04
          70 -2.1658971E-03
          71 -1.4360376E-03
          72 -2.2019776E-02
          73  2.6207857E-03
          74  3.3788998E-02
          75  1.7525202E-02
          76  0.3315335    
          77 -2.7896366E-03
          78 -7.2065289E-03
          79 -1.6705164E-03
          80 -5.7989955E-02
          81 -1.6856126E-05
          82 -2.4365414E-02
          83 -1.7127195E-02
          84 -0.2632978    
          85 -2.2347607E-03
          86  1.4575383E-03
          87  2.9071565E-03
          88  5.4982964E-02
          89 -1.3740998E-03
          90 -6.6529762E-04
          91 -7.0339902E-03
          92  1.3797749E-03
          93  4.8738226E-04
          94 -1.0111713E-04
          95 -1.9546019E-04
          96 -9.0822671E-04
          97  2.7411233E-03
          98 -2.6053036E-02
          99 -6.3072689E-02
         100 -0.3033511    
         101 -3.6236928E-03
         102  7.9171052E-03
         103  2.3322707E-02
         104  9.8390497E-02
         105 -8.7071536E-04
         106  2.4834186E-02
         107  5.8456704E-02
         108  0.2589064    
         109 -6.7775743E-04
         110 -6.9496892E-03
         111 -1.3343894E-02
         112 -5.7112534E-02
         113  2.2472050E-03
         114  5.8774499E-04
         115  7.1896650E-03
         116 -2.2136493E-02
         117 -2.2051192E-03
         118  2.8004954E-04
         119 -8.8952500E-03
         120  4.5844689E-03
         121  2.0973578E-03
         122  8.4642117E-04
         123  9.5246627E-04
         124 -6.0009807E-03
         125 -2.3107806E-03
         126  1.0553113E-03
         127 -4.3450767E-04
         128  3.4205357E-03
         129 -3.9994186E-03
         130  1.4764129E-03
         131 -7.6956819E-03
         132  9.5003909E-03
         133  5.1429407E-03
         134 -6.8410407E-03
         135  8.9259036E-03
         136  6.2551401E-03
         137  6.2896672E-04
         138 -1.1538519E-03
         139  8.3300396E-04
         140 -2.3608860E-03
         141  6.6072063E-04
         142 -1.3407888E-03
         143 -5.7564437E-04
         144  2.3823744E-03
         145  3.6265777E-04
         146 -1.4565668E-04
         147  2.0974600E-03
         148 -1.5358145E-02
         149  8.5915998E-04
         150 -2.1513831E-04
         151 -1.7699421E-03
         152  3.0322128E-03
         153 -1.9499605E-05
         154 -4.6455060E-04
         155 -1.9027280E-03
         156  1.1412838E-02
         157  4.6266025E-04
         158  1.2513631E-04
         159 -9.3058072E-05
         160 -3.4693829E-03
         161  2.3446562E-04
         162 -5.8166549E-04
         163 -2.5349804E-03
         164  9.8443441E-03
         165  7.2170241E-04
         166 -5.8222300E-04
         167  5.4348010E-04
         168 -2.9092943E-03
         169 -1.0774464E-04
         170  2.8604158E-04
         171  4.9429707E-04
         172 -2.4827044E-03
         173  6.0394785E-04
         174 -4.6137164E-04
         175 -2.4221079E-04
         176  2.1043627E-03
         177  5.7847097E-05
         178  2.2281730E-04
         179  3.4002229E-03
         180 -1.6185062E-02
         181  7.5792242E-04
         182 -1.4279357E-03
         183 -4.3788899E-04
         184  4.8385081E-03
         185  4.3181071E-04
         186 -1.8910976E-03
         187 -3.0027665E-03
         188  2.8883360E-06
         189 -3.6452856E-04
         190  6.9771061E-04
         191  1.6076785E-05
         192  1.1812900E-03
         193 -3.0542032E-03
         194  8.8739279E-04
         195 -7.1028289E-03
         196  2.3908321E-02
         197  1.0252296E-03
         198 -1.5286392E-03
         199 -1.5889775E-04
         200 -2.2108018E-02
         201  4.3553329E-04
         202 -3.4192466E-04
         203 -9.0819551E-03
         204 -2.6861175E-03
         205 -6.6193350E-02
         206 -1.4277955E-03
         207  6.1963010E-04
         208 -6.3268800E-04
         209 -5.3470954E-04
         210 -1.0768727E-02
         211  2.8541029E-04
         212  1.5414771E-04
         213  3.9734859E-03
         214  2.4583333E-03
         215  4.8554532E-02
         216 -8.5905507E-05
         217  3.2780008E-04
         218 -4.2954036E-03
         219 -3.1099571E-03
         220 -4.9618874E-02
         221  1.4839190E-03
         222 -2.1915192E-04
         223  1.2035428E-03
         224  7.6414185E-04
         225  1.4446355E-02
         226 -8.9459890E-04
         227  2.0941254E-04
         228  1.0589921E-02
         229  4.5177573E-03
         230  6.3586295E-02
         231 -9.3395979E-04
         232  1.6920123E-03
         233 -2.4792061E-03
         234  9.3775307E-05
         235 -1.9999538E-03
         236  1.8417976E-04
         237  4.2929198E-04
         238  2.6600546E-06
         239 -8.6387539E-05
         240  1.6088928E-03
         241 -1.3906865E-03
         242  1.4285481E-03
         243 -1.0531151E-03
         244  1.0643548E-03
         245 -7.9330761E-04
