 [Molden Format]
 [Atoms] Angs
C       1      6     -0.00159760     -2.20032284      2.30303131
C       2      6      1.20009695     -1.71881410      1.81754048
C       3      6      1.20414259     -0.74567144      0.82103439
N       4      7      2.41912090     -0.27235865      0.30959634
C       5      6      2.78594116      1.05242657      0.17341935
C       6      6      2.10307783      2.20194045      0.54141316
C       7      6      2.71571266      3.41957768      0.31657367
C       8      6      3.98504245      3.49998707     -0.25130929
C       9      6      4.68193066      2.35890944     -0.59487145
C      10      6      4.08500952      1.12382450     -0.37936997
C      11      6      4.51431943     -0.23043815     -0.58932083
C      12      6      5.67057669     -0.79511796     -1.11129820
C      13      6      5.75553999     -2.17036434     -1.19485234
C      14      6      4.69982381     -2.97927296     -0.78054435
C      15      6      3.53958982     -2.44071669     -0.25786877
C      16      6      3.45850695     -1.06012205     -0.14790296
C      17      6      0.00064908     -0.26121850      0.32097534
C      18      6     -1.20402440     -0.74435497      0.81946921
N      19      7     -2.41795899     -0.27027820      0.30638973
C      20      6     -2.78375873      1.05470641      0.16889536
C      21      6     -2.09917698      2.20420853      0.53373055
C      22      6     -2.71090311      3.42207756      0.30762980
C      23      6     -3.98098388      3.50280360     -0.25849865
C      24      6     -4.67961324      2.36181309     -0.59879264
C      25      6     -4.08368369      1.12650278     -0.38185382
C      26      6     -4.51479840     -0.22764421     -0.58877736
C      27      6     -5.67280969     -0.79196303     -1.10727909
C      28      6     -5.75937946     -2.16724148     -1.18844333
C      29      6     -4.70339158     -2.97655794     -0.77559822
C      30      6     -3.54149642     -2.43835287     -0.25629437
C      31      6     -3.45900006     -1.05768445     -0.14806188
C      32      6     -1.20213147     -1.71721678      1.81631085
H      33      1     -0.00253080     -2.94998044      3.08003405
H      34      1      2.13677495     -2.07957395      2.21359493
H      35      1      1.12952659      2.15010942      1.00361512
H      36      1      2.20064797      4.32826470      0.59124323
H      37      1      4.43003080      4.47039823     -0.41336014
H      38      1      5.67310216      2.41979158     -1.01831773
H      39      1      6.48151724     -0.16687249     -1.44761116
H      40      1      6.64685866     -2.63009782     -1.59510802
H      41      1      4.78836156     -4.05172068     -0.87313595
H      42      1      2.72040857     -3.07625375      0.04323023
H      43      1      0.00166297      0.46684796     -0.47617389
H      44      1     -1.12489792      2.15235129      0.99433990
H      45      1     -2.19443233      4.33070967      0.57982579
H      46      1     -4.42514415      4.47337418     -0.42185423
H      47      1     -5.67133132      2.42296048     -1.02092212
H      48      1     -6.48390922     -0.16339981     -1.44260902
H      49      1     -6.65213503     -2.62670930     -1.58579490
H      50      1     -4.79307131     -4.04903620     -0.86670485
H      51      1     -2.72212928     -3.07422188      0.04358934
H      52      1     -2.13965991     -2.07667299      2.21153670
 [GTO]
           1   0
s              4   1.000000
     34.92144499     -0.01198412
      6.01376179     -0.05472052
      0.48323142      0.58055871
      0.18417146      0.47700799
p              4   1.000000
      5.62850317      0.05713170
      1.45938682      0.28574555
      0.51447902      0.55178731
      0.20482296      0.26323149
s              7   1.000000
      0.38350848     -0.19624394
      0.04707223      0.94817860
      0.02222627      0.24900609
     34.92144499      0.00551764
      6.01376179      0.02519403
      0.48323142     -0.26729667
      0.18417146     -0.21962060
p              7   1.000000
      1.83062075     -0.01161226
      0.10124670      0.57064442
      0.03901771      0.59595333
      5.62850317     -0.02527514
      1.45938682     -0.12641419
      0.51447902     -0.24411139
      0.20482296     -0.11645394
 
           2   0
s              4   1.000000
     35.01032737     -0.01198412
      6.02906807     -0.05472052
      0.48446134      0.58055871
      0.18464021      0.47700800
p              4   1.000000
      5.64282889      0.05713170
      1.46310127      0.28574555
      0.51578847      0.55178731
      0.20534428      0.26323149
s              7   1.000000
      0.38350848     -0.19616080
      0.04707223      0.94777690
      0.02222627      0.24890060
     35.01032737      0.00550426
      6.02906807      0.02513295
      0.48446134     -0.26664860
      0.18464021     -0.21908812
p              7   1.000000
      1.83062075     -0.01160764
      0.10124670      0.57041732
      0.03901771      0.59571618
      5.64282889     -0.02521362
      1.46310127     -0.12610652
      0.51578847     -0.24351727
      0.20534428     -0.11617051
 
           3   0
s              4   1.000000
     35.13228087     -0.01198412
      6.05006947     -0.05472052
      0.48614890      0.58055871
      0.18528338      0.47700799
p              4   1.000000
      5.66248488      0.05713170
      1.46819777      0.28574555
      0.51758515      0.55178731
      0.20605957      0.26323149
s              7   1.000000
      0.38350848     -0.19604764
      0.04707223      0.94723016
      0.02222627      0.24875703
     35.13228087      0.00548601
      6.05006947      0.02504961
      0.48614890     -0.26576440
      0.18528338     -0.21836163
p              7   1.000000
      1.83062075     -0.01160135
      0.10124670      0.57010821
      0.03901771      0.59539334
      5.66248488     -0.02512969
      1.46819777     -0.12568673
      0.51758515     -0.24270664
      0.20605957     -0.11578380
 
           4   0
s              4   1.000000
     61.42777601     -0.01198412
     10.57837132     -0.05472053
      0.85001727      0.58055871
      0.32396262      0.47700799
p              4   1.000000
      7.24061334      0.05713170
      1.87738292      0.28574555
      0.66183557      0.55178731
      0.26348815      0.26323149
s              7   1.000000
      0.47894987     -0.18771520
      0.05878681      0.90697086
      0.02775758      0.23818432
     61.42777601      0.00395520
     10.57837132      0.01805977
      0.85001727     -0.19160555
      0.32396262     -0.15743004
p              7   1.000000
      2.28619608     -0.01155960
      0.12644335      0.56805627
      0.04872781      0.59325037
      7.24061334     -0.02456644
      1.87738292     -0.12286963
      0.66183557     -0.23726669
      0.26348815     -0.11318866
 
           5   0
s              4   1.000000
     35.62321957     -0.01198412
      6.13461318     -0.05472053
      0.49294234      0.58055871
      0.18787253      0.47700799
p              4   1.000000
      5.74161248      0.05713170
      1.48871438      0.28574555
      0.52481789      0.55178731
      0.20893904      0.26323149
s              7   1.000000
      0.38350848     -0.19560251
      0.04707223      0.94507944
      0.02222627      0.24819222
     35.62321957      0.00541372
      6.13461318      0.02471952
      0.49294234     -0.26226231
      0.18787253     -0.21548417
p              7   1.000000
      1.83062075     -0.01157661
      0.10124670      0.56889230
      0.03901771      0.59412351
      5.74161248     -0.02479723
      1.48871438     -0.12402391
      0.52481789     -0.23949565
      0.20893904     -0.11425199
 
           6   0
s              4   1.000000
     34.94508461     -0.01198412
      6.01783273     -0.05472053
      0.48355854      0.58055871
      0.18429613      0.47700800
p              4   1.000000
      5.63231331      0.05713170
      1.46037474      0.28574555
      0.51482729      0.55178731
      0.20496161      0.26323149
s              7   1.000000
      0.38350848     -0.19622177
      0.04707223      0.94807149
      0.02222627      0.24897796
     34.94508461      0.00551408
      6.01783273      0.02517776
      0.48355854     -0.26712401
      0.18429613     -0.21947873
p              7   1.000000
      1.83062075     -0.01161103
      0.10124670      0.57058387
      0.03901771      0.59589010
      5.63231331     -0.02525875
      1.46037474     -0.12633222
      0.51482729     -0.24395310
      0.20496161     -0.11637843
 
           7   0
s              4   1.000000
     34.93525327     -0.01198412
      6.01613969     -0.05472052
      0.48342249      0.58055871
      0.18424428      0.47700799
p              4   1.000000
      5.63072874      0.05713170
      1.45996388      0.28574555
      0.51468245      0.55178731
      0.20490395      0.26323149
s              7   1.000000
      0.38350848     -0.19623099
      0.04707223      0.94811601
      0.02222627      0.24898966
     34.93525327      0.00551556
      6.01613969      0.02518452
      0.48342249     -0.26719579
      0.18424428     -0.21953771
p              7   1.000000
      1.83062075     -0.01161154
      0.10124670      0.57060904
      0.03901771      0.59591639
      5.63072874     -0.02526556
      1.45996388     -0.12636629
      0.51468245     -0.24401891
      0.20490395     -0.11640982
 
           8   0
s              4   1.000000
     34.92267766     -0.01198412
      6.01397407     -0.05472052
      0.48324848      0.58055871
      0.18417796      0.47700800
p              4   1.000000
      5.62870185      0.05713170
      1.45943834      0.28574555
      0.51449718      0.55178731
      0.20483019      0.26323149
s              7   1.000000
      0.38350848     -0.19624278
      0.04707223      0.94817300
      0.02222627      0.24900463
     34.92267766      0.00551746
      6.01397407      0.02519318
      0.48324848     -0.26728766
      0.18417796     -0.21961319
p              7   1.000000
      1.83062075     -0.01161220
      0.10124670      0.57064126
      0.03901771      0.59595001
      5.62870185     -0.02527428
      1.45943834     -0.12640991
      0.51449718     -0.24410313
      0.20483019     -0.11645000
 
           9   0
s              4   1.000000
     34.93806000     -0.01198412
      6.01662303     -0.05472052
      0.48346133      0.58055871
      0.18425908      0.47700800
p              4   1.000000
      5.63118111      0.05713170
      1.46008118      0.28574555
      0.51472380      0.55178731
      0.20492041      0.26323149
s              7   1.000000
      0.38350848     -0.19622835
      0.04707223      0.94810330
      0.02222627      0.24898632
     34.93806000      0.00551514
      6.01662303      0.02518259
      0.48346133     -0.26717529
      0.18425908     -0.21952086
p              7   1.000000
      1.83062075     -0.01161140
      0.10124670      0.57060186
      0.03901771      0.59590887
      5.63118111     -0.02526362
      1.46008118     -0.12635656
      0.51472380     -0.24400012
      0.20492041     -0.11640086
 
          10   0
s              4   1.000000
     35.41901992     -0.01198412
      6.09944831     -0.05472053
      0.49011670      0.58055871
      0.18679561      0.47700799
p              4   1.000000
      5.70870037      0.05713170
      1.48018076      0.28574555
      0.52180952      0.55178731
      0.20774136      0.26323149
s              7   1.000000
      0.38350848     -0.19578566
      0.04707223      0.94596437
      0.02222627      0.24842461
     35.41901992      0.00544356
      6.09944831      0.02485577
      0.49011670     -0.26370792
      0.18679561     -0.21667194
p              7   1.000000
      1.83062075     -0.01158679
      0.10124670      0.56939259
      0.03901771      0.59464596
      5.70870037     -0.02493447
      1.48018076     -0.12471032
      0.52180952     -0.24082116
      0.20774136     -0.11488433
 
          11   0
s              4   1.000000
     35.41864245     -0.01198412
      6.09938331     -0.05472053
      0.49011147      0.58055871
      0.18679361      0.47700799
p              4   1.000000
      5.70863953      0.05713170
      1.48016499      0.28574555
      0.52180396      0.55178731
      0.20773915      0.26323149
s              7   1.000000
      0.38350848     -0.19578600
      0.04707223      0.94596602
      0.02222627      0.24842504
     35.41864245      0.00544362
      6.09938331      0.02485603
      0.49011147     -0.26371061
      0.18679361     -0.21667416
p              7   1.000000
      1.83062075     -0.01158681
      0.10124670      0.56939351
      0.03901771      0.59464693
      5.70863953     -0.02493472
      1.48016499     -0.12471160
      0.52180396     -0.24082362
      0.20773915     -0.11488550
 
          12   0
s              4   1.000000
     34.93786217     -0.01198412
      6.01658896     -0.05472053
      0.48345859      0.58055871
      0.18425804      0.47700800
p              4   1.000000
      5.63114923      0.05713170
      1.46007291      0.28574555
      0.51472088      0.55178730
      0.20491925      0.26323149
s              7   1.000000
      0.38350848     -0.19622854
      0.04707223      0.94810419
      0.02222627      0.24898657
     34.93786217      0.00551517
      6.01658896      0.02518273
      0.48345859     -0.26717674
      0.18425804     -0.21952205
p              7   1.000000
      1.83062075     -0.01161141
      0.10124670      0.57060236
      0.03901771      0.59590940
      5.63114923     -0.02526375
      1.46007291     -0.12635725
      0.51472088     -0.24400144
      0.20491925     -0.11640149
 
          13   0
s              4   1.000000
     34.92212602     -0.01198412
      6.01387907     -0.05472053
      0.48324084      0.58055871
      0.18417505      0.47700799
p              4   1.000000
      5.62861294      0.05713170
      1.45941529      0.28574555
      0.51448905      0.55178731
      0.20482696      0.26323149
s              7   1.000000
      0.38350848     -0.19624330
      0.04707223      0.94817550
      0.02222627      0.24900528
     34.92212602      0.00551754
      6.01387907      0.02519356
      0.48324084     -0.26729170
      0.18417505     -0.21961651
p              7   1.000000
      1.83062075     -0.01161223
      0.10124670      0.57064267
      0.03901771      0.59595151
      5.62861294     -0.02527466
      1.45941529     -0.12641183
      0.51448905     -0.24410683
      0.20482696     -0.11645176
 
          14   0
s              4   1.000000
     34.93556245     -0.01198412
      6.01619293     -0.05472052
      0.48342677      0.58055871
      0.18424591      0.47700800
p              4   1.000000
      5.63077857      0.05713170
      1.45997680      0.28574555
      0.51468700      0.55178731
      0.20490576      0.26323149
s              7   1.000000
      0.38350848     -0.19623070
      0.04707223      0.94811460
      0.02222627      0.24898930
     34.93556245      0.00551551
      6.01619293      0.02518431
      0.48342677     -0.26719353
      0.18424591     -0.21953585
p              7   1.000000
      1.83062075     -0.01161153
      0.10124670      0.57060824
      0.03901771      0.59591555
      5.63077857     -0.02526535
      1.45997680     -0.12636522
      0.51468700     -0.24401684
      0.20490576     -0.11640884
 
          15   0
s              4   1.000000
     34.94268026     -0.01198412
      6.01741868     -0.05472052
      0.48352527      0.58055871
      0.18428345      0.47700799
p              4   1.000000
      5.63192579      0.05713170
      1.46027426      0.28574555
      0.51479186      0.55178731
      0.20494751      0.26323149
s              7   1.000000
      0.38350848     -0.19622403
      0.04707223      0.94808238
      0.02222627      0.24898084
     34.94268026      0.00551444
      6.01741868      0.02517941
      0.48352527     -0.26714156
      0.18428345     -0.21949315
p              7   1.000000
      1.83062075     -0.01161116
      0.10124670      0.57059003
      0.03901771      0.59589653
      5.63192579     -0.02526041
      1.46027426     -0.12634055
      0.51479186     -0.24396919
      0.20494751     -0.11638610
 
          16   0
s              4   1.000000
     35.62739432     -0.01198412
      6.13533210     -0.05472052
      0.49300011      0.58055871
      0.18789455      0.47700799
p              4   1.000000
      5.74228535      0.05713170
      1.48888884      0.28574555
      0.52487939      0.55178731
      0.20896353      0.26323149
s              7   1.000000
      0.38350848     -0.19559880
      0.04707223      0.94506150
      0.02222627      0.24818749
     35.62739432      0.00541311
      6.13533210      0.02471675
      0.49300011     -0.26223291
      0.18789455     -0.21546002
p              7   1.000000
      1.83062075     -0.01157640
      0.10124670      0.56888214
      0.03901771      0.59411291
      5.74228535     -0.02479444
      1.48888884     -0.12400995
      0.52487939     -0.23946870
      0.20896353     -0.11423913
 
          17   0
s              4   1.000000
     35.10195618     -0.01198412
      6.04484731     -0.05472052
      0.48572927      0.58055871
      0.18512345      0.47700799
p              4   1.000000
      5.65759726      0.05713170
      1.46693049      0.28574555
      0.51713839      0.55178731
      0.20588170      0.26323149
s              7   1.000000
      0.38350848     -0.19607568
      0.04707223      0.94736564
      0.02222627      0.24879259
     35.10195618      0.00549054
      6.04484731      0.02507028
      0.48572927     -0.26598373
      0.18512345     -0.21854183
p              7   1.000000
      1.83062075     -0.01160291
      0.10124670      0.57018481
      0.03901771      0.59547332
      5.65759726     -0.02515051
      1.46693049     -0.12579086
      0.51713839     -0.24290772
      0.20588170     -0.11587972
 
          18   0
s              4   1.000000
     35.13217335     -0.01198412
      6.05005096     -0.05472053
      0.48614741      0.58055871
      0.18528281      0.47700799
p              4   1.000000
      5.66246755      0.05713170
      1.46819328      0.28574555
      0.51758357      0.55178731
      0.20605894      0.26323149
s              7   1.000000
      0.38350848     -0.19604774
      0.04707223      0.94723065
      0.02222627      0.24875715
     35.13217335      0.00548603
      6.05005096      0.02504968
      0.48614741     -0.26576518
      0.18528281     -0.21836226
p              7   1.000000
      1.83062075     -0.01160136
      0.10124670      0.57010848
      0.03901771      0.59539362
      5.66246755     -0.02512976
      1.46819328     -0.12568710
      0.51758357     -0.24270735
      0.20605894     -0.11578414
 
          19   0
s              4   1.000000
     61.42750012     -0.01198412
     10.57832381     -0.05472052
      0.85001345      0.58055871
      0.32396117      0.47700799
p              4   1.000000
      7.24058082      0.05713170
      1.87737449      0.28574555
      0.66183260      0.55178731
      0.26348696      0.26323149
s              7   1.000000
      0.47894987     -0.18771528
      0.05878681      0.90697126
      0.02775758      0.23818442
     61.42750012      0.00395521
     10.57832381      0.01805985
      0.85001345     -0.19160640
      0.32396117     -0.15743074
p              7   1.000000
      2.28619608     -0.01155960
      0.12644335      0.56805665
      0.04872781      0.59325077
      7.24058082     -0.02456655
      1.87737449     -0.12287016
      0.66183260     -0.23726771
      0.26348696     -0.11318914
 
          20   0
s              4   1.000000
     35.62294447     -0.01198412
      6.13456581     -0.05472052
      0.49293854      0.58055871
      0.18787108      0.47700800
p              4   1.000000
      5.74156814      0.05713170
      1.48870288      0.28574555
      0.52481383      0.55178731
      0.20893743      0.26323149
s              7   1.000000
      0.38350848     -0.19560275
      0.04707223      0.94508063
      0.02222627      0.24819251
     35.62294447      0.00541376
      6.13456581      0.02471970
      0.49293854     -0.26226424
      0.18787108     -0.21548577
p              7   1.000000
      1.83062075     -0.01157662
      0.10124670      0.56889297
      0.03901771      0.59412420
      5.74156814     -0.02479741
      1.48870288     -0.12402483
      0.52481383     -0.23949743
      0.20893743     -0.11425284
 
          21   0
s              4   1.000000
     34.94507525     -0.01198412
      6.01783112     -0.05472052
      0.48355841      0.58055871
      0.18429608      0.47700800
p              4   1.000000
      5.63231180      0.05713170
      1.46037435      0.28574555
      0.51482715      0.55178731
      0.20496156      0.26323149
s              7   1.000000
      0.38350848     -0.19622178
      0.04707223      0.94807154
      0.02222627      0.24897799
     34.94507525      0.00551408
      6.01783112      0.02517776
      0.48355841     -0.26712408
      0.18429608     -0.21947878
p              7   1.000000
      1.83062075     -0.01161103
      0.10124670      0.57058390
      0.03901771      0.59589014
      5.63231180     -0.02525875
      1.46037435     -0.12633225
      0.51482715     -0.24395317
      0.20496156     -0.11637846
 
          22   0
s              4   1.000000
     34.93525486     -0.01198412
      6.01613996     -0.05472052
      0.48342252      0.58055871
      0.18424429      0.47700799
p              4   1.000000
      5.63072899      0.05713170
      1.45996395      0.28574555
      0.51468247      0.55178731
      0.20490396      0.26323149
s              7   1.000000
      0.38350848     -0.19623099
      0.04707223      0.94811601
      0.02222627      0.24898966
     34.93525486      0.00551556
      6.01613996      0.02518452
      0.48342252     -0.26719578
      0.18424429     -0.21953769
p              7   1.000000
      1.83062075     -0.01161154
      0.10124670      0.57060903
      0.03901771      0.59591639
      5.63072899     -0.02526556
      1.45996395     -0.12636629
      0.51468247     -0.24401890
      0.20490396     -0.11640982
 
          23   0
s              4   1.000000
     34.92265949     -0.01198412
      6.01397094     -0.05472053
      0.48324822      0.58055871
      0.18417786      0.47700799
p              4   1.000000
      5.62869892      0.05713170
      1.45943758      0.28574555
      0.51449691      0.55178731
      0.20483008      0.26323149
s              7   1.000000
      0.38350848     -0.19624280
      0.04707223      0.94817308
      0.02222627      0.24900465
     34.92265949      0.00551746
      6.01397094      0.02519319
      0.48324822     -0.26728780
      0.18417786     -0.21961330
p              7   1.000000
      1.83062075     -0.01161220
      0.10124670      0.57064131
      0.03901771      0.59595009
      5.62869892     -0.02527429
      1.45943758     -0.12640997
      0.51449691     -0.24410326
      0.20483008     -0.11645006
 
          24   0
s              4   1.000000
     34.93807803     -0.01198412
      6.01662614     -0.05472052
      0.48346158      0.58055871
      0.18425918      0.47700799
p              4   1.000000
      5.63118402      0.05713170
      1.46008193      0.28574555
      0.51472406      0.55178731
      0.20492052      0.26323149
s              7   1.000000
      0.38350848     -0.19622834
      0.04707223      0.94810322
      0.02222627      0.24898630
     34.93807803      0.00551513
      6.01662614      0.02518258
      0.48346158     -0.26717516
      0.18425918     -0.21952076
p              7   1.000000
      1.83062075     -0.01161140
      0.10124670      0.57060181
      0.03901771      0.59590883
      5.63118402     -0.02526360
      1.46008193     -0.12635650
      0.51472406     -0.24400000
      0.20492052     -0.11640080
 
          25   0
s              4   1.000000
     35.41906039     -0.01198412
      6.09945528     -0.05472052
      0.49011726      0.58055871
      0.18679582      0.47700800
p              4   1.000000
      5.70870689      0.05713170
      1.48018245      0.28574555
      0.52181012      0.55178731
      0.20774160      0.26323149
s              7   1.000000
      0.38350848     -0.19578563
      0.04707223      0.94596419
      0.02222627      0.24842456
     35.41906039      0.00544355
      6.09945528      0.02485575
      0.49011726     -0.26370763
      0.18679582     -0.21667171
p              7   1.000000
      1.83062075     -0.01158679
      0.10124670      0.56939248
      0.03901771      0.59464588
      5.70870689     -0.02493444
      1.48018245     -0.12471019
      0.52181012     -0.24082089
      0.20774160     -0.11488420
 
          26   0
s              4   1.000000
     35.41857727     -0.01198412
      6.09937208     -0.05472053
      0.49011057      0.58055871
      0.18679327      0.47700799
p              4   1.000000
      5.70862902      0.05713170
      1.48016226      0.28574555
      0.52180300      0.55178731
      0.20773877      0.26323149
s              7   1.000000
      0.38350848     -0.19578606
      0.04707223      0.94596630
      0.02222627      0.24842512
     35.41857727      0.00544363
      6.09937208      0.02485607
      0.49011057     -0.26371107
      0.18679327     -0.21667453
p              7   1.000000
      1.83062075     -0.01158681
      0.10124670      0.56939368
      0.03901771      0.59464713
      5.70862902     -0.02493477
      1.48016226     -0.12471182
      0.52180300     -0.24082404
      0.20773877     -0.11488570
 
          27   0
s              4   1.000000
     34.93786743     -0.01198412
      6.01658987     -0.05472053
      0.48345867      0.58055871
      0.18425806      0.47700799
p              4   1.000000
      5.63115007      0.05713170
      1.46007313      0.28574555
      0.51472096      0.55178731
      0.20491928      0.26323149
s              7   1.000000
      0.38350848     -0.19622854
      0.04707223      0.94810416
      0.02222627      0.24898654
     34.93786743      0.00551516
      6.01658987      0.02518272
      0.48345867     -0.26717670
      0.18425806     -0.21952202
p              7   1.000000
      1.83062075     -0.01161141
      0.10124670      0.57060235
      0.03901771      0.59590940
      5.63115007     -0.02526375
      1.46007313     -0.12635723
      0.51472096     -0.24400141
      0.20491928     -0.11640147
 
          28   0
s              4   1.000000
     34.92212895     -0.01198412
      6.01387957     -0.05472052
      0.48324088      0.58055871
      0.18417506      0.47700799
p              4   1.000000
      5.62861341      0.05713170
      1.45941541      0.28574555
      0.51448909      0.55178731
      0.20482697      0.26323149
s              7   1.000000
      0.38350848     -0.19624330
      0.04707223      0.94817549
      0.02222627      0.24900528
     34.92212895      0.00551754
      6.01387957      0.02519356
      0.48324088     -0.26729168
      0.18417506     -0.21961649
p              7   1.000000
      1.83062075     -0.01161223
      0.10124670      0.57064266
      0.03901771      0.59595151
      5.62861341     -0.02527466
      1.45941541     -0.12641182
      0.51448909     -0.24410681
      0.20482697     -0.11645175
 
          29   0
s              4   1.000000
     34.93554792     -0.01198412
      6.01619043     -0.05472053
      0.48342657      0.58055871
      0.18424583      0.47700800
p              4   1.000000
      5.63077622      0.05713170
      1.45997619      0.28574555
      0.51468679      0.55178731
      0.20490568      0.26323149
s              7   1.000000
      0.38350848     -0.19623071
      0.04707223      0.94811467
      0.02222627      0.24898932
     34.93554792      0.00551551
      6.01619043      0.02518432
      0.48342657     -0.26719364
      0.18424583     -0.21953594
p              7   1.000000
      1.83062075     -0.01161153
      0.10124670      0.57060828
      0.03901771      0.59591559
      5.63077622     -0.02526536
      1.45997619     -0.12636527
      0.51468679     -0.24401694
      0.20490568     -0.11640888
 
          30   0
s              4   1.000000
     34.94274313     -0.01198412
      6.01742951     -0.05472052
      0.48352614      0.58055871
      0.18428378      0.47700799
p              4   1.000000
      5.63193592      0.05713170
      1.46027689      0.28574555
      0.51479279      0.55178730
      0.20494788      0.26323149
s              7   1.000000
      0.38350848     -0.19622397
      0.04707223      0.94808209
      0.02222627      0.24898074
     34.94274313      0.00551443
      6.01742951      0.02517937
      0.48352614     -0.26714110
      0.18428378     -0.21949277
p              7   1.000000
      1.83062075     -0.01161115
      0.10124670      0.57058987
      0.03901771      0.59589637
      5.63193592     -0.02526037
      1.46027689     -0.12634033
      0.51479279     -0.24396877
      0.20494788     -0.11638590
 
          31   0
s              4   1.000000
     35.62745149     -0.01198412
      6.13534195     -0.05472052
      0.49300090      0.58055871
      0.18789485      0.47700799
p              4   1.000000
      5.74229456      0.05713170
      1.48889123      0.28574555
      0.52488023      0.55178731
      0.20896386      0.26323149
s              7   1.000000
      0.38350848     -0.19559874
      0.04707223      0.94506125
      0.02222627      0.24818744
     35.62745149      0.00541310
      6.13534195      0.02471671
      0.49300090     -0.26223251
      0.18789485     -0.21545970
p              7   1.000000
      1.83062075     -0.01157640
      0.10124670      0.56888201
      0.03901771      0.59411275
      5.74229456     -0.02479440
      1.48889123     -0.12400976
      0.52488023     -0.23946833
      0.20896386     -0.11423896
 
          32   0
s              4   1.000000
     35.01051877     -0.01198412
      6.02910103     -0.05472052
      0.48446399      0.58055871
      0.18464122      0.47700799
p              4   1.000000
      5.64285974      0.05713170
      1.46310927      0.28574555
      0.51579129      0.55178731
      0.20534540      0.26323149
s              7   1.000000
      0.38350848     -0.19616063
      0.04707223      0.94777604
      0.02222627      0.24890038
     35.01051877      0.00550423
      6.02910103      0.02513282
      0.48446399     -0.26664721
      0.18464122     -0.21908697
p              7   1.000000
      1.83062075     -0.01160763
      0.10124670      0.57041684
      0.03901771      0.59571565
      5.64285974     -0.02521349
      1.46310927     -0.12610586
      0.51579129     -0.24351599
      0.20534540     -0.11616990
 
          33   0
s              4   1.000000
      8.30903762      0.05675242
      1.52045151      0.26014135
      0.42239808      0.53284611
      0.14019012      0.29162544
s              7   1.000000
      0.92936822     -0.06732831
      0.05643440      0.66945424
      0.02166600      0.51461375
      8.30903762     -0.02902247
      1.52045151     -0.13303300
      0.42239808     -0.27249077
      0.14019012     -0.14913356
p              4   1.000000
      0.64737396      0.05713170
      0.16785440      0.28574555
      0.05917387      0.55178731
      0.02355814      0.26323150
 
          34   0
s              4   1.000000
      8.30949746      0.05675242
      1.52053566      0.26014135
      0.42242146      0.53284611
      0.14019788      0.29162544
s              7   1.000000
      0.92936822     -0.06732772
      0.05643440      0.66944835
      0.02166600      0.51460923
      8.30949746     -0.02902124
      1.52053566     -0.13302736
      0.42242146     -0.27247922
      0.14019788     -0.14912725
p              4   1.000000
      0.64737396      0.05713170
      0.16785440      0.28574555
      0.05917387      0.55178731
      0.02355814      0.26323150
 
          35   0
s              4   1.000000
      8.30943632      0.05675242
      1.52052447      0.26014135
      0.42241835      0.53284611
      0.14019685      0.29162544
s              7   1.000000
      0.92936822     -0.06732780
      0.05643440      0.66944914
      0.02166600      0.51460982
      8.30943632     -0.02902140
      1.52052447     -0.13302811
      0.42241835     -0.27248075
      0.14019685     -0.14912809
p              4   1.000000
      0.64737396      0.05713170
      0.16785440      0.28574555
      0.05917387      0.55178731
      0.02355814      0.26323150
 
          36   0
s              4   1.000000
      8.30900922      0.05675242
      1.52044632      0.26014135
      0.42239664      0.53284611
      0.14018965      0.29162544
s              7   1.000000
      0.92936822     -0.06732834
      0.05643440      0.66945461
      0.02166600      0.51461402
      8.30900922     -0.02902255
      1.52044632     -0.13303335
      0.42239664     -0.27249148
      0.14018965     -0.14913395
p              4   1.000000
      0.64737396      0.05713170
      0.16785440      0.28574555
      0.05917387      0.55178731
      0.02355814      0.26323150
 
          37   0
s              4   1.000000
      8.30893618      0.05675242
      1.52043295      0.26014135
      0.42239292      0.53284611
      0.14018841      0.29162544
s              7   1.000000
      0.92936822     -0.06732844
      0.05643440      0.66945554
      0.02166600      0.51461474
      8.30893618     -0.02902274
      1.52043295     -0.13303425
      0.42239292     -0.27249332
      0.14018841     -0.14913496
p              4   1.000000
      0.64737396      0.05713170
      0.16785440      0.28574555
      0.05917387      0.55178731
      0.02355814      0.26323150
 
          38   0
s              4   1.000000
      8.30892447      0.05675242
      1.52043081      0.26014135
      0.42239233      0.53284611
      0.14018822      0.29162544
s              7   1.000000
      0.92936822     -0.06732845
      0.05643440      0.66945569
      0.02166600      0.51461487
      8.30892447     -0.02902277
      1.52043081     -0.13303439
      0.42239233     -0.27249361
      0.14018822     -0.14913512
p              4   1.000000
      0.64737396      0.05713170
      0.16785440      0.28574555
      0.05917387      0.55178731
      0.02355814      0.26323150
 
          39   0
s              4   1.000000
      8.30892025      0.05675242
      1.52043004      0.26014135
      0.42239211      0.53284611
      0.14018814      0.29162544
s              7   1.000000
      0.92936822     -0.06732846
      0.05643440      0.66945575
      0.02166600      0.51461492
      8.30892025     -0.02902278
      1.52043004     -0.13303444
      0.42239211     -0.27249372
      0.14018814     -0.14913518
p              4   1.000000
      0.64737396      0.05713170
      0.16785440      0.28574555
      0.05917387      0.55178731
      0.02355814      0.26323150
 
          40   0
s              4   1.000000
      8.30893035      0.05675242
      1.52043188      0.26014135
      0.42239263      0.53284611
      0.14018832      0.29162544
s              7   1.000000
      0.92936822     -0.06732845
      0.05643440      0.66945561
      0.02166600      0.51461482
      8.30893035     -0.02902276
      1.52043188     -0.13303432
      0.42239263     -0.27249346
      0.14018832     -0.14913504
p              4   1.000000
      0.64737396      0.05713170
      0.16785440      0.28574555
      0.05917387      0.55178731
      0.02355814      0.26323150
 
          41   0
s              4   1.000000
      8.30898890      0.05675242
      1.52044260      0.26014135
      0.42239560      0.53284611
      0.14018930      0.29162544
s              7   1.000000
      0.92936822     -0.06732837
      0.05643440      0.66945486
      0.02166600      0.51461422
      8.30898890     -0.02902260
      1.52044260     -0.13303360
      0.42239560     -0.27249199
      0.14018930     -0.14913423
p              4   1.000000
      0.64737396      0.05713170
      0.16785440      0.28574555
      0.05917387      0.55178731
      0.02355814      0.26323150
 
          42   0
s              4   1.000000
      8.30926308      0.05675242
      1.52049277      0.26014135
      0.42240954      0.53284611
      0.14019393      0.29162544
s              7   1.000000
      0.92936822     -0.06732802
      0.05643440      0.66945136
      0.02166600      0.51461154
      8.30926308     -0.02902187
      1.52049277     -0.13303024
      0.42240954     -0.27248510
      0.14019393     -0.14913047
p              4   1.000000
      0.64737396      0.05713170
      0.16785440      0.28574555
      0.05917387      0.55178731
      0.02355814      0.26323150
 
          43   0
s              4   1.000000
      8.31001544      0.05675242
      1.52063044      0.26014135
      0.42244779      0.53284611
      0.14020662      0.29162544
s              7   1.000000
      0.92936822     -0.06732705
      0.05643440      0.66944174
      0.02166600      0.51460414
      8.31001544     -0.02901986
      1.52063044     -0.13302101
      0.42244779     -0.27246621
      0.14020662     -0.14912012
p              4   1.000000
      0.64737396      0.05713170
      0.16785440      0.28574555
      0.05917387      0.55178731
      0.02355814      0.26323150
 
          44   0
s              4   1.000000
      8.30944012      0.05675242
      1.52052517      0.26014135
      0.42241854      0.53284611
      0.14019692      0.29162544
s              7   1.000000
      0.92936822     -0.06732779
      0.05643440      0.66944909
      0.02166600      0.51460980
      8.30944012     -0.02902139
      1.52052517     -0.13302807
      0.42241854     -0.27248066
      0.14019692     -0.14912803
p              4   1.000000
      0.64737396      0.05713170
      0.16785440      0.28574555
      0.05917387      0.55178731
      0.02355814      0.26323150
 
          45   0
s              4   1.000000
      8.30900954      0.05675242
      1.52044638      0.26014135
      0.42239665      0.53284611
      0.14018965      0.29162544
s              7   1.000000
      0.92936822     -0.06732834
      0.05643440      0.66945460
      0.02166600      0.51461402
      8.30900954     -0.02902255
      1.52044638     -0.13303334
      0.42239665     -0.27249147
      0.14018965     -0.14913395
p              4   1.000000
      0.64737396      0.05713170
      0.16785440      0.28574555
      0.05917387      0.55178731
      0.02355814      0.26323150
 
          46   0
s              4   1.000000
      8.30893609      0.05675242
      1.52043294      0.26014135
      0.42239292      0.53284611
      0.14018841      0.29162544
s              7   1.000000
      0.92936822     -0.06732844
      0.05643440      0.66945554
      0.02166600      0.51461474
      8.30893609     -0.02902274
      1.52043294     -0.13303425
      0.42239292     -0.27249332
      0.14018841     -0.14913496
p              4   1.000000
      0.64737396      0.05713170
      0.16785440      0.28574555
      0.05917387      0.55178731
      0.02355814      0.26323150
 
          47   0
s              4   1.000000
      8.30892456      0.05675242
      1.52043082      0.26014135
      0.42239233      0.53284611
      0.14018822      0.29162544
s              7   1.000000
      0.92936822     -0.06732845
      0.05643440      0.66945569
      0.02166600      0.51461487
      8.30892456     -0.02902277
      1.52043082     -0.13303439
      0.42239233     -0.27249361
      0.14018822     -0.14913512
p              4   1.000000
      0.64737396      0.05713170
      0.16785440      0.28574555
      0.05917387      0.55178731
      0.02355814      0.26323150
 
          48   0
s              4   1.000000
      8.30892039      0.05675242
      1.52043006      0.26014135
      0.42239212      0.53284611
      0.14018815      0.29162544
s              7   1.000000
      0.92936822     -0.06732846
      0.05643440      0.66945575
      0.02166600      0.51461489
      8.30892039     -0.02902278
      1.52043006     -0.13303444
      0.42239212     -0.27249371
      0.14018815     -0.14913518
p              4   1.000000
      0.64737396      0.05713170
      0.16785440      0.28574555
      0.05917387      0.55178731
      0.02355814      0.26323150
 
          49   0
s              4   1.000000
      8.30893016      0.05675242
      1.52043185      0.26014135
      0.42239262      0.53284611
      0.14018831      0.29162544
s              7   1.000000
      0.92936822     -0.06732845
      0.05643440      0.66945561
      0.02166600      0.51461482
      8.30893016     -0.02902276
      1.52043185     -0.13303432
      0.42239262     -0.27249347
      0.14018831     -0.14913504
p              4   1.000000
      0.64737396      0.05713170
      0.16785440      0.28574555
      0.05917387      0.55178731
      0.02355814      0.26323150
 
          50   0
s              4   1.000000
      8.30898901      0.05675242
      1.52044262      0.26014135
      0.42239561      0.53284611
      0.14018930      0.29162544
s              7   1.000000
      0.92936822     -0.06732837
      0.05643440      0.66945486
      0.02166600      0.51461422
      8.30898901     -0.02902260
      1.52044262     -0.13303360
      0.42239561     -0.27249199
      0.14018930     -0.14913423
p              4   1.000000
      0.64737396      0.05713170
      0.16785440      0.28574555
      0.05917387      0.55178731
      0.02355814      0.26323150
 
          51   0
s              4   1.000000
      8.30926490      0.05675242
      1.52049310      0.26014135
      0.42240963      0.53284611
      0.14019396      0.29162544
s              7   1.000000
      0.92936822     -0.06732802
      0.05643440      0.66945134
      0.02166600      0.51461151
      8.30926490     -0.02902186
      1.52049310     -0.13303021
      0.42240963     -0.27248506
      0.14019396     -0.14913044
p              4   1.000000
      0.64737396      0.05713170
      0.16785440      0.28574555
      0.05917387      0.55178731
      0.02355814      0.26323150
 
          52   0
s              4   1.000000
      8.30950170      0.05675242
      1.52053643      0.26014135
      0.42242167      0.53284611
      0.14019796      0.29162544
s              7   1.000000
      0.92936822     -0.06732771
      0.05643440      0.66944831
      0.02166600      0.51460918
      8.30950170     -0.02902123
      1.52053643     -0.13302731
      0.42242167     -0.27247911
      0.14019796     -0.14912718
p              4   1.000000
      0.64737396      0.05713170
      0.16785440      0.28574555
      0.05917387      0.55178731
      0.02355814      0.26323150
 
 [MO]
 Sym= Hole
 Ene= -0.7383027    
 Spin= Alpha
 Occup= 0
           1 -6.5808655E-07
           2 -1.3362092E-02
           3  4.3469906E-04
           4  3.7703573E-04
           5 -4.3929308E-08
           6  4.1396884E-04
           7  1.1106491E-05
           8 -1.3763056E-05
           9  2.5370467E-02
          10 -9.1829812E-03
          11  0.2998890    
          12  0.2273110    
          13 -1.3261193E-02
          14 -4.5050238E-03
          15 -7.7767684E-03
          16 -3.5961354E-03
          17 -8.4751286E-03
          18  2.9565820E-02
          19  0.1340483    
          20  0.1755953    
          21  1.9726343E-03
          22 -4.2759273E-03
          23 -3.7667949E-03
          24 -1.3384966E-02
          25  8.6241262E-03
          26 -0.1440845    
          27 -1.2701292E-02
          28 -0.3189085    
          29 -2.3690232E-03
          30  1.2889412E-02
          31 -1.0634095E-02
          32  2.2850338E-02
          33 -1.2609085E-02
          34  1.2402277E-02
          35  2.6056763E-02
          36 -5.1702103E-03
          37  7.1730423E-03
          38 -4.5874924E-03
          39 -3.9089043E-03
          40 -1.3380501E-02
          41  5.6809117E-04
          42  7.6133020E-02
          43 -1.3473694E-02
          44  0.1547509    
          45  3.5778823E-04
          46 -3.8275362E-03
          47  3.5475036E-03
          48 -8.5731763E-03
          49 -2.2614286E-03
          50  1.9760856E-02
          51  2.4722107E-03
          52  3.9221633E-02
          53  2.3852961E-04
          54  1.6577046E-03
          55  9.2363067E-04
          56  2.7683647E-03
          57 -1.0896428E-03
          58 -6.0150821E-02
          59  5.4384866E-03
          60 -0.1352324    
          61 -1.9288604E-05
          62  4.2368248E-03
          63 -1.1586766E-04
          64  7.7164127E-03
          65 -2.1494790E-03
          66 -2.5234943E-02
          67  5.7174326E-03
          68 -6.5496184E-02
          69  2.6049785E-04
          70  4.5361277E-03
          71 -6.6229381E-04
          72  7.9807350E-03
          73  7.1186537E-04
          74  4.9732592E-02
          75 -2.9795961E-03
          76  0.1398657    
          77  3.5047068E-04
          78 -4.2215682E-04
          79 -1.4399256E-03
          80 -7.1349600E-03
          81  2.1281792E-03
          82  6.0128961E-02
          83  1.0048565E-03
          84  0.1355492    
          85 -1.1224153E-03
          86 -2.9604745E-03
          87 -2.3998865E-03
          88 -6.2732501E-03
          89  1.1434641E-03
          90 -2.9088121E-02
          91  1.9865395E-03
          92 -6.1799087E-02
          93 -9.9193334E-05
          94  3.4281870E-03
          95 -9.6851570E-04
          96  8.5925329E-03
          97  2.5512720E-03
          98 -5.9310503E-02
          99  3.8882357E-03
         100 -0.1324649    
         101 -3.8060587E-04
         102  3.2735628E-03
         103 -1.9922835E-04
         104  8.3063189E-03
         105 -1.1701970E-03
         106  2.0098593E-02
         107 -1.4859488E-03
         108  4.1021541E-02
         109  6.8170665E-04
         110 -2.9762340E-04
         111  3.0847531E-04
         112  3.4462898E-03
         113  5.8990228E-03
         114  5.5744484E-02
         115 -2.1788673E-02
         116  0.1593620    
         117 -2.8722852E-03
         118 -7.0963642E-03
         119  2.4802478E-03
         120 -6.8657952E-03
         121  9.2267068E-03
         122 -1.8208927E-02
         123  9.6253129E-03
         124  3.4834526E-03
         125 -5.0471164E-03
         126 -5.2152085E-03
         127 -3.6616803E-03
         128 -1.3351806E-02
         129  6.6937855E-06
         130 -9.6628919E-02
         131 -6.7865429E-04
         132 -6.9862802E-04
         133 -4.0576764E-05
         134  1.7536547E-02
         135  8.4821240E-06
         136  2.6102680E-05
         137  8.5513340E-03
         138  2.9611975E-02
         139 -0.1344711    
         140 -0.1760032    
         141 -2.0705003E-03
         142 -4.1942052E-03
         143  3.7636631E-03
         144  1.3429504E-02
         145 -9.0159653E-03
         146 -0.1442855    
         147  1.3482180E-02
         148  0.3194756    
         149  2.5379828E-03
         150  1.2932686E-02
         151  1.0593206E-02
         152 -2.2906475E-02
         153  1.2724458E-02
         154  1.2446296E-02
         155 -2.6244542E-02
         156  5.3109680E-03
         157 -7.2750212E-03
         158 -4.5830449E-03
         159  4.0250942E-03
         160  1.3414144E-02
         161 -5.0697802E-04
         162  7.6026045E-02
         163  1.3088671E-02
         164 -0.1551280    
         165 -4.1868383E-04
         166 -3.7986892E-03
         167 -3.5145348E-03
         168  8.6202025E-03
         169  2.2613266E-03
         170  1.9741090E-02
         171 -2.5781847E-03
         172 -3.9348394E-02
         173 -2.3057788E-04
         174  1.6665198E-03
         175 -9.6366968E-04
         176 -2.7689924E-03
         177  1.1032033E-03
         178 -6.0043059E-02
         179 -5.1199589E-03
         180  0.1355255    
         181  2.2708155E-05
         182  4.2509940E-03
         183  8.9625799E-05
         184 -7.7317501E-03
         185  2.1760834E-03
         186 -2.5166420E-02
         187 -5.6096339E-03
         188  6.5660760E-02
         189 -2.6295462E-04
         190  4.5470456E-03
         191  6.4103043E-04
         192 -8.0014197E-03
         193 -7.8502996E-04
         194  4.9483813E-02
         195  2.6937879E-03
         196 -0.1401960    
         197 -3.4117629E-04
         198 -4.1410432E-04
         199  1.4640435E-03
         200  7.1525844E-03
         201 -2.2046152E-03
         202  5.9804648E-02
         203 -1.1958916E-03
         204 -0.1359678    
         205  1.1372755E-03
         206 -2.9500234E-03
         207  2.4089864E-03
         208  6.2948009E-03
         209 -1.1020123E-03
         210 -2.8918421E-02
         211 -1.8169546E-03
         212  6.1962493E-02
         213  9.3756978E-05
         214  3.4343267E-03
         215  9.4957615E-04
         216 -8.6160107E-03
         217 -2.5548520E-03
         218 -5.9062045E-02
         219 -3.6208064E-03
         220  0.1327955    
         221  3.8274343E-04
         222  3.2784222E-03
         223  1.7658160E-04
         224 -8.3292695E-03
         225  1.1922696E-03
         226  2.0080812E-02
         227  1.4299302E-03
         228 -4.1173410E-02
         229 -6.7766232E-04
         230 -2.9042424E-04
         231 -2.8929158E-04
         232 -3.4434269E-03
         233 -5.8779195E-03
         234  5.5468172E-02
         235  2.1651812E-02
         236 -0.1597507    
         237  2.8385837E-03
         238 -7.0937839E-03
         239 -2.4948532E-03
         240  6.9060083E-03
         241 -9.1614723E-03
         242 -1.8047219E-02
         243 -9.5845051E-03
         244 -3.2618365E-03
         245  4.9770749E-03
         246 -5.2693319E-03
         247  3.6482092E-03
         248  1.3357528E-02
         249 -2.5387002E-02
         250 -9.3905525E-03
         251 -0.2996030    
         252 -0.2267661    
         253  1.3230529E-02
         254 -4.4808770E-03
         255  7.7900826E-03
         256  3.6014474E-03
         257 -6.1897881E-05
         258  1.3823886E-05
         259  2.7986972E-03
         260 -1.6474873E-05
         261 -1.4449286E-05
         262 -1.7084878E-02
         263 -3.3054436E-03
         264 -6.6655264E-03
         265 -3.8550333E-03
         266  1.1146913E-02
         267  5.1828311E-03
         268 -8.6052791E-04
         269  2.0225430E-03
         270  1.3852575E-03
         271  1.0814788E-02
         272  4.7759493E-03
         273 -7.8665075E-04
         274  1.1440413E-04
         275  1.1972657E-04
         276  1.6702284E-03
         277 -6.9606368E-04
         278 -1.8989935E-04
         279 -4.8117996E-03
         280  4.4083229E-04
         281 -1.1782466E-02
         282  5.0589591E-03
         283 -7.8546291E-04
         284 -9.2023710E-04
         285 -3.5610516E-04
         286 -3.7571648E-03
         287 -2.4962442E-03
         288  7.2138506E-04
         289 -2.4362153E-03
         290 -6.6750718E-04
         291 -3.4116397E-03
         292 -1.1931601E-03
         293  6.9179561E-04
         294 -5.7799807E-03
         295  5.0485099E-04
         296 -1.1704596E-02
         297 -5.5588479E-03
         298  1.5399395E-03
         299  6.4655702E-04
         300  2.3140491E-04
         301  1.5216387E-03
         302  2.2770255E-03
         303 -8.0476626E-04
         304  7.1763191E-03
         305  1.8610720E-03
         306  9.3910098E-03
         307 -4.1686722E-05
         308  8.2094975E-06
         309  2.3954447E-02
         310 -6.9358030E-06
         311  2.1119668E-05
         312 -5.2262922E-03
         313  8.5406541E-04
         314  1.9769310E-03
         315 -1.4092312E-03
         316 -1.0840532E-02
         317 -4.8056552E-03
         318  8.0364343E-04
         319  1.1386036E-04
         320 -1.3278081E-04
         321 -1.6769161E-03
         322  6.9340313E-04
         323  2.0006618E-04
         324 -4.8026689E-03
         325 -4.1697800E-04
         326  1.1814052E-02
         327 -5.1073399E-03
         328  8.0470106E-04
         329 -9.0901076E-04
         330  3.7451400E-04
         331  3.7660396E-03
         332  2.4691666E-03
         333 -7.0455804E-04
         334 -2.4322923E-03
         335  6.6386600E-04
         336  3.4230384E-03
         337  1.1962613E-03
         338 -6.9112115E-04
         339 -5.7656271E-03
         340 -4.8171805E-04
         341  1.1746547E-02
         342  5.5811089E-03
         343 -1.5336883E-03
         344  6.4626720E-04
         345 -2.2590367E-04
         346 -1.5248589E-03
         347 -2.3612850E-03
         348  8.2969468E-04
         349  7.1696993E-03
         350 -1.8732975E-03
         351 -9.4237179E-03
         352  1.7152958E-02
         353  3.3012363E-03
         354 -6.6418592E-03
         355  3.8519418E-03
         356 -1.1158024E-02
 Sym= Particle
 Ene= -0.7383027    
 Spin= Alpha
 Occup= 2
           1 -2.2003483E-03
           2  9.2358729E-05
           3  0.3784047    
           4  0.3711403    
           5 -8.8459551E-03
           6 -9.3653152E-06
           7 -0.1165652    
           8 -0.1122515    
           9  5.4126042E-03
          10  2.3620569E-03
          11 -0.1881399    
          12 -0.1816742    
          13 -1.3233264E-02
          14 -1.1236370E-03
          15  5.2934747E-02
          16  4.9861293E-02
          17 -2.9137849E-03
          18  2.0912397E-03
          19 -0.2151359    
          20 -0.2062678    
          21 -1.3440308E-02
          22  2.4927959E-03
          23  7.4670836E-02
          24  7.7832244E-02
          25  2.4022465E-03
          26  7.8812391E-03
          27 -2.3408094E-03
          28  1.4208101E-02
          29 -7.8360280E-03
          30  3.2588148E-03
          31 -1.2157029E-02
          32 -1.6073007E-02
          33  1.9519344E-02
          34  2.0337252E-02
          35 -3.4248583E-02
          36  8.4830470E-02
          37 -2.3622554E-02
          38  2.5211221E-03
          39  2.0260338E-02
          40 -3.2384429E-02
          41 -1.0037489E-02
          42 -7.2525791E-03
          43  6.4108958E-03
          44 -4.7572646E-02
          45  6.6381623E-03
          46  1.0779984E-03
          47 -4.2882273E-03
          48  1.0811203E-02
          49  5.3219050E-03
          50 -1.2256491E-02
          51 -6.5329596E-03
          52 -1.6015949E-02
          53 -2.8084123E-03
          54  7.0947241E-03
          55  2.1143358E-03
          56  3.7555106E-03
          57 -9.1517082E-04
          58  2.4865566E-02
          59 -2.2049102E-03
          60  5.0444480E-02
          61  7.9167332E-04
          62 -4.9468754E-03
          63 -1.0398991E-03
          64 -9.8790023E-03
          65  2.9611466E-03
          66 -8.7343985E-03
          67 -3.0417170E-03
          68 -1.9915160E-02
          69 -7.4242236E-04
          70  7.5586903E-04
          71 -3.3181761E-03
          72  6.3120108E-03
          73 -6.1955606E-04
          74 -5.8555286E-03
          75 -4.4957302E-03
          76 -3.8154986E-02
          77 -4.0206173E-03
          78  3.3064170E-03
          79  5.7477423E-04
          80  1.1287630E-02
          81  2.0489432E-03
          82 -2.0111063E-02
          83 -8.4008304E-03
          84 -3.3794168E-02
          85 -1.6581741E-03
          86  7.3172455E-03
          87  2.8774261E-03
          88  8.6140325E-03
          89 -1.8362215E-03
          90  5.3544473E-03
          91 -1.9393463E-03
          92  8.2301171E-03
          93  2.2295925E-03
          94 -1.9041530E-03
          95 -1.4288698E-03
          96 -2.6944021E-03
          97 -2.1465067E-03
          98  1.3794237E-02
          99 -5.0709088E-04
         100  2.9269721E-02
         101  4.2993594E-03
         102 -5.3165932E-03
         103 -4.9285899E-04
         104 -5.6353579E-03
         105  5.5137571E-05
         106 -1.2546874E-02
         107  2.4762352E-03
         108 -2.9297167E-02
         109  3.1989673E-03
         110  1.2392333E-03
         111 -1.2243310E-03
         112  4.9309619E-03
         113 -4.0836050E-03
         114  2.6594449E-03
         115  1.2722994E-02
         116 -1.8430313E-02
         117  9.4770640E-03
         118 -1.4795276E-02
         119 -5.2365861E-03
         120  1.1724489E-02
         121 -1.8454971E-02
         122  4.5726482E-02
         123 -1.5216103E-02
         124  3.0668013E-02
         125  1.3473674E-02
         126 -2.1016084E-02
         127 -6.1439243E-03
         128 -3.7273087E-03
         129  1.4003359E-02
         130 -3.7789679E-05
         131  0.4117010    
         132  0.3829070    
         133 -2.6003385E-02
         134  1.1839830E-05
         135 -0.1337168    
         136 -0.1123936    
         137 -2.8912625E-03
         138 -1.9745128E-03
         139 -0.2131916    
         140 -0.2042080    
         141 -1.3475887E-02
         142 -2.5171575E-03
         143  7.3995657E-02
         144  7.7047408E-02
         145  2.3725063E-03
         146 -7.8553222E-03
         147 -2.2635350E-03
         148  1.4119514E-02
         149 -7.8433566E-03
         150 -3.2479500E-03
         151 -1.2050401E-02
         152 -1.5970424E-02
         153  1.9368639E-02
         154 -2.0171450E-02
         155 -3.3782098E-02
         156  8.4478587E-02
         157 -2.3493428E-02
         158 -2.4731224E-03
         159  2.0125845E-02
         160 -3.2242790E-02
         161 -1.0095119E-02
         162  6.9568986E-03
         163  6.2817559E-03
         164 -4.7529802E-02
         165  6.7161084E-03
         166 -9.3443802E-04
         167 -4.2951521E-03
         168  1.0868211E-02
         169  5.3205164E-03
         170  1.2162256E-02
         171 -6.6125523E-03
         172 -1.5892548E-02
         173 -2.7812857E-03
         174 -7.0535797E-03
         175  2.1535815E-03
         176  3.7036773E-03
         177 -9.3810877E-04
         178 -2.4690518E-02
         179 -2.0819767E-03
         180  5.0217845E-02
         181  8.4064418E-04
         182  4.9432716E-03
         183 -1.0579888E-03
         184 -9.8288888E-03
         185  2.9328396E-03
         186  8.6938255E-03
         187 -3.0722951E-03
         188 -1.9879280E-02
         189 -7.0167956E-04
         190 -7.4529316E-04
         191 -3.2811195E-03
         192  6.3225343E-03
         193 -6.2490342E-04
         194  5.7429960E-03
         195 -4.5288182E-03
         196 -3.7870143E-02
         197 -3.9987522E-03
         198 -3.2739912E-03
         199  6.0211483E-04
         200  1.1195583E-02
         201  2.0224301E-03
         202  1.9877020E-02
         203 -8.3569167E-03
         204 -3.3646077E-02
         205 -1.6508636E-03
         206 -7.2474405E-03
         207  2.8759337E-03
         208  8.5761640E-03
         209 -1.8216865E-03
         210 -5.3759138E-03
         211 -1.9047550E-03
         212  8.4405541E-03
         213  2.2527999E-03
         214  1.9258074E-03
         215 -1.4106455E-03
         216 -2.7301861E-03
         217 -2.1562818E-03
         218 -1.3568550E-02
         219 -4.0677111E-04
         220  2.8962409E-02
         221  4.3243789E-03
         222  5.2624098E-03
         223 -5.1354693E-04
         224 -5.5836383E-03
         225  8.7860884E-05
         226  1.2514746E-02
         227  2.4699213E-03
         228 -2.9228201E-02
         229  3.2068973E-03
         230 -1.2641439E-03
         231 -1.2142127E-03
         232  4.9039382E-03
         233 -4.1821678E-03
         234 -2.9289878E-03
         235  1.2699069E-02
         236 -1.8150063E-02
         237  9.5682433E-03
         238  1.4880866E-02
         239 -5.2298019E-03
         240  1.1651850E-02
         241 -1.8227151E-02
         242 -4.5111652E-02
         243 -1.4935369E-02
         244  3.0372128E-02
         245  1.3281168E-02
         246  2.0721473E-02
         247 -6.2183202E-03
         248 -3.6880667E-03
         249  5.3774207E-03
         250 -2.4799192E-03
         251 -0.1902133    
         252 -0.1836032    
         253 -1.3223228E-02
         254  1.2248941E-03
         255  5.3504374E-02
         256  5.0416823E-02
         257  3.2468995E-03
         258 -7.9188505E-03
         259  2.5291865E-05
         260  8.9120537E-02
         261  9.1157630E-02
         262 -4.8858067E-03
         263 -4.0344601E-03
         264 -1.7750452E-03
         265 -4.1366506E-02
         266 -4.0367562E-02
         267 -3.8981619E-03
         268  9.1682952E-03
         269 -2.5302859E-02
         270 -1.4031094E-02
         271 -2.1943932E-02
         272 -1.1728569E-04
         273 -1.5489274E-03
         274  7.0983288E-04
         275  1.8997821E-03
         276 -1.4733663E-03
         277  1.8384864E-03
         278 -2.1685701E-04
         279  5.3933510E-03
         280  2.1620239E-04
         281  1.1123608E-02
         282 -5.5615208E-03
         283  3.7096068E-03
         284 -4.3032826E-03
         285 -2.7864524E-03
         286 -5.9266542E-03
         287  5.0480361E-03
         288  1.6402921E-03
         289 -6.9171836E-04
         290 -2.6766353E-03
         291 -4.6581132E-05
         292  2.2923574E-03
         293  4.4805487E-03
         294 -5.2161777E-04
         295 -9.2286689E-05
         296  7.6963110E-03
         297  6.8364884E-03
         298  1.5753742E-03
         299 -1.8381387E-03
         300  1.4404936E-03
         301 -5.9238635E-03
         302  9.2602037E-03
         303  5.1805032E-03
         304 -1.6296428E-02
         305  1.4424932E-02
         306  6.3974997E-03
         307 -1.1361392E-02
         308 -1.0907505E-02
         309 -2.2230948E-05
         310  8.3482020E-02
         311  9.3700811E-02
         312 -3.7669139E-03
         313  9.2147281E-03
         314  2.5297867E-02
         315 -1.4309947E-02
         316 -2.1719536E-02
         317 -3.8546816E-05
         318 -1.5434339E-03
         319 -7.2676415E-04
         320  1.8965591E-03
         321 -1.4658880E-03
         322  1.8683510E-03
         323 -1.7601997E-04
         324 -5.3388034E-03
         325  2.3975487E-04
         326  1.1086009E-02
         327 -5.5115675E-03
         328  3.7284682E-03
         329  4.2691603E-03
         330 -2.7835860E-03
         331 -5.9071570E-03
         332  5.0015952E-03
         333  1.6695787E-03
         334  6.7018223E-04
         335 -2.6426679E-03
         336  4.5509946E-06
         337  2.3163750E-03
         338  4.4654822E-03
         339  5.4944010E-04
         340 -9.2902155E-05
         341  7.5941379E-03
         342  6.8320218E-03
         343  1.5556656E-03
         344  1.8039040E-03
         345  1.4117914E-03
         346 -5.9400853E-03
         347  9.2088748E-03
         348  5.2567450E-03
         349  1.6377449E-02
         350  1.4372885E-02
         351  6.6089174E-03
         352 -4.8509273E-03
         353 -4.0775635E-03
         354  1.7608933E-03
         355 -4.1908506E-02
         356 -4.0777333E-02
 Sym= Hole
 Ene= -0.2507357    
 Spin= Alpha
 Occup= 0
           1  7.9978276E-03
           2  8.7514920E-05
           3  0.3088401    
           4  0.2737795    
           5 -2.6243711E-03
           6 -1.9506939E-05
           7  2.3436344E-03
           8  4.6550296E-03
           9 -1.8921116E-02
          10 -8.3963741E-03
          11  0.1090669    
          12  0.1701542    
          13  1.0101414E-02
          14  5.8234939E-03
          15  6.2806457E-03
          16  6.3606261E-05
          17 -7.8331577E-03
          18 -6.6802651E-03
          19 -0.1390122    
          20 -0.1631587    
          21  1.2728670E-03
          22  4.6622087E-03
          23 -3.6188611E-03
          24  4.2303884E-03
          25  6.7722960E-03
          26  8.4568039E-02
          27  9.6641332E-03
          28  0.2387692    
          29 -2.2470711E-03
          30 -1.0488519E-02
          31  1.1830303E-02
          32 -1.6580962E-02
          33  1.0714161E-02
          34 -6.4657540E-03
          35 -2.1911873E-02
          36  8.6693782E-03
          37 -4.7156690E-03
          38  1.9134479E-03
          39  2.9956216E-03
          40  1.1687072E-02
          41  7.0094448E-03
          42 -6.8982460E-02
          43  8.2303332E-03
          44 -0.1028977    
          45 -2.3121417E-03
          46 -6.9004111E-04
          47 -5.9374231E-03
          48  8.4000872E-03
          49 -1.6622312E-03
          50 -1.1669804E-02
          51  3.1256019E-03
          52 -3.3051319E-02
          53  8.8616333E-04
          54 -1.1120538E-03
          55 -9.4198645E-04
          56 -1.4906769E-03
          57  2.8263957E-03
          58  3.8885735E-02
          59 -4.3362598E-03
          60  9.6412033E-02
          61 -3.0888699E-04
          62 -2.7361468E-03
          63 -1.3185997E-04
          64 -6.0697519E-03
          65  1.6832494E-03
          66  1.8030027E-02
          67 -3.2916963E-03
          68  4.6409212E-02
          69  4.4639321E-05
          70 -3.5206515E-03
          71  7.4340793E-04
          72 -6.1431951E-03
          73  1.1227395E-03
          74 -3.8085043E-02
          75  7.7086280E-04
          76 -9.8251939E-02
          77 -4.8865791E-04
          78  7.0969597E-04
          79  1.7292781E-03
          80  5.5897939E-03
          81  1.3789156E-03
          82 -4.9091753E-02
          83 -5.2678194E-03
          84 -9.3112648E-02
          85  6.7945221E-04
          86  2.9600207E-03
          87  1.9868612E-03
          88  4.4765379E-03
          89 -2.2199370E-03
          90  2.3924571E-02
          91 -2.3911351E-03
          92  4.3331169E-02
          93  6.2442664E-04
          94 -2.5640954E-03
          95  9.6173841E-04
          96 -6.3307402E-03
          97 -6.1377982E-04
          98  4.0142532E-02
          99 -5.2563944E-03
         100  9.6592605E-02
         101  1.3725921E-04
         102 -2.3575770E-03
         103  2.4746914E-04
         104 -6.0220766E-03
         105 -3.4906536E-03
         106 -6.6342643E-03
         107 -8.7054702E-04
         108 -3.2459583E-02
         109  4.9118127E-04
         110 -4.9123011E-04
         111 -2.6754322E-04
         112 -2.4358556E-03
         113  3.8154304E-03
         114 -5.3781830E-02
         115  1.0531384E-02
         116 -0.1107337    
         117 -1.7164812E-03
         118  3.6970160E-03
         119 -2.9149263E-03
         120  6.5002544E-03
         121 -1.3983188E-02
         122  2.9076941E-02
         123 -1.2079989E-02
         124 -6.8921633E-03
         125  7.0696929E-03
         126  4.3701879E-03
         127  2.3236775E-03
         128  9.9475207E-03
         129  3.2177985E-02
         130  1.2233971E-04
         131 -0.4149331    
         132 -0.3345998    
         133 -1.9010691E-02
         134 -4.0170333E-05
         135 -5.6452393E-03
         136  2.7327720E-04
         137 -7.7793053E-03
         138  6.6161631E-03
         139 -0.1379335    
         140 -0.1619142    
         141  1.2305668E-03
         142 -4.6298173E-03
         143 -3.5904876E-03
         144  4.2631766E-03
         145  6.5542646E-03
         146 -8.4387496E-02
         147  1.0028774E-02
         148  0.2382588    
         149 -2.1351425E-03
         150  1.0437183E-02
         151  1.1685022E-02
         152 -1.6567538E-02
         153  1.0695277E-02
         154  6.3668527E-03
         155 -2.1777567E-02
         156  8.4906574E-03
         157 -4.7247182E-03
         158 -1.9396740E-03
         159  3.0252184E-03
         160  1.1646618E-02
         161  6.9518546E-03
         162  6.8614632E-02
         163  7.9807546E-03
         164 -0.1029435    
         165 -2.3422446E-03
         166  6.9947762E-04
         167 -5.8443802E-03
         168  8.4049683E-03
         169 -1.6343408E-03
         170  1.1595375E-02
         171  3.0123990E-03
         172 -3.2980364E-02
         173  9.1608142E-04
         174  1.1220404E-03
         175 -9.5072889E-04
         176 -1.4844281E-03
         177  2.7296147E-03
         178 -3.8671177E-02
         179 -4.2188396E-03
         180  9.6383341E-02
         181 -3.0099411E-04
         182  2.6959681E-03
         183 -1.3783756E-04
         184 -6.0655265E-03
         185  1.7198741E-03
         186 -1.7901501E-02
         187 -3.2100386E-03
         188  4.6484083E-02
         189  7.3571595E-05
         190  3.4980439E-03
         191  7.1102678E-04
         192 -6.1355834E-03
         193  1.0267035E-03
         194  3.7946589E-02
         195  7.5653667E-04
         196 -9.8044768E-02
         197 -4.8423704E-04
         198 -6.9784647E-04
         199  1.7985917E-03
         200  5.5754078E-03
         201  1.2527598E-03
         202  4.8618685E-02
         203 -5.5772429E-03
         204 -9.3111061E-02
         205  6.8110501E-04
         206 -2.9841503E-03
         207  1.9129094E-03
         208  4.4525256E-03
         209 -2.1262097E-03
         210 -2.3672780E-02
         211 -2.2927830E-03
         212  4.3511659E-02
         213  6.4789975E-04
         214  2.5535857E-03
         215  9.4347371E-04
         216 -6.3130967E-03
         217 -6.8520819E-04
         218 -3.9780077E-02
         219 -4.9840380E-03
         220  9.6688174E-02
         221  1.4233368E-04
         222  2.3157063E-03
         223  2.3978819E-04
         224 -6.0175424E-03
         225 -3.4342599E-03
         226  6.6238977E-03
         227 -8.6949096E-04
         228 -3.2382675E-02
         229  5.2070123E-04
         230  5.1772560E-04
         231 -2.7174113E-04
         232 -2.4224629E-03
         233  3.7864957E-03
         234  5.3415906E-02
         235  1.0319320E-02
         236 -0.1108735    
         237 -1.7562706E-03
         238 -3.6526315E-03
         239 -2.9553729E-03
         240  6.4928993E-03
         241 -1.3794010E-02
         242 -2.8664844E-02
         243 -1.1868078E-02
         244 -6.8849437E-03
         245  6.9682221E-03
         246 -4.3750503E-03
         247  2.3115773E-03
         248  9.9158185E-03
         249 -1.8827325E-02
         250  8.4178392E-03
         251  0.1103932    
         252  0.1712149    
         253  1.0038854E-02
         254 -5.8121989E-03
         255  6.3160807E-03
         256  8.8508852E-05
         257 -2.6898313E-02
         258 -3.2206994E-04
         259 -1.0737217E-05
         260 -1.2000262E-02
         261 -7.0691318E-03
         262  1.4290262E-02
         263  2.6010978E-03
         264  4.6552466E-03
         265 -8.1402436E-04
         266 -9.3631269E-03
         267  4.2780079E-03
         268  1.0886132E-03
         269 -2.2832130E-03
         270 -2.6203883E-03
         271 -8.9676222E-03
         272 -5.5355686E-03
         273  1.6745691E-03
         274 -2.1928138E-04
         275 -7.8035846E-05
         276 -9.3846390E-04
         277 -1.7553397E-03
         278  8.0330565E-04
         279  3.2040139E-03
         280 -1.0867593E-03
         281  9.0515697E-03
         282 -2.2899944E-03
         283  9.2718937E-04
         284 -1.9383464E-04
         285 -7.5744305E-05
         286  3.1713019E-03
         287  5.4462501E-03
         288 -5.6703691E-04
         289  1.1678177E-03
         290  6.2461168E-04
         291  2.3030657E-03
         292 -1.8716259E-03
         293  6.8545953E-05
         294  3.9405064E-03
         295 -6.6523076E-05
         296  8.5879462E-03
         297  3.4610475E-03
         298 -8.0685719E-04
         299 -4.4609970E-04
         300  1.0547986E-04
         301 -1.3347918E-03
         302  7.5179567E-03
         303 -1.5471638E-03
         304 -5.8674011E-03
         305 -4.7187283E-04
         306 -7.4150022E-03
         307 -2.3154203E-02
         308 -5.2774022E-03
         309 -5.9057049E-05
         310  9.9774795E-03
         311  7.4450560E-03
         312  4.1558533E-03
         313  1.0192982E-03
         314  2.2344983E-03
         315 -2.6404462E-03
         316 -8.9233695E-03
         317 -5.5121449E-03
         318  1.6761095E-03
         319  1.9752185E-04
         320 -7.5972472E-05
         321 -9.4917219E-04
         322 -1.8997116E-03
         323  7.4942288E-04
         324 -3.1928241E-03
         325 -1.0477644E-03
         326  9.0244543E-03
         327 -2.3196880E-03
         328  9.2154276E-04
         329  1.9673855E-04
         330 -7.5322780E-05
         331  3.1581819E-03
         332  5.3371387E-03
         333 -5.6171155E-04
         334 -1.1503819E-03
         335  6.1145908E-04
         336  2.2960319E-03
         337 -2.0001589E-03
         338  2.3409490E-05
         339 -3.9122850E-03
         340 -5.5202741E-05
         341  8.5718697E-03
         342  3.4308918E-03
         343 -7.8975718E-04
         344  4.1639415E-04
         345  1.1778558E-04
         346 -1.3391353E-03
         347  7.3199165E-03
         348 -1.5853960E-03
         349  5.8554620E-03
         350 -4.5761830E-04
         351 -7.3808352E-03
         352  1.4196058E-02
         353  2.5930009E-03
         354 -4.6203323E-03
         355 -8.8295661E-04
         356 -9.4148032E-03
 Sym= Particle
 Ene= -0.2507357    
 Spin= Alpha
 Occup= 2
           1  6.4897962E-05
           2  3.2770880E-03
           3 -9.8415953E-04
           4 -9.6647284E-04
           5 -7.7641947E-05
           6  2.6769533E-03
           7  2.8561737E-04
           8  2.9606573E-04
           9 -6.0440111E-03
          10 -9.7800335E-03
          11  0.3270915    
          12  0.3199704    
          13  1.0193652E-02
          14  1.2213214E-02
          15 -9.4829381E-02
          16 -9.5116571E-02
          17 -1.0915522E-03
          18 -4.9931197E-03
          19 -0.3374849    
          20 -0.3233616    
          21  4.5422725E-03
          22  8.0238003E-03
          23  0.1197937    
          24  0.1251463    
          25  9.5678715E-04
          26  1.5604592E-02
          27 -4.7470503E-03
          28  4.2158064E-02
          29  1.8848614E-03
          30 -6.9027743E-03
          31 -1.9274369E-02
          32 -3.3617772E-02
          33  2.9045641E-02
          34  3.3895790E-03
          35 -4.8055597E-02
          36  6.7070298E-02
          37 -2.6034385E-02
          38  1.9130871E-02
          39  1.6706515E-02
          40 -2.0976715E-02
          41 -4.1776214E-04
          42 -4.8848200E-03
          43  5.0024013E-03
          44  1.4609619E-02
          45 -6.9460287E-03
          46  1.0728495E-02
          47  6.4934259E-03
          48 -1.0652232E-02
          49  2.7666190E-03
          50 -3.3282131E-02
          51  4.8101359E-04
          52 -6.4883016E-02
          53 -3.7049737E-03
          54  8.4933732E-03
          55 -8.1038434E-04
          56  1.3381484E-02
          57  1.9255460E-03
          58  1.2995366E-02
          59 -1.0569822E-03
          60  2.9475300E-02
          61 -3.1228552E-03
          62 -4.9059629E-04
          63 -9.3607727E-05
          64 -4.7671855E-03
          65  3.1566927E-03
          66  2.3528967E-02
          67 -6.0119000E-03
          68  5.5553254E-02
          69 -1.5919154E-03
          70 -7.0878780E-03
          71 -1.6295305E-03
          72 -1.6723130E-02
          73 -1.9910980E-03
          74 -2.1001318E-02
          75 -4.6277996E-03
          76 -8.5912473E-02
          77  1.2018131E-04
          78  3.6572439E-03
          79  5.6254625E-04
          80  2.4360849E-02
          81  2.2933739E-03
          82 -4.0116370E-02
          83 -1.4643291E-02
          84 -7.2660521E-02
          85  2.6163501E-03
          86  1.0430315E-02
          87  4.0215217E-03
          88  1.9847505E-02
          89 -3.7301907E-03
          90  1.5498538E-02
          91 -4.7803200E-03
          92  2.4848050E-02
          93  4.0679297E-04
          94 -8.6737337E-04
          95 -1.2717934E-03
          96 -9.3959216E-03
          97  2.7549869E-04
          98  2.0505413E-02
          99 -4.1780216E-03
         100  5.0835818E-02
         101 -6.4877671E-04
         102 -2.4531300E-03
         103 -1.3545481E-05
         104 -8.4723467E-03
         105 -5.7671871E-03
         106 -1.4120397E-02
         107 -2.4498033E-04
         108 -5.8079299E-02
         109  2.9600214E-03
         110  4.1067236E-04
         111 -2.6892289E-03
         112  1.4683776E-02
         113  9.7992560E-03
         114 -1.9160006E-02
         115  7.5695914E-04
         116 -1.8326620E-02
         117 -4.8279758E-03
         118  1.3205134E-03
         119 -8.4530667E-04
         120  2.9342275E-03
         121 -2.9952994E-02
         122  8.4823176E-02
         123 -2.5534222E-02
         124  7.3528327E-02
         125  2.9756861E-02
         126 -4.1950148E-02
         127  6.2248120E-03
         128 -1.3343893E-02
         129 -2.7154538E-06
         130  8.1334999E-03
         131 -1.2596245E-03
         132 -1.1643730E-03
         133  1.2462559E-06
         134 -9.4922250E-03
         135  4.5041714E-04
         136  3.5824970E-04
         137  1.1837434E-03
         138 -5.1392368E-03
         139  0.3390159    
         140  0.3245497    
         141 -4.6181087E-03
         142  8.0666123E-03
         143 -0.1203710    
         144 -0.1256506    
         145 -9.2700130E-04
         146  1.5588894E-02
         147  4.6965182E-03
         148 -4.2265680E-02
         149 -1.8693140E-03
         150 -6.8308227E-03
         151  1.9377200E-02
         152  3.3726927E-02
         153 -2.9183935E-02
         154  3.5518408E-03
         155  4.8161902E-02
         156 -6.7892507E-02
         157  2.6182473E-02
         158  1.9119931E-02
         159 -1.6851811E-02
         160  2.1263881E-02
         161  5.1044126E-04
         162 -4.8708743E-03
         163 -5.0772475E-03
         164 -1.4371020E-02
         165  6.8716784E-03
         166  1.0688690E-02
         167 -6.4589805E-03
         168  1.0613011E-02
         169 -2.8084558E-03
         170 -3.3368204E-02
         171 -2.7100308E-04
         172  6.5259837E-02
         173  3.7302724E-03
         174  8.5489750E-03
         175  7.4266852E-04
         176 -1.3480709E-02
         177 -1.9177381E-03
         178  1.3140161E-02
         179  9.9865242E-04
         180 -2.9892389E-02
         181  3.1306138E-03
         182 -5.0821889E-04
         183  1.0491486E-04
         184  4.8418432E-03
         185 -3.1861302E-03
         186  2.3471288E-02
         187  5.9036631E-03
         188 -5.5632200E-02
         189  1.6234074E-03
         190 -7.0664342E-03
         191  1.6755959E-03
         192  1.6736522E-02
         193  2.0120093E-03
         194 -2.0986931E-02
         195  4.8206695E-03
         196  8.6374022E-02
         197 -9.9709170E-05
         198  3.6829058E-03
         199 -6.1996095E-04
         200 -2.4493612E-02
         201 -2.2933499E-03
         202 -4.0152427E-02
         203  1.4820167E-02
         204  7.3192015E-02
         205 -2.5991118E-03
         206  1.0465134E-02
         207 -4.0702438E-03
         208 -2.0002814E-02
         209  3.7322037E-03
         210  1.5426556E-02
         211  4.7170944E-03
         212 -2.4829751E-02
         213 -3.9767349E-04
         214 -8.4984704E-04
         215  1.3047156E-03
         216  9.3844105E-03
         217 -2.7997626E-04
         218  2.0606698E-02
         219  4.1028108E-03
         220 -5.1406123E-02
         221  6.5530662E-04
         222 -2.4918425E-03
         223  3.1620257E-05
         224  8.5858805E-03
         225  5.7611428E-03
         226 -1.4118005E-02
         227  3.2018527E-04
         228  5.8420267E-02
         229 -2.9494567E-03
         230  4.1078424E-04
         231  2.6707374E-03
         232 -1.4743201E-02
         233 -9.7821364E-03
         234 -1.9245703E-02
         235 -7.6176226E-04
         236  1.8746212E-02
         237  4.8105358E-03
         238  1.3239295E-03
         239  8.6724747E-04
         240 -3.0741785E-03
         241  2.9967448E-02
         242  8.5103214E-02
         243  2.5436139E-02
         244 -7.4484535E-02
         245 -2.9759502E-02
         246 -4.2027786E-02
         247 -6.1389427E-03
         248  1.3621286E-02
         249  6.0157040E-03
         250 -9.9182939E-03
         251 -0.3262654    
         252 -0.3189645    
         253 -1.0230832E-02
         254  1.2250295E-02
         255  9.4659202E-02
         256  9.4897225E-02
         257 -7.5320211E-05
         258  1.5912457E-05
         259  3.5285440E-03
         260 -1.8904850E-04
         261 -2.4543781E-04
         262  6.1081890E-03
         263  5.8642048E-03
         264  1.0769305E-02
         265  7.8015961E-02
         266  7.0917375E-02
         267 -1.1196797E-02
         268 -7.1707513E-04
         269 -3.5580192E-03
         270  1.8207256E-02
         271 -2.1429481E-03
         272 -7.8190109E-03
         273 -2.0427047E-04
         274 -6.9069378E-03
         275  7.5833144E-04
         276 -1.1449200E-02
         277 -1.9897993E-03
         278 -3.7184160E-03
         279  3.7772008E-03
         280  1.8040993E-03
         281  3.3378971E-03
         282 -7.9504875E-03
         283  4.5228412E-04
         284  4.9402341E-03
         285 -2.9154473E-03
         286  8.4825838E-03
         287  8.5764937E-03
         288 -3.7541061E-03
         289  3.6442848E-03
         290 -2.8419353E-03
         291  1.5079733E-03
         292 -8.5266144E-04
         293  1.3247246E-03
         294  2.4036230E-03
         295  4.1134137E-04
         296  9.8062018E-03
         297  3.0560447E-03
         298  1.8972221E-03
         299 -4.5660264E-03
         300 -2.6270640E-04
         301 -6.4271726E-03
         302  6.9691637E-03
         303 -9.7792577E-03
         304  9.3999188E-03
         305  6.6697011E-03
         306 -3.0422827E-02
         307 -3.4110519E-05
         308  5.2099611E-05
         309 -7.8296345E-03
         310 -2.5826573E-04
         311 -2.5544042E-04
         312  1.1209840E-02
         313  6.2818569E-04
         314 -3.8009516E-03
         315 -1.8058177E-02
         316  2.2825543E-03
         317  7.8011244E-03
         318  2.1988529E-04
         319 -6.9218026E-03
         320 -7.5590931E-04
         321  1.1503578E-02
         322  1.9659651E-03
         323  3.7332538E-03
         324  3.8134006E-03
         325 -1.8162919E-03
         326 -3.4436658E-03
         327  7.9865437E-03
         328 -4.6246266E-04
         329  4.9006459E-03
         330  2.9057432E-03
         331 -8.4779859E-03
         332 -8.6025046E-03
         333  3.7667963E-03
         334  3.6163959E-03
         335  2.8507870E-03
         336 -1.4742765E-03
         337  8.4493269E-04
         338 -1.3331387E-03
         339  2.4035617E-03
         340 -4.2008393E-04
         341 -9.9264784E-03
         342 -3.0868242E-03
         343 -1.8876323E-03
         344 -4.5722215E-03
         345  2.5645399E-04
         346  6.4963987E-03
         347 -7.0363847E-03
         348  9.7703421E-03
         349  9.2912661E-03
         350 -6.7107202E-03
         351  3.0517407E-02
         352 -6.1427271E-03
         353 -5.8315820E-03
         354  1.0752724E-02
         355 -7.7835754E-02
         356 -7.0730671E-02
