 [Molden Format]
 [Atoms] Angs
C       1      6     -1.52605133      5.01637555      0.04301832
C       2      6     -0.80486383      3.70321370      0.05139184
C       3      6      0.58146728      3.63479135      0.06894118
C       4      6      1.23501306      2.41975502      0.05787104
C       5      6      0.51953379      1.22074176      0.02359435
C       6      6     -0.87557872      1.27996023      0.01752334
C       7      6     -1.51190224      2.50990834      0.02882881
C       8      6     -1.73618831      0.03061758      0.00536548
C       9      6     -2.53754766      0.02834529     -1.27415205
C      10      6     -1.84998715      0.06871051     -2.48264597
C      11      6     -2.52747823      0.06242736     -3.68574463
C      12      6     -3.91493435      0.01344558     -3.70427211
C      13      6     -4.60738409     -0.03022949     -2.51464891
C      14      6     -3.93048889     -0.02354939     -1.29231862
C      15      6     -4.73131319     -0.07303215     -0.05279128
O      16      8     -5.94779298     -0.15283873     -0.07612117
C      17      6     -3.97928376     -0.01705354      1.21672977
C      18      6     -4.70301137     -0.01816617      2.41197034
C      19      6     -4.05714161      0.03429900      3.62718659
C      20      6     -2.67012511      0.08739977      3.66207557
C      21      6     -1.94650948      0.08748440      2.48610360
C      22      6     -2.58672810      0.03714275      1.25225383
C      23      6     -0.89812952     -1.23563065      0.02276050
C      24      6     -1.55605183     -2.45481453      0.03221934
C      25      6     -0.87019829     -3.65970205      0.03232209
C      26      6     -1.60763021     -4.96377735      0.02331440
C      27      6      0.51784582     -3.61555223      0.01220874
C      28      6      1.19198693     -2.41253613      0.00248744
C      29      6      0.49739004     -1.20038853      0.01632392
N      30      7      1.18273806      0.00409111      0.01202597
C      31      6      2.60491730     -0.00756079     -0.00161508
C      32      6      3.29575184      0.18787450     -1.18740282
C      33      6      4.67964262      0.17891611     -1.19884469
C      34      6      5.40956981     -0.02769367     -0.03425639
C      35      6      6.92945335     -0.04742947     -0.00357867
C      36      6      7.42444325      1.06252319      0.93454803
C      37      6      7.55118416      0.18175065     -1.38378557
C      38      6      7.40040528     -1.41459667      0.51234519
C      39      6      4.69835383     -0.22367135      1.14807852
C      40      6      3.31795646     -0.21330415      1.17179547
H      41      1     -0.86639459      5.82360993      0.35190863
H      42      1     -2.38492362      4.98715979      0.71070517
H      43      1     -1.89133691      5.23828762     -0.96028915
H      44      1      1.16350721      4.54474812      0.09496088
H      45      1      2.31390266      2.39538513      0.08031454
H      46      1     -2.59312632      2.53291904      0.02166011
H      47      1     -0.77006529      0.10583678     -2.47222196
H      48      1     -1.97512234      0.09512659     -4.61356150
H      49      1     -4.44569449      0.00857444     -4.64461562
H      50      1     -5.68649904     -0.07073092     -2.49305831
H      51      1     -5.78041023     -0.06124030      2.34885825
H      52      1     -4.62392824      0.03351851      4.54627745
H      53      1     -2.15428744      0.12827340      4.61031866
H      54      1     -0.86707621      0.12894056      2.51667948
H      55      1     -2.63745855     -2.45909472      0.03897554
H      56      1     -1.02213825     -5.74342586      0.50541931
H      57      1     -2.56264818     -4.87035362      0.53518409
H      58      1     -1.80527460     -5.27575385     -1.00309103
H      59      1      1.08303389     -4.53637862      0.00345269
H      60      1      2.27116686     -2.40714537     -0.01781984
H      61      1      2.74525023      0.35104888     -2.10250125
H      62      1      5.17962248      0.33530382     -2.14035494
H      63      1      7.07428681      2.03250839      0.58744945
H      64      1      7.06665556      0.91446630      1.94958450
H      65      1      8.51193380      1.07605174      0.95599097
H      66      1      7.25130874     -0.59540310     -2.08298866
H      67      1      8.63569020      0.15644899     -1.30012827
H      68      1      7.26914697      1.15251786     -1.78485990
H      69      1      8.48736617     -1.45544165      0.52338391
H      70      1      7.03205227     -2.20809438     -0.13468276
H      71      1      7.04335420     -1.60385130      1.52077892
H      72      1      5.22528710     -0.38665615      2.07581822
H      73      1      2.78456335     -0.36808070      2.09833801
 [GTO]
           1   0
s              4   1.000000
     36.90756865     -0.01198412
      6.35578872     -0.05472052
      0.51071474      0.58055871
      0.19464603      0.47700800
p              4   1.000000
      5.94861888      0.05713170
      1.54238805      0.28574555
      0.54373952      0.55178731
      0.21647207      0.26323149
s              7   1.000000
      0.38350848     -0.19451198
      0.04707223      0.93981043
      0.02222627      0.24680849
     36.90756865      0.00523312
      6.35578872      0.02389487
      0.51071474     -0.25351321
      0.19464603     -0.20829561
p              7   1.000000
      1.83062075     -0.01151600
      0.10124670      0.56591373
      0.03901771      0.59101285
      5.94861888     -0.02396645
      1.54238805     -0.11986875
      0.54373952     -0.23147187
      0.21647207     -0.11042422
 
           2   0
s              4   1.000000
     34.92913424     -0.01198412
      6.01508594     -0.05472052
      0.48333782      0.58055871
      0.18421201      0.47700800
p              4   1.000000
      5.62974249      0.05713170
      1.45970816      0.28574555
      0.51459230      0.55178731
      0.20486806      0.26323149
s              7   1.000000
      0.38350848     -0.19623672
      0.04707223      0.94814373
      0.02222627      0.24899695
     34.92913424      0.00551648
      6.01508594      0.02518874
      0.48333782     -0.26724049
      0.18421201     -0.21957443
p              7   1.000000
      1.83062075     -0.01161186
      0.10124670      0.57062472
      0.03901771      0.59593274
      5.62974249     -0.02526980
      1.45970816     -0.12638751
      0.51459230     -0.24405988
      0.20486806     -0.11642937
 
           3   0
s              4   1.000000
     34.99933267     -0.01198412
      6.02717469     -0.05472052
      0.48430920      0.58055871
      0.18458222      0.47700799
p              4   1.000000
      5.64105680      0.05713170
      1.46264179      0.28574555
      0.51562649      0.55178731
      0.20527979      0.26323149
s              7   1.000000
      0.38350848     -0.19617106
      0.04707223      0.94782645
      0.02222627      0.24891361
     34.99933267      0.00550591
      6.02717469      0.02514049
      0.48430920     -0.26672860
      0.18458222     -0.21915385
p              7   1.000000
      1.83062075     -0.01160821
      0.10124670      0.57044532
      0.03901771      0.59574543
      5.64105680     -0.02522121
      1.46264179     -0.12614450
      0.51562649     -0.24359061
      0.20527979     -0.11620550
 
           4   0
s              4   1.000000
     35.03394514     -0.01198412
      6.03313525     -0.05472052
      0.48478816      0.58055871
      0.18476477      0.47700799
p              4   1.000000
      5.64663551      0.05713170
      1.46408827      0.28574555
      0.51613642      0.55178731
      0.20548280      0.26323149
s              7   1.000000
      0.38350848     -0.19613881
      0.04707223      0.94767063
      0.02222627      0.24887269
     35.03394514      0.00550072
      6.03313525      0.02511677
      0.48478816     -0.26647692
      0.18476477     -0.21894705
p              7   1.000000
      1.83062075     -0.01160642
      0.10124670      0.57035724
      0.03901771      0.59565339
      5.64663551     -0.02519732
      1.46408827     -0.12602501
      0.51613642     -0.24335987
      0.20548280     -0.11609542
 
           5   0
s              4   1.000000
     35.25850988     -0.01198412
      6.07180715     -0.05472052
      0.48789561      0.58055871
      0.18594909      0.47700800
p              4   1.000000
      5.68282998      0.05713170
      1.47347296      0.28574555
      0.51944481      0.55178731
      0.20679993      0.26323149
s              7   1.000000
      0.38350848     -0.19593162
      0.04707223      0.94666955
      0.02222627      0.24860980
     35.25850988      0.00546724
      6.07180715      0.02496391
      0.48789561     -0.26485523
      0.18594909     -0.21761462
p              7   1.000000
      1.83062075     -0.01159490
      0.10124670      0.56979126
      0.03901771      0.59506233
      5.68282998     -0.02504338
      1.47347296     -0.12525507
      0.51944481     -0.24187309
      0.20679993     -0.11538615
 
           6   0
s              4   1.000000
     35.33870192     -0.01198412
      6.08561689     -0.05472053
      0.48900528      0.58055871
      0.18637202      0.47700799
p              4   1.000000
      5.69575503      0.05713170
      1.47682423      0.28574555
      0.52062624      0.55178731
      0.20727028      0.26323149
s              7   1.000000
      0.38350848     -0.19585847
      0.04707223      0.94631618
      0.02222627      0.24851699
     35.33870192      0.00545539
      6.08561689      0.02490977
      0.48900528     -0.26428081
      0.18637202     -0.21714265
p              7   1.000000
      1.83062075     -0.01159084
      0.10124670      0.56959147
      0.03901771      0.59485370
      5.69575503     -0.02498885
      1.47682423     -0.12498234
      0.52062624     -0.24134642
      0.20727028     -0.11513490
 
           7   0
s              4   1.000000
     35.12293936     -0.01198412
      6.04846079     -0.05472053
      0.48601963      0.58055871
      0.18523411      0.47700800
p              4   1.000000
      5.66097925      0.05713170
      1.46780739      0.28574555
      0.51744753      0.55178731
      0.20600478      0.26323149
s              7   1.000000
      0.38350848     -0.19605628
      0.04707223      0.94727187
      0.02222627      0.24876797
     35.12293936      0.00548741
      6.04846079      0.02505597
      0.48601963     -0.26583193
      0.18523411     -0.21841711
p              7   1.000000
      1.83062075     -0.01160183
      0.10124670      0.57013179
      0.03901771      0.59541798
      5.66097925     -0.02513610
      1.46780739     -0.12571879
      0.51744753     -0.24276854
      0.20600478     -0.11581333
 
           8   0
s              4   1.000000
     37.42178523     -0.01198412
      6.44434107     -0.05472053
      0.51783030      0.58055871
      0.19735795      0.47700800
p              4   1.000000
      6.03149832      0.05713170
      1.56387745      0.28574555
      0.55131520      0.55178731
      0.21948808      0.26323149
s              7   1.000000
      0.38350848     -0.19410319
      0.04707223      0.93783530
      0.02222627      0.24628979
     37.42178523      0.00516406
      6.44434107      0.02357954
      0.51783030     -0.25016772
      0.19735795     -0.20554683
p              7   1.000000
      1.83062075     -0.01149328
      0.10124670      0.56479732
      0.03901771      0.58984691
      6.03149832     -0.02364870
      1.56387745     -0.11827952
      0.55131520     -0.22840299
      0.21948808     -0.10896021
 
           9   0
s              4   1.000000
     35.31582000     -0.01198412
      6.08167643     -0.05472052
      0.48868865      0.58055871
      0.18625134      0.47700799
p              4   1.000000
      5.69206701      0.05713170
      1.47586798      0.28574555
      0.52028913      0.55178731
      0.20713607      0.26323149
s              7   1.000000
      0.38350848     -0.19587930
      0.04707223      0.94641679
      0.02222627      0.24854341
     35.31582000      0.00545876
      6.08167643      0.02492520
      0.48868865     -0.26444446
      0.18625134     -0.21727712
p              7   1.000000
      1.83062075     -0.01159199
      0.10124670      0.56964836
      0.03901771      0.59491309
      5.69206701     -0.02500439
      1.47586798     -0.12506004
      0.52028913     -0.24149647
      0.20713607     -0.11520649
 
          10   0
s              4   1.000000
     35.03627201     -0.01198412
      6.03353595     -0.05472052
      0.48482036      0.58055871
      0.18477704      0.47700799
p              4   1.000000
      5.64701054      0.05713170
      1.46418551      0.28574555
      0.51617070      0.55178731
      0.20549645      0.26323149
s              7   1.000000
      0.38350848     -0.19613664
      0.04707223      0.94766017
      0.02222627      0.24886996
     35.03627201      0.00550037
      6.03353595      0.02511517
      0.48482036     -0.26646002
      0.18477704     -0.21893317
p              7   1.000000
      1.83062075     -0.01160630
      0.10124670      0.57035131
      0.03901771      0.59564724
      5.64701054     -0.02519572
      1.46418551     -0.12601698
      0.51617070     -0.24334437
      0.20549645     -0.11608803
 
          11   0
s              4   1.000000
     34.92278036     -0.01198412
      6.01399175     -0.05472052
      0.48324990      0.58055871
      0.18417850      0.47700799
p              4   1.000000
      5.62871840      0.05713170
      1.45944263      0.28574555
      0.51449869      0.55178731
      0.20483079      0.26323149
s              7   1.000000
      0.38350848     -0.19624269
      0.04707223      0.94817254
      0.02222627      0.24900450
     34.92278036      0.00551744
      6.01399175      0.02519311
      0.48324990     -0.26728692
      0.18417850     -0.21961258
p              7   1.000000
      1.83062075     -0.01161219
      0.10124670      0.57064099
      0.03901771      0.59594977
      5.62871840     -0.02527421
      1.45944263     -0.12640955
      0.51449869     -0.24410245
      0.20483079     -0.11644967
 
          12   0
s              4   1.000000
     34.91086342     -0.01198412
      6.01193956     -0.05472052
      0.48308500      0.58055871
      0.18411565      0.47700799
p              4   1.000000
      5.62679767      0.05713170
      1.45894462      0.28574555
      0.51432312      0.55178731
      0.20476090      0.26323149
s              7   1.000000
      0.38350848     -0.19625387
      0.04707223      0.94822659
      0.02222627      0.24901869
     34.91086342      0.00551924
      6.01193956      0.02520132
      0.48308500     -0.26737403
      0.18411565     -0.21968415
p              7   1.000000
      1.83062075     -0.01161282
      0.10124670      0.57067155
      0.03901771      0.59598169
      5.62679767     -0.02528248
      1.45894462     -0.12645091
      0.51432312     -0.24418231
      0.20476090     -0.11648777
 
          13   0
s              4   1.000000
     35.02290607     -0.01198412
      6.03123423     -0.05472053
      0.48463541      0.58055871
      0.18470655      0.47700799
p              4   1.000000
      5.64485627      0.05713170
      1.46362694      0.28574555
      0.51597379      0.55178731
      0.20541806      0.26323149
s              7   1.000000
      0.38350848     -0.19614908
      0.04707223      0.94772028
      0.02222627      0.24888573
     35.02290607      0.00550238
      6.03123423      0.02512433
      0.48463541     -0.26655714
      0.18470655     -0.21901296
p              7   1.000000
      1.83062075     -0.01160699
      0.10124670      0.57038530
      0.03901771      0.59568272
      5.64485627     -0.02520494
      1.46362694     -0.12606309
      0.51597379     -0.24343341
      0.20541806     -0.11613051
 
          14   0
s              4   1.000000
     35.14241715     -0.01198412
      6.05181502     -0.05472052
      0.48628916      0.58055871
      0.18533684      0.47700799
p              4   1.000000
      5.66411861      0.05713170
      1.46862137      0.28574555
      0.51773448      0.55178731
      0.20611902      0.26323149
s              7   1.000000
      0.38350848     -0.19603829
      0.04707223      0.94718496
      0.02222627      0.24874516
     35.14241715      0.00548450
      6.05181502      0.02504270
      0.48628916     -0.26569117
      0.18533684     -0.21830145
p              7   1.000000
      1.83062075     -0.01160083
      0.10124670      0.57008264
      0.03901771      0.59536664
      5.66411861     -0.02512274
      1.46862137     -0.12565196
      0.51773448     -0.24263950
      0.20611902     -0.11575177
 
          15   0
s              4   1.000000
     34.97590901     -0.01198412
      6.02314094     -0.05472052
      0.48398507      0.58055871
      0.18445869      0.47700799
p              4   1.000000
      5.63728147      0.05713170
      1.46166291      0.28574555
      0.51528141      0.55178730
      0.20514241      0.26323149
s              7   1.000000
      0.38350848     -0.19619293
      0.04707223      0.94793213
      0.02222627      0.24894137
     34.97590901      0.00550944
      6.02314094      0.02515657
      0.48398507     -0.26689919
      0.18445869     -0.21929401
p              7   1.000000
      1.83062075     -0.01160943
      0.10124670      0.57050508
      0.03901771      0.59580781
      5.63728147     -0.02523741
      1.46166291     -0.12622548
      0.51528141     -0.24374700
      0.20514241     -0.11628011
 
          16   0
s              4   1.000000
     73.02026233     -0.01198412
     12.57469339     -0.05472052
      1.01043027      0.58055871
      0.38509998      0.47700799
p              4   1.000000
      7.53005238      0.05713170
      1.95243014      0.28574555
      0.68829204      0.55178731
      0.27402092      0.26323149
s              7   1.000000
      0.57971233     -0.18805094
      0.07115450      0.90859301
      0.03359728      0.23861032
     73.02026233      0.00402663
     12.57469339      0.01838596
      1.01043027     -0.19506630
      0.38509998     -0.16027351
p              7   1.000000
      2.76717072     -0.01185885
      0.15304476      0.58276220
      0.05897927      0.60860855
      7.53005238     -0.02839629
      1.95243014     -0.14202469
      0.68829204     -0.27425597
      0.27402092     -0.13083448
 
          17   0
s              4   1.000000
     35.14254538     -0.01198412
      6.05183711     -0.05472052
      0.48629093      0.58055871
      0.18533751      0.47700799
p              4   1.000000
      5.66413928      0.05713170
      1.46862673      0.28574555
      0.51773637      0.55178731
      0.20611977      0.26323149
s              7   1.000000
      0.38350848     -0.19603817
      0.04707223      0.94718439
      0.02222627      0.24874499
     35.14254538      0.00548448
      6.05183711      0.02504262
      0.48629093     -0.26569024
      0.18533751     -0.21830069
p              7   1.000000
      1.83062075     -0.01160083
      0.10124670      0.57008232
      0.03901771      0.59536632
      5.66413928     -0.02512265
      1.46862673     -0.12565152
      0.51773637     -0.24263865
      0.20611977     -0.11575136
 
          18   0
s              4   1.000000
     35.02270991     -0.01198412
      6.03120045     -0.05472052
      0.48463269      0.58055871
      0.18470551      0.47700799
p              4   1.000000
      5.64482466      0.05713170
      1.46361874      0.28574555
      0.51597090      0.55178731
      0.20541691      0.26323149
s              7   1.000000
      0.38350848     -0.19614926
      0.04707223      0.94772116
      0.02222627      0.24888597
     35.02270991      0.00550240
      6.03120045      0.02512446
      0.48463269     -0.26655856
      0.18470551     -0.21901414
p              7   1.000000
      1.83062075     -0.01160700
      0.10124670      0.57038581
      0.03901771      0.59568325
      5.64482466     -0.02520507
      1.46361874     -0.12606377
      0.51597090     -0.24343472
      0.20541691     -0.11613113
 
          19   0
s              4   1.000000
     34.91085726     -0.01198412
      6.01193850     -0.05472052
      0.48308491      0.58055871
      0.18411562      0.47700799
p              4   1.000000
      5.62679668      0.05713170
      1.45894436      0.28574555
      0.51432303      0.55178731
      0.20476086      0.26323149
s              7   1.000000
      0.38350848     -0.19625388
      0.04707223      0.94822662
      0.02222627      0.24901872
     34.91085726      0.00551924
      6.01193850      0.02520133
      0.48308491     -0.26737408
      0.18411562     -0.21968419
p              7   1.000000
      1.83062075     -0.01161282
      0.10124670      0.57067158
      0.03901771      0.59598169
      5.62679668     -0.02528248
      1.45894436     -0.12645094
      0.51432303     -0.24418235
      0.20476086     -0.11648779
 
          20   0
s              4   1.000000
     34.92272939     -0.01198412
      6.01398298     -0.05472053
      0.48324919      0.58055871
      0.18417823      0.47700799
p              4   1.000000
      5.62871019      0.05713170
      1.45944050      0.28574555
      0.51449794      0.55178731
      0.20483050      0.26323149
s              7   1.000000
      0.38350848     -0.19624273
      0.04707223      0.94817276
      0.02222627      0.24900455
     34.92272939      0.00551745
      6.01398298      0.02519315
      0.48324919     -0.26728729
      0.18417823     -0.21961288
p              7   1.000000
      1.83062075     -0.01161220
      0.10124670      0.57064113
      0.03901771      0.59594989
      5.62871019     -0.02527425
      1.45944050     -0.12640973
      0.51449794     -0.24410279
      0.20483050     -0.11644984
 
          21   0
s              4   1.000000
     35.03618532     -0.01198412
      6.03352102     -0.05472053
      0.48481916      0.58055871
      0.18477658      0.47700799
p              4   1.000000
      5.64699657      0.05713170
      1.46418189      0.28574555
      0.51616942      0.55178731
      0.20549594      0.26323149
s              7   1.000000
      0.38350848     -0.19613672
      0.04707223      0.94766055
      0.02222627      0.24887005
     35.03618532      0.00550038
      6.03352102      0.02511523
      0.48481916     -0.26646065
      0.18477658     -0.21893368
p              7   1.000000
      1.83062075     -0.01160630
      0.10124670      0.57035154
      0.03901771      0.59564744
      5.64699657     -0.02519578
      1.46418189     -0.12601728
      0.51616942     -0.24334495
      0.20549594     -0.11608830
 
          22   0
s              4   1.000000
     35.31555363     -0.01198412
      6.08163056     -0.05472053
      0.48868497      0.58055871
      0.18624994      0.47700799
p              4   1.000000
      5.69202407      0.05713170
      1.47585685      0.28574555
      0.52028521      0.55178730
      0.20713451      0.26323149
s              7   1.000000
      0.38350848     -0.19587954
      0.04707223      0.94641796
      0.02222627      0.24854372
     35.31555363      0.00545880
      6.08163056      0.02492538
      0.48868497     -0.26444637
      0.18624994     -0.21727869
p              7   1.000000
      1.83062075     -0.01159201
      0.10124670      0.56964902
      0.03901771      0.59491377
      5.69202407     -0.02500457
      1.47585685     -0.12506094
      0.52028521     -0.24149822
      0.20713451     -0.11520732
 
          23   0
s              4   1.000000
     35.34029686     -0.01198412
      6.08589155     -0.05472053
      0.48902735      0.58055871
      0.18638043      0.47700799
p              4   1.000000
      5.69601209      0.05713170
      1.47689088      0.28574555
      0.52064974      0.55178731
      0.20727963      0.26323149
s              7   1.000000
      0.38350848     -0.19585703
      0.04707223      0.94630916
      0.02222627      0.24851516
     35.34029686      0.00545515
      6.08589155      0.02490870
      0.48902735     -0.26426941
      0.18638043     -0.21713329
p              7   1.000000
      1.83062075     -0.01159076
      0.10124670      0.56958752
      0.03901771      0.59484953
      5.69601209     -0.02498777
      1.47689088     -0.12497692
      0.52064974     -0.24133597
      0.20727963     -0.11512992
 
          24   0
s              4   1.000000
     35.12115275     -0.01198412
      6.04815312     -0.05472052
      0.48599491      0.58055871
      0.18522469      0.47700799
p              4   1.000000
      5.66069129      0.05713170
      1.46773273      0.28574555
      0.51742120      0.55178731
      0.20599430      0.26323149
s              7   1.000000
      0.38350848     -0.19605793
      0.04707223      0.94727985
      0.02222627      0.24877007
     35.12115275      0.00548767
      6.04815312      0.02505719
      0.48599491     -0.26584485
      0.18522469     -0.21842772
p              7   1.000000
      1.83062075     -0.01160192
      0.10124670      0.57013630
      0.03901771      0.59542267
      5.66069129     -0.02513732
      1.46773273     -0.12572492
      0.51742120     -0.24278039
      0.20599430     -0.11581898
 
          25   0
s              4   1.000000
     34.92926735     -0.01198412
      6.01510887     -0.05472052
      0.48333966      0.58055871
      0.18421271      0.47700800
p              4   1.000000
      5.62976395      0.05713170
      1.45971373      0.28574555
      0.51459426      0.55178731
      0.20486884      0.26323149
s              7   1.000000
      0.38350848     -0.19623660
      0.04707223      0.94814314
      0.02222627      0.24899678
     34.92926735      0.00551646
      6.01510887      0.02518864
      0.48333966     -0.26723951
      0.18421271     -0.21957363
p              7   1.000000
      1.83062075     -0.01161186
      0.10124670      0.57062437
      0.03901771      0.59593238
      5.62976395     -0.02526971
      1.45971373     -0.12638705
      0.51459426     -0.24405899
      0.20486884     -0.11642894
 
          26   0
s              4   1.000000
     36.90758113     -0.01198412
      6.35579087     -0.05472053
      0.51071491      0.58055871
      0.19464609      0.47700800
p              4   1.000000
      5.94862090      0.05713170
      1.54238857      0.28574555
      0.54373970      0.55178731
      0.21647214      0.26323149
s              7   1.000000
      0.38350848     -0.19451197
      0.04707223      0.93981037
      0.02222627      0.24680846
     36.90758113      0.00523312
      6.35579087      0.02389486
      0.51071491     -0.25351313
      0.19464609     -0.20829554
p              7   1.000000
      1.83062075     -0.01151600
      0.10124670      0.56591371
      0.03901771      0.59101281
      5.94862090     -0.02396644
      1.54238857     -0.11986871
      0.54373970     -0.23147179
      0.21647214     -0.11042419
 
          27   0
s              4   1.000000
     35.00055089     -0.01198412
      6.02738448     -0.05472053
      0.48432606      0.58055871
      0.18458865      0.47700800
p              4   1.000000
      5.64125315      0.05713170
      1.46269271      0.28574555
      0.51564444      0.55178731
      0.20528694      0.26323149
s              7   1.000000
      0.38350848     -0.19616992
      0.04707223      0.94782096
      0.02222627      0.24891217
     35.00055089      0.00550573
      6.02738448      0.02513965
      0.48432606     -0.26671974
      0.18458865     -0.21914656
p              7   1.000000
      1.83062075     -0.01160815
      0.10124670      0.57044223
      0.03901771      0.59574215
      5.64125315     -0.02522037
      1.46269271     -0.12614029
      0.51564444     -0.24358248
      0.20528694     -0.11620162
 
          28   0
s              4   1.000000
     35.03392950     -0.01198412
      6.03313255     -0.05472053
      0.48478794      0.58055871
      0.18476469      0.47700799
p              4   1.000000
      5.64663299      0.05713170
      1.46408762      0.28574555
      0.51613619      0.55178731
      0.20548271      0.26323149
s              7   1.000000
      0.38350848     -0.19613882
      0.04707223      0.94767070
      0.02222627      0.24887271
     35.03392950      0.00550072
      6.03313255      0.02511678
      0.48478794     -0.26647703
      0.18476469     -0.21894715
p              7   1.000000
      1.83062075     -0.01160642
      0.10124670      0.57035727
      0.03901771      0.59565343
      5.64663299     -0.02519733
      1.46408762     -0.12602506
      0.51613619     -0.24335997
      0.20548271     -0.11609547
 
          29   0
s              4   1.000000
     35.25709744     -0.01198412
      6.07156392     -0.05472052
      0.48787607      0.58055871
      0.18594164      0.47700799
p              4   1.000000
      5.68260233      0.05713170
      1.47341393      0.28574555
      0.51942400      0.55178731
      0.20679165      0.26323149
s              7   1.000000
      0.38350848     -0.19593291
      0.04707223      0.94667580
      0.02222627      0.24861144
     35.25709744      0.00546745
      6.07156392      0.02496487
      0.48787607     -0.26486537
      0.18594164     -0.21762295
p              7   1.000000
      1.83062075     -0.01159497
      0.10124670      0.56979480
      0.03901771      0.59506601
      5.68260233     -0.02504435
      1.47341393     -0.12525989
      0.51942400     -0.24188238
      0.20679165     -0.11539059
 
          30   0
s              4   1.000000
     61.18338149     -0.01198412
     10.53628456     -0.05472052
      0.84663542      0.58055871
      0.32267372      0.47700799
p              4   1.000000
      7.21180607      0.05713170
      1.86991362      0.28574555
      0.65920242      0.55178731
      0.26243984      0.26323149
s              7   1.000000
      0.47894987     -0.18778839
      0.05878681      0.90732452
      0.02775758      0.23827719
     61.18338149      0.00397087
     10.53628456      0.01813133
      0.84663542     -0.19236482
      0.32267372     -0.15805388
p              7   1.000000
      2.28619608     -0.01156653
      0.12644335      0.56839710
      0.04872781      0.59360633
      7.21180607     -0.02466075
      1.86991362     -0.12334130
      0.65920242     -0.23817752
      0.26243984     -0.11362317
 
          31   0
s              4   1.000000
     35.23367219     -0.01198412
      6.06752990     -0.05472053
      0.48755192      0.58055871
      0.18581810      0.47700800
p              4   1.000000
      5.67882674      0.05713170
      1.47243498      0.28574555
      0.51907889      0.55178731
      0.20665425      0.26323149
s              7   1.000000
      0.38350848     -0.19595436
      0.04707223      0.94677944
      0.02222627      0.24863866
     35.23367219      0.00547093
      6.06752990      0.02498073
      0.48755192     -0.26503365
      0.18581810     -0.21776121
p              7   1.000000
      1.83062075     -0.01159617
      0.10124670      0.56985339
      0.03901771      0.59512722
      5.67882674     -0.02506032
      1.47243498     -0.12533978
      0.51907889     -0.24203666
      0.20665425     -0.11546419
 
          32   0
s              4   1.000000
     35.00799124     -0.01198412
      6.02866577     -0.05472053
      0.48442902      0.58055871
      0.18462789      0.47700799
p              4   1.000000
      5.64245236      0.05713170
      1.46300364      0.28574555
      0.51575406      0.55178731
      0.20533058      0.26323149
s              7   1.000000
      0.38350848     -0.19616298
      0.04707223      0.94778743
      0.02222627      0.24890337
     35.00799124      0.00550461
      6.02866577      0.02513455
      0.48442902     -0.26666560
      0.18462789     -0.21910208
p              7   1.000000
      1.83062075     -0.01160776
      0.10124670      0.57042327
      0.03901771      0.59572237
      5.64245236     -0.02521523
      1.46300364     -0.12611458
      0.51575406     -0.24353285
      0.20533058     -0.11617794
 
          33   0
s              4   1.000000
     35.01166925     -0.01198412
      6.02929915     -0.05472053
      0.48447991      0.58055871
      0.18464729      0.47700799
p              4   1.000000
      5.64304517      0.05713170
      1.46315735      0.28574555
      0.51580824      0.55178731
      0.20535215      0.26323149
s              7   1.000000
      0.38350848     -0.19615955
      0.04707223      0.94777086
      0.02222627      0.24889901
     35.01166925      0.00550406
      6.02929915      0.02513203
      0.48447991     -0.26663884
      0.18464729     -0.21908010
p              7   1.000000
      1.83062075     -0.01160757
      0.10124670      0.57041390
      0.03901771      0.59571258
      5.64304517     -0.02521269
      1.46315735     -0.12610188
      0.51580824     -0.24350832
      0.20535215     -0.11616624
 
          34   0
s              4   1.000000
     35.14441103     -0.01198412
      6.05215839     -0.05472053
      0.48631675      0.58055871
      0.18534735      0.47700799
p              4   1.000000
      5.66443997      0.05713170
      1.46870470      0.28574555
      0.51776386      0.55178731
      0.20613071      0.26323149
s              7   1.000000
      0.38350848     -0.19603645
      0.04707223      0.94717606
      0.02222627      0.24874282
     35.14441103      0.00548420
      6.05215839      0.02504135
      0.48631675     -0.26567677
      0.18534735     -0.21828962
p              7   1.000000
      1.83062075     -0.01160073
      0.10124670      0.57007762
      0.03901771      0.59536138
      5.66443997     -0.02512137
      1.46870470     -0.12564512
      0.51776386     -0.24262629
      0.20613071     -0.11574547
 
          35   0
s              4   1.000000
     36.96351956     -0.01198412
      6.36542393     -0.05472052
      0.51148897      0.58055871
      0.19494111      0.47700799
p              4   1.000000
      5.95763683      0.05713170
      1.54472627      0.28574555
      0.54456381      0.55178731
      0.21680024      0.26323149
s              7   1.000000
      0.38350848     -0.19446677
      0.04707223      0.93959195
      0.02222627      0.24675111
     36.96351956      0.00522552
      6.36542393      0.02386017
      0.51148897     -0.25314499
      0.19494111     -0.20799306
p              7   1.000000
      1.83062075     -0.01151348
      0.10124670      0.56579024
      0.03901771      0.59088387
      5.95763683     -0.02393148
      1.54472627     -0.11969384
      0.54456381     -0.23113411
      0.21680024     -0.11026309
 
          36   0
s              4   1.000000
     37.01950334     -0.01198412
      6.37506480     -0.05472052
      0.51226366      0.58055871
      0.19523636      0.47700799
p              4   1.000000
      5.96666008      0.05713170
      1.54706586      0.28574555
      0.54538859      0.55178730
      0.21712860      0.26323149
s              7   1.000000
      0.38350848     -0.19442170
      0.04707223      0.93937423
      0.02222627      0.24669393
     37.01950334      0.00521793
      6.37506480      0.02382554
      0.51226366     -0.25277759
      0.19523636     -0.20769119
p              7   1.000000
      1.83062075     -0.01151098
      0.10124670      0.56566717
      0.03901771      0.59075535
      5.96666008     -0.02389658
      1.54706586     -0.11951932
      0.54538859     -0.23079710
      0.21712860     -0.11010233
 
          37   0
s              4   1.000000
     37.02002618     -0.01198412
      6.37515484     -0.05472052
      0.51227089      0.58055871
      0.19523912      0.47700799
p              4   1.000000
      5.96674435      0.05713170
      1.54708771      0.28574555
      0.54539629      0.55178731
      0.21713166      0.26323149
s              7   1.000000
      0.38350848     -0.19442128
      0.04707223      0.93937219
      0.02222627      0.24669339
     37.02002618      0.00521786
      6.37515484      0.02382521
      0.51227089     -0.25277416
      0.19523912     -0.20768838
p              7   1.000000
      1.83062075     -0.01151096
      0.10124670      0.56566603
      0.03901771      0.59075413
      5.96674435     -0.02389626
      1.54708771     -0.11951769
      0.54539629     -0.23079396
      0.21713166     -0.11010083
 
          38   0
s              4   1.000000
     37.01967058     -0.01198412
      6.37509360     -0.05472053
      0.51226597      0.58055871
      0.19523724      0.47700799
p              4   1.000000
      5.96668704      0.05713170
      1.54707285      0.28574555
      0.54539105      0.55178731
      0.21712958      0.26323149
s              7   1.000000
      0.38350848     -0.19442157
      0.04707223      0.93937358
      0.02222627      0.24669376
     37.01967058      0.00521791
      6.37509360      0.02382543
      0.51226597     -0.25277649
      0.19523724     -0.20769029
p              7   1.000000
      1.83062075     -0.01151097
      0.10124670      0.56566680
      0.03901771      0.59075494
      5.96668704     -0.02389648
      1.54707285     -0.11951880
      0.54539105     -0.23079610
      0.21712958     -0.11010185
 
          39   0
s              4   1.000000
     35.03003655     -0.01198412
      6.03246216     -0.05472053
      0.48473407      0.58055871
      0.18474415      0.47700799
p              4   1.000000
      5.64600554      0.05713170
      1.46392493      0.28574555
      0.51607884      0.55178731
      0.20545988      0.26323149
s              7   1.000000
      0.38350848     -0.19614244
      0.04707223      0.94768821
      0.02222627      0.24887732
     35.03003655      0.00550131
      6.03246216      0.02511944
      0.48473407     -0.26650532
      0.18474415     -0.21897038
p              7   1.000000
      1.83062075     -0.01160662
      0.10124670      0.57036717
      0.03901771      0.59566379
      5.64600554     -0.02520002
      1.46392493     -0.12603849
      0.51607884     -0.24338590
      0.20545988     -0.11610784
 
          40   0
s              4   1.000000
     35.00375409     -0.01198412
      6.02793610     -0.05472052
      0.48437039      0.58055871
      0.18460554      0.47700799
p              4   1.000000
      5.64176943      0.05713170
      1.46282657      0.28574555
      0.51569163      0.55178731
      0.20530572      0.26323149
s              7   1.000000
      0.38350848     -0.19616693
      0.04707223      0.94780652
      0.02222627      0.24890837
     35.00375409      0.00550525
      6.02793610      0.02513745
      0.48437039     -0.26669643
      0.18460554     -0.21912741
p              7   1.000000
      1.83062075     -0.01160798
      0.10124670      0.57043406
      0.03901771      0.59573366
      5.64176943     -0.02521816
      1.46282657     -0.12612922
      0.51569163     -0.24356111
      0.20530572     -0.11619142
 
          41   0
s              4   1.000000
      8.30625046      0.05675242
      1.51994150      0.26014135
      0.42225639      0.53284611
      0.14014310      0.29162544
s              7   1.000000
      0.92936822     -0.06733190
      0.05643440      0.66948991
      0.02166600      0.51464118
      8.30625046     -0.02902993
      1.51994150     -0.13306719
      0.42225639     -0.27256079
      0.14014310     -0.14917189
p              4   1.000000
      0.64737396      0.05713170
      0.16785440      0.28574555
      0.05917387      0.55178731
      0.02355814      0.26323150
 
          42   0
s              4   1.000000
      8.30616917      0.05675242
      1.51992662      0.26014135
      0.42225226      0.53284611
      0.14014173      0.29162544
s              7   1.000000
      0.92936822     -0.06733200
      0.05643440      0.66949095
      0.02166600      0.51464198
      8.30616917     -0.02903015
      1.51992662     -0.13306819
      0.42225226     -0.27256284
      0.14014173     -0.14917301
p              4   1.000000
      0.64737396      0.05713170
      0.16785440      0.28574555
      0.05917387      0.55178731
      0.02355814      0.26323150
 
          43   0
s              4   1.000000
      8.30595293      0.05675242
      1.51988705      0.26014135
      0.42224127      0.53284611
      0.14013808      0.29162544
s              7   1.000000
      0.92936822     -0.06733228
      0.05643440      0.66949372
      0.02166600      0.51464409
      8.30595293     -0.02903073
      1.51988705     -0.13307084
      0.42224127     -0.27256827
      0.14013808     -0.14917598
p              4   1.000000
      0.64737396      0.05713170
      0.16785440      0.28574555
      0.05917387      0.55178731
      0.02355814      0.26323150
 
          44   0
s              4   1.000000
      8.30928691      0.05675242
      1.52049713      0.26014135
      0.42241075      0.53284611
      0.14019433      0.29162544
s              7   1.000000
      0.92936822     -0.06732799
      0.05643440      0.66945106
      0.02166600      0.51461129
      8.30928691     -0.02902180
      1.52049713     -0.13302994
      0.42241075     -0.27248451
      0.14019433     -0.14913013
p              4   1.000000
      0.64737396      0.05713170
      0.16785440      0.28574555
      0.05917387      0.55178731
      0.02355814      0.26323150
 
          45   0
s              4   1.000000
      8.31049986      0.05675242
      1.52071909      0.26014135
      0.42247241      0.53284611
      0.14021480      0.29162544
s              7   1.000000
      0.92936822     -0.06732643
      0.05643440      0.66943553
      0.02166600      0.51459936
      8.31049986     -0.02901856
      1.52071909     -0.13301507
      0.42247241     -0.27245404
      0.14021480     -0.14911347
p              4   1.000000
      0.64737396      0.05713170
      0.16785440      0.28574555
      0.05917387      0.55178731
      0.02355814      0.26323150
 
          46   0
s              4   1.000000
      8.31042500      0.05675242
      1.52070539      0.26014135
      0.42246861      0.53284611
      0.14021353      0.29162544
s              7   1.000000
      0.92936822     -0.06732652
      0.05643440      0.66943649
      0.02166600      0.51460011
      8.31042500     -0.02901876
      1.52070539     -0.13301599
      0.42246861     -0.27245593
      0.14021353     -0.14911449
p              4   1.000000
      0.64737396      0.05713170
      0.16785440      0.28574555
      0.05917387      0.55178731
      0.02355814      0.26323150
 
          47   0
s              4   1.000000
      8.31014233      0.05675242
      1.52065366      0.26014135
      0.42245424      0.53284611
      0.14020876      0.29162544
s              7   1.000000
      0.92936822     -0.06732689
      0.05643440      0.66944011
      0.02166600      0.51460289
      8.31014233     -0.02901952
      1.52065366     -0.13301946
      0.42245424     -0.27246302
      0.14020876     -0.14911838
p              4   1.000000
      0.64737396      0.05713170
      0.16785440      0.28574555
      0.05917387      0.55178731
      0.02355814      0.26323150
 
          48   0
s              4   1.000000
      8.30888442      0.05675242
      1.52042348      0.26014135
      0.42239029      0.53284611
      0.14018754      0.29162544
s              7   1.000000
      0.92936822     -0.06732851
      0.05643440      0.66945619
      0.02166600      0.51461527
      8.30888442     -0.02902288
      1.52042348     -0.13303488
      0.42239029     -0.27249462
      0.14018754     -0.14913567
p              4   1.000000
      0.64737396      0.05713170
      0.16785440      0.28574555
      0.05917387      0.55178731
      0.02355814      0.26323150
 
          49   0
s              4   1.000000
      8.30884137      0.05675242
      1.52041560      0.26014135
      0.42238810      0.53284611
      0.14018681      0.29162544
s              7   1.000000
      0.92936822     -0.06732856
      0.05643440      0.66945675
      0.02166600      0.51461569
      8.30884137     -0.02902300
      1.52041560     -0.13303541
      0.42238810     -0.27249570
      0.14018681     -0.14913626
p              4   1.000000
      0.64737396      0.05713170
      0.16785440      0.28574555
      0.05917387      0.55178731
      0.02355814      0.26323150
 
          50   0
s              4   1.000000
      8.30955636      0.05675242
      1.52054644      0.26014135
      0.42242445      0.53284611
      0.14019888      0.29162544
s              7   1.000000
      0.92936822     -0.06732764
      0.05643440      0.66944760
      0.02166600      0.51460866
      8.30955636     -0.02902108
      1.52054644     -0.13302664
      0.42242445     -0.27247774
      0.14019888     -0.14912643
p              4   1.000000
      0.64737396      0.05713170
      0.16785440      0.28574555
      0.05917387      0.55178731
      0.02355814      0.26323150
 
          51   0
s              4   1.000000
      8.30955364      0.05675242
      1.52054594      0.26014135
      0.42242431      0.53284611
      0.14019883      0.29162544
s              7   1.000000
      0.92936822     -0.06732765
      0.05643440      0.66944764
      0.02166600      0.51460868
      8.30955364     -0.02902109
      1.52054594     -0.13302667
      0.42242431     -0.27247781
      0.14019883     -0.14912647
p              4   1.000000
      0.64737396      0.05713170
      0.16785440      0.28574555
      0.05917387      0.55178731
      0.02355814      0.26323150
 
          52   0
s              4   1.000000
      8.30884144      0.05675242
      1.52041562      0.26014135
      0.42238811      0.53284611
      0.14018681      0.29162544
s              7   1.000000
      0.92936822     -0.06732856
      0.05643440      0.66945675
      0.02166600      0.51461569
      8.30884144     -0.02902300
      1.52041562     -0.13303541
      0.42238811     -0.27249570
      0.14018681     -0.14913626
p              4   1.000000
      0.64737396      0.05713170
      0.16785440      0.28574555
      0.05917387      0.55178731
      0.02355814      0.26323150
 
          53   0
s              4   1.000000
      8.30888643      0.05675242
      1.52042385      0.26014135
      0.42239039      0.53284611
      0.14018758      0.29162544
s              7   1.000000
      0.92936822     -0.06732850
      0.05643440      0.66945617
      0.02166600      0.51461524
      8.30888643     -0.02902288
      1.52042385     -0.13303486
      0.42239039     -0.27249457
      0.14018758     -0.14913564
p              4   1.000000
      0.64737396      0.05713170
      0.16785440      0.28574555
      0.05917387      0.55178731
      0.02355814      0.26323150
 
          54   0
s              4   1.000000
      8.31010200      0.05675242
      1.52064628      0.26014135
      0.42245219      0.53284611
      0.14020808      0.29162544
s              7   1.000000
      0.92936822     -0.06732694
      0.05643440      0.66944062
      0.02166600      0.51460329
      8.31010200     -0.02901962
      1.52064628     -0.13301995
      0.42245219     -0.27246404
      0.14020808     -0.14911893
p              4   1.000000
      0.64737396      0.05713170
      0.16785440      0.28574555
      0.05917387      0.55178731
      0.02355814      0.26323150
 
          55   0
s              4   1.000000
      8.31051155      0.05675242
      1.52072122      0.26014135
      0.42247301      0.53284611
      0.14021499      0.29162544
s              7   1.000000
      0.92936822     -0.06732641
      0.05643440      0.66943539
      0.02166600      0.51459927
      8.31051155     -0.02901853
      1.52072122     -0.13301493
      0.42247301     -0.27245375
      0.14021499     -0.14911330
p              4   1.000000
      0.64737396      0.05713170
      0.16785440      0.28574555
      0.05917387      0.55178731
      0.02355814      0.26323150
 
          56   0
s              4   1.000000
      8.30619176      0.05675242
      1.51993076      0.26014135
      0.42225341      0.53284611
      0.14014211      0.29162544
s              7   1.000000
      0.92936822     -0.06733197
      0.05643440      0.66949066
      0.02166600      0.51464175
      8.30619176     -0.02903009
      1.51993076     -0.13306791
      0.42225341     -0.27256227
      0.14014211     -0.14917270
p              4   1.000000
      0.64737396      0.05713170
      0.16785440      0.28574555
      0.05917387      0.55178731
      0.02355814      0.26323150
 
          57   0
s              4   1.000000
      8.30625738      0.05675242
      1.51994276      0.26014135
      0.42225674      0.53284611
      0.14014322      0.29162544
s              7   1.000000
      0.92936822     -0.06733189
      0.05643440      0.66948982
      0.02166600      0.51464111
      8.30625738     -0.02902991
      1.51994276     -0.13306710
      0.42225674     -0.27256062
      0.14014322     -0.14917180
p              4   1.000000
      0.64737396      0.05713170
      0.16785440      0.28574555
      0.05917387      0.55178731
      0.02355814      0.26323150
 
          58   0
s              4   1.000000
      8.30592886      0.05675242
      1.51988265      0.26014135
      0.42224004      0.53284611
      0.14013767      0.29162544
s              7   1.000000
      0.92936822     -0.06733231
      0.05643440      0.66949403
      0.02166600      0.51464434
      8.30592886     -0.02903079
      1.51988265     -0.13307114
      0.42224004     -0.27256888
      0.14013767     -0.14917631
p              4   1.000000
      0.64737396      0.05713170
      0.16785440      0.28574555
      0.05917387      0.55178731
      0.02355814      0.26323150
 
          59   0
s              4   1.000000
      8.30929009      0.05675242
      1.52049771      0.26014135
      0.42241091      0.53284611
      0.14019439      0.29162544
s              7   1.000000
      0.92936822     -0.06732798
      0.05643440      0.66945101
      0.02166600      0.51461127
      8.30929009     -0.02902180
      1.52049771     -0.13302991
      0.42241091     -0.27248443
      0.14019439     -0.14913009
p              4   1.000000
      0.64737396      0.05713170
      0.16785440      0.28574555
      0.05917387      0.55178731
      0.02355814      0.26323150
 
          60   0
s              4   1.000000
      8.31051517      0.05675242
      1.52072189      0.26014135
      0.42247319      0.53284611
      0.14021506      0.29162544
s              7   1.000000
      0.92936822     -0.06732641
      0.05643440      0.66943534
      0.02166600      0.51459922
      8.31051517     -0.02901852
      1.52072189     -0.13301489
      0.42247319     -0.27245366
      0.14021506     -0.14911325
p              4   1.000000
      0.64737396      0.05713170
      0.16785440      0.28574555
      0.05917387      0.55178731
      0.02355814      0.26323150
 
          61   0
s              4   1.000000
      8.30937438      0.05675242
      1.52051314      0.26014135
      0.42241520      0.53284611
      0.14019581      0.29162544
s              7   1.000000
      0.92936822     -0.06732788
      0.05643440      0.66944993
      0.02166600      0.51461045
      8.30937438     -0.02902157
      1.52051314     -0.13302887
      0.42241520     -0.27248231
      0.14019581     -0.14912893
p              4   1.000000
      0.64737396      0.05713170
      0.16785440      0.28574555
      0.05917387      0.55178731
      0.02355814      0.26323150
 
          62   0
s              4   1.000000
      8.31012259      0.05675242
      1.52065005      0.26014135
      0.42245323      0.53284611
      0.14020843      0.29162544
s              7   1.000000
      0.92936822     -0.06732691
      0.05643440      0.66944037
      0.02166600      0.51460309
      8.31012259     -0.02901957
      1.52065005     -0.13301970
      0.42245323     -0.27246352
      0.14020843     -0.14911865
p              4   1.000000
      0.64737396      0.05713170
      0.16785440      0.28574555
      0.05917387      0.55178731
      0.02355814      0.26323150
 
          63   0
s              4   1.000000
      8.30614927      0.05675242
      1.51992298      0.26014135
      0.42225125      0.53284611
      0.14014139      0.29162544
s              7   1.000000
      0.92936822     -0.06733203
      0.05643440      0.66949120
      0.02166600      0.51464217
      8.30614927     -0.02903020
      1.51992298     -0.13306843
      0.42225125     -0.27256334
      0.14014139     -0.14917328
p              4   1.000000
      0.64737396      0.05713170
      0.16785440      0.28574555
      0.05917387      0.55178731
      0.02355814      0.26323150
 
          64   0
s              4   1.000000
      8.30628206      0.05675242
      1.51994728      0.26014135
      0.42225800      0.53284611
      0.14014363      0.29162544
s              7   1.000000
      0.92936822     -0.06733186
      0.05643440      0.66948951
      0.02166600      0.51464086
      8.30628206     -0.02902984
      1.51994728     -0.13306680
      0.42225800     -0.27256000
      0.14014363     -0.14917146
p              4   1.000000
      0.64737396      0.05713170
      0.16785440      0.28574555
      0.05917387      0.55178731
      0.02355814      0.26323150
 
          65   0
s              4   1.000000
      8.30613601      0.05675242
      1.51992055      0.26014135
      0.42225057      0.53284611
      0.14014117      0.29162544
s              7   1.000000
      0.92936822     -0.06733204
      0.05643440      0.66949137
      0.02166600      0.51464230
      8.30613601     -0.02903024
      1.51992055     -0.13306859
      0.42225057     -0.27256367
      0.14014117     -0.14917346
p              4   1.000000
      0.64737396      0.05713170
      0.16785440      0.28574555
      0.05917387      0.55178731
      0.02355814      0.26323150
 
          66   0
s              4   1.000000
      8.30618983      0.05675242
      1.51993040      0.26014135
      0.42225331      0.53284611
      0.14014208      0.29162544
s              7   1.000000
      0.92936822     -0.06733197
      0.05643440      0.66949068
      0.02166600      0.51464178
      8.30618983     -0.02903009
      1.51993040     -0.13306793
      0.42225331     -0.27256232
      0.14014208     -0.14917273
p              4   1.000000
      0.64737396      0.05713170
      0.16785440      0.28574555
      0.05917387      0.55178731
      0.02355814      0.26323150
 
          67   0
s              4   1.000000
      8.30630893      0.05675242
      1.51995220      0.26014135
      0.42225936      0.53284611
      0.14014409      0.29162544
s              7   1.000000
      0.92936822     -0.06733182
      0.05643440      0.66948916
      0.02166600      0.51464058
      8.30630893     -0.02902977
      1.51995220     -0.13306647
      0.42225936     -0.27255933
      0.14014409     -0.14917108
p              4   1.000000
      0.64737396      0.05713170
      0.16785440      0.28574555
      0.05917387      0.55178731
      0.02355814      0.26323150
 
          68   0
s              4   1.000000
      8.30618815      0.05675242
      1.51993010      0.26014135
      0.42225322      0.53284611
      0.14014205      0.29162544
s              7   1.000000
      0.92936822     -0.06733198
      0.05643440      0.66949071
      0.02166600      0.51464178
      8.30618815     -0.02903010
      1.51993010     -0.13306795
      0.42225322     -0.27256236
      0.14014205     -0.14917275
p              4   1.000000
      0.64737396      0.05713170
      0.16785440      0.28574555
      0.05917387      0.55178731
      0.02355814      0.26323150
 
          69   0
s              4   1.000000
      8.30613634      0.05675242
      1.51992061      0.26014135
      0.42225059      0.53284611
      0.14014118      0.29162544
s              7   1.000000
      0.92936822     -0.06733204
      0.05643440      0.66949137
      0.02166600      0.51464230
      8.30613634     -0.02903023
      1.51992061     -0.13306859
      0.42225059     -0.27256366
      0.14014118     -0.14917346
p              4   1.000000
      0.64737396      0.05713170
      0.16785440      0.28574555
      0.05917387      0.55178731
      0.02355814      0.26323150
 
          70   0
s              4   1.000000
      8.30615056      0.05675242
      1.51992322      0.26014135
      0.42225131      0.53284611
      0.14014141      0.29162544
s              7   1.000000
      0.92936822     -0.06733202
      0.05643440      0.66949119
      0.02166600      0.51464215
      8.30615056     -0.02903020
      1.51992322     -0.13306841
      0.42225131     -0.27256331
      0.14014141     -0.14917327
p              4   1.000000
      0.64737396      0.05713170
      0.16785440      0.28574555
      0.05917387      0.55178731
      0.02355814      0.26323150
 
          71   0
s              4   1.000000
      8.30628245      0.05675242
      1.51994735      0.26014135
      0.42225802      0.53284611
      0.14014364      0.29162544
s              7   1.000000
      0.92936822     -0.06733186
      0.05643440      0.66948950
      0.02166600      0.51464086
      8.30628245     -0.02902984
      1.51994735     -0.13306680
      0.42225802     -0.27255999
      0.14014364     -0.14917145
p              4   1.000000
      0.64737396      0.05713170
      0.16785440      0.28574555
      0.05917387      0.55178731
      0.02355814      0.26323150
 
          72   0
s              4   1.000000
      8.30980175      0.05675242
      1.52059134      0.26014135
      0.42243693      0.53284611
      0.14020302      0.29162544
s              7   1.000000
      0.92936822     -0.06732733
      0.05643440      0.66944446
      0.02166600      0.51460625
      8.30980175     -0.02902043
      1.52059134     -0.13302363
      0.42243693     -0.27247158
      0.14020302     -0.14912306
p              4   1.000000
      0.64737396      0.05713170
      0.16785440      0.28574555
      0.05917387      0.55178731
      0.02355814      0.26323150
 
          73   0
s              4   1.000000
      8.30934848      0.05675242
      1.52050840      0.26014135
      0.42241388      0.53284611
      0.14019537      0.29162544
s              7   1.000000
      0.92936822     -0.06732791
      0.05643440      0.66945027
      0.02166600      0.51461069
      8.30934848     -0.02902164
      1.52050840     -0.13302919
      0.42241388     -0.27248296
      0.14019537     -0.14912929
p              4   1.000000
      0.64737396      0.05713170
      0.16785440      0.28574555
      0.05917387      0.55178731
      0.02355814      0.26323150
 
 [MO]
 Sym= Hole
 Ene= -0.9970584    
 Spin= Alpha
 Occup= 0
           1  5.6377752E-04
           2  1.4519722E-04
           3 -1.1888007E-03
           4  2.1858487E-02
           5 -5.2947726E-04
           6 -1.3720644E-04
           7  1.4173141E-04
           8 -6.0023288E-03
           9 -1.5237285E-03
          10  4.0690005E-03
          11  2.6198504E-03
          12 -0.2839850    
          13  2.0319037E-04
          14 -2.5346701E-04
          15 -7.7495752E-05
          16  2.0820905E-02
          17 -2.0227989E-04
          18  1.1718515E-03
          19  1.9387766E-03
          20 -0.1110301    
          21 -1.8955703E-04
          22  9.9520868E-05
          23  3.9724243E-04
          24  7.4083977E-03
          25  2.0466669E-04
          26 -6.0772495E-03
          27 -5.9345206E-03
          28  0.2338820    
          29 -1.6535640E-04
          30  7.9570181E-04
          31  1.2892985E-03
          32 -1.7012684E-02
          33 -6.7416346E-04
          34 -6.3117268E-04
          35 -2.4379585E-03
          36  0.1583124    
          37  5.6979404E-04
          38 -1.7113797E-04
          39 -3.0663825E-04
          40 -2.1655342E-02
          41 -2.4868925E-03
          42 -2.4397033E-03
          43 -1.0837058E-03
          44  0.3299086    
          45  1.2891236E-03
          46 -1.7467680E-04
          47 -4.1218189E-04
          48 -2.8427713E-02
          49  8.0768304E-04
          50  1.1285607E-03
          51 -1.2990920E-03
          52  2.5456393E-02
          53 -5.8139593E-04
          54 -6.1858661E-04
          55 -5.9665475E-05
          56  4.7238022E-03
          57  6.5086345E-04
          58  9.6502039E-04
          59 -8.1287377E-05
          60 -0.1047119    
          61  1.4655709E-05
          62  1.2106380E-04
          63 -4.3388340E-04
          64 -1.1810473E-06
          65  6.5501653E-02
          66  5.2622840E-02
          67 -1.8138794E-03
          68  0.1166275    
          69 -3.4888417E-02
          70 -6.3460940E-03
          71 -1.4032725E-04
          72 -5.4358635E-03
          73 -1.2428522E-02
          74  2.3618354E-02
          75 -2.2569445E-03
          76 -4.1386321E-02
          77 -4.5485226E-03
          78 -3.4884454E-03
          79  9.3397626E-05
          80  1.1107287E-03
          81  6.2997025E-03
          82  1.1123599E-02
          83  5.5847637E-04
          84  1.7259723E-02
          85 -2.1949543E-03
          86 -4.1746995E-03
          87  9.3653158E-05
          88  8.7540924E-05
          89 -3.1906646E-03
          90  7.3256996E-03
          91  3.9445185E-03
          92 -1.5235128E-02
          93  2.5846838E-04
          94 -1.0967277E-03
          95  7.9748825E-06
          96 -1.9224236E-03
          97  1.7063024E-02
          98  2.8503526E-02
          99  1.3397839E-03
         100  4.6393771E-02
         101  1.1744386E-03
         102 -2.1053895E-03
         103 -2.4909424E-04
         104  5.6770048E-03
         105 -4.4846524E-02
         106  5.2625863E-03
         107 -6.9448148E-04
         108 -7.9457007E-02
         109  1.9072387E-02
         110 -2.7628012E-03
         111  6.1490655E-06
         112 -3.7392573E-03
         113 -5.2526204E-05
         114 -1.4851679E-03
         115 -1.3413281E-05
         116  7.6593392E-02
         117  2.8677640E-04
         118  3.2630545E-04
         119  2.0418427E-05
         120 -8.8965828E-03
         121 -7.9260133E-07
         122  2.9129281E-03
         123 -1.7954034E-04
         124 -0.1605163    
         125 -1.3988966E-05
         126 -3.9449250E-04
         127  1.3015654E-05
         128  1.4718776E-02
         129  4.4360671E-02
         130 -3.7921004E-03
         131 -1.3337636E-04
         132 -7.9438463E-02
         133 -1.8623387E-02
         134  3.2365716E-03
         135  1.2263765E-04
         136 -3.5785027E-03
         137 -1.6798750E-02
         138 -2.9754123E-02
         139 -4.1110141E-04
         140  4.4679526E-02
         141 -1.0429972E-03
         142  2.1113476E-03
         143  3.6665410E-04
         144  5.8165411E-03
         145  3.1460379E-03
         146 -7.0406068E-03
         147 -3.4717387E-03
         148 -1.5524625E-02
         149 -1.4329098E-04
         150  1.3553546E-03
         151  2.7470442E-05
         152 -1.8178030E-03
         153 -6.0863909E-03
         154 -1.1237119E-02
         155 -1.5919947E-03
         156  1.6370552E-02
         157  2.1212720E-03
         158  4.0399893E-03
         159 -6.2256549E-05
         160  2.2842122E-04
         161  1.2096776E-02
         162 -2.3026854E-02
         163  1.3129643E-04
         164 -4.2088918E-02
         165  4.8683002E-03
         166  3.9161076E-03
         167 -3.4103205E-04
         168  8.9727005E-04
         169 -6.4294502E-02
         170 -5.5036198E-02
         171  2.2000249E-03
         172  0.1127215    
         173  3.4555826E-02
         174  6.7898519E-03
         175 -1.7096766E-04
         176 -5.2676597E-03
         177  4.3611875E-04
         178  9.0851204E-04
         179  2.3563118E-03
         180  0.3378572    
         181 -2.2055361E-05
         182  2.6115854E-04
         183 -6.6760455E-05
         184 -2.8000606E-02
         185 -1.0531444E-04
         186  1.1226983E-03
         187 -8.4635906E-04
         188  2.7395248E-02
         189 -5.9020902E-05
         190 -2.1475182E-04
         191  2.8823313E-04
         192  4.9513034E-03
         193 -1.6624070E-03
         194 -2.2308431E-03
         195  9.0246380E-04
         196 -0.2875607    
         197  4.3408832E-04
         198  6.1643578E-04
         199  1.5092039E-04
         200  2.0666968E-02
         201  5.1163911E-04
         202  4.4084300E-04
         203  5.6993478E-04
         204  2.2621626E-02
         205 -7.1380904E-04
         206 -2.3020050E-04
         207 -2.4780355E-04
         208 -5.9827911E-03
         209 -3.5448709E-05
         210 -3.1611519E-03
         211  3.1676074E-05
         212 -0.1175343    
         213 -1.5306381E-04
         214  1.0238086E-03
         215 -1.0361476E-04
         216  7.6298290E-03
         217  1.0792762E-03
         218  4.5733792E-03
         219  3.3379538E-04
         220  0.2314951    
         221 -9.3651406E-04
         222 -1.4678552E-04
         223  1.6132268E-05
         224 -1.6779426E-02
         225 -4.2778489E-04
         226  1.5383712E-03
         227 -1.4381638E-03
         228  0.1657429    
         229  7.9685677E-05
         230 -1.5065901E-04
         231 -3.3648053E-04
         232 -2.1655848E-02
         233  7.4299268E-04
         234 -5.0193500E-03
         235  3.1942634E-03
         236 -0.5067480    
         237 -3.2636739E-04
         238  9.3920407E-04
         239 -1.9051440E-03
         240  5.7816524E-02
         241  8.3596697E-06
         242  1.3229340E-04
         243 -1.7893585E-04
         244  3.0153736E-02
         245 -3.2640219E-05
         246 -1.9022293E-04
         247  3.5423733E-04
         248 -2.5000848E-02
         249 -4.5631997E-02
         250  4.5822140E-02
         251  4.3224689E-02
         252 -5.1213838E-02
         253  2.8143628E-02
         254 -2.2092022E-02
         255 -5.6727044E-03
         256  9.8922681E-03
         257  1.4355890E-02
         258 -1.9687779E-02
         259 -1.6650649E-03
         260  4.8420681E-03
         261 -5.7900026E-03
         262  3.8454768E-03
         263  1.7607104E-03
         264 -2.2718587E-03
         265 -9.9660785E-05
         266 -2.4797878E-04
         267 -3.0583886E-02
         268 -1.6286420E-02
         269  1.1839842E-04
         270 -3.9613049E-05
         271  3.3366533E-03
         272  3.4652597E-03
         273  9.2109192E-05
         274 -9.6044685E-05
         275  1.7367139E-03
         276  8.2873012E-04
         277  7.3705138E-05
         278 -1.2475117E-04
         279 -8.3170360E-04
         280 -2.4226955E-03
         281  2.5794262E-03
         282 -2.0152901E-03
         283 -3.7629548E-03
         284 -4.3363664E-03
         285 -1.7980208E-03
         286  1.9037714E-03
         287  9.5219060E-04
         288 -9.7549913E-05
         289  4.2722924E-05
         290  6.8048786E-05
         291  9.1014028E-04
         292 -1.9709941E-03
         293 -3.7947175E-05
         294 -1.8647540E-03
         295  5.4636672E-05
         296 -2.8761124E-04
         297 -2.8916532E-03
         298  2.3757275E-03
         299 -3.6102091E-03
         300  6.0410326E-04
         301  1.9556244E-03
         302  2.1119330E-04
         303  6.1837671E-04
         304 -1.1816460E-03
         305 -1.4361255E-02
         306  1.9347832E-02
         307 -2.0289253E-03
         308  4.3263230E-03
         309  5.9216633E-03
         310 -3.8318743E-03
         311  1.9763729E-03
         312 -2.1993325E-03
         313  4.5638751E-02
         314 -4.6277281E-02
         315  4.2878158E-02
         316 -5.0768334E-02
         317 -2.7986869E-02
         318  2.2153882E-02
         319 -5.9432690E-03
         320  9.3155252E-03
         321  2.0756748E-02
         322 -5.5924635E-03
         323 -5.2653224E-04
         324  3.5911363E-03
         325  1.5282732E-03
         326  4.9718376E-02
         327 -1.1626546E-02
         328 -5.9985803E-03
         329  4.6634469E-03
         330  4.1402644E-03
         331 -7.1801186E-02
         332  1.6528845E-02
         333  6.2841605E-03
         334 -7.9295868E-03
         335  6.5087606E-03
         336  1.4029874E-03
         337 -2.1387903E-04
         338 -5.2929787E-05
         339  7.9043355E-04
         340 -4.5384862E-03
         341  3.5910931E-04
         342  3.4877786E-04
         343  1.0979360E-03
         344  2.4338513E-04
         345  2.0324355E-02
         346  4.2500571E-04
         347 -3.1529283E-04
         348 -6.9425418E-04
         349  8.7725819E-04
         350 -1.7226720E-03
         351 -5.6523276E-03
         352  3.5405154E-03
         353  8.0187462E-04
         354 -1.1445621E-03
         355  6.2838518E-03
         356 -1.8858235E-02
         357  1.2104482E-03
         358 -4.2238440E-03
         359  1.0816375E-04
         360 -2.0807805E-03
         361  1.9461228E-02
         362 -1.0669831E-03
         363 -1.9941465E-03
         364  5.1831699E-05
         365  1.5223324E-03
         366 -1.2045128E-02
         367  2.6706138E-03
         368 -3.5173532E-03
         369 -7.5847993E-04
         370  9.8051159E-03
         371  1.1358201E-02
         372 -2.5674861E-03
         373  3.2000046E-03
         374  8.2137185E-04
         375  1.0015904E-02
         376 -1.9110477E-02
         377  1.1960311E-03
         378  2.0584373E-03
         379  7.6577555E-05
         380  1.4930776E-03
         381  1.8992856E-02
         382 -1.3031503E-03
         383  4.0991688E-03
         384 -1.0738012E-04
         385 -1.9613111E-03
         386  5.1348680E-03
         387 -2.6271224E-03
         388  9.2193601E-04
         389  6.6887063E-04
         390  4.7926004E-03
         391 -6.0483121E-04
         392  2.4803777E-04
         393 -7.5172674E-04
         394 -8.0029271E-04
         395 -1.8640159E-03
         396  3.5488829E-02
         397 -9.1402661E-03
         398 -1.0889815E-03
         399 -5.7480377E-03
         400  2.2978853E-03
         401  3.7867468E-02
         402 -8.6556179E-03
         403 -4.7347001E-03
         404 -3.3865476E-03
         405  3.5410069E-03
         406 -7.4509621E-02
         407  1.7154267E-02
         408  5.7920734E-03
         409  8.4324069E-03
         410  6.7099049E-03
         411 -3.1322640E-04
         412  3.5766209E-04
         413 -3.3269919E-04
         414 -8.7190431E-04
         415 -3.9190878E-03
         416  3.1149920E-04
         417 -6.2068307E-04
         418 -1.1073591E-03
         419 -1.5226539E-04
         420  1.9991687E-02
         421  1.4108973E-02
         422  6.8317498E-03
         423 -2.0478038E-02
         424 -1.5312293E-05
         425  6.4748498E-03
         426 -2.0804660E-02
         427  2.2957609E-03
         428  1.5429094E-03
         429  2.6048193E-04
         430 -5.4483727E-04
         431 -2.9878120E-04
         432 -8.0588931E-04
         433  9.8296744E-04
         434 -9.4222516E-05
         435 -5.6847703E-04
         436 -4.3807528E-04
         437 -9.9686917E-04
         438  1.6279849E-03
         439 -4.3097124E-04
         440 -8.9975067E-05
         441 -2.0817555E-03
         442 -7.6227923E-05
         443 -7.4834249E-04
         444 -4.0975455E-04
         445 -2.7181546E-04
         446  9.4087672E-04
         447  5.5521959E-04
         448 -1.6034154E-03
         449 -2.9588604E-04
         450  1.1899195E-04
         451 -1.0564828E-03
         452  3.9022122E-04
         453 -3.3891814E-05
         454  9.9717108E-05
         455 -3.1392041E-04
         456  5.1311677E-04
         457  6.6556921E-04
         458 -7.5212581E-04
         459 -1.0375275E-04
         460 -9.3735303E-05
         461  2.7197453E-03
         462 -4.3808654E-04
         463  9.0147514E-04
         464 -3.0208530E-04
         465  3.0999491E-04
         466  8.5677439E-04
         467  3.7942591E-04
         468 -9.7549305E-04
         469 -2.2001598E-04
         470 -1.2503266E-03
         471 -1.9251005E-04
         472 -2.3976121E-04
         473  9.6729537E-04
         474  2.1721005E-05
         475  5.3392374E-04
         476  2.1034181E-02
         477 -2.1839484E-03
         478 -1.4357538E-03
         479  6.0632941E-04
         480 -5.1909627E-04
         481 -1.4480651E-02
         482 -6.5077222E-03
         483  2.0469910E-02
         484 -4.9790379E-04
         485  5.8079408E-03
 Sym= Particle
 Ene= -0.9970584    
 Spin= Alpha
 Occup= 2
           1  2.2778183E-03
           2  3.0597018E-03
           3 -5.3278920E-03
           4 -4.4946690E-05
           5 -4.7760268E-04
           6  2.9981000E-04
           7  1.0960175E-03
           8  1.0859878E-04
           9 -4.1568414E-03
          10  4.9371510E-03
          11  4.9723885E-03
          12  1.3090606E-03
          13  3.4129270E-03
          14 -1.2970900E-03
          15  2.3883801E-04
          16 -5.2097632E-04
          17 -2.1210175E-03
          18  1.1026280E-03
          19 -1.9246302E-04
          20 -3.9330772E-03
          21  2.5948761E-03
          22  1.4277773E-04
          23 -8.9921738E-04
          24  9.2891132E-04
          25 -1.0002805E-02
          26  4.0938640E-03
          27  1.2464832E-02
          28  2.6356343E-03
          29  5.2167024E-03
          30  1.7200146E-03
          31 -3.2732671E-03
          32 -6.2545144E-04
          33  1.2798867E-02
          34 -2.1964975E-02
          35 -1.7522400E-03
          36  1.5977987E-03
          37 -6.7858198E-03
          38  9.4005829E-03
          39  1.8832937E-03
          40 -5.4744811E-04
          41 -5.1389676E-02
          42  4.9339313E-02
          43  7.1064085E-02
          44 -3.4362881E-03
          45  4.1886304E-02
          46 -2.3896864E-02
          47 -2.3813430E-02
          48  7.6557550E-04
          49 -2.1850498E-04
          50  1.2390751E-02
          51 -9.0388209E-03
          52  2.9813929E-03
          53  7.0989286E-03
          54 -2.6947281E-03
          55 -2.2065393E-03
          56 -7.3575380E-04
          57 -1.6677934E-04
          58  1.4763745E-03
          59 -5.5911904E-03
          60 -1.6780430E-04
          61  9.5203833E-04
          62 -1.3858769E-03
          63  7.6134955E-03
          64  2.2305212E-05
          65 -1.9288427E-03
          66 -9.6986899E-03
          67  0.3086598    
          68  2.5765309E-03
          69  1.8579246E-03
          70  3.4886207E-03
          71 -8.8127874E-02
          72 -1.5409006E-04
          73  4.4117265E-04
          74 -2.1627198E-03
          75  5.2139957E-02
          76  1.2715348E-03
          77  5.2617121E-05
          78  2.0501492E-04
          79 -5.2496474E-03
          80 -3.6118494E-04
          81 -4.6342157E-04
          82  1.0281633E-02
          83 -0.2907179    
          84 -4.2854738E-03
          85  3.6340635E-04
          86 -2.1333112E-03
          87  5.4401826E-02
          88  5.6370348E-04
          89 -1.6587750E-04
          90 -3.0295572E-03
          91  8.9178778E-02
          92  1.2907528E-03
          93  1.4542953E-05
          94  7.0296990E-04
          95 -2.3024665E-02
          96 -6.6619966E-04
          97  5.4683030E-04
          98 -6.5193777E-03
          99  0.2194568    
         100  4.8097437E-03
         101 -6.1479025E-04
         102  1.2936044E-04
         103 -3.4737550E-02
         104 -1.8645163E-03
         105  2.9086144E-04
         106  7.4891485E-03
         107 -0.2165633    
         108 -3.1177595E-03
         109 -2.5560817E-04
         110 -8.5427862E-04
         111  5.3274717E-02
         112 -1.9722940E-04
         113  9.8560704E-04
         114  3.2484390E-02
         115 -0.4908198    
         116  1.6167904E-03
         117 -3.4642348E-04
         118 -9.6541261E-03
         119  0.1303203    
         120 -3.6944068E-04
         121 -7.2219502E-04
         122 -2.8143713E-02
         123  0.3967929    
         124 -1.3823718E-03
         125  1.4205072E-04
         126  6.5197237E-03
         127 -9.0757631E-02
         128  3.3258070E-04
         129  2.7453204E-04
         130  7.3592090E-03
         131 -0.2128026    
         132  4.4730264E-03
         133 -2.6910740E-04
         134 -8.8239810E-04
         135  5.2105479E-02
         136 -2.1329953E-04
         137  6.9505791E-04
         138 -6.8098088E-03
         139  0.2191694    
         140 -6.3846898E-03
         141 -7.5698073E-04
         142  9.0210844E-05
         143 -3.4599844E-02
         144  1.9721694E-03
         145 -1.0502004E-04
         146 -3.1900005E-03
         147  8.5741274E-02
         148 -1.8185076E-03
         149 -1.1930452E-04
         150  7.5604033E-04
         151 -2.1975404E-02
         152  8.3198177E-04
         153 -3.7889899E-04
         154  1.0880590E-02
         155 -0.2873395    
         156  6.7065852E-03
         157  2.1077169E-04
         158 -2.2092136E-03
         159  5.3517826E-02
         160 -1.0169750E-03
         161  5.0768704E-04
         162 -2.1661341E-03
         163  5.2461401E-02
         164 -1.6784486E-03
         165 -1.0804091E-04
         166  1.6103146E-04
         167 -5.5637937E-03
         168  3.9415318E-04
         169 -1.6021752E-03
         170 -9.8179001E-03
         171  0.3050165    
         172 -5.4298821E-03
         173  1.5401668E-03
         174  3.5179059E-03
         175 -8.7139070E-02
         176  9.5932576E-04
         177  5.4483611E-02
         178 -5.1223237E-02
         179  7.5805329E-02
         180  3.4470034E-03
         181 -4.3104742E-02
         182  2.3288766E-02
         183 -2.6830740E-02
         184 -8.9161616E-04
         185 -1.9035713E-03
         186 -9.1346242E-03
         187 -9.0142377E-03
         188 -1.7654125E-03
         189 -4.3894271E-03
         190 -1.0865745E-03
         191 -2.2158581E-03
         192  4.2746123E-04
         193  4.8060319E-03
         194 -5.9414105E-03
         195  6.4222747E-03
         196 -1.6874850E-03
         197 -2.7178847E-03
         198  7.6933380E-04
         199  1.0148730E-04
         200  4.3084944E-04
         201 -2.0809472E-03
         202 -3.2675911E-03
         203 -5.0231912E-03
         204  1.4557077E-04
         205  8.0491911E-04
         206 -9.1584591E-04
         207  1.3526077E-03
         208 -6.1523474E-06
         209  1.7999205E-03
         210 -2.8516338E-04
         211  6.1170380E-05
         212  2.6704886E-03
         213 -2.0403599E-03
         214 -5.2553823E-04
         215 -1.0666396E-03
         216 -5.3124194E-04
         217  1.0460922E-02
         218 -4.1804160E-03
         219  1.3551724E-02
         220  1.5024381E-04
         221 -5.1378035E-03
         222 -1.9239555E-03
         223 -3.6534488E-03
         224 -2.3714980E-05
         225 -1.3809172E-02
         226  2.4485160E-02
         227 -1.6229406E-03
         228 -4.2316755E-03
         229  7.3784371E-03
         230 -9.8150270E-03
         231  1.5611665E-03
         232  1.6856955E-03
         233 -3.9231268E-04
         234  2.4776670E-04
         235  1.5446720E-02
         236  1.0570069E-03
         237  3.2744458E-04
         238 -3.4769168E-05
         239 -5.5748299E-03
         240 -2.7450043E-04
         241 -4.7096601E-05
         242  3.9784856E-05
         243  5.8956780E-03
         244  1.0697503E-03
         245  8.7491710E-05
         246  4.9839615E-05
         247  1.8505081E-04
         248 -2.0806718E-04
         249 -9.4456336E-05
         250 -4.2101121E-05
         251 -9.1493838E-03
         252 -1.4923367E-03
         253  2.1424583E-04
         254 -1.6199291E-04
         255  3.0405002E-03
         256  4.5621436E-04
         257 -8.4064150E-06
         258 -2.4777268E-05
         259 -1.8454593E-03
         260 -2.8300480E-04
         261  7.5556643E-05
         262 -2.1424756E-05
         263 -6.6562189E-04
         264 -9.7258519E-05
         265 -7.5701726E-05
         266  3.3832082E-05
         267  8.6429687E-03
         268  1.4484450E-03
         269  6.6371038E-05
         270  4.0506966E-05
         271 -2.7732088E-03
         272 -3.9404357E-04
         273  9.3646908E-05
         274 -6.2492567E-05
         275 -1.1028020E-05
         276  1.4730545E-05
         277 -1.3680129E-04
         278  8.9795445E-05
         279  3.6933445E-04
         280  2.7222419E-05
         281 -7.1584288E-04
         282  4.6841631E-04
         283  7.8273041E-04
         284  9.4114192E-04
         285  6.1145006E-04
         286 -1.2840697E-04
         287 -2.0934737E-04
         288 -3.2110166E-04
         289 -1.9228957E-05
         290  2.8858605E-05
         291 -7.2164141E-05
         292  2.0527212E-05
         293  2.4140170E-05
         294 -6.1397259E-06
         295  8.7248962E-05
         296 -1.9123136E-05
         297  7.1147340E-04
         298 -4.3640760E-04
         299  1.0005860E-03
         300 -5.8068417E-04
         301 -6.1767868E-04
         302  8.5938962E-05
         303 -3.0353878E-04
         304  2.2126670E-04
         305  4.7535672E-05
         306 -3.7184862E-05
         307 -3.2831156E-03
         308 -5.4603058E-04
         309 -1.1785761E-04
         310  5.1047291E-06
         311 -2.6592365E-04
         312 -5.2987180E-06
         313  1.2428375E-04
         314 -2.8513247E-04
         315 -7.7922144E-03
         316 -1.3442428E-03
         317 -2.1234060E-04
         318  4.2963272E-04
         319  2.8734000E-03
         320  3.8433628E-04
         321 -3.2040752E-03
         322  1.5665588E-03
         323 -4.9012777E-04
         324 -2.0321661E-03
         325  1.4357740E-05
         326 -6.8170440E-05
         327 -5.9265329E-04
         328  2.3920392E-03
         329 -2.0244472E-04
         330  7.0281536E-04
         331 -5.0125219E-04
         332  3.2656267E-04
         333  1.1016860E-03
         334 -1.1650755E-03
         335 -8.3419960E-04
         336 -1.0771317E-03
         337  1.9139559E-03
         338  6.6450605E-04
         339 -2.0179262E-04
         340 -1.0276926E-03
         341  1.0784414E-02
         342 -1.3608604E-03
         343  2.0006218E-03
         344 -1.7769380E-04
         345  8.0762693E-04
         346  1.0058281E-02
         347 -6.9922232E-03
         348  1.7259382E-02
         349 -1.6983873E-03
         350  1.5808863E-03
         351 -3.1540266E-04
         352 -6.6082212E-05
         353  1.5225160E-04
         354  4.1542924E-03
         355 -3.7189870E-04
         356  3.9839759E-04
         357 -1.8977269E-04
         358  1.8639093E-03
         359 -5.0003730E-02
         360 -9.1815315E-04
         361  7.2013674E-04
         362 -4.7312348E-04
         363 -4.5587317E-04
         364  1.3116225E-02
         365  1.3403589E-04
         366  1.0529524E-04
         367 -4.0692580E-04
         368 -4.1398737E-03
         369  5.9961833E-02
         370  2.4067648E-03
         371 -1.7127799E-04
         372 -2.4842258E-04
         373 -4.0541999E-03
         374  5.9910525E-02
         375 -2.9248910E-03
         376  5.8118731E-04
         377 -3.8117319E-04
         378 -4.3127948E-04
         379  1.2407677E-02
         380 -1.7317572E-04
         381  2.3281419E-04
         382 -1.0145808E-04
         383  1.8870675E-03
         384 -4.9223181E-02
         385  1.3176225E-03
         386 -5.6417414E-04
         387 -2.2165303E-05
         388  4.8447357E-05
         389  3.9525428E-03
         390  4.6803872E-04
         391 -9.9214604E-03
         392  6.9686351E-03
         393 -1.9003619E-02
         394  1.8615567E-03
         395 -1.5932492E-03
         396  3.0818046E-03
         397 -1.2407923E-03
         398  8.5315398E-05
         399 -1.7181028E-03
         400 -2.6120435E-04
         401 -3.4823304E-04
         402  1.2931833E-03
         403 -2.3445755E-03
         404  7.3730410E-04
         405 -4.3488835E-04
         406  6.0797716E-04
         407 -2.8303263E-04
         408 -6.7647494E-04
         409 -1.2239502E-03
         410  1.1669969E-03
         411  1.5599154E-03
         412 -1.7955377E-03
         413 -7.6530949E-04
         414 -2.0377226E-04
         415  4.8834889E-04
         416 -1.1927294E-02
         417  1.7942348E-03
         418 -2.5557394E-03
         419 -2.4496705E-05
         420  4.4576096E-04
         421 -8.6167172E-05
         422  3.4782299E-04
         423 -4.6680405E-04
         424 -1.7839957E-05
         425 -1.4901879E-04
         426  5.0789669E-05
         427 -2.2394015E-05
         428 -3.2615088E-05
         429 -5.2946428E-04
         430 -1.4731595E-04
         431  1.6734992E-04
         432  5.8738053E-05
         433 -1.8264305E-04
         434 -3.4373639E-05
         435 -9.8097640E-05
         436  1.2494337E-04
         437  7.7123914E-05
         438  1.2317023E-04
         439  2.0049050E-04
         440  8.2886225E-05
         441  5.6279096E-04
         442 -1.5213081E-05
         443  1.5008979E-04
         444  1.4437590E-04
         445  2.0458813E-04
         446 -2.8989594E-05
         447 -1.0342393E-05
         448  1.7619920E-04
         449  1.5585335E-04
         450 -1.4658947E-04
         451 -9.8117471E-06
         452  2.9714254E-05
         453 -1.5810861E-05
         454 -2.9100354E-05
         455 -4.3851189E-05
         456  7.5826385E-05
         457 -4.5772187E-05
         458 -1.1335320E-04
         459  6.3895706E-05
         460  1.4096929E-04
         461 -5.7201629E-04
         462  5.0925104E-05
         463 -1.2338845E-04
         464  1.5691873E-04
         465 -8.0898913E-05
         466 -2.0718649E-04
         467 -3.8862639E-05
         468  2.0514698E-04
         469 -7.5577067E-05
         470  2.1670366E-04
         471 -1.6576379E-04
         472 -5.0499686E-05
         473 -6.9831338E-05
         474  1.5449668E-05
         475 -1.1567490E-04
         476 -7.2077797E-05
         477  1.0199182E-05
         478 -7.5823846E-05
         479 -7.7428564E-04
         480 -1.8022291E-04
         481 -2.6356260E-05
         482 -3.0239133E-04
         483  6.2124373E-04
         484  5.4973562E-04
         485 -2.4599879E-04
