 [Molden Format]
 [Atoms] Angs
C       1      6      2.07305701      3.90664929      2.78308338
C       2      6      1.25107411      3.27514886      1.85406500
C       3      6      1.69768806      2.19404275      1.12084087
C       4      6      2.99107917      1.73017921      1.33304627
C       5      6      3.82652499      2.41864260      2.23764808
C       6      6      3.37921133      3.49674456      2.97985538
O       7      8      5.08605161      1.90950136      2.24310521
C       8      6      5.09755341      0.89690416      1.33533036
C       9      6      6.22939899      0.18069662      0.96437205
C      10      6      6.10525380     -0.75858868     -0.03805623
C      11      6      4.85469823     -1.01130694     -0.59807354
C      12      6      4.43334423     -1.90268930     -1.64589236
C      13      6      5.11132818     -2.79847618     -2.46170893
C      14      6      4.38955969     -3.51920495     -3.39286243
C      15      6      3.01181406     -3.35942927     -3.51192454
C      16      6      2.31560299     -2.47463198     -2.70838426
C      17      6      3.03854504     -1.74641530     -1.77969172
N      18      7      2.59007077     -0.81928416     -0.84007498
C      19      6      1.27415529     -0.74147171     -0.41466742
C      20      6      0.93674948     -0.73814149      0.94598905
N      21      7     -0.31686991     -0.75641545      1.34459015
C      22      6     -1.27411553     -0.74276148      0.41555451
N      23      7     -2.59012572     -0.82165571      0.84044908
C      24      6     -3.03881946     -1.74978135      1.77898601
C      25      6     -2.31626980     -2.47755504      2.70831335
C      26      6     -3.01255283     -3.36347922      3.51056392
C      27      6     -4.38995725     -3.52474883      3.38960792
C      28      6     -5.11131533     -2.80447645      2.45777300
C      29      6     -4.43327664     -1.90758547      1.64322622
C      30      6     -4.85426758     -1.01621749      0.59521869
C      31      6     -6.10419831     -0.76481287      0.03318954
C      32      6     -6.22785588      0.17470823     -0.96910389
C      33      6     -5.09636500      0.89266521     -1.33778094
O      34      8     -5.08451560      1.90582144     -2.24494890
C      35      6     -3.82568370      2.41669981     -2.23678066
C      36      6     -3.37838917      3.49597966     -2.97728906
C      37      6     -2.07322513      3.90761147     -2.77752712
C      38      6     -1.25217954      3.27659840     -1.84734287
C      39      6     -1.69869428      2.19424976     -1.11590039
C      40      6     -2.99100589      1.72876622     -1.33108094
C      41      6     -3.81949425      0.69395489     -0.76923744
C      42      6     -3.69337655     -0.34381531      0.15437455
C      43      6     -0.93669400     -0.73789296     -0.94511262
N      44      7      0.31689497     -0.75489161     -1.34370532
C      45      6      3.69361970     -0.34052513     -0.15515127
C      46      6      3.81991528      0.69684495      0.76893310
H      47      1      1.69090463      4.74538176      3.34467324
H      48      1      0.24775085      3.64285106      1.69846836
H      49      1      1.06544128      1.74004255      0.37570370
H      50      1      4.03642229      3.99932844      3.67095260
H      51      1      7.17600141      0.38881848      1.43497558
H      52      1      6.96947037     -1.30005442     -0.38871890
H      53      1      6.17909852     -2.92443890     -2.36730734
H      54      1      4.89845208     -4.21754374     -4.04044573
H      55      1      2.47456635     -3.93618910     -4.24989806
H      56      1      1.24996446     -2.34378710     -2.80458829
H      57      1      1.68761221     -0.75468260      1.72262332
H      58      1     -1.25090434     -2.34552008      2.80592592
H      59      1     -2.47565256     -3.93991918      4.24903957
H      60      1     -4.89893199     -4.22390070      4.03624958
H      61      1     -6.17882028     -2.93159691      2.36192184
H      62      1     -6.96832223     -1.30757249      0.38207816
H      63      1     -7.17392109      0.38166170     -1.44130208
H      64      1     -4.03487817      3.99814449     -3.66937605
H      65      1     -1.69115271      4.74733535     -3.33768912
H      66      1     -0.24973782      3.64569353     -1.68937415
H      67      1     -1.06734163      1.74054711     -0.36980966
H      68      1     -1.68752365     -0.75434743     -1.72177320
 [GTO]
           1   0
s              4   1.000000
     34.93875584     -0.01198412
      6.01674286     -0.05472053
      0.48347096      0.58055871
      0.18426275      0.47700800
p              4   1.000000
      5.63129327      0.05713170
      1.46011026      0.28574555
      0.51473405      0.55178730
      0.20492449      0.26323149
s              7   1.000000
      0.38350848     -0.19622770
      0.04707223      0.94810015
      0.02222627      0.24898549
     34.93875584      0.00551503
      6.01674286      0.02518211
      0.48347096     -0.26717021
      0.18426275     -0.21951669
p              7   1.000000
      1.83062075     -0.01161136
      0.10124670      0.57060007
      0.03901771      0.59590701
      5.63129327     -0.02526313
      1.46011026     -0.12635415
      0.51473405     -0.24399546
      0.20492449     -0.11639863
 
           2   0
s              4   1.000000
     34.92655522     -0.01198412
      6.01464181     -0.05472052
      0.48330213      0.58055871
      0.18419841      0.47700799
p              4   1.000000
      5.62932682      0.05713170
      1.45960038      0.28574555
      0.51455430      0.55178731
      0.20485293      0.26323149
s              7   1.000000
      0.38350848     -0.19623914
      0.04707223      0.94815542
      0.02222627      0.24900002
     34.92655522      0.00551687
      6.01464181      0.02519051
      0.48330213     -0.26725933
      0.18419841     -0.21958991
p              7   1.000000
      1.83062075     -0.01161200
      0.10124670      0.57063132
      0.03901771      0.59593966
      5.62932682     -0.02527159
      1.45960038     -0.12639646
      0.51455430     -0.24407716
      0.20485293     -0.11643761
 
           3   0
s              4   1.000000
     34.95577994     -0.01198412
      6.01967455     -0.05472052
      0.48370653      0.58055871
      0.18435253      0.47700799
p              4   1.000000
      5.63403714      0.05713170
      1.46082170      0.28574555
      0.51498486      0.55178731
      0.20502434      0.26323149
s              7   1.000000
      0.38350848     -0.19621176
      0.04707223      0.94802309
      0.02222627      0.24896526
     34.95577994      0.00551247
      6.01967455      0.02517040
      0.48370653     -0.26704596
      0.18435253     -0.21941460
p              7   1.000000
      1.83062075     -0.01161047
      0.10124670      0.57055650
      0.03901771      0.59586154
      5.63403714     -0.02525134
      1.46082170     -0.12629516
      0.51498486     -0.24388155
      0.20502434     -0.11634429
 
           4   0
s              4   1.000000
     35.33371673     -0.01198412
      6.08475839     -0.05472053
      0.48893630      0.58055871
      0.18634573      0.47700799
p              4   1.000000
      5.69495153      0.05713170
      1.47661589      0.28574555
      0.52055280      0.55178731
      0.20724104      0.26323149
s              7   1.000000
      0.38350848     -0.19586301
      0.04707223      0.94633808
      0.02222627      0.24852274
     35.33371673      0.00545612
      6.08475839      0.02491313
      0.48893630     -0.26431645
      0.18634573     -0.21717193
p              7   1.000000
      1.83062075     -0.01159109
      0.10124670      0.56960386
      0.03901771      0.59486660
      5.69495153     -0.02499224
      1.47661589     -0.12499926
      0.52055280     -0.24137910
      0.20724104     -0.11515049
 
           5   0
s              4   1.000000
     35.69587063     -0.01198412
      6.14712429     -0.05472052
      0.49394767      0.58055871
      0.18825568      0.47700799
p              4   1.000000
      5.75332209      0.05713170
      1.49175051      0.28574555
      0.52588822      0.55178731
      0.20936516      0.26323149
s              7   1.000000
      0.38350848     -0.19553802
      0.04707223      0.94476785
      0.02222627      0.24811039
     35.69587063      0.00540318
      6.14712429      0.02467139
      0.49394767     -0.26175171
      0.18825568     -0.21506465
p              7   1.000000
      1.83062075     -0.01157302
      0.10124670      0.56871614
      0.03901771      0.59393955
      5.75332209     -0.02474875
      1.49175051     -0.12378145
      0.52588822     -0.23902746
      0.20936516     -0.11402864
 
           6   0
s              4   1.000000
     34.90807646     -0.01198412
      6.01145962     -0.05472053
      0.48304643      0.58055871
      0.18410095      0.47700799
p              4   1.000000
      5.62634848      0.05713170
      1.45882815      0.28574555
      0.51428206      0.55178730
      0.20474455      0.26323149
s              7   1.000000
      0.38350848     -0.19625649
      0.04707223      0.94823924
      0.02222627      0.24902203
     34.90807646      0.00551966
      6.01145962      0.02520324
      0.48304643     -0.26739442
      0.18410095     -0.21970090
p              7   1.000000
      1.83062075     -0.01161296
      0.10124670      0.57067872
      0.03901771      0.59598913
      5.62634848     -0.02528441
      1.45882815     -0.12646059
      0.51428206     -0.24420100
      0.20474455     -0.11649669
 
           7   0
s              4   1.000000
     78.17082438     -0.01198412
     13.46166279     -0.05472052
      1.08170204      0.58055871
      0.41226342      0.47700799
p              4   1.000000
      8.06119265      0.05713170
      2.09014688      0.28574555
      0.73684145      0.55178731
      0.29334928      0.26323149
s              7   1.000000
      0.57971233     -0.18683774
      0.07115450      0.90273130
      0.03359728      0.23707094
     78.17082438      0.00376273
     13.46166279      0.01718095
      1.08170204     -0.18228173
      0.41226342     -0.14976925
p              7   1.000000
      2.76717072     -0.01171510
      0.15304476      0.57569787
      0.05897927      0.60123092
      8.06119265     -0.02661323
      2.09014688     -0.13310667
      0.73684145     -0.25703488
      0.29334928     -0.12261912
 
           8   0
s              4   1.000000
     35.70089774     -0.01198412
      6.14799000     -0.05472052
      0.49401723      0.58055871
      0.18828219      0.47700800
p              4   1.000000
      5.75413234      0.05713170
      1.49196059      0.28574555
      0.52596228      0.55178731
      0.20939465      0.26323149
s              7   1.000000
      0.38350848     -0.19553357
      0.04707223      0.94474636
      0.02222627      0.24810474
     35.70089774      0.00540245
      6.14799000      0.02466807
      0.49401723     -0.26171645
      0.18828219     -0.21503569
p              7   1.000000
      1.83062075     -0.01157278
      0.10124670      0.56870399
      0.03901771      0.59392685
      5.75413234     -0.02474540
      1.49196059     -0.12376471
      0.52596228     -0.23899513
      0.20939465     -0.11401321
 
           9   0
s              4   1.000000
     34.91163821     -0.01198412
      6.01207298     -0.05472052
      0.48309572      0.58055871
      0.18411974      0.47700799
p              4   1.000000
      5.62692255      0.05713170
      1.45897699      0.28574555
      0.51433454      0.55178731
      0.20476544      0.26323149
s              7   1.000000
      0.38350848     -0.19625315
      0.04707223      0.94822308
      0.02222627      0.24901776
     34.91163821      0.00551912
      6.01207298      0.02520079
      0.48309572     -0.26736837
      0.18411974     -0.21967950
p              7   1.000000
      1.83062075     -0.01161278
      0.10124670      0.57066958
      0.03901771      0.59597959
      5.62692255     -0.02528194
      1.45897699     -0.12644822
      0.51433454     -0.24417712
      0.20476544     -0.11648529
 
          10   0
s              4   1.000000
     34.95555847     -0.01198412
      6.01963641     -0.05472052
      0.48370347      0.58055871
      0.18435136      0.47700799
p              4   1.000000
      5.63400145      0.05713170
      1.46081245      0.28574555
      0.51498159      0.55178731
      0.20502305      0.26323149
s              7   1.000000
      0.38350848     -0.19621196
      0.04707223      0.94802411
      0.02222627      0.24896553
     34.95555847      0.00551250
      6.01963641      0.02517055
      0.48370347     -0.26704758
      0.18435136     -0.21941593
p              7   1.000000
      1.83062075     -0.01161049
      0.10124670      0.57055708
      0.03901771      0.59586210
      5.63400145     -0.02525149
      1.46081245     -0.12629593
      0.51498159     -0.24388303
      0.20502305     -0.11634500
 
          11   0
s              4   1.000000
     35.41085435     -0.01198412
      6.09804213     -0.05472053
      0.49000371      0.58055871
      0.18675254      0.47700799
p              4   1.000000
      5.70738427      0.05713170
      1.47983952      0.28574555
      0.52168922      0.55178731
      0.20769347      0.26323149
s              7   1.000000
      0.38350848     -0.19579304
      0.04707223      0.94600004
      0.02222627      0.24843397
     35.41085435      0.00544476
      6.09804213      0.02486125
      0.49000371     -0.26376605
      0.18675254     -0.21671971
p              7   1.000000
      1.83062075     -0.01158720
      0.10124670      0.56941274
      0.03901771      0.59466703
      5.70738427     -0.02493999
      1.47983952     -0.12473793
      0.52168922     -0.24087446
      0.20769347     -0.11490975
 
          12   0
s              4   1.000000
     35.41945605     -0.01198412
      6.09952342     -0.05472052
      0.49012273      0.58055871
      0.18679790      0.47700799
p              4   1.000000
      5.70877066      0.05713170
      1.48019899      0.28574555
      0.52181595      0.55178731
      0.20774392      0.26323149
s              7   1.000000
      0.38350848     -0.19578527
      0.04707223      0.94596246
      0.02222627      0.24842409
     35.41945605      0.00544350
      6.09952342      0.02485548
      0.49012273     -0.26370482
      0.18679790     -0.21666940
p              7   1.000000
      1.83062075     -0.01158677
      0.10124670      0.56939151
      0.03901771      0.59464486
      5.70877066     -0.02493417
      1.48019899     -0.12470885
      0.52181595     -0.24081831
      0.20774392     -0.11488297
 
          13   0
s              4   1.000000
     34.94087814     -0.01198412
      6.01710834     -0.05472052
      0.48350033      0.58055871
      0.18427394      0.47700800
p              4   1.000000
      5.63163533      0.05713170
      1.46019895      0.28574555
      0.51476532      0.55178730
      0.20493694      0.26323149
s              7   1.000000
      0.38350848     -0.19622571
      0.04707223      0.94809053
      0.02222627      0.24898296
     34.94087814      0.00551471
      6.01710834      0.02518065
      0.48350033     -0.26715472
      0.18427394     -0.21950396
p              7   1.000000
      1.83062075     -0.01161125
      0.10124670      0.57059463
      0.03901771      0.59590135
      5.63163533     -0.02526166
      1.46019895     -0.12634679
      0.51476532     -0.24398125
      0.20493694     -0.11639186
 
          14   0
s              4   1.000000
     34.92365792     -0.01198412
      6.01414288     -0.05472052
      0.48326204      0.58055871
      0.18418313      0.47700799
p              4   1.000000
      5.62885984      0.05713170
      1.45947930      0.28574555
      0.51451162      0.55178731
      0.20483594      0.26323149
s              7   1.000000
      0.38350848     -0.19624186
      0.04707223      0.94816856
      0.02222627      0.24900346
     34.92365792      0.00551731
      6.01414288      0.02519251
      0.48326204     -0.26728050
      0.18418313     -0.21960731
p              7   1.000000
      1.83062075     -0.01161215
      0.10124670      0.57063874
      0.03901771      0.59594742
      5.62885984     -0.02527360
      1.45947930     -0.12640651
      0.51451162     -0.24409657
      0.20483594     -0.11644687
 
          15   0
s              4   1.000000
     34.93892719     -0.01198412
      6.01677237     -0.05472052
      0.48347333      0.58055871
      0.18426365      0.47700800
p              4   1.000000
      5.63132088      0.05713170
      1.46011742      0.28574555
      0.51473657      0.55178731
      0.20492550      0.26323149
s              7   1.000000
      0.38350848     -0.19622754
      0.04707223      0.94809937
      0.02222627      0.24898530
     34.93892719      0.00551500
      6.01677237      0.02518199
      0.48347333     -0.26716896
      0.18426365     -0.21951566
p              7   1.000000
      1.83062075     -0.01161135
      0.10124670      0.57059963
      0.03901771      0.59590656
      5.63132088     -0.02526301
      1.46011742     -0.12635356
      0.51473657     -0.24399431
      0.20492550     -0.11639809
 
          16   0
s              4   1.000000
     34.94612074     -0.01198412
      6.01801116     -0.05472053
      0.48357288      0.58055871
      0.18430159      0.47700799
p              4   1.000000
      5.63248031      0.05713170
      1.46041804      0.28574555
      0.51484255      0.55178731
      0.20496769      0.26323149
s              7   1.000000
      0.38350848     -0.19622080
      0.04707223      0.94806680
      0.02222627      0.24897674
     34.94612074      0.00551392
      6.01801116      0.02517704
      0.48357288     -0.26711644
      0.18430159     -0.21947252
p              7   1.000000
      1.83062075     -0.01161098
      0.10124670      0.57058122
      0.03901771      0.59588731
      5.63248031     -0.02525803
      1.46041804     -0.12632863
      0.51484255     -0.24394617
      0.20496769     -0.11637512
 
          17   0
s              4   1.000000
     35.63482389     -0.01198412
      6.13661154     -0.05472053
      0.49310292      0.58055871
      0.18793373      0.47700799
p              4   1.000000
      5.74348282      0.05713170
      1.48919933      0.28574555
      0.52498885      0.55178731
      0.20900711      0.26323149
s              7   1.000000
      0.38350848     -0.19559219
      0.04707223      0.94502957
      0.02222627      0.24817910
     35.63482389      0.00541203
      6.13661154      0.02471182
      0.49310292     -0.26218062
      0.18793373     -0.21541706
p              7   1.000000
      1.83062075     -0.01157604
      0.10124670      0.56886410
      0.03901771      0.59409406
      5.74348282     -0.02478947
      1.48919933     -0.12398512
      0.52498885     -0.23942075
      0.20900711     -0.11421626
 
          18   0
s              4   1.000000
     61.40889956     -0.01198412
     10.57512064     -0.05472052
      0.84975607      0.58055871
      0.32386307      0.47700799
p              4   1.000000
      7.23838833      0.05713170
      1.87680601      0.28574555
      0.66163220      0.55178731
      0.26340718      0.26323149
s              7   1.000000
      0.47894987     -0.18772082
      0.05878681      0.90699803
      0.02775758      0.23819146
     61.40889956      0.00395640
     10.57512064      0.01806528
      0.84975607     -0.19166399
      0.32386307     -0.15747806
p              7   1.000000
      2.28619608     -0.01156013
      0.12644335      0.56808246
      0.04872781      0.59327774
      7.23838833     -0.02457370
      1.87680601     -0.12290593
      0.66163220     -0.23733680
      0.26340718     -0.11322210
 
          19   0
s              4   1.000000
     35.28014010     -0.01198412
      6.07553206     -0.05472053
      0.48819492      0.58055871
      0.18606317      0.47700800
p              4   1.000000
      5.68631626      0.05713170
      1.47437690      0.28574555
      0.51976348      0.55178731
      0.20692680      0.26323149
s              7   1.000000
      0.38350848     -0.19591184
      0.04707223      0.94657403
      0.02222627      0.24858470
     35.28014010      0.00546404
      6.07553206      0.02494929
      0.48819492     -0.26470005
      0.18606317     -0.21748712
p              7   1.000000
      1.83062075     -0.01159380
      0.10124670      0.56973726
      0.03901771      0.59500593
      5.68631626     -0.02502865
      1.47437690     -0.12518139
      0.51976348     -0.24173081
      0.20692680     -0.11531828
 
          20   0
s              4   1.000000
     35.14805040     -0.01198412
      6.05278512     -0.05472052
      0.48636711      0.58055871
      0.18536654      0.47700800
p              4   1.000000
      5.66502655      0.05713170
      1.46885679      0.28574555
      0.51781747      0.55178731
      0.20615206      0.26323149
s              7   1.000000
      0.38350848     -0.19603309
      0.04707223      0.94715984
      0.02222627      0.24873855
     35.14805040      0.00548366
      6.05278512      0.02503887
      0.48636711     -0.26565049
      0.18536654     -0.21826803
p              7   1.000000
      1.83062075     -0.01160054
      0.10124670      0.57006844
      0.03901771      0.59535183
      5.66502655     -0.02511888
      1.46885679     -0.12563264
      0.51781747     -0.24260220
      0.20615206     -0.11573397
 
          21   0
s              4   1.000000
     57.20558113     -0.01198412
      9.85127443     -0.05472052
      0.79159193      0.58055871
      0.30169528      0.47700799
p              4   1.000000
      6.74293489      0.05713170
      1.74834233      0.28574555
      0.61634477      0.55178731
      0.24537748      0.26323149
s              7   1.000000
      0.47894987     -0.18910245
      0.05878681      0.91367357
      0.02775758      0.23994455
     57.20558113      0.00424338
      9.85127443      0.01937562
      0.79159193     -0.20556615
      0.30169528     -0.16890057
p              7   1.000000
      2.28619608     -0.01169070
      0.12644335      0.57449896
      0.04872781      0.59997884
      6.74293489     -0.02630088
      1.74834233     -0.13154445
      0.61634477     -0.25401817
      0.24537748     -0.12117999
 
          22   0
s              4   1.000000
     35.28020738     -0.01198412
      6.07554364     -0.05472052
      0.48819586      0.58055871
      0.18606352      0.47700800
p              4   1.000000
      5.68632710      0.05713170
      1.47437971      0.28574555
      0.51976447      0.55178731
      0.20692719      0.26323149
s              7   1.000000
      0.38350848     -0.19591178
      0.04707223      0.94657372
      0.02222627      0.24858463
     35.28020738      0.00546403
      6.07554364      0.02494924
      0.48819586     -0.26469957
      0.18606352     -0.21748672
p              7   1.000000
      1.83062075     -0.01159380
      0.10124670      0.56973709
      0.03901771      0.59500577
      5.68632710     -0.02502861
      1.47437971     -0.12518116
      0.51976447     -0.24173037
      0.20692719     -0.11531806
 
          23   0
s              4   1.000000
     61.40873064     -0.01198412
     10.57509155     -0.05472052
      0.84975373      0.58055871
      0.32386218      0.47700800
p              4   1.000000
      7.23836842      0.05713170
      1.87680085      0.28574555
      0.66163038      0.55178730
      0.26340645      0.26323149
s              7   1.000000
      0.47894987     -0.18772087
      0.05878681      0.90699828
      0.02775758      0.23819152
     61.40873064      0.00395641
     10.57509155      0.01806533
      0.84975373     -0.19166452
      0.32386218     -0.15747848
p              7   1.000000
      2.28619608     -0.01156013
      0.12644335      0.56808269
      0.04872781      0.59327798
      7.23836842     -0.02457376
      1.87680085     -0.12290626
      0.66163038     -0.23733742
      0.26340645     -0.11322240
 
          24   0
s              4   1.000000
     35.63472878     -0.01198412
      6.13659516     -0.05472052
      0.49310160      0.58055871
      0.18793323      0.47700799
p              4   1.000000
      5.74346749      0.05713170
      1.48919536      0.28574555
      0.52498745      0.55178731
      0.20900655      0.26323149
s              7   1.000000
      0.38350848     -0.19559227
      0.04707223      0.94502997
      0.02222627      0.24817922
     35.63472878      0.00541205
      6.13659516      0.02471188
      0.49310160     -0.26218129
      0.18793323     -0.21541761
p              7   1.000000
      1.83062075     -0.01157604
      0.10124670      0.56886433
      0.03901771      0.59409430
      5.74346749     -0.02478953
      1.48919536     -0.12398544
      0.52498745     -0.23942137
      0.20900655     -0.11421655
 
          25   0
s              4   1.000000
     34.94606435     -0.01198412
      6.01800145     -0.05472052
      0.48357209      0.58055871
      0.18430129      0.47700800
p              4   1.000000
      5.63247122      0.05713170
      1.46041568      0.28574555
      0.51484172      0.55178731
      0.20496736      0.26323149
s              7   1.000000
      0.38350848     -0.19622085
      0.04707223      0.94806705
      0.02222627      0.24897679
     34.94606435      0.00551393
      6.01800145      0.02517708
      0.48357209     -0.26711686
      0.18430129     -0.21947285
p              7   1.000000
      1.83062075     -0.01161098
      0.10124670      0.57058137
      0.03901771      0.59588747
      5.63247122     -0.02525807
      1.46041568     -0.12632882
      0.51484172     -0.24394655
      0.20496736     -0.11637530
 
          26   0
s              4   1.000000
     34.93892698     -0.01198412
      6.01677233     -0.05472052
      0.48347333      0.58055871
      0.18426365      0.47700799
p              4   1.000000
      5.63132085      0.05713170
      1.46011741      0.28574555
      0.51473657      0.55178731
      0.20492550      0.26323149
s              7   1.000000
      0.38350848     -0.19622754
      0.04707223      0.94809937
      0.02222627      0.24898530
     34.93892698      0.00551500
      6.01677233      0.02518199
      0.48347333     -0.26716896
      0.18426365     -0.21951567
p              7   1.000000
      1.83062075     -0.01161135
      0.10124670      0.57059963
      0.03901771      0.59590656
      5.63132085     -0.02526301
      1.46011741     -0.12635356
      0.51473657     -0.24399432
      0.20492550     -0.11639809
 
          27   0
s              4   1.000000
     34.92365841     -0.01198412
      6.01414296     -0.05472053
      0.48326205      0.58055871
      0.18418313      0.47700800
p              4   1.000000
      5.62885992      0.05713170
      1.45947932      0.28574555
      0.51451163      0.55178731
      0.20483594      0.26323149
s              7   1.000000
      0.38350848     -0.19624186
      0.04707223      0.94816856
      0.02222627      0.24900346
     34.92365841      0.00551731
      6.01414296      0.02519251
      0.48326205     -0.26728050
      0.18418313     -0.21960730
p              7   1.000000
      1.83062075     -0.01161215
      0.10124670      0.57063874
      0.03901771      0.59594742
      5.62885992     -0.02527360
      1.45947932     -0.12640651
      0.51451163     -0.24409656
      0.20483594     -0.11644686
 
          28   0
s              4   1.000000
     34.94086397     -0.01198412
      6.01710590     -0.05472052
      0.48350013      0.58055871
      0.18427387      0.47700800
p              4   1.000000
      5.63163305      0.05713170
      1.46019835      0.28574555
      0.51476511      0.55178731
      0.20493686      0.26323149
s              7   1.000000
      0.38350848     -0.19622573
      0.04707223      0.94809060
      0.02222627      0.24898298
     34.94086397      0.00551471
      6.01710590      0.02518066
      0.48350013     -0.26715482
      0.18427387     -0.21950404
p              7   1.000000
      1.83062075     -0.01161125
      0.10124670      0.57059467
      0.03901771      0.59590139
      5.63163305     -0.02526167
      1.46019835     -0.12634684
      0.51476511     -0.24398135
      0.20493686     -0.11639190
 
          29   0
s              4   1.000000
     35.41947433     -0.01198412
      6.09952656     -0.05472052
      0.49012299      0.58055871
      0.18679800      0.47700799
p              4   1.000000
      5.70877361      0.05713170
      1.48019975      0.28574555
      0.52181622      0.55178731
      0.20774403      0.26323149
s              7   1.000000
      0.38350848     -0.19578525
      0.04707223      0.94596238
      0.02222627      0.24842409
     35.41947433      0.00544349
      6.09952656      0.02485547
      0.49012299     -0.26370468
      0.18679800     -0.21666929
p              7   1.000000
      1.83062075     -0.01158677
      0.10124670      0.56939146
      0.03901771      0.59464478
      5.70877361     -0.02493416
      1.48019975     -0.12470879
      0.52181622     -0.24081819
      0.20774403     -0.11488291
 
          30   0
s              4   1.000000
     35.41065448     -0.01198412
      6.09800771     -0.05472052
      0.49000094      0.58055871
      0.18675149      0.47700799
p              4   1.000000
      5.70735206      0.05713170
      1.47983117      0.28574555
      0.52168628      0.55178731
      0.20769230      0.26323149
s              7   1.000000
      0.38350848     -0.19579323
      0.04707223      0.94600091
      0.02222627      0.24843421
     35.41065448      0.00544479
      6.09800771      0.02486139
      0.49000094     -0.26376748
      0.18675149     -0.21672088
p              7   1.000000
      1.83062075     -0.01158721
      0.10124670      0.56941324
      0.03901771      0.59466756
      5.70735206     -0.02494012
      1.47983117     -0.12473860
      0.52168628     -0.24087576
      0.20769230     -0.11491037
 
          31   0
s              4   1.000000
     34.95554094     -0.01198412
      6.01963339     -0.05472052
      0.48370323      0.58055871
      0.18435127      0.47700799
p              4   1.000000
      5.63399862      0.05713170
      1.46081171      0.28574555
      0.51498133      0.55178731
      0.20502294      0.26323149
s              7   1.000000
      0.38350848     -0.19621198
      0.04707223      0.94802418
      0.02222627      0.24896555
     34.95554094      0.00551250
      6.01963339      0.02517056
      0.48370323     -0.26704770
      0.18435127     -0.21941603
p              7   1.000000
      1.83062075     -0.01161049
      0.10124670      0.57055712
      0.03901771      0.59586214
      5.63399862     -0.02525150
      1.46081171     -0.12629599
      0.51498133     -0.24388315
      0.20502294     -0.11634506
 
          32   0
s              4   1.000000
     34.91162698     -0.01198412
      6.01207105     -0.05472052
      0.48309556      0.58055871
      0.18411968      0.47700799
p              4   1.000000
      5.62692074      0.05713170
      1.45897652      0.28574555
      0.51433437      0.55178731
      0.20476538      0.26323149
s              7   1.000000
      0.38350848     -0.19625316
      0.04707223      0.94822312
      0.02222627      0.24901779
     34.91162698      0.00551912
      6.01207105      0.02520080
      0.48309556     -0.26736845
      0.18411968     -0.21967957
p              7   1.000000
      1.83062075     -0.01161278
      0.10124670      0.57066960
      0.03901771      0.59597963
      5.62692074     -0.02528195
      1.45897652     -0.12644826
      0.51433437     -0.24417720
      0.20476538     -0.11648533
 
          33   0
s              4   1.000000
     35.70074909     -0.01198412
      6.14796440     -0.05472053
      0.49401517      0.58055871
      0.18828141      0.47700799
p              4   1.000000
      5.75410839      0.05713170
      1.49195438      0.28574555
      0.52596009      0.55178731
      0.20939377      0.26323149
s              7   1.000000
      0.38350848     -0.19553370
      0.04707223      0.94474699
      0.02222627      0.24810491
     35.70074909      0.00540247
      6.14796440      0.02466817
      0.49401517     -0.26171750
      0.18828141     -0.21503654
p              7   1.000000
      1.83062075     -0.01157278
      0.10124670      0.56870435
      0.03901771      0.59392722
      5.75410839     -0.02474550
      1.49195438     -0.12376520
      0.52596009     -0.23899609
      0.20939377     -0.11401367
 
          34   0
s              4   1.000000
     78.17076800     -0.01198412
     13.46165309     -0.05472052
      1.08170126      0.58055871
      0.41226313      0.47700799
p              4   1.000000
      8.06118684      0.05713170
      2.09014537      0.28574555
      0.73684092      0.55178731
      0.29334907      0.26323149
s              7   1.000000
      0.57971233     -0.18683775
      0.07115450      0.90273136
      0.03359728      0.23707096
     78.17076800      0.00376273
     13.46165309      0.01718097
      1.08170126     -0.18228186
      0.41226313     -0.14976936
p              7   1.000000
      2.76717072     -0.01171510
      0.15304476      0.57569794
      0.05897927      0.60123099
      8.06118684     -0.02661324
      2.09014537     -0.13310676
      0.73684092     -0.25703505
      0.29334907     -0.12261920
 
          35   0
s              4   1.000000
     35.69580549     -0.01198412
      6.14711308     -0.05472053
      0.49394676      0.58055871
      0.18825534      0.47700799
p              4   1.000000
      5.75331159      0.05713170
      1.49174779      0.28574555
      0.52588726      0.55178731
      0.20936478      0.26323149
s              7   1.000000
      0.38350848     -0.19553808
      0.04707223      0.94476813
      0.02222627      0.24811046
     35.69580549      0.00540319
      6.14711308      0.02467143
      0.49394676     -0.26175217
      0.18825534     -0.21506503
p              7   1.000000
      1.83062075     -0.01157303
      0.10124670      0.56871630
      0.03901771      0.59393972
      5.75331159     -0.02474879
      1.49174779     -0.12378167
      0.52588726     -0.23902788
      0.20936478     -0.11402884
 
          36   0
s              4   1.000000
     34.90806511     -0.01198412
      6.01145766     -0.05472052
      0.48304627      0.58055871
      0.18410089      0.47700799
p              4   1.000000
      5.62634665      0.05713170
      1.45882767      0.28574555
      0.51428190      0.55178731
      0.20474449      0.26323149
s              7   1.000000
      0.38350848     -0.19625650
      0.04707223      0.94823930
      0.02222627      0.24902203
     34.90806511      0.00551966
      6.01145766      0.02520325
      0.48304627     -0.26739450
      0.18410089     -0.21970097
p              7   1.000000
      1.83062075     -0.01161296
      0.10124670      0.57067874
      0.03901771      0.59598918
      5.62634665     -0.02528442
      1.45882767     -0.12646063
      0.51428190     -0.24420108
      0.20474449     -0.11649672
 
          37   0
s              4   1.000000
     34.93877297     -0.01198412
      6.01674581     -0.05472052
      0.48347120      0.58055871
      0.18426284      0.47700799
p              4   1.000000
      5.63129603      0.05713170
      1.46011097      0.28574555
      0.51473430      0.55178731
      0.20492459      0.26323149
s              7   1.000000
      0.38350848     -0.19622769
      0.04707223      0.94810007
      0.02222627      0.24898547
     34.93877297      0.00551503
      6.01674581      0.02518210
      0.48347120     -0.26717009
      0.18426284     -0.21951659
p              7   1.000000
      1.83062075     -0.01161136
      0.10124670      0.57060003
      0.03901771      0.59590697
      5.63129603     -0.02526312
      1.46011097     -0.12635409
      0.51473430     -0.24399535
      0.20492459     -0.11639858
 
          38   0
s              4   1.000000
     34.92655213     -0.01198412
      6.01464128     -0.05472052
      0.48330209      0.58055871
      0.18419839      0.47700800
p              4   1.000000
      5.62932632      0.05713170
      1.45960026      0.28574555
      0.51455426      0.55178731
      0.20485292      0.26323149
s              7   1.000000
      0.38350848     -0.19623915
      0.04707223      0.94815544
      0.02222627      0.24900002
     34.92655213      0.00551687
      6.01464128      0.02519051
      0.48330209     -0.26725935
      0.18419839     -0.21958993
p              7   1.000000
      1.83062075     -0.01161200
      0.10124670      0.57063132
      0.03901771      0.59593966
      5.62932632     -0.02527159
      1.45960026     -0.12639647
      0.51455426     -0.24407718
      0.20485292     -0.11643762
 
          39   0
s              4   1.000000
     34.95577450     -0.01198412
      6.01967362     -0.05472052
      0.48370646      0.58055871
      0.18435250      0.47700799
p              4   1.000000
      5.63403627      0.05713170
      1.46082147      0.28574555
      0.51498477      0.55178730
      0.20502431      0.26323149
s              7   1.000000
      0.38350848     -0.19621176
      0.04707223      0.94802312
      0.02222627      0.24896526
     34.95577450      0.00551247
      6.01967362      0.02517040
      0.48370646     -0.26704600
      0.18435250     -0.21941463
p              7   1.000000
      1.83062075     -0.01161048
      0.10124670      0.57055653
      0.03901771      0.59586154
      5.63403627     -0.02525134
      1.46082147     -0.12629518
      0.51498477     -0.24388159
      0.20502431     -0.11634431
 
          40   0
s              4   1.000000
     35.33382328     -0.01198412
      6.08477674     -0.05472052
      0.48893777      0.58055871
      0.18634629      0.47700799
p              4   1.000000
      5.69496870      0.05713170
      1.47662034      0.28574555
      0.52055437      0.55178731
      0.20724166      0.26323149
s              7   1.000000
      0.38350848     -0.19586291
      0.04707223      0.94633761
      0.02222627      0.24852262
     35.33382328      0.00545611
      6.08477674      0.02491306
      0.48893777     -0.26431569
      0.18634629     -0.21717131
p              7   1.000000
      1.83062075     -0.01159108
      0.10124670      0.56960360
      0.03901771      0.59486636
      5.69496870     -0.02499216
      1.47662034     -0.12499889
      0.52055437     -0.24137840
      0.20724166     -0.11515016
 
          41   0
s              4   1.000000
     35.34630392     -0.01198412
      6.08692601     -0.05472053
      0.48911048      0.58055871
      0.18641211      0.47700800
p              4   1.000000
      5.69698029      0.05713170
      1.47714192      0.28574555
      0.52073824      0.55178731
      0.20731486      0.26323149
s              7   1.000000
      0.38350848     -0.19585156
      0.04707223      0.94628278
      0.02222627      0.24850824
     35.34630392      0.00545427
      6.08692601      0.02490465
      0.48911048     -0.26422648
      0.18641211     -0.21709801
p              7   1.000000
      1.83062075     -0.01159045
      0.10124670      0.56957259
      0.03901771      0.59483395
      5.69698029     -0.02498370
      1.47714192     -0.12495654
      0.52073824     -0.24129661
      0.20731486     -0.11511114
 
          42   0
s              4   1.000000
     35.62713600     -0.01198412
      6.13528762     -0.05472052
      0.49299654      0.58055871
      0.18789318      0.47700799
p              4   1.000000
      5.74224371      0.05713170
      1.48887805      0.28574555
      0.52487558      0.55178731
      0.20896202      0.26323149
s              7   1.000000
      0.38350848     -0.19559903
      0.04707223      0.94506261
      0.02222627      0.24818778
     35.62713600      0.00541315
      6.13528762      0.02471692
      0.49299654     -0.26223473
      0.18789318     -0.21546152
p              7   1.000000
      1.83062075     -0.01157642
      0.10124670      0.56888278
      0.03901771      0.59411356
      5.74224371     -0.02479461
      1.48887805     -0.12401081
      0.52487558     -0.23947037
      0.20896202     -0.11423993
 
          43   0
s              4   1.000000
     35.14824523     -0.01198412
      6.05281867     -0.05472052
      0.48636981      0.58055871
      0.18536757      0.47700799
p              4   1.000000
      5.66505795      0.05713170
      1.46886493      0.28574555
      0.51782034      0.55178731
      0.20615320      0.26323149
s              7   1.000000
      0.38350848     -0.19603291
      0.04707223      0.94715896
      0.02222627      0.24873833
     35.14824523      0.00548363
      6.05281867      0.02503874
      0.48636981     -0.26564908
      0.18536757     -0.21826687
p              7   1.000000
      1.83062075     -0.01160053
      0.10124670      0.57006795
      0.03901771      0.59535131
      5.66505795     -0.02511874
      1.46886493     -0.12563198
      0.51782034     -0.24260091
      0.20615320     -0.11573336
 
          44   0
s              4   1.000000
     57.20592816     -0.01198412
      9.85133419     -0.05472053
      0.79159674      0.58055871
      0.30169711      0.47700799
p              4   1.000000
      6.74297579      0.05713170
      1.74835293      0.28574555
      0.61634851      0.55178731
      0.24537896      0.26323149
s              7   1.000000
      0.47894987     -0.18910233
      0.05878681      0.91367296
      0.02775758      0.23994438
     57.20592816      0.00424335
      9.85133419      0.01937551
      0.79159674     -0.20556493
      0.30169711     -0.16889956
p              7   1.000000
      2.28619608     -0.01169069
      0.12644335      0.57449839
      0.04872781      0.59997822
      6.74297579     -0.02630072
      1.74835293     -0.13154369
      0.61634851     -0.25401669
      0.24537896     -0.12117929
 
          45   0
s              4   1.000000
     35.62661532     -0.01198412
      6.13519796     -0.05472053
      0.49298933      0.58055871
      0.18789044      0.47700799
p              4   1.000000
      5.74215979      0.05713170
      1.48885629      0.28574555
      0.52486791      0.55178731
      0.20895896      0.26323149
s              7   1.000000
      0.38350848     -0.19559949
      0.04707223      0.94506485
      0.02222627      0.24818837
     35.62661532      0.00541323
      6.13519796      0.02471726
      0.49298933     -0.26223840
      0.18789044     -0.21546453
p              7   1.000000
      1.83062075     -0.01157644
      0.10124670      0.56888405
      0.03901771      0.59411489
      5.74215979     -0.02479496
      1.48885629     -0.12401255
      0.52486791     -0.23947373
      0.20895896     -0.11424153
 
          46   0
s              4   1.000000
     35.34605768     -0.01198412
      6.08688361     -0.05472052
      0.48910707      0.58055871
      0.18641081      0.47700799
p              4   1.000000
      5.69694060      0.05713170
      1.47713163      0.28574555
      0.52073461      0.55178731
      0.20731342      0.26323149
s              7   1.000000
      0.38350848     -0.19585179
      0.04707223      0.94628387
      0.02222627      0.24850850
     35.34605768      0.00545430
      6.08688361      0.02490482
      0.48910707     -0.26422824
      0.18641081     -0.21709946
p              7   1.000000
      1.83062075     -0.01159047
      0.10124670      0.56957321
      0.03901771      0.59483460
      5.69694060     -0.02498386
      1.47713163     -0.12495738
      0.52073461     -0.24129823
      0.20731342     -0.11511191
 
          47   0
s              4   1.000000
      8.30901912      0.05675242
      1.52044813      0.26014135
      0.42239714      0.53284611
      0.14018981      0.29162544
s              7   1.000000
      0.92936822     -0.06732833
      0.05643440      0.66945447
      0.02166600      0.51461392
      8.30901912     -0.02902252
      1.52044813     -0.13303323
      0.42239714     -0.27249123
      0.14018981     -0.14913382
p              4   1.000000
      0.64737396      0.05713170
      0.16785440      0.28574555
      0.05917387      0.55178731
      0.02355814      0.26323150
 
          48   0
s              4   1.000000
      8.30912705      0.05675242
      1.52046788      0.26014135
      0.42240263      0.53284611
      0.14019163      0.29162544
s              7   1.000000
      0.92936822     -0.06732819
      0.05643440      0.66945309
      0.02166600      0.51461288
      8.30912705     -0.02902223
      1.52046788     -0.13303190
      0.42240263     -0.27248852
      0.14019163     -0.14913234
p              4   1.000000
      0.64737396      0.05713170
      0.16785440      0.28574555
      0.05917387      0.55178731
      0.02355814      0.26323150
 
          49   0
s              4   1.000000
      8.31045030      0.05675242
      1.52071002      0.26014135
      0.42246989      0.53284611
      0.14021396      0.29162544
s              7   1.000000
      0.92936822     -0.06732649
      0.05643440      0.66943618
      0.02166600      0.51459986
      8.31045030     -0.02901869
      1.52071002     -0.13301568
      0.42246989     -0.27245529
      0.14021396     -0.14911415
p              4   1.000000
      0.64737396      0.05713170
      0.16785440      0.28574555
      0.05917387      0.55178731
      0.02355814      0.26323150
 
          50   0
s              4   1.000000
      8.30879581      0.05675242
      1.52040727      0.26014135
      0.42238579      0.53284611
      0.14018605      0.29162544
s              7   1.000000
      0.92936822     -0.06732862
      0.05643440      0.66945733
      0.02166600      0.51461614
      8.30879581     -0.02902312
      1.52040727     -0.13303597
      0.42238579     -0.27249684
      0.14018605     -0.14913689
p              4   1.000000
      0.64737396      0.05713170
      0.16785440      0.28574555
      0.05917387      0.55178731
      0.02355814      0.26323150
 
          51   0
s              4   1.000000
      8.30893484      0.05675242
      1.52043271      0.26014135
      0.42239286      0.53284611
      0.14018839      0.29162544
s              7   1.000000
      0.92936822     -0.06732844
      0.05643440      0.66945555
      0.02166600      0.51461477
      8.30893484     -0.02902275
      1.52043271     -0.13303426
      0.42239286     -0.27249335
      0.14018839     -0.14913498
p              4   1.000000
      0.64737396      0.05713170
      0.16785440      0.28574555
      0.05917387      0.55178731
      0.02355814      0.26323150
 
          52   0
s              4   1.000000
      8.30917213      0.05675242
      1.52047613      0.26014135
      0.42240492      0.53284611
      0.14019239      0.29162544
s              7   1.000000
      0.92936822     -0.06732814
      0.05643440      0.66945252
      0.02166600      0.51461243
      8.30917213     -0.02902211
      1.52047613     -0.13303135
      0.42240492     -0.27248739
      0.14019239     -0.14913172
p              4   1.000000
      0.64737396      0.05713170
      0.16785440      0.28574555
      0.05917387      0.55178731
      0.02355814      0.26323150
 
          53   0
s              4   1.000000
      8.30894094      0.05675242
      1.52043382      0.26014135
      0.42239317      0.53284611
      0.14018849      0.29162544
s              7   1.000000
      0.92936822     -0.06732843
      0.05643440      0.66945548
      0.02166600      0.51461469
      8.30894094     -0.02902273
      1.52043382     -0.13303419
      0.42239317     -0.27249320
      0.14018849     -0.14913490
p              4   1.000000
      0.64737396      0.05713170
      0.16785440      0.28574555
      0.05917387      0.55178731
      0.02355814      0.26323150
 
          54   0
s              4   1.000000
      8.30895250      0.05675242
      1.52043594      0.26014135
      0.42239375      0.53284611
      0.14018869      0.29162544
s              7   1.000000
      0.92936822     -0.06732842
      0.05643440      0.66945533
      0.02166600      0.51461460
      8.30895250     -0.02902270
      1.52043594     -0.13303405
      0.42239375     -0.27249291
      0.14018869     -0.14913473
p              4   1.000000
      0.64737396      0.05713170
      0.16785440      0.28574555
      0.05917387      0.55178731
      0.02355814      0.26323150
 
          55   0
s              4   1.000000
      8.30901528      0.05675242
      1.52044743      0.26014135
      0.42239694      0.53284611
      0.14018975      0.29162544
s              7   1.000000
      0.92936822     -0.06732834
      0.05643440      0.66945452
      0.02166600      0.51461397
      8.30901528     -0.02902253
      1.52044743     -0.13303328
      0.42239694     -0.27249133
      0.14018975     -0.14913387
p              4   1.000000
      0.64737396      0.05713170
      0.16785440      0.28574555
      0.05917387      0.55178731
      0.02355814      0.26323150
 
          56   0
s              4   1.000000
      8.30986427      0.05675242
      1.52060278      0.26014135
      0.42244010      0.53284611
      0.14020407      0.29162544
s              7   1.000000
      0.92936822     -0.06732725
      0.05643440      0.66944366
      0.02166600      0.51460563
      8.30986427     -0.02902026
      1.52060278     -0.13302287
      0.42244010     -0.27247001
      0.14020407     -0.14912220
p              4   1.000000
      0.64737396      0.05713170
      0.16785440      0.28574555
      0.05917387      0.55178731
      0.02355814      0.26323150
 
          57   0
s              4   1.000000
      8.30984593      0.05675242
      1.52059942      0.26014135
      0.42243917      0.53284611
      0.14020376      0.29162544
s              7   1.000000
      0.92936822     -0.06732727
      0.05643440      0.66944391
      0.02166600      0.51460580
      8.30984593     -0.02902031
      1.52059942     -0.13302309
      0.42243917     -0.27247047
      0.14020376     -0.14912245
p              4   1.000000
      0.64737396      0.05713170
      0.16785440      0.28574555
      0.05917387      0.55178731
      0.02355814      0.26323150
 
          58   0
s              4   1.000000
      8.30986116      0.05675242
      1.52060221      0.26014135
      0.42243994      0.53284611
      0.14020402      0.29162544
s              7   1.000000
      0.92936822     -0.06732725
      0.05643440      0.66944370
      0.02166600      0.51460565
      8.30986116     -0.02902027
      1.52060221     -0.13302290
      0.42243994     -0.27247008
      0.14020402     -0.14912225
p              4   1.000000
      0.64737396      0.05713170
      0.16785440      0.28574555
      0.05917387      0.55178731
      0.02355814      0.26323150
 
          59   0
s              4   1.000000
      8.30901516      0.05675242
      1.52044740      0.26014135
      0.42239694      0.53284611
      0.14018975      0.29162544
s              7   1.000000
      0.92936822     -0.06732834
      0.05643440      0.66945452
      0.02166600      0.51461397
      8.30901516     -0.02902253
      1.52044740     -0.13303328
      0.42239694     -0.27249133
      0.14018975     -0.14913387
p              4   1.000000
      0.64737396      0.05713170
      0.16785440      0.28574555
      0.05917387      0.55178731
      0.02355814      0.26323150
 
          60   0
s              4   1.000000
      8.30895251      0.05675242
      1.52043594      0.26014135
      0.42239375      0.53284611
      0.14018869      0.29162544
s              7   1.000000
      0.92936822     -0.06732842
      0.05643440      0.66945533
      0.02166600      0.51461460
      8.30895251     -0.02902270
      1.52043594     -0.13303405
      0.42239375     -0.27249291
      0.14018869     -0.14913473
p              4   1.000000
      0.64737396      0.05713170
      0.16785440      0.28574555
      0.05917387      0.55178731
      0.02355814      0.26323150
 
          61   0
s              4   1.000000
      8.30894077      0.05675242
      1.52043379      0.26014135
      0.42239316      0.53284611
      0.14018849      0.29162544
s              7   1.000000
      0.92936822     -0.06732843
      0.05643440      0.66945548
      0.02166600      0.51461469
      8.30894077     -0.02902273
      1.52043379     -0.13303419
      0.42239316     -0.27249320
      0.14018849     -0.14913490
p              4   1.000000
      0.64737396      0.05713170
      0.16785440      0.28574555
      0.05917387      0.55178731
      0.02355814      0.26323150
 
          62   0
s              4   1.000000
      8.30917181      0.05675242
      1.52047607      0.26014135
      0.42240490      0.53284611
      0.14019239      0.29162544
s              7   1.000000
      0.92936822     -0.06732814
      0.05643440      0.66945252
      0.02166600      0.51461243
      8.30917181     -0.02902211
      1.52047607     -0.13303136
      0.42240490     -0.27248740
      0.14019239     -0.14913172
p              4   1.000000
      0.64737396      0.05713170
      0.16785440      0.28574555
      0.05917387      0.55178731
      0.02355814      0.26323150
 
          63   0
s              4   1.000000
      8.30893466      0.05675242
      1.52043267      0.26014135
      0.42239285      0.53284611
      0.14018839      0.29162544
s              7   1.000000
      0.92936822     -0.06732844
      0.05643440      0.66945555
      0.02166600      0.51461477
      8.30893466     -0.02902275
      1.52043267     -0.13303426
      0.42239285     -0.27249335
      0.14018839     -0.14913498
p              4   1.000000
      0.64737396      0.05713170
      0.16785440      0.28574555
      0.05917387      0.55178731
      0.02355814      0.26323150
 
          64   0
s              4   1.000000
      8.30879567      0.05675242
      1.52040724      0.26014135
      0.42238578      0.53284611
      0.14018604      0.29162544
s              7   1.000000
      0.92936822     -0.06732862
      0.05643440      0.66945733
      0.02166600      0.51461614
      8.30879567     -0.02902312
      1.52040724     -0.13303597
      0.42238578     -0.27249685
      0.14018604     -0.14913689
p              4   1.000000
      0.64737396      0.05713170
      0.16785440      0.28574555
      0.05917387      0.55178731
      0.02355814      0.26323150
 
          65   0
s              4   1.000000
      8.30901934      0.05675242
      1.52044817      0.26014135
      0.42239715      0.53284611
      0.14018982      0.29162543
s              7   1.000000
      0.92936822     -0.06732833
      0.05643440      0.66945447
      0.02166600      0.51461392
      8.30901934     -0.02902252
      1.52044817     -0.13303323
      0.42239715     -0.27249123
      0.14018982     -0.14913382
p              4   1.000000
      0.64737396      0.05713170
      0.16785440      0.28574555
      0.05917387      0.55178731
      0.02355814      0.26323150
 
          66   0
s              4   1.000000
      8.30912691      0.05675242
      1.52046785      0.26014135
      0.42240262      0.53284611
      0.14019163      0.29162544
s              7   1.000000
      0.92936822     -0.06732819
      0.05643440      0.66945310
      0.02166600      0.51461288
      8.30912691     -0.02902223
      1.52046785     -0.13303191
      0.42240262     -0.27248853
      0.14019163     -0.14913234
p              4   1.000000
      0.64737396      0.05713170
      0.16785440      0.28574555
      0.05917387      0.55178731
      0.02355814      0.26323150
 
          67   0
s              4   1.000000
      8.31044644      0.05675242
      1.52070931      0.26014135
      0.42246970      0.53284611
      0.14021390      0.29162544
s              7   1.000000
      0.92936822     -0.06732650
      0.05643440      0.66943622
      0.02166600      0.51459991
      8.31044644     -0.02901870
      1.52070931     -0.13301573
      0.42246970     -0.27245539
      0.14021390     -0.14911420
p              4   1.000000
      0.64737396      0.05713170
      0.16785440      0.28574555
      0.05917387      0.55178731
      0.02355814      0.26323150
 
          68   0
s              4   1.000000
      8.30985106      0.05675242
      1.52060036      0.26014135
      0.42243943      0.53284611
      0.14020385      0.29162544
s              7   1.000000
      0.92936822     -0.06732726
      0.05643440      0.66944383
      0.02166600      0.51460575
      8.30985106     -0.02902029
      1.52060036     -0.13302303
      0.42243943     -0.27247034
      0.14020385     -0.14912238
p              4   1.000000
      0.64737396      0.05713170
      0.16785440      0.28574555
      0.05917387      0.55178731
      0.02355814      0.26323150
 
 [MO]
 Sym= Hole
 Ene= -0.5612385    
 Spin= Alpha
 Occup= 0
           1 -1.2146796E-03
           2  5.1020328E-02
           3  0.1021685    
           4 -0.1156577    
           5  8.5387559E-04
           6 -2.1184939E-03
           7 -3.9124722E-03
           8  3.9785048E-03
           9  7.6137448E-04
          10  3.4238771E-02
          11  6.0451835E-02
          12 -7.1181506E-02
          13 -5.3366739E-04
          14 -4.8979779E-04
          15 -1.4986515E-03
          16  1.8897020E-03
          17 -3.0609868E-03
          18 -3.6675341E-02
          19 -6.6257156E-02
          20  8.2504012E-02
          21  1.1194310E-03
          22  1.5365980E-03
          23 -4.5821475E-04
          24 -1.2860950E-03
          25 -2.3581919E-03
          26 -4.8994400E-02
          27 -7.9069234E-02
          28  0.1088804    
          29  6.8058254E-04
          30  1.8920478E-03
          31  3.2743525E-03
          32 -2.6839157E-03
          33  1.6882117E-03
          34 -5.3356778E-02
          35 -0.1144764    
          36  0.1296502    
          37 -5.0459511E-04
          38  3.9100419E-03
          39  7.0956992E-03
          40 -1.0569236E-02
          41 -1.1890193E-03
          42 -8.6051226E-03
          43 -1.4618486E-02
          44  2.1038791E-02
          45  1.0306711E-03
          46 -2.1527367E-04
          47 -1.1537891E-03
          48  1.6833862E-04
          49  3.3857056E-03
          50  1.7811097E-02
          51  4.1968994E-02
          52 -5.3923141E-02
          53 -2.4699012E-03
          54 -1.5024631E-03
          55 -2.6277069E-03
          56  3.4202272E-03
          57  9.7795576E-04
          58  7.4088001E-03
          59  5.2884176E-02
          60 -6.2452964E-02
          61 -2.4950032E-03
          62  1.5844709E-03
          63  2.8955857E-03
          64 -3.4792700E-03
          65  5.1354035E-04
          66 -4.6273947E-02
          67 -0.1848897    
          68  0.1778362    
          69 -3.6144155E-04
          70  1.5431894E-03
          71  9.3116518E-03
          72 -7.9376362E-03
          73  2.6143824E-03
          74 -4.0086508E-02
          75 -0.1406123    
          76  0.1300527    
          77 -1.0730985E-03
          78  6.3055730E-04
          79  6.4383112E-03
          80 -5.0226757E-03
          81 -1.0201877E-02
          82  4.3830022E-02
          83  0.1137420    
          84 -0.1219450    
          85  2.6735133E-03
          86 -1.2333734E-03
          87 -7.2356043E-03
          88  5.9765829E-03
          89 -6.5408256E-03
          90  3.5893694E-02
          91  9.6418105E-02
          92 -8.7695681E-02
          93  2.9614978E-04
          94 -2.8051462E-03
          95 -7.0256088E-03
          96  5.3914040E-03
          97  3.1325168E-03
          98 -1.5563843E-02
          99 -5.8079910E-02
         100  5.9196845E-02
         101 -1.3031601E-03
         102 -1.5323375E-04
         103  7.0415484E-03
         104 -5.3782193E-03
         105  1.5214680E-03
         106 -1.8882481E-02
         107 -0.1036304    
         108  9.7890459E-02
         109 -6.0007942E-04
         110  3.2654594E-04
         111  6.3322461E-03
         112 -4.4340901E-03
         113 -4.2554842E-05
         114  5.1868875E-03
         115  3.1867374E-02
         116 -2.9745180E-02
         117 -2.8009791E-04
         118  5.0886191E-04
         119  2.0762691E-03
         120  1.3558430E-03
         121  5.5964673E-03
         122  2.0761089E-02
         123  0.1132724    
         124 -9.8253794E-02
         125 -6.6988464E-03
         126  1.3163210E-03
         127 -8.6302040E-03
         128  5.1274644E-03
         129  1.0352967E-02
         130 -1.4123714E-02
         131  4.8230211E-03
         132  1.8498182E-02
         133 -1.3136859E-02
         134  5.1671779E-03
         135 -1.5951984E-02
         136  8.6195749E-04
         137 -3.0435195E-02
         138  2.3154577E-02
         139 -0.2440820    
         140  0.2078778    
         141  1.2057015E-02
         142 -8.7708049E-03
         143  2.5237951E-02
         144 -2.0452611E-02
         145  6.2673725E-03
         146  2.2747511E-02
         147  9.2625618E-02
         148 -1.4576003E-02
         149 -1.2464774E-02
         150 -8.4200008E-03
         151 -2.1981169E-02
         152  1.0290030E-02
         153 -1.6757872E-02
         154 -1.3338679E-02
         155  0.1393781    
         156  3.7125353E-02
         157  8.1357993E-03
         158  1.2142772E-02
         159 -1.8006422E-02
         160 -1.0514081E-02
         161 -1.5242442E-02
         162  2.7543981E-02
         163 -7.0850834E-02
         164 -1.8439959E-03
         165  1.0741720E-02
         166 -7.9802880E-03
         167  1.1363708E-02
         168 -9.1174612E-04
         169 -5.5359853E-03
         170  2.1618057E-02
         171 -0.1082764    
         172 -1.0282972E-02
         173  1.0191697E-02
         174 -8.2116891E-03
         175  2.2611968E-02
         176  7.1649048E-03
         177  2.7867444E-02
         178  2.0925777E-02
         179  0.2155594    
         180  0.1811610    
         181 -1.1377615E-02
         182 -8.0317473E-03
         183 -2.3372039E-02
         184 -1.8418886E-02
         185 -1.1118129E-02
         186 -1.4947007E-02
         187 -4.2949747E-03
         188  2.1043781E-02
         189  1.2778202E-02
         190  5.2200193E-03
         191  1.4303670E-02
         192 -1.8238557E-04
         193 -4.3790368E-03
         194  1.8793622E-02
         195 -9.7669825E-02
         196 -8.5631609E-02
         197  5.7052025E-03
         198  1.2975694E-03
         199  7.7698007E-03
         200  4.6123001E-03
         201 -3.7013181E-04
         202  4.1976599E-03
         203 -2.8784726E-02
         204 -2.5960479E-02
         205  4.3995737E-04
         206  6.7931053E-04
         207 -1.6519853E-03
         208  1.1674269E-03
         209 -1.3536683E-03
         210 -1.6376382E-02
         211  8.9643627E-02
         212  8.4862180E-02
         213  5.7462510E-04
         214  3.0661304E-04
         215 -5.7522818E-03
         216 -4.0608943E-03
         217 -3.1263174E-03
         218 -1.3700306E-02
         219  4.8640169E-02
         220  5.0621375E-02
         221  1.2725578E-03
         222 -1.5904279E-04
         223 -6.2519526E-03
         224 -4.7916900E-03
         225  6.2226313E-03
         226  3.3055972E-02
         227 -8.4509559E-02
         228 -7.6771997E-02
         229 -2.2790831E-04
         230 -2.5728217E-03
         231  6.5352432E-03
         232  4.9197716E-03
         233  9.0010259E-03
         234  3.8146589E-02
         235 -9.9070691E-02
         236 -0.1055782    
         237 -2.3487376E-03
         238 -1.0048965E-03
         239  6.7307455E-03
         240  5.4996549E-03
         241 -2.1563070E-03
         242 -3.4095373E-02
         243  0.1185137    
         244  0.1095736    
         245  9.6791121E-04
         246  6.1936054E-04
         247 -5.7919989E-03
         248 -4.5459173E-03
         249 -4.5897759E-04
         250 -4.0049918E-02
         251  0.1575946    
         252  0.1518546    
         253  3.6780685E-04
         254  1.4117614E-03
         255 -8.3266050E-03
         256 -7.1422984E-03
         257 -4.9336319E-04
         258  7.3177665E-03
         259 -4.6201464E-02
         260 -5.4345138E-02
         261  2.0823437E-03
         262  1.2237618E-03
         263 -2.2411812E-03
         264 -2.8655960E-03
         265 -2.9059001E-03
         266  1.4653223E-02
         267 -3.4233682E-02
         268 -4.4697799E-02
         269  2.1685134E-03
         270 -1.2688184E-03
         271  2.0588473E-03
         272  2.8628404E-03
         273 -1.4886630E-03
         274 -4.5612231E-02
         275  9.7045898E-02
         276  0.1100385    
         277  4.8143181E-04
         278  3.2689525E-03
         279 -5.9905709E-03
         280 -9.1201086E-03
         281  1.0229795E-03
         282 -7.1912310E-03
         283  1.2066754E-02
         284  1.7509619E-02
         285 -8.9274143E-04
         286 -3.0947023E-04
         287  1.0542236E-03
         288  2.1116486E-04
         289  1.1392363E-03
         290  4.3953989E-02
         291 -8.7112382E-02
         292 -9.8455809E-02
         293 -7.9354341E-04
         294 -1.9662210E-03
         295  3.5048949E-03
         296  3.5280294E-03
         297 -9.4548677E-04
         298  2.8954022E-02
         299 -4.9904622E-02
         300 -5.9862744E-02
         301  7.4564863E-04
         302 -2.2543568E-04
         303  9.0100663E-04
         304  1.6583309E-03
         305  3.2700149E-03
         306 -3.1510390E-02
         307  5.6468155E-02
         308  7.2071068E-02
         309 -1.1483111E-03
         310  2.0085021E-03
         311  6.4325788E-05
         312 -1.4811248E-03
         313  1.8988826E-03
         314 -4.1138303E-02
         315  6.5732330E-02
         316  9.0485297E-02
         317 -5.1425467E-04
         318  1.5501787E-03
         319 -2.6639777E-03
         320 -2.1834280E-03
         321 -4.1946014E-03
         322  5.4394849E-02
         323 -0.1175000    
         324 -0.1602718    
         325  4.8876912E-03
         326  1.1442308E-03
         327  1.5683069E-03
         328  9.2459610E-03
         329  3.5879647E-03
         330  8.9402599E-03
         331 -8.9476429E-02
         332 -9.4778024E-02
         333  3.7899008E-03
         334  4.8250286E-03
         335  6.5564616E-03
         336  1.0287202E-02
         337  1.3942922E-02
         338 -1.1925870E-02
         339 -0.1288709    
         340  3.0865317E-02
         341 -7.3926756E-03
         342  1.0735177E-02
         343  1.7579943E-02
         344 -9.3051279E-03
         345  1.5257281E-02
         346  2.8361095E-02
         347  8.4507152E-02
         348  5.8789966E-03
         349 -1.0895236E-02
         350 -8.6042499E-03
         351 -1.3206711E-02
         352 -1.6215964E-03
         353 -3.2277352E-03
         354  9.2709009E-03
         355  0.1102552    
         356 -0.1181213    
         357 -4.8459969E-03
         358  5.6254230E-03
         359 -7.9544736E-03
         360  1.2042467E-02
         361  4.3871603E-03
         362  6.3204437E-02
         363  0.1367784    
         364 -0.1853820    
         365 -5.2925004E-03
         366  1.4908485E-03
         367 -1.5942849E-03
         368  9.7104535E-03
         369  1.1890570E-03
         370  1.8524683E-04
         371  1.5479715E-03
         372  4.1793976E-03
         373 -4.5439191E-03
         374 -5.9379203E-05
         375 -5.5768294E-04
         376  2.3135100E-03
         377  3.5144703E-03
         378 -2.8998579E-03
         379  2.0043728E-05
         380 -1.2728287E-03
         381 -3.5537555E-04
         382 -5.2259946E-03
         383 -8.6942827E-04
         384  8.5177697E-04
         385  2.2266859E-04
         386 -7.4914715E-06
         387 -4.4655128E-04
         388  7.3315448E-04
         389  3.5960975E-03
         390  3.2652280E-04
         391 -2.1315070E-03
         392 -6.4392150E-03
         393  6.1653410E-03
         394 -4.4865971E-03
         395  1.6030828E-05
         396  2.2200283E-04
         397 -2.9434110E-03
         398  3.6951406E-03
         399 -6.7072026E-03
         400  1.1937899E-03
         401 -5.0506525E-04
         402 -2.6330517E-03
         403  2.0419918E-03
         404 -1.8153952E-04
         405  1.9351544E-05
         406 -8.8387885E-04
         407 -7.5901938E-03
         408  6.5085236E-03
         409 -3.6921221E-04
         410  5.3465908E-04
         411  6.9339550E-04
         412  2.7249174E-03
         413 -2.5229666E-03
         414 -4.5927172E-03
         415 -3.9999388E-05
         416  5.1956023E-03
         417  5.5573643E-03
         418 -9.4588902E-03
         419 -1.5252115E-03
         420  2.5609385E-03
         421  6.4904238E-03
         422  9.1068558E-03
         423 -3.6520767E-03
         424  5.0096554E-03
         425 -2.6002590E-04
         426  4.2412416E-03
         427 -5.5246269E-03
         428 -8.0258586E-03
         429  6.1632623E-04
         430 -3.1937388E-04
         431  6.9219561E-04
         432 -2.3308122E-03
         433 -2.3038269E-03
         434  1.5035687E-05
         435  9.1550828E-05
         436 -8.2344061E-04
         437  6.9013499E-03
         438  5.8818324E-03
         439  6.5005603E-03
         440 -1.1225232E-03
         441 -5.0273660E-04
         442  2.2392222E-03
         443  1.7782017E-03
         444  3.5780319E-03
         445  4.6389559E-05
         446  2.5629599E-04
         447  2.4850466E-03
         448  3.2118428E-03
         449 -3.0444309E-03
         450 -2.8168227E-04
         451 -1.8969895E-03
         452  5.9167198E-03
         453  5.6494256E-03
         454 -7.0785562E-04
         455 -1.7739776E-04
         456  1.6882876E-05
         457  3.7376961E-04
         458  7.2738272E-04
         459 -1.2455611E-03
         460 -1.6919510E-04
         461  1.2989045E-03
         462 -3.6235771E-03
         463 -3.9961785E-03
         464 -1.0646982E-04
         465  8.6646748E-04
         466  2.2508730E-03
         467 -3.4053628E-03
         468 -2.5407115E-03
         469  2.9802267E-04
         470  1.4981026E-03
         471  7.3353859E-04
         472  4.6831463E-03
         473 -1.4351058E-03
         474  5.0863442E-03
         475 -2.4473132E-03
         476  5.4801926E-03
         477 -8.1234025E-03
         478 -3.5406002E-03
 Sym= Particle
 Ene= -0.5612385    
 Spin= Alpha
 Occup= 2
           1 -1.8224429E-04
           2  6.2246602E-02
           3  0.1266534    
           4 -0.1437168    
           5 -5.7649508E-04
           6 -1.4559068E-02
           7 -3.0982735E-02
           8  3.2459296E-02
           9  3.4848773E-03
          10  8.2635432E-03
          11  1.7960239E-02
          12 -2.1153048E-02
          13 -4.4366121E-03
          14 -4.2442065E-03
          15 -9.1742463E-03
          16  9.1994200E-03
          17  2.4430642E-03
          18 -8.4024407E-02
          19 -0.1441888    
          20  0.1581857    
          21 -4.6365019E-03
          22  2.1681547E-02
          23  3.7235823E-02
          24 -3.9606310E-02
          25  1.5222746E-03
          26  4.4947967E-02
          27  7.5454541E-02
          28 -0.1029220    
          29 -5.0586243E-03
          30 -1.0875208E-02
          31 -9.6932389E-03
          32  2.0212848E-02
          33  6.4286422E-03
          34 -2.7769359E-02
          35 -6.8628319E-02
          36  7.2859220E-02
          37 -7.3112156E-03
          38  9.5102293E-03
          39  2.8436782E-02
          40 -2.8651267E-02
          41  9.3985931E-04
          42 -4.7444995E-02
          43 -9.6542932E-02
          44  0.1160369    
          45 -1.4137230E-03
          46  1.0872102E-02
          47  2.1656837E-02
          48 -2.8103594E-02
          49  1.3214286E-04
          50  3.4048308E-02
          51  7.7803724E-02
          52 -9.5239103E-02
          53 -5.6373002E-04
          54 -1.8715322E-02
          55 -3.8617808E-02
          56  4.7238782E-02
          57 -3.1385284E-03
          58 -4.3986004E-02
          59 -0.1489369    
          60  0.1637192    
          61  2.4266832E-03
          62  1.7650744E-02
          63  5.0644867E-02
          64 -6.0852125E-02
          65  4.6214740E-05
          66 -3.2700606E-02
          67 -0.1253959    
          68  0.1200242    
          69  2.3650320E-03
          70  6.3056555E-03
          71  3.5940293E-02
          72 -2.9787978E-02
          73  4.4562147E-04
          74  6.0325030E-02
          75  0.2499705    
          76 -0.2385564    
          77  1.6889240E-03
          78 -1.8008020E-02
          79 -6.7824081E-02
          80  6.8321109E-02
          81 -5.9949523E-03
          82 -1.2919270E-02
          83 -8.8200085E-02
          84  7.7453338E-02
          85  6.7002224E-03
          86  8.2220300E-04
          87  2.2793643E-02
          88 -1.4972570E-02
          89  5.7849463E-04
          90 -1.5518080E-02
          91 -9.9307120E-02
          92  9.6795380E-02
          93  1.3169985E-04
          94  2.7710567E-03
          95  2.3150204E-02
          96 -2.2234986E-02
          97 -5.2529981E-04
          98  1.5639713E-02
          99  7.5601146E-02
         100 -7.0789650E-02
         101  3.4655404E-04
         102 -3.5406412E-03
         103 -1.9385245E-02
         104  1.8208390E-02
         105  1.0029017E-03
         106  7.2946702E-03
         107  3.4802984E-02
         108 -3.1387798E-02
         109 -1.0639988E-03
         110 -1.3767100E-03
         111 -7.8992005E-03
         112  7.0698671E-03
         113  1.0779772E-03
         114 -2.0736033E-02
         115 -9.9726476E-02
         116  9.3717128E-02
         117 -1.1215061E-03
         118  5.4389173E-03
         119  2.2674266E-02
         120 -2.1391358E-02
         121 -1.3244764E-03
         122  4.6659810E-03
         123  3.3282552E-02
         124 -3.4291752E-02
         125 -8.4760966E-04
         126  2.1122692E-03
         127 -5.6145960E-03
         128  4.5477161E-03
         129  8.3318688E-03
         130  1.0993324E-02
         131  9.1999583E-02
         132 -7.0369780E-02
         133 -6.7645912E-03
         134 -1.9185726E-03
         135 -3.3850450E-02
         136  2.7183682E-02
         137 -1.7365421E-03
         138  1.4669304E-03
         139 -4.5103854E-03
         140  5.4920991E-03
         141  1.1066239E-03
         142  1.4115131E-03
         143  1.8278318E-03
         144  2.1691818E-03
         145 -1.7739470E-03
         146 -4.9683987E-04
         147  8.2069337E-02
         148 -4.6582506E-03
         149  2.3502428E-03
         150  4.1565723E-03
         151 -2.3669461E-02
         152  7.5551047E-04
         153  8.2657783E-04
         154  3.3869965E-03
         155 -9.0107165E-02
         156  4.8471796E-03
         157  1.3829633E-03
         158 -2.7183737E-03
         159  3.5763625E-02
         160 -2.5592171E-04
         161 -3.7474143E-03
         162 -2.3622657E-03
         163  4.4472478E-03
         164 -4.8592500E-03
         165  3.3726559E-03
         166  4.4516529E-04
         167  4.2107427E-03
         168  6.4037018E-03
         169 -1.1904964E-03
         170  4.7128444E-04
         171  8.2016066E-02
         172  4.5345989E-03
         173  2.2014841E-03
         174 -3.9922763E-03
         175 -2.4147520E-02
         176 -1.2702666E-03
         177 -1.9551469E-03
         178 -1.6402882E-03
         179 -4.8153638E-03
         180 -5.3572888E-03
         181  1.1343628E-03
         182 -1.3138766E-03
         183  2.0378139E-03
         184 -2.0088595E-03
         185  7.9749851E-03
         186 -8.4140291E-03
         187  7.7509582E-02
         188  5.7303466E-02
         189 -6.6876519E-03
         190  7.7387929E-04
         191 -2.8904958E-02
         192 -2.2391262E-02
         193 -1.1423294E-03
         194 -3.8686953E-03
         195  2.8315553E-02
         196  2.9368462E-02
         197 -1.0793670E-03
         198 -2.3170875E-03
         199 -5.0618588E-03
         200 -3.7373847E-03
         201  9.9247112E-04
         202  1.7661277E-02
         203 -8.3231926E-02
         204 -7.8456402E-02
         205 -1.1103835E-03
         206 -4.7658985E-03
         207  1.9000636E-02
         208  1.7957253E-02
         209  9.1238052E-04
         210 -6.1675375E-03
         211  2.8933262E-02
         212  2.6069021E-02
         213 -1.0509650E-03
         214  1.1174653E-03
         215 -6.6545331E-03
         216 -5.9649446E-03
         217 -3.5902634E-04
         218 -1.3157589E-02
         219  6.3085712E-02
         220  5.8925185E-02
         221  1.8628595E-04
         222  2.9163107E-03
         223 -1.6062081E-02
         224 -1.5144534E-02
         225  3.8273112E-04
         226  1.2590346E-02
         227 -8.2710825E-02
         228 -8.1029966E-02
         229  5.8114401E-05
         230 -2.2469116E-03
         231  1.9307029E-02
         232  1.8670492E-02
         233 -5.2900566E-03
         234  1.0522072E-02
         235 -7.2153412E-02
         236 -6.3447155E-02
         237  5.8594970E-03
         238 -6.5959158E-04
         239  1.8628813E-02
         240  1.2004071E-02
         241  3.5183318E-04
         242 -5.2062001E-02
         243  0.2126261    
         244  0.2030707    
         245  1.4093248E-03
         246  1.5436128E-02
         247 -5.7450641E-02
         248 -5.8135293E-02
         249  6.5851651E-05
         250  2.8859895E-02
         251 -0.1090259    
         252 -0.1045504    
         253  1.9997060E-03
         254 -5.5939760E-03
         255  3.1208275E-02
         256  2.5879117E-02
         257 -2.8333555E-03
         258  3.7173241E-02
         259 -0.1249708    
         260 -0.1376145    
         261  2.1095562E-03
         262 -1.4937178E-02
         263  4.2584758E-02
         264  5.1262535E-02
         265  1.6143285E-04
         266 -2.9162338E-02
         267  6.5766454E-02
         268  8.0844864E-02
         269 -5.2992668E-04
         270  1.6164351E-02
         271 -3.2646049E-02
         272 -4.0033091E-02
         273  5.5553536E-03
         274  2.4269236E-02
         275 -5.9310105E-02
         276 -6.3179880E-02
         277 -6.3600722E-03
         278 -8.1756329E-03
         279  2.4435798E-02
         280  2.4744388E-02
         281  8.3482591E-04
         282  4.0743545E-02
         283 -8.2110971E-02
         284 -9.8823979E-02
         285 -1.2013104E-03
         286 -9.2488239E-03
         287  1.8269420E-02
         288  2.3891937E-02
         289 -1.8735809E-04
         290 -5.4031618E-02
         291  0.1087951    
         292  0.1233708    
         293 -4.5012232E-04
         294  1.2849220E-02
         295 -2.6811466E-02
         296 -2.7632369E-02
         297  3.2745681E-03
         298 -6.3831103E-03
         299  1.4746901E-02
         300  1.7609930E-02
         301 -4.3198070E-03
         302  3.5914669E-03
         303 -7.8246789E-03
         304 -7.9360623E-03
         305  2.1289226E-03
         306  7.2608925E-02
         307 -0.1236576    
         308 -0.1357202    
         309 -4.4069062E-03
         310 -1.8734945E-02
         311  3.2395180E-02
         312  3.4077797E-02
         313  1.4957107E-03
         314 -3.8837578E-02
         315  6.4667553E-02
         316  8.8629104E-02
         317 -4.6261214E-03
         318  9.3755033E-03
         319 -7.8803645E-03
         320 -1.7454976E-02
         321 -1.8073943E-03
         322 -5.6885809E-02
         323  0.1442193    
         324  0.1765639    
         325  4.2359048E-04
         326  1.3057391E-02
         327 -4.1052956E-02
         328 -5.1135633E-02
         329  1.5472276E-03
         330  1.2906095E-02
         331 -8.9736380E-02
         332 -0.1050795    
         333  2.3329241E-04
         334 -4.9747746E-03
         335  2.6379757E-02
         336  3.2891728E-02
         337  2.8229319E-04
         338 -2.7635978E-03
         339 -8.8856831E-02
         340 -4.3607149E-03
         341  1.4734889E-03
         342  1.7497861E-03
         343  3.4522735E-02
         344 -4.9185404E-05
         345 -3.0255022E-03
         346  2.2265892E-03
         347  4.2669396E-03
         348  4.8987456E-03
         349  2.7688786E-03
         350 -1.2521085E-04
         351  4.5857783E-03
         352 -6.9909408E-03
         353  2.1133958E-03
         354 -1.4802662E-02
         355 -0.1016576    
         356  0.1185287    
         357 -8.5854714E-05
         358  5.8172303E-03
         359  2.9828789E-02
         360 -3.7312482E-02
         361 -2.1626514E-03
         362  6.5659747E-02
         363  0.1682583    
         364 -0.2056077    
         365  5.7553698E-04
         366 -1.5190864E-02
         367 -4.8216503E-02
         368  5.9422437E-02
         369 -1.2578840E-03
         370  8.1829244E-04
         371  1.2233024E-02
         372  2.4459966E-02
         373 -2.8801141E-02
         374 -5.2242260E-03
         375  3.1980532E-04
         376  7.5919260E-03
         377  3.8554012E-03
         378 -2.3582755E-03
         379 -3.1638953E-03
         380  1.8843953E-03
         381 -1.1319677E-02
         382 -2.3285195E-02
         383  2.2166174E-02
         384 -2.2374704E-03
         385  9.0449373E-04
         386 -8.8321203E-03
         387 -1.6550051E-02
         388  1.8076025E-02
         389 -1.7221126E-04
         390  1.8137232E-03
         391 -7.6582194E-03
         392 -2.1534257E-02
         393  2.3373755E-02
         394 -1.3911617E-03
         395  7.3121052E-04
         396  1.3302736E-02
         397  5.2784275E-02
         398 -4.9848076E-02
         399 -1.5231551E-03
         400  2.8287442E-04
         401  4.9511255E-03
         402  1.8786596E-02
         403 -1.6292140E-02
         404 -1.3012995E-03
         405 -3.4608593E-04
         406  1.4433668E-03
         407  6.6790245E-03
         408 -5.9348750E-03
         409 -2.0357748E-03
         410 -2.4431464E-04
         411 -3.7724534E-03
         412 -2.1162206E-02
         413  1.9033376E-02
         414 -2.4384381E-03
         415 -1.6640898E-04
         416  1.3335601E-03
         417  6.1175153E-03
         418 -9.0334490E-03
         419 -3.7172379E-03
         420  1.6391736E-04
         421 -1.1346233E-02
         422 -2.5795028E-02
         423 -3.1109820E-03
         424 -2.4636809E-03
         425 -3.0911926E-04
         426 -1.2399368E-03
         427  4.7769523E-03
         428  8.1511745E-03
         429 -1.9441068E-03
         430 -2.9850166E-04
         431  3.1964954E-03
         432 -1.7849142E-02
         433 -1.5907090E-02
         434 -1.1558178E-03
         435 -4.5023064E-04
         436 -1.2926336E-03
         437  5.4754973E-03
         438  4.9947193E-03
         439 -1.5124442E-03
         440  1.7222266E-04
         441 -4.3303221E-03
         442  1.5868317E-02
         443  1.3677631E-02
         444 -1.0834592E-03
         445  5.2379537E-04
         446 -1.1514671E-02
         447  4.4994801E-02
         448  4.2400960E-02
         449 -1.6027172E-04
         450  1.5426665E-03
         451  6.7488514E-03
         452 -1.8793942E-02
         453 -2.0383557E-02
         454 -1.9088613E-03
         455  7.5939868E-04
         456  7.5920317E-03
         457 -1.4125560E-02
         458 -1.5566986E-02
         459 -1.2163180E-03
         460  8.7624602E-04
         461 -1.0552884E-02
         462  2.0882901E-02
         463  2.4866983E-02
         464 -4.5338613E-03
         465 -2.6226719E-04
         466 -7.5531891E-03
         467  3.3938375E-03
         468  1.0109787E-03
         469 -2.4189097E-03
         470  1.6447939E-03
         471  9.6405558E-03
         472 -2.0019716E-02
         473 -1.7809020E-02
         474 -2.7497893E-03
         475  1.6257104E-04
         476  9.3881879E-03
         477 -2.4763273E-02
         478  2.7991519E-03
 Sym= Hole
 Ene= -0.3880357    
 Spin= Alpha
 Occup= 0
           1  3.8304948E-04
           2 -4.5402002E-02
           3 -9.1651596E-02
           4  0.1057577    
           5 -3.2820078E-04
           6  8.7642897E-04
           7  2.2847443E-03
           8 -2.5860656E-03
           9  1.3014801E-03
          10 -3.3424873E-02
          11 -6.4129144E-02
          12  6.8794362E-02
          13 -1.4454173E-03
          14  1.6763225E-03
          15  3.7523729E-03
          16 -1.2739281E-03
          17 -1.6965076E-03
          18  3.3446200E-02
          19  5.9884809E-02
          20 -6.3424721E-02
          21  3.2502753E-04
          22  3.1744463E-03
          23  2.5772648E-03
          24 -1.3651791E-03
          25  2.9323308E-03
          26  5.0172791E-02
          27  8.1586897E-02
          28 -0.1136503    
          29 -1.1042603E-03
          30 -2.1254255E-03
          31 -3.6288549E-03
          32  2.9910700E-03
          33 -1.2247507E-03
          34  4.9611356E-02
          35  0.1058162    
          36 -0.1198435    
          37  7.8440557E-05
          38 -4.0355949E-03
          39 -6.4799204E-03
          40  8.5673407E-03
          41  1.0265305E-03
          42  8.4620193E-03
          43  1.4330837E-02
          44 -2.0249555E-02
          45 -8.6070754E-04
          46 -5.9522031E-04
          47  6.1949890E-04
          48  2.4797293E-04
          49 -2.9515908E-03
          50 -1.9822313E-02
          51 -4.6042621E-02
          52  5.5086609E-02
          53  1.8221114E-03
          54  1.4565551E-03
          55  3.4168593E-03
          56 -3.2871265E-03
          57 -3.1719226E-03
          58 -1.6811895E-03
          59 -4.2255238E-02
          60  5.1624808E-02
          61  2.5500511E-03
          62 -2.2269706E-03
          63 -3.9205472E-03
          64  3.5875072E-03
          65 -2.8647759E-04
          66  3.9958756E-02
          67  0.1626422    
          68 -0.1551936    
          69 -7.8395438E-05
          70 -8.5189857E-04
          71 -5.6845341E-03
          72  4.5251511E-03
          73 -2.8063459E-03
          74  3.9155915E-02
          75  0.1358144    
          76 -0.1262839    
          77  6.0144416E-04
          78 -8.3246450E-05
          79 -3.6962819E-03
          80  2.7316473E-03
          81  7.2025461E-03
          82 -3.5519324E-02
          83 -8.3325580E-02
          84  9.4915576E-02
          85 -1.9601188E-03
          86  1.5347805E-03
          87  2.6328862E-03
          88 -2.6091032E-03
          89  1.6461437E-03
          90 -1.7129835E-02
          91 -6.9905698E-02
          92  6.4539060E-02
          93 -4.2563523E-04
          94  1.4163657E-03
          95  2.6251087E-03
          96 -2.6663546E-03
          97  2.0572540E-04
          98  1.1148296E-02
          99  5.3938746E-02
         100 -4.8613526E-02
         101  9.4116760E-05
         102 -1.1676140E-04
         103 -4.6401909E-03
         104  3.4559476E-03
         105 -9.8902278E-04
         106  1.5855551E-02
         107  8.0808073E-02
         108 -7.5600959E-02
         109  1.1333358E-04
         110 -1.7143725E-04
         111 -3.3579259E-03
         112  2.1454219E-03
         113  2.7008646E-03
         114 -6.3430443E-03
         115 -1.6714169E-02
         116  2.1642094E-02
         117 -1.0697610E-03
         118  1.1597363E-03
         119 -2.6760935E-03
         120 -1.1413251E-03
         121 -7.6117725E-03
         122 -1.2270198E-02
         123 -9.0525821E-02
         124  7.2726712E-02
         125  6.0900655E-03
         126  6.6574168E-05
         127  5.0249537E-03
         128 -2.9562276E-03
         129  5.7243290E-03
         130 -6.1453129E-03
         131 -2.1628824E-03
         132  1.7098513E-02
         133  1.5019163E-03
         134  7.4824085E-04
         135  9.6866665E-03
         136 -6.7885122E-03
         137  1.4874621E-02
         138 -1.0690968E-02
         139  0.1662698    
         140 -0.1587483    
         141 -3.6676680E-03
         142  3.8981102E-03
         143 -1.0246324E-02
         144  1.1797998E-02
         145 -4.3707434E-03
         146 -6.2078214E-03
         147  0.1099462    
         148  2.8126916E-02
         149  1.4057102E-02
         150  1.0259093E-03
         151 -5.9094485E-03
         152 -1.9800743E-02
         153  1.6711008E-02
         154  7.5393906E-03
         155 -5.7693403E-02
         156 -3.7690867E-02
         157 -3.9540683E-03
         158 -8.1606749E-03
         159  1.5127627E-03
         160  6.9059720E-03
         161 -5.5856095E-04
         162  7.6332591E-03
         163 -9.4685875E-02
         164  5.0347872E-02
         165  1.5014582E-03
         166 -4.6391166E-03
         167  1.2963613E-02
         168 -4.6366067E-03
         169 -5.2737850E-03
         170  9.6197436E-03
         171  9.3718857E-02
         172 -2.9965028E-02
         173  1.5808137E-02
         174 -2.3188295E-03
         175 -2.5415763E-03
         176  2.1134114E-02
         177  1.9411694E-02
         178  1.3792499E-02
         179  0.2013929    
         180  0.1885298    
         181 -5.4943776E-03
         182 -5.1694266E-03
         183 -1.3955366E-02
         184 -1.4811479E-02
         185  4.0018456E-03
         186  3.7990832E-03
         187 -2.5472171E-03
         188 -1.3610739E-02
         189  3.5281340E-03
         190  2.4874909E-05
         191  1.2031344E-02
         192  6.8467143E-03
         193 -8.3800266E-03
         194  1.5406625E-02
         195 -0.1059983    
         196 -8.6257167E-02
         197  7.0449631E-03
         198  1.1465131E-04
         199  6.2914994E-03
         200  3.7171978E-03
         201  2.6673549E-03
         202  7.0634177E-03
         203 -2.1151105E-02
         204 -2.5698008E-02
         205 -1.0149200E-03
         206 -1.0693440E-03
         207 -2.9775295E-03
         208  1.3321859E-03
         209 -1.2145606E-03
         210 -1.8636072E-02
         211  9.4952509E-02
         212  8.9046977E-02
         213  2.0319350E-04
         214  2.2615094E-04
         215 -4.3023615E-03
         216 -2.8154522E-03
         217 -2.8322503E-04
         218 -1.3359385E-02
         219  6.1241712E-02
         220  5.6268319E-02
         221  2.9290223E-04
         222  1.0324614E-04
         223 -5.6685689E-03
         224 -4.2506177E-03
         225  2.6497620E-03
         226  2.2654569E-02
         227 -8.3726905E-02
         228 -7.7147096E-02
         229 -4.7019115E-04
         230 -1.8504697E-03
         231  3.6658202E-03
         232  3.4538095E-03
         233  8.7001370E-03
         234  4.1987427E-02
         235 -9.8802574E-02
         236 -0.1116864    
         237 -2.3571679E-03
         238 -1.7204339E-03
         239  3.6885897E-03
         240  3.4710567E-03
         241 -3.1650802E-03
         242 -4.5382772E-02
         243  0.1560011    
         244  0.1450430    
         245  7.5507432E-04
         246  1.9241989E-04
         247 -4.6378640E-03
         248 -3.4714695E-03
         249 -3.4877536E-04
         250 -4.6997983E-02
         251  0.1883730    
         252  0.1800409    
         253 -2.1600381E-05
         254  1.0915549E-03
         255 -7.0333225E-03
         256 -5.6728227E-03
         257 -3.2905473E-03
         258  3.1588422E-03
         259 -5.0512560E-02
         260 -6.1386112E-02
         261  2.9059465E-03
         262  2.4370141E-03
         263 -4.2777988E-03
         264 -4.0367534E-03
         265 -3.4464933E-03
         266  2.2374142E-02
         267 -5.1499996E-02
         268 -6.2304407E-02
         269  2.1886784E-03
         270 -1.6700556E-03
         271  3.7504977E-03
         272  3.7446071E-03
         273 -1.4725415E-03
         274 -5.7744693E-02
         275  0.1221333    
         276  0.1385073    
         277  1.5128174E-04
         278  4.6092407E-03
         279 -7.4349348E-03
         280 -1.0048497E-02
         281  1.2018908E-03
         282 -9.6102385E-03
         283  1.6075168E-02
         284  2.2885161E-02
         285 -1.0098678E-03
         286  5.5143540E-04
         287  8.0170773E-04
         288 -2.0322137E-04
         289  5.6890323E-04
         290  5.3269919E-02
         291 -0.1064134    
         292 -0.1226100    
         293 -4.5592230E-04
         294 -1.1981493E-03
         295  2.8401257E-03
         296  3.1515311E-03
         297  1.1663242E-03
         298  3.8548138E-02
         299 -7.2491430E-02
         300 -7.8864828E-02
         301 -1.3499274E-03
         302 -1.7374889E-03
         303  3.9277924E-03
         304  1.5387620E-03
         305 -1.1913310E-03
         306 -3.9081659E-02
         307  6.9490701E-02
         308  7.5660631E-02
         309  1.4012460E-04
         310 -2.9020985E-03
         311  2.6013425E-03
         312  1.1609562E-03
         313  3.2753546E-03
         314 -5.7579823E-02
         315  9.2728734E-02
         316  0.1291951    
         317 -1.2073418E-03
         318  2.4034276E-03
         319 -4.0638060E-03
         320 -3.3426904E-03
         321 -1.6001335E-03
         322  6.6323131E-02
         323 -0.1358224    
         324 -0.1793166    
         325  3.0339858E-03
         326  2.2374941E-03
         327  2.1910237E-04
         328  3.7754804E-03
         329 -2.1359634E-03
         330  4.3416275E-03
         331 -0.1428980    
         332 -0.1608928    
         333  7.3327543E-03
         334  5.6332997E-03
         335  9.4412062E-03
         336  1.2303616E-02
         337  1.9009188E-02
         338 -9.3660187E-03
         339 -7.9066172E-02
         340  4.2856764E-02
         341 -5.1145214E-03
         342  9.8975962E-03
         343  4.2269491E-03
         344 -8.3916318E-03
         345  1.8047587E-03
         346 -3.3196565E-03
         347 -8.2624465E-02
         348 -5.0224837E-02
         349 -1.6540838E-04
         350  3.3973427E-03
         351  1.1087836E-02
         352  4.4428012E-03
         353 -2.6948946E-03
         354 -2.5807063E-03
         355 -0.1277505    
         356  0.1446414    
         357  6.6795275E-03
         358 -4.8409831E-03
         359  8.3454913E-03
         360 -1.0593250E-02
         361 -9.2847028E-04
         362 -5.6653719E-02
         363 -0.1161706    
         364  0.1523359    
         365  2.2467561E-03
         366 -2.0275041E-03
         367 -2.0943027E-05
         368 -2.3053680E-03
         369  4.7079695E-04
         370 -9.7573262E-05
         371 -1.5988441E-03
         372 -3.2798217E-03
         373  3.2362570E-03
         374  1.1291094E-03
         375 -2.1077320E-03
         376 -2.7776527E-04
         377 -3.7616873E-04
         378  2.1247391E-03
         379 -2.1947213E-03
         380 -1.5586577E-03
         381  7.2493940E-03
         382  3.1766510E-03
         383 -3.8331726E-03
         384 -9.1505446E-04
         385 -3.0005959E-04
         386  1.6450512E-04
         387  4.2964629E-04
         388  5.1879950E-05
         389 -3.4889113E-03
         390 -2.7207774E-04
         391  1.4666185E-03
         392  2.8475914E-03
         393 -2.8571431E-03
         394  5.7213726E-03
         395 -4.3161033E-04
         396  2.8354401E-04
         397  2.7711715E-03
         398 -2.8974214E-03
         399  8.4991159E-04
         400 -3.9076054E-04
         401  6.0380407E-06
         402  2.3923772E-03
         403 -1.5883894E-03
         404  1.0951813E-03
         405 -7.3355989E-04
         406  4.4394302E-04
         407  3.9920085E-03
         408 -3.6831638E-03
         409 -1.6239173E-03
         410 -1.3762070E-03
         411  1.6958838E-05
         412 -2.2938785E-03
         413  1.1686721E-03
         414 -3.0672995E-03
         415  1.9956320E-03
         416 -6.0086953E-03
         417  2.4650295E-04
         418  8.7245749E-03
         419 -2.3607122E-02
         420 -4.8855942E-04
         421 -6.0748612E-03
         422 -5.6120488E-03
         423  5.7819497E-04
         424 -2.3019188E-03
         425  1.9736702E-03
         426  6.7490479E-03
         427 -6.2590413E-04
         428 -1.0078070E-02
         429 -1.5338060E-03
         430 -1.4433471E-03
         431  9.0687048E-05
         432 -2.6624238E-03
         433 -1.5207899E-03
         434  1.1024260E-03
         435 -7.3171296E-04
         436 -5.9488649E-04
         437  5.1292838E-03
         438  4.6608434E-03
         439  1.8760019E-03
         440 -5.7543046E-04
         441 -9.3031493E-05
         442  2.7747971E-03
         443  1.8890512E-03
         444  6.3470169E-03
         445 -4.3029053E-04
         446 -2.5131920E-04
         447  3.1950979E-03
         448  3.4326548E-03
         449 -4.0072580E-03
         450 -3.1161236E-04
         451 -1.7802339E-03
         452  3.7940349E-03
         453  3.7673297E-03
         454 -1.0339922E-03
         455 -3.2823294E-04
         456 -1.5957969E-04
         457  4.8564986E-04
         458  5.7270528E-05
         459  2.7637568E-04
         460 -1.2120433E-04
         461  1.8281415E-03
         462 -3.8762558E-03
         463 -3.8874401E-03
         464  1.1321212E-03
         465 -1.9950022E-03
         466  6.3376682E-04
         467 -8.9655223E-04
         468 -2.5323941E-03
         469 -2.1431576E-03
         470 -1.3426478E-03
         471 -7.2291647E-03
         472  3.8983361E-03
         473  3.6521938E-03
         474 -2.3131426E-02
         475 -8.6134369E-04
         476  6.9686896E-03
         477 -6.8922602E-03
         478 -1.1444669E-03
 Sym= Particle
 Ene= -0.3880357    
 Spin= Alpha
 Occup= 2
           1 -5.9151066E-06
           2 -5.2208036E-02
           3 -0.1069267    
           4  0.1229713    
           5  7.9254596E-04
           6  1.0864593E-02
           7  2.4938146E-02
           8 -2.9357709E-02
           9 -1.0953929E-03
          10 -1.0385864E-02
          11 -1.6407415E-02
          12  1.8051341E-02
          13  3.9707302E-04
          14  3.7729258E-03
          15  7.4426583E-03
          16 -6.7147491E-03
          17 -1.9712744E-03
          18  7.0429370E-02
          19  0.1207282    
          20 -0.1330607    
          21  1.1947921E-03
          22 -1.8038100E-02
          23 -2.8331758E-02
          24  3.2689568E-02
          25 -1.7771591E-04
          26 -3.9707910E-02
          27 -6.5891787E-02
          28  8.8514432E-02
          29  2.5054628E-03
          30  9.7502144E-03
          31  1.1167645E-02
          32 -1.7411204E-02
          33 -5.1687537E-03
          34  2.3228433E-02
          35  5.8020566E-02
          36 -6.1182823E-02
          37  5.7105375E-03
          38 -8.9807604E-03
          39 -2.4935191E-02
          40  2.4597969E-02
          41 -6.7312515E-04
          42  4.1256495E-02
          43  8.4124207E-02
          44 -0.1009345    
          45  1.3559457E-03
          46 -1.0003234E-02
          47 -1.9650966E-02
          48  2.4531599E-02
          49  1.3079954E-04
          50 -3.0243488E-02
          51 -6.9981441E-02
          52  8.4625103E-02
          53  3.7697965E-04
          54  1.5748858E-02
          55  3.4707192E-02
          56 -4.2664219E-02
          57  2.1711497E-03
          58  4.1060980E-02
          59  0.1365191    
          60 -0.1496786    
          61 -2.2500737E-03
          62 -1.6381694E-02
          63 -4.5589607E-02
          64  5.5025056E-02
          65  1.8728157E-05
          66  2.6110083E-02
          67  0.1004154    
          68 -9.5600583E-02
          69 -2.2545231E-03
          70 -5.1750853E-03
          71 -2.9050926E-02
          72  2.4204904E-02
          73 -2.6170423E-04
          74 -5.2785173E-02
          75 -0.2197823    
          76  0.2094065    
          77 -2.1105164E-03
          78  1.6345449E-02
          79  6.1038133E-02
          80 -6.0154557E-02
          81  4.1988436E-03
          82  1.4409317E-02
          83  9.0529241E-02
          84 -7.8821413E-02
          85 -5.3109829E-03
          86 -9.5791189E-04
          87 -2.3944734E-02
          88  1.6563533E-02
          89 -1.6392508E-03
          90  1.7446607E-02
          91  9.0575561E-02
          92 -8.6766019E-02
          93 -4.0428940E-04
          94 -3.0262244E-03
          95 -2.0275496E-02
          96  1.9088376E-02
          97  1.3278832E-03
          98 -1.3998148E-02
          99 -6.5044723E-02
         100  6.2668987E-02
         101 -1.1918374E-03
         102  3.4245378E-03
         103  1.7459633E-02
         104 -1.6003227E-02
         105 -5.2149221E-04
         106 -7.1287220E-03
         107 -3.4953687E-02
         108  3.1693682E-02
         109  5.2761166E-06
         110  1.6062547E-03
         111  7.2674784E-03
         112 -6.2420769E-03
         113 -4.7274740E-04
         114  1.7379593E-02
         115  8.7686151E-02
         116 -8.1421301E-02
         117 -6.6686873E-05
         118 -3.5509791E-03
         119 -1.8747484E-02
         120  1.7882334E-02
         121  1.4326355E-03
         122 -3.5308343E-03
         123 -1.9826341E-02
         124  2.0638894E-02
         125 -2.1489700E-03
         126  1.5590829E-03
         127  5.5196829E-04
         128 -2.7398996E-03
         129 -1.3098120E-03
         130 -1.6374832E-02
         131 -8.2156062E-02
         132  7.6024093E-02
         133 -6.9535675E-04
         134  7.8012487E-03
         135  2.7241331E-02
         136 -2.7480651E-02
         137 -3.0866645E-03
         138  2.1730657E-03
         139 -1.0229720E-02
         140  5.9825201E-03
         141  1.0817997E-03
         142 -8.0695364E-04
         143  4.7764266E-03
         144 -3.6952677E-03
         145  4.8579373E-03
         146  1.7539213E-03
         147  6.2966277E-03
         148  7.2274404E-04
         149 -2.2992811E-03
         150 -1.9005761E-03
         151 -3.9653960E-03
         152  3.4348108E-03
         153 -4.2904145E-03
         154 -3.4944559E-03
         155  4.8781759E-03
         156 -2.3690474E-03
         157  1.1003464E-03
         158  6.4109317E-03
         159 -7.2021969E-03
         160  1.5228146E-03
         161  4.1988809E-03
         162  1.5692939E-03
         163 -6.7757275E-03
         164 -5.2651722E-04
         165 -3.3109260E-03
         166 -2.2461256E-03
         167  5.4327096E-03
         168  4.1787787E-03
         169 -5.1228525E-03
         170  1.9219945E-03
         171  1.2447841E-02
         172  1.4613839E-03
         173  2.9281981E-03
         174 -2.6907951E-03
         175 -1.8253715E-03
         176  3.2281093E-03
         177  2.7468118E-03
         178  1.8307889E-03
         179  9.7003588E-03
         180  5.3754947E-03
         181 -8.3717110E-04
         182 -9.4260846E-04
         183 -4.4103125E-03
         184 -4.2623142E-03
         185  2.9790243E-03
         186 -1.7504515E-02
         187  9.4503343E-02
         188  8.4387332E-02
         189 -6.4845983E-04
         190  7.7635166E-03
         191 -3.1895805E-02
         192 -3.0785803E-02
         193 -1.7132646E-03
         194 -4.0881685E-03
         195  2.3693141E-02
         196  2.4894936E-02
         197  2.0275181E-03
         198  1.1263207E-03
         199 -1.1735219E-03
         200 -3.1254883E-03
         201  6.7266618E-04
         202  2.0286772E-02
         203 -0.1000011    
         204 -9.3237564E-02
         205 -1.2311721E-04
         206 -4.3466981E-03
         207  2.1519559E-02
         208  2.0591034E-02
         209  6.8754936E-04
         210 -8.1915557E-03
         211  3.9515167E-02
         212  3.5771377E-02
         213 -1.8651817E-04
         214  1.7824955E-03
         215 -8.3567891E-03
         216 -7.1875518E-03
         217 -1.3717785E-03
         218 -1.6081572E-02
         219  7.4271180E-02
         220  7.1285740E-02
         221  1.2265046E-03
         222  3.8766728E-03
         223 -1.9781994E-02
         224 -1.8207848E-02
         225  1.6899828E-03
         226  1.9278502E-02
         227 -0.1029323    
         228 -9.9173427E-02
         229  4.1059018E-04
         230 -3.3462315E-03
         231  2.3084840E-02
         232  2.1924157E-02
         233 -5.1610474E-03
         234  1.6074197E-02
         235 -0.1009994    
         236 -8.8079490E-02
         237  6.3952319E-03
         238 -1.0801308E-03
         239  2.6682820E-02
         240  1.8199395E-02
         241  2.7512704E-04
         242 -6.2236842E-02
         243  0.2553475    
         244  0.2434903    
         245  2.3843662E-03
         246  1.9113500E-02
         247 -7.0561260E-02
         248 -6.9901228E-02
         249  2.5250105E-05
         250  3.1696543E-02
         251 -0.1200405    
         252 -0.1145730    
         253  2.5737663E-03
         254 -6.2887995E-03
         255  3.4629013E-02
         256  2.8888004E-02
         257 -2.7730940E-03
         258  4.7305610E-02
         259 -0.1562897    
         260 -0.1716622    
         261  2.6741815E-03
         262 -1.8905735E-02
         263  5.2328229E-02
         264  6.3283995E-02
         265 -7.3175543E-05
         266 -3.5366815E-02
         267  8.0744751E-02
         268  9.8119944E-02
         269 -5.0906389E-04
         270  1.8608268E-02
         271 -4.0033337E-02
         272 -4.9359467E-02
         273  6.1194180E-03
         274  2.7832042E-02
         275 -6.8703018E-02
         276 -7.2720967E-02
         277 -6.8213372E-03
         278 -1.0522673E-02
         279  2.9279428E-02
         280  2.9057750E-02
         281  8.3702145E-04
         282  4.8406072E-02
         283 -9.7762167E-02
         284 -0.1174757    
         285 -1.5777791E-03
         286 -1.1593868E-02
         287  2.2616040E-02
         288  2.8494732E-02
         289 -2.3137829E-05
         290 -6.2029202E-02
         291  0.1257227    
         292  0.1444656    
         293 -8.7268354E-04
         294  1.3190752E-02
         295 -2.9561678E-02
         296 -3.4172457E-02
         297  1.6689617E-03
         298 -1.1294570E-02
         299  1.8385388E-02
         300  2.0499991E-02
         301 -1.1273148E-03
         302  4.3409462E-03
         303 -8.6774537E-03
         304 -7.9579549E-03
         305  2.3353719E-03
         306  8.3325170E-02
         307 -0.1417501    
         308 -0.1563333    
         309 -1.9505150E-03
         310 -2.1382065E-02
         311  3.3905819E-02
         312  3.8622174E-02
         313  4.9842731E-04
         314 -4.6848208E-02
         315  7.7151380E-02
         316  0.1042285    
         317 -3.3733731E-03
         318  1.1451279E-02
         319 -1.2503232E-02
         320 -2.0540955E-02
         321 -2.9991607E-03
         322 -6.5818429E-02
         323  0.1669703    
         324  0.2025125    
         325  1.7397810E-03
         326  1.6219921E-02
         327 -5.0151989E-02
         328 -5.8232021E-02
         329  3.9499281E-03
         330  1.7143879E-02
         331 -9.7017102E-02
         332 -0.1115079    
         333 -1.5906264E-03
         334 -6.9514471E-03
         335  2.9735951E-02
         336  3.7711397E-02
         337  4.2805453E-03
         338 -3.9946306E-03
         339 -2.3510970E-02
         340 -3.0553876E-03
         341 -6.2521838E-04
         342  6.6800644E-03
         343  1.4161968E-02
         344  1.5569649E-03
         345 -4.7489060E-03
         346  1.8792871E-03
         347  6.6510397E-03
         348  2.2077431E-04
         349  3.8266373E-03
         350 -2.2650186E-03
         351 -4.3728389E-03
         352  3.0802335E-03
         353 -3.8018266E-03
         354  1.4630698E-02
         355  7.9735465E-02
         356 -9.0998635E-02
         357  1.8097844E-03
         358 -6.0649225E-03
         359 -2.4479756E-02
         360  3.1219792E-02
         361  2.6778656E-03
         362 -5.5502918E-02
         363 -0.1422868    
         364  0.1721151    
         365 -1.6226080E-03
         366  1.3802109E-02
         367  4.3130022E-02
         368 -4.9383648E-02
         369  1.2683863E-04
         370  6.3428591E-04
         371 -1.0712838E-02
         372 -2.1575771E-02
         373  2.3686497E-02
         374  4.1757631E-03
         375 -3.7377018E-03
         376  5.2867742E-04
         377 -1.9830496E-03
         378  7.9254527E-03
         379  4.9194028E-03
         380 -1.5013508E-03
         381  1.0425976E-02
         382  1.9183774E-02
         383 -2.6874304E-02
         384  2.0842107E-03
         385 -7.8723941E-04
         386  7.5707366E-03
         387  1.4045033E-02
         388 -1.4541893E-02
         389  1.8297182E-04
         390 -1.6080382E-03
         391  5.9754313E-03
         392  1.6974004E-02
         393 -1.8600514E-02
         394  1.6129382E-03
         395 -1.1585787E-03
         396 -1.1637085E-02
         397 -4.5880899E-02
         398  4.4206858E-02
         399 -1.7009531E-04
         400 -6.0766708E-04
         401 -3.5788154E-03
         402 -1.5296854E-02
         403  1.3777805E-02
         404  8.9354994E-04
         405 -6.6721154E-04
         406 -8.8286638E-04
         407 -7.1400055E-03
         408  5.5333655E-03
         409  4.0210583E-04
         410 -3.4238707E-04
         411  3.2595927E-03
         412  1.7225642E-02
         413 -1.6439440E-02
         414 -5.1098579E-04
         415 -9.9345366E-04
         416  2.8861922E-04
         417 -6.5598097E-03
         418  3.0521909E-03
         419  5.8107083E-03
         420  1.3587069E-04
         421  1.1876769E-02
         422  6.0011772E-03
         423  1.8177204E-03
         424  8.3502928E-06
         425  9.7898103E-04
         426  2.8485223E-04
         427  7.2649186E-03
         428  4.2956667E-03
         429 -7.5556774E-04
         430  2.5796823E-04
         431  3.7908552E-03
         432 -1.9920267E-02
         433 -1.8792342E-02
         434 -1.0870316E-03
         435  5.6116068E-04
         436 -1.1234947E-03
         437  7.9729781E-03
         438  6.3398886E-03
         439 -1.8178498E-04
         440  6.4945151E-04
         441 -4.2956700E-03
         442  1.7721899E-02
         443  1.5837593E-02
         444 -1.7194632E-03
         445  1.2007063E-03
         446 -1.3738278E-02
         447  5.3448811E-02
         448  5.1345617E-02
         449 -2.3583688E-04
         450  1.8602347E-03
         451  7.2897268E-03
         452 -2.0403359E-02
         453 -2.2305500E-02
         454 -2.4346334E-03
         455  9.2219911E-04
         456  8.9268796E-03
         457 -1.6420281E-02
         458 -1.7144384E-02
         459 -3.1218235E-04
         460 -4.8744585E-04
         461 -1.2626233E-02
         462  2.5196468E-02
         463  2.8025795E-02
         464 -4.9714982E-03
         465  3.7780269E-03
         466 -6.7528733E-04
         467  2.3911069E-03
         468  8.0716340E-03
         469 -5.2884617E-03
         470  1.7945424E-03
         471  1.2148442E-02
         472 -2.2573881E-02
         473 -2.9705593E-02
         474 -6.2889108E-03
         475 -5.7035610E-05
         476  1.3404086E-02
         477 -1.1056204E-02
         478  2.3688450E-03
