 [Molden Format]
 [Atoms] Angs
O       1      8     -3.86901214      1.71876604      1.66852468
S       2     16     -3.52176905      1.38728041      0.30195443
O       3      8     -3.82754627      2.37864560     -0.70863768
C       4      6     -4.31559987     -0.16183495     -0.13783358
C       5      6     -4.95919983     -0.90525495      0.83185371
C       6      6     -5.54117006     -2.11287866      0.47989312
C       7      6     -5.46661825     -2.55875851     -0.83061762
C       8      6     -4.81555166     -1.80327023     -1.79473241
C       9      6     -4.23264009     -0.59564445     -1.44752314
C      10      6     -1.76908164      1.01257170      0.22523836
C      11      6     -1.23057369      0.16471089      1.17636369
C      12      6      0.11219477     -0.15467439      1.12074581
C      13      6      0.91319267      0.36750392      0.10209070
N      14      7      2.26907651      0.04333234      0.04329916
C      15      6      2.80326035     -1.23096092      0.14163238
C      16      6      2.15865385     -2.45546717      0.24278064
C      17      6      2.94024808     -3.59508710      0.28861858
C      18      6      4.33013428     -3.52751351      0.22389082
C      19      6      4.97592925     -2.31346883      0.09575831
C      20      6      4.21116497     -1.15491991      0.04832363
C      21      6      4.53817472      0.23706914     -0.10090219
C      22      6      5.73878906      0.92676293     -0.21160693
C      23      6      5.70375569      2.30350341     -0.31501670
C      24      6      4.49285201      2.99182203     -0.29255631
C      25      6      3.28557806      2.32650604     -0.18389250
C      26      6      3.31315914      0.94151741     -0.10591947
C      27      6      0.35231004      1.21697621     -0.85338847
C      28      6     -0.99023415      1.53938544     -0.78752676
H      29      1     -5.00288301     -0.51995362      1.83888415
H      30      1     -6.05116446     -2.70167298      1.22694861
H      31      1     -5.92111490     -3.49930658     -1.10343190
H      32      1     -4.76252979     -2.15277650     -2.81446026
H      33      1     -3.72931582      0.02119861     -2.17533428
H      34      1     -1.86351151     -0.21517489      1.96258366
H      35      1      0.55305134     -0.79095533      1.87232752
H      36      1      1.08196712     -2.52309613      0.27323330
H      37      1      2.46138261     -4.55969630      0.37197538
H      38      1      4.90618960     -4.44019385      0.26515540
H      39      1      6.05209731     -2.26157994      0.02742550
H      40      1      6.67778071      0.39400214     -0.21027003
H      41      1      6.62570158      2.85904576     -0.40385726
H      42      1      4.49635500      4.07010707     -0.35756110
H      43      1      2.35596585      2.87369407     -0.14629229
H      44      1      0.96696959      1.60526949     -1.65061384
H      45      1     -1.45053288      2.19642777     -1.50898575
 [GTO]
           1   0
s              4   1.000000
     72.81627710     -0.01198412
     12.53956544     -0.05472053
      1.00760759      0.58055871
      0.38402419      0.47700799
p              4   1.000000
      7.50901685      0.05713170
      1.94697594      0.28574555
      0.68636927      0.55178731
      0.27325543      0.26323149
s              7   1.000000
      0.57971233     -0.18810389
      0.07115450      0.90884887
      0.03359728      0.23867751
     72.81627710      0.00403780
     12.53956544      0.01843694
      1.00760759     -0.19560712
      0.38402419     -0.16071788
p              7   1.000000
      2.76717072     -0.01186511
      0.15304476      0.58306944
      0.05897927      0.60892941
      7.50901685     -0.02847178
      1.94697594     -0.14240227
      0.68636927     -0.27498509
      0.27325543     -0.13118231
 
           2   0
s              4   1.000000
     13.73908315     -0.03295496
      3.86996229     -0.17245169
      0.69394442      0.75185111
      0.34142349      0.35896273
p              4   1.000000
      7.93344318     -0.01434249
      0.81984170      0.27551776
      0.37054044      0.58467508
      0.17912742      0.21449865
s              7   1.000000
      0.16124732     -0.33689537
      0.03162593      1.06302553
      0.01560824      0.12641308
     13.73908315      0.00359837
      3.86996229      0.01883007
      0.69394442     -0.08209493
      0.34142349     -0.03919529
p              7   1.000000
      0.34551743     -0.06391760
      0.05282782      0.68662163
      0.02597475      0.40886807
      7.93344318      0.00408022
      0.81984170     -0.07838056
      0.37054044     -0.16633107
      0.17912742     -0.06102156
 
           3   0
s              4   1.000000
     72.81653506     -0.01198412
     12.53960987     -0.05472052
      1.00761116      0.58055871
      0.38402555      0.47700799
p              4   1.000000
      7.50904346      0.05713170
      1.94698284      0.28574555
      0.68637170      0.55178731
      0.27325640      0.26323149
s              7   1.000000
      0.57971233     -0.18810382
      0.07115450      0.90884855
      0.03359728      0.23867742
     72.81653506      0.00403778
     12.53960987      0.01843687
      1.00761116     -0.19560644
      0.38402555     -0.16071731
p              7   1.000000
      2.76717072     -0.01186510
      0.15304476      0.58306906
      0.05897927      0.60892902
      7.50904346     -0.02847168
      1.94698284     -0.14240179
      0.68637170     -0.27498417
      0.27325640     -0.13118187
 
           4   0
s              4   1.000000
     35.00193139     -0.01198412
      6.02762221     -0.05472052
      0.48434516      0.58055871
      0.18459593      0.47700800
p              4   1.000000
      5.64147566      0.05713170
      1.46275040      0.28574555
      0.51566478      0.55178731
      0.20529503      0.26323149
s              7   1.000000
      0.38350848     -0.19616863
      0.04707223      0.94781474
      0.02222627      0.24891054
     35.00193139      0.00550552
      6.02762221      0.02513870
      0.48434516     -0.26670969
      0.18459593     -0.21913831
p              7   1.000000
      1.83062075     -0.01160808
      0.10124670      0.57043870
      0.03901771      0.59573851
      5.64147566     -0.02521942
      1.46275040     -0.12613552
      0.51566478     -0.24357327
      0.20529503     -0.11619723
 
           5   0
s              4   1.000000
     35.10463518     -0.01198412
      6.04530866     -0.05472052
      0.48576634      0.58055871
      0.18513758      0.47700799
p              4   1.000000
      5.65802906      0.05713170
      1.46704245      0.28574555
      0.51717786      0.55178731
      0.20589742      0.26323149
s              7   1.000000
      0.38350848     -0.19607320
      0.04707223      0.94735366
      0.02222627      0.24878945
     35.10463518      0.00549014
      6.04530866      0.02506845
      0.48576634     -0.26596434
      0.18513758     -0.21852590
p              7   1.000000
      1.83062075     -0.01160277
      0.10124670      0.57017803
      0.03901771      0.59546624
      5.65802906     -0.02514867
      1.46704245     -0.12578165
      0.51717786     -0.24288994
      0.20589742     -0.11587124
 
           6   0
s              4   1.000000
     34.92616832     -0.01198412
      6.01457519     -0.05472053
      0.48329678      0.58055871
      0.18419637      0.47700800
p              4   1.000000
      5.62926446      0.05713170
      1.45958422      0.28574555
      0.51454860      0.55178731
      0.20485066      0.26323149
s              7   1.000000
      0.38350848     -0.19623951
      0.04707223      0.94815717
      0.02222627      0.24900046
     34.92616832      0.00551693
      6.01457519      0.02519078
      0.48329678     -0.26726216
      0.18419637     -0.21959223
p              7   1.000000
      1.83062075     -0.01161202
      0.10124670      0.57063231
      0.03901771      0.59594067
      5.62926446     -0.02527186
      1.45958422     -0.12639780
      0.51454860     -0.24407975
      0.20485066     -0.11643885
 
           7   0
s              4   1.000000
     34.92354256     -0.01198412
      6.01412301     -0.05472052
      0.48326044      0.58055871
      0.18418252      0.47700799
p              4   1.000000
      5.62884125      0.05713170
      1.45947448      0.28574555
      0.51450992      0.55178731
      0.20483526      0.26323149
s              7   1.000000
      0.38350848     -0.19624197
      0.04707223      0.94816909
      0.02222627      0.24900360
     34.92354256      0.00551732
      6.01412301      0.02519259
      0.48326044     -0.26728134
      0.18418252     -0.21960800
p              7   1.000000
      1.83062075     -0.01161215
      0.10124670      0.57063904
      0.03901771      0.59594771
      5.62884125     -0.02527368
      1.45947448     -0.12640691
      0.51450992     -0.24409734
      0.20483526     -0.11644724
 
           8   0
s              4   1.000000
     34.92674211     -0.01198412
      6.01467400     -0.05472052
      0.48330472      0.58055871
      0.18419939      0.47700799
p              4   1.000000
      5.62935694      0.05713170
      1.45960819      0.28574555
      0.51455706      0.55178731
      0.20485403      0.26323149
s              7   1.000000
      0.38350848     -0.19623897
      0.04707223      0.94815458
      0.02222627      0.24899978
     34.92674211      0.00551684
      6.01467400      0.02519038
      0.48330472     -0.26725796
      0.18419939     -0.21958879
p              7   1.000000
      1.83062075     -0.01161199
      0.10124670      0.57063085
      0.03901771      0.59593917
      5.62935694     -0.02527146
      1.45960819     -0.12639581
      0.51455706     -0.24407591
      0.20485403     -0.11643701
 
           9   0
s              4   1.000000
     35.12277881     -0.01198412
      6.04843314     -0.05472052
      0.48601741      0.58055871
      0.18523327      0.47700799
p              4   1.000000
      5.66095338      0.05713170
      1.46780068      0.28574555
      0.51744516      0.55178731
      0.20600383      0.26323149
s              7   1.000000
      0.38350848     -0.19605642
      0.04707223      0.94727259
      0.02222627      0.24876817
     35.12277881      0.00548743
      6.04843314      0.02505608
      0.48601741     -0.26583309
      0.18523327     -0.21841806
p              7   1.000000
      1.83062075     -0.01160184
      0.10124670      0.57013220
      0.03901771      0.59541838
      5.66095338     -0.02513621
      1.46780068     -0.12571934
      0.51744516     -0.24276961
      0.20600383     -0.11581384
 
          10   0
s              4   1.000000
     34.99711100     -0.01198412
      6.02679210     -0.05472052
      0.48427846      0.58055871
      0.18457051      0.47700800
p              4   1.000000
      5.64069872      0.05713170
      1.46254895      0.28574555
      0.51559376      0.55178731
      0.20526676      0.26323149
s              7   1.000000
      0.38350848     -0.19617313
      0.04707223      0.94783647
      0.02222627      0.24891624
     34.99711100      0.00550625
      6.02679210      0.02514201
      0.48427846     -0.26674477
      0.18457051     -0.21916713
p              7   1.000000
      1.83062075     -0.01160833
      0.10124670      0.57045099
      0.03901771      0.59575133
      5.64069872     -0.02522275
      1.46254895     -0.12615217
      0.51559376     -0.24360543
      0.20526676     -0.11621257
 
          11   0
s              4   1.000000
     35.12036442     -0.01198412
      6.04801736     -0.05472052
      0.48598400      0.58055871
      0.18522053      0.47700800
p              4   1.000000
      5.66056423      0.05713170
      1.46769978      0.28574555
      0.51740959      0.55178731
      0.20598967      0.26323149
s              7   1.000000
      0.38350848     -0.19605866
      0.04707223      0.94728337
      0.02222627      0.24877099
     35.12036442      0.00548779
      6.04801736      0.02505773
      0.48598400     -0.26585055
      0.18522053     -0.21843240
p              7   1.000000
      1.83062075     -0.01160196
      0.10124670      0.57013829
      0.03901771      0.59542473
      5.66056423     -0.02513787
      1.46769978     -0.12572763
      0.51740959     -0.24278561
      0.20598967     -0.11582147
 
          12   0
s              4   1.000000
     35.01812390     -0.01198412
      6.03041070     -0.05472052
      0.48456923      0.58055871
      0.18468133      0.47700799
p              4   1.000000
      5.64408550      0.05713170
      1.46342709      0.28574555
      0.51590333      0.55178731
      0.20539001      0.26323149
s              7   1.000000
      0.38350848     -0.19615354
      0.04707223      0.94774180
      0.02222627      0.24889138
     35.01812390      0.00550309
      6.03041070      0.02512760
      0.48456923     -0.26659190
      0.18468133     -0.21904153
p              7   1.000000
      1.83062075     -0.01160724
      0.10124670      0.57039748
      0.03901771      0.59569542
      5.64408550     -0.02520824
      1.46342709     -0.12607960
      0.51590333     -0.24346529
      0.20539001     -0.11614571
 
          13   0
s              4   1.000000
     35.13190601     -0.01198412
      6.05000492     -0.05472052
      0.48614371      0.58055871
      0.18528140      0.47700799
p              4   1.000000
      5.66242446      0.05713170
      1.46818211      0.28574555
      0.51757963      0.55178731
      0.20605737      0.26323149
s              7   1.000000
      0.38350848     -0.19604799
      0.04707223      0.94723184
      0.02222627      0.24875747
     35.13190601      0.00548607
      6.05000492      0.02504986
      0.48614371     -0.26576711
      0.18528140     -0.21836385
p              7   1.000000
      1.83062075     -0.01160137
      0.10124670      0.57010915
      0.03901771      0.59539431
      5.66242446     -0.02512995
      1.46818211     -0.12568801
      0.51757963     -0.24270912
      0.20605737     -0.11578498
 
          14   0
s              4   1.000000
     61.41598475     -0.01198412
     10.57634077     -0.05472052
      0.84985411      0.58055871
      0.32390044      0.47700799
p              4   1.000000
      7.23922348      0.05713170
      1.87702255      0.28574555
      0.66170853      0.55178731
      0.26343757      0.26323149
s              7   1.000000
      0.47894987     -0.18771871
      0.05878681      0.90698783
      0.02775758      0.23818878
     61.41598475      0.00395595
     10.57634077      0.01806321
      0.84985411     -0.19164205
      0.32390044     -0.15746003
p              7   1.000000
      2.28619608     -0.01155993
      0.12644335      0.56807262
      0.04872781      0.59326747
      7.23922348     -0.02457097
      1.87702255     -0.12289230
      0.66170853     -0.23731048
      0.26343757     -0.11320955
 
          15   0
s              4   1.000000
     35.61340756     -0.01198412
      6.13292347     -0.05472052
      0.49280657      0.58055871
      0.18782078      0.47700800
p              4   1.000000
      5.74003101      0.05713170
      1.48830433      0.28574555
      0.52467333      0.55178731
      0.20888149      0.26323149
s              7   1.000000
      0.38350848     -0.19561125
      0.04707223      0.94512166
      0.02222627      0.24820331
     35.61340756      0.00541515
      6.13292347      0.02472603
      0.49280657     -0.26233141
      0.18782078     -0.21554096
p              7   1.000000
      1.83062075     -0.01157709
      0.10124670      0.56891616
      0.03901771      0.59414843
      5.74003101     -0.02480379
      1.48830433     -0.12405672
      0.52467333     -0.23955902
      0.20888149     -0.11428222
 
          16   0
s              4   1.000000
     34.94159562     -0.01198412
      6.01723190     -0.05472052
      0.48351026      0.58055871
      0.18427773      0.47700799
p              4   1.000000
      5.63175097      0.05713170
      1.46022893      0.28574555
      0.51477589      0.55178731
      0.20494115      0.26323149
s              7   1.000000
      0.38350848     -0.19622504
      0.04707223      0.94808728
      0.02222627      0.24898210
     34.94159562      0.00551460
      6.01723190      0.02518016
      0.48351026     -0.26714948
      0.18427773     -0.21949965
p              7   1.000000
      1.83062075     -0.01161121
      0.10124670      0.57059280
      0.03901771      0.59589940
      5.63175097     -0.02526116
      1.46022893     -0.12634431
      0.51477589     -0.24397645
      0.20494115     -0.11638957
 
          17   0
s              4   1.000000
     34.93435089     -0.01198412
      6.01598429     -0.05472053
      0.48341001      0.58055871
      0.18423952      0.47700799
p              4   1.000000
      5.63058329      0.05713170
      1.45992617      0.28574555
      0.51466915      0.55178731
      0.20489866      0.26323149
s              7   1.000000
      0.38350848     -0.19623183
      0.04707223      0.94812010
      0.02222627      0.24899073
     34.93435089      0.00551569
      6.01598429      0.02518514
      0.48341001     -0.26720238
      0.18423952     -0.21954312
p              7   1.000000
      1.83062075     -0.01161159
      0.10124670      0.57061135
      0.03901771      0.59591878
      5.63058329     -0.02526619
      1.45992617     -0.12636942
      0.51466915     -0.24402495
      0.20489866     -0.11641270
 
          18   0
s              4   1.000000
     34.92077408     -0.01198412
      6.01364625     -0.05472052
      0.48322214      0.58055871
      0.18416792      0.47700799
p              4   1.000000
      5.62839503      0.05713170
      1.45935879      0.28574555
      0.51446913      0.55178731
      0.20481903      0.26323149
s              7   1.000000
      0.38350848     -0.19624457
      0.04707223      0.94818164
      0.02222627      0.24900689
     34.92077408      0.00551774
      6.01364625      0.02519449
      0.48322214     -0.26730158
      0.18416792     -0.21962462
p              7   1.000000
      1.83062075     -0.01161230
      0.10124670      0.57064614
      0.03901771      0.59595511
      5.62839503     -0.02527560
      1.45935879     -0.12641652
      0.51446913     -0.24411589
      0.20481903     -0.11645609
 
          19   0
s              4   1.000000
     34.93701859     -0.01198412
      6.01644369     -0.05472053
      0.48344692      0.58055871
      0.18425359      0.47700799
p              4   1.000000
      5.63101326      0.05713170
      1.46003765      0.28574555
      0.51470845      0.55178731
      0.20491430      0.26323149
s              7   1.000000
      0.38350848     -0.19622933
      0.04707223      0.94810801
      0.02222627      0.24898756
     34.93701859      0.00551529
      6.01644369      0.02518331
      0.48344692     -0.26718290
      0.18425359     -0.21952711
p              7   1.000000
      1.83062075     -0.01161145
      0.10124670      0.57060452
      0.03901771      0.59591166
      5.63101326     -0.02526434
      1.46003765     -0.12636017
      0.51470845     -0.24400709
      0.20491430     -0.11640418
 
          20   0
s              4   1.000000
     35.41310592     -0.01198412
      6.09842987     -0.05472053
      0.49003486      0.58055871
      0.18676441      0.47700799
p              4   1.000000
      5.70774717      0.05713170
      1.47993361      0.28574555
      0.52172239      0.55178731
      0.20770668      0.26323149
s              7   1.000000
      0.38350848     -0.19579101
      0.04707223      0.94599021
      0.02222627      0.24843138
     35.41310592      0.00544443
      6.09842987      0.02485974
      0.49003486     -0.26375002
      0.18676441     -0.21670654
p              7   1.000000
      1.83062075     -0.01158709
      0.10124670      0.56940718
      0.03901771      0.59466121
      5.70774717     -0.02493846
      1.47993361     -0.12473031
      0.52172239     -0.24085976
      0.20770668     -0.11490274
 
          21   0
s              4   1.000000
     35.41353774     -0.01198412
      6.09850423     -0.05472052
      0.49004084      0.58055871
      0.18676669      0.47700799
p              4   1.000000
      5.70781677      0.05713170
      1.47995166      0.28574555
      0.52172876      0.55178731
      0.20770921      0.26323149
s              7   1.000000
      0.38350848     -0.19579062
      0.04707223      0.94598832
      0.02222627      0.24843089
     35.41353774      0.00544437
      6.09850423      0.02485945
      0.49004084     -0.26374695
      0.18676669     -0.21670401
p              7   1.000000
      1.83062075     -0.01158706
      0.10124670      0.56940612
      0.03901771      0.59466012
      5.70781677     -0.02493817
      1.47995166     -0.12472885
      0.52172876     -0.24085694
      0.20770921     -0.11490139
 
          22   0
s              4   1.000000
     34.93701383     -0.01198412
      6.01644287     -0.05472052
      0.48344686      0.58055871
      0.18425356      0.47700799
p              4   1.000000
      5.63101250      0.05713170
      1.46003745      0.28574555
      0.51470838      0.55178731
      0.20491428      0.26323149
s              7   1.000000
      0.38350848     -0.19622934
      0.04707223      0.94810804
      0.02222627      0.24898756
     34.93701383      0.00551529
      6.01644287      0.02518331
      0.48344686     -0.26718293
      0.18425356     -0.21952714
p              7   1.000000
      1.83062075     -0.01161145
      0.10124670      0.57060453
      0.03901771      0.59591166
      5.63101250     -0.02526434
      1.46003745     -0.12636019
      0.51470838     -0.24400712
      0.20491428     -0.11640420
 
          23   0
s              4   1.000000
     34.92061046     -0.01198412
      6.01361808     -0.05472052
      0.48321987      0.58055871
      0.18416705      0.47700799
p              4   1.000000
      5.62836866      0.05713170
      1.45935195      0.28574555
      0.51446672      0.55178731
      0.20481807      0.26323149
s              7   1.000000
      0.38350848     -0.19624472
      0.04707223      0.94818237
      0.02222627      0.24900709
     34.92061046      0.00551777
      6.01361808      0.02519461
      0.48321987     -0.26730277
      0.18416705     -0.21962561
p              7   1.000000
      1.83062075     -0.01161231
      0.10124670      0.57064656
      0.03901771      0.59595556
      5.62836866     -0.02527572
      1.45935195     -0.12641708
      0.51446672     -0.24411699
      0.20481807     -0.11645661
 
          24   0
s              4   1.000000
     34.93420069     -0.01198412
      6.01595843     -0.05472053
      0.48340793      0.58055871
      0.18423873      0.47700800
p              4   1.000000
      5.63055908      0.05713170
      1.45991989      0.28574555
      0.51466694      0.55178731
      0.20489778      0.26323149
s              7   1.000000
      0.38350848     -0.19623197
      0.04707223      0.94812078
      0.02222627      0.24899090
     34.93420069      0.00551572
      6.01595843      0.02518525
      0.48340793     -0.26720348
      0.18423873     -0.21954402
p              7   1.000000
      1.83062075     -0.01161160
      0.10124670      0.57061173
      0.03901771      0.59591919
      5.63055908     -0.02526629
      1.45991989     -0.12636994
      0.51466694     -0.24402596
      0.20489778     -0.11641318
 
          25   0
s              4   1.000000
     34.94127430     -0.01198412
      6.01717656     -0.05472052
      0.48350581      0.58055871
      0.18427603      0.47700800
p              4   1.000000
      5.63169918      0.05713170
      1.46021550      0.28574555
      0.51477115      0.55178731
      0.20493927      0.26323149
s              7   1.000000
      0.38350848     -0.19622534
      0.04707223      0.94808874
      0.02222627      0.24898249
     34.94127430      0.00551465
      6.01717656      0.02518038
      0.48350581     -0.26715182
      0.18427603     -0.21950158
p              7   1.000000
      1.83062075     -0.01161123
      0.10124670      0.57059363
      0.03901771      0.59590029
      5.63169918     -0.02526139
      1.46021550     -0.12634542
      0.51477115     -0.24397860
      0.20493927     -0.11639059
 
          26   0
s              4   1.000000
     35.61211906     -0.01198412
      6.13270158     -0.05472052
      0.49278874      0.58055871
      0.18781399      0.47700799
p              4   1.000000
      5.73982334      0.05713170
      1.48825048      0.28574555
      0.52465435      0.55178731
      0.20887394      0.26323149
s              7   1.000000
      0.38350848     -0.19561239
      0.04707223      0.94512720
      0.02222627      0.24820475
     35.61211906      0.00541533
      6.13270158      0.02472689
      0.49278874     -0.26234049
      0.18781399     -0.21554842
p              7   1.000000
      1.83062075     -0.01157716
      0.10124670      0.56891930
      0.03901771      0.59415171
      5.73982334     -0.02480465
      1.48825048     -0.12406103
      0.52465435     -0.23956735
      0.20887394     -0.11428619
 
          27   0
s              4   1.000000
     35.01657819     -0.01198412
      6.03014451     -0.05472052
      0.48454784      0.58055871
      0.18467318      0.47700799
p              4   1.000000
      5.64383637      0.05713170
      1.46336249      0.28574555
      0.51588056      0.55178731
      0.20538094      0.26323149
s              7   1.000000
      0.38350848     -0.19615498
      0.04707223      0.94774876
      0.02222627      0.24889321
     35.01657819      0.00550333
      6.03014451      0.02512866
      0.48454784     -0.26660314
      0.18467318     -0.21905076
p              7   1.000000
      1.83062075     -0.01160732
      0.10124670      0.57040141
      0.03901771      0.59569955
      5.64383637     -0.02520931
      1.46336249     -0.12608493
      0.51588056     -0.24347559
      0.20538094     -0.11615063
 
          28   0
s              4   1.000000
     35.10161246     -0.01198412
      6.04478812     -0.05472052
      0.48572452      0.58055871
      0.18512164      0.47700800
p              4   1.000000
      5.65754186      0.05713170
      1.46691612      0.28574555
      0.51713333      0.55178731
      0.20587969      0.26323149
s              7   1.000000
      0.38350848     -0.19607600
      0.04707223      0.94736718
      0.02222627      0.24879301
     35.10161246      0.00549059
      6.04478812      0.02507051
      0.48572452     -0.26598622
      0.18512164     -0.21854387
p              7   1.000000
      1.83062075     -0.01160293
      0.10124670      0.57018568
      0.03901771      0.59547425
      5.65754186     -0.02515074
      1.46691612     -0.12579204
      0.51713333     -0.24291000
      0.20587969     -0.11588081
 
          29   0
s              4   1.000000
      8.31041118      0.05675242
      1.52070286      0.26014135
      0.42246791      0.53284611
      0.14021330      0.29162544
s              7   1.000000
      0.92936822     -0.06732654
      0.05643440      0.66943667
      0.02166600      0.51460026
      8.31041118     -0.02901880
      1.52070286     -0.13301616
      0.42246791     -0.27245627
      0.14021330     -0.14911468
p              4   1.000000
      0.64737396      0.05713170
      0.16785440      0.28574555
      0.05917387      0.55178731
      0.02355814      0.26323150
 
          30   0
s              4   1.000000
      8.30884334      0.05675242
      1.52041596      0.26014135
      0.42238820      0.53284611
      0.14018685      0.29162544
s              7   1.000000
      0.92936822     -0.06732856
      0.05643440      0.66945673
      0.02166600      0.51461566
      8.30884334     -0.02902299
      1.52041596     -0.13303538
      0.42238820     -0.27249565
      0.14018685     -0.14913623
p              4   1.000000
      0.64737396      0.05713170
      0.16785440      0.28574555
      0.05917387      0.55178731
      0.02355814      0.26323150
 
          31   0
s              4   1.000000
      8.30887096      0.05675242
      1.52042102      0.26014135
      0.42238961      0.53284611
      0.14018731      0.29162544
s              7   1.000000
      0.92936822     -0.06732852
      0.05643440      0.66945638
      0.02166600      0.51461539
      8.30887096     -0.02902292
      1.52042102     -0.13303505
      0.42238961     -0.27249495
      0.14018731     -0.14913586
p              4   1.000000
      0.64737396      0.05713170
      0.16785440      0.28574555
      0.05917387      0.55178731
      0.02355814      0.26323150
 
          32   0
s              4   1.000000
      8.30885523      0.05675242
      1.52041814      0.26014135
      0.42238881      0.53284611
      0.14018705      0.29162544
s              7   1.000000
      0.92936822     -0.06732854
      0.05643440      0.66945657
      0.02166600      0.51461554
      8.30885523     -0.02902296
      1.52041814     -0.13303524
      0.42238881     -0.27249535
      0.14018705     -0.14913607
p              4   1.000000
      0.64737396      0.05713170
      0.16785440      0.28574555
      0.05917387      0.55178731
      0.02355814      0.26323150
 
          33   0
s              4   1.000000
      8.31054711      0.05675242
      1.52072773      0.26014135
      0.42247482      0.53284611
      0.14021559      0.29162544
s              7   1.000000
      0.92936822     -0.06732637
      0.05643440      0.66943494
      0.02166600      0.51459892
      8.31054711     -0.02901843
      1.52072773     -0.13301449
      0.42247482     -0.27245286
      0.14021559     -0.14911282
p              4   1.000000
      0.64737396      0.05713170
      0.16785440      0.28574555
      0.05917387      0.55178731
      0.02355814      0.26323150
 
          34   0
s              4   1.000000
      8.31065186      0.05675242
      1.52074690      0.26014135
      0.42248014      0.53284611
      0.14021736      0.29162544
s              7   1.000000
      0.92936822     -0.06732623
      0.05643440      0.66943359
      0.02166600      0.51459787
      8.31065186     -0.02901815
      1.52074690     -0.13301321
      0.42248014     -0.27245023
      0.14021736     -0.14911138
p              4   1.000000
      0.64737396      0.05713170
      0.16785440      0.28574555
      0.05917387      0.55178731
      0.02355814      0.26323150
 
          35   0
s              4   1.000000
      8.30955117      0.05675242
      1.52054549      0.26014135
      0.42242419      0.53284611
      0.14019879      0.29162544
s              7   1.000000
      0.92936822     -0.06732765
      0.05643440      0.66944768
      0.02166600      0.51460871
      8.30955117     -0.02902110
      1.52054549     -0.13302670
      0.42242419     -0.27247787
      0.14019879     -0.14912650
p              4   1.000000
      0.64737396      0.05713170
      0.16785440      0.28574555
      0.05917387      0.55178731
      0.02355814      0.26323150
 
          36   0
s              4   1.000000
      8.30929016      0.05675242
      1.52049773      0.26014135
      0.42241092      0.53284611
      0.14019439      0.29162544
s              7   1.000000
      0.92936822     -0.06732798
      0.05643440      0.66945101
      0.02166600      0.51461127
      8.30929016     -0.02902180
      1.52049773     -0.13302990
      0.42241092     -0.27248442
      0.14019439     -0.14913009
p              4   1.000000
      0.64737396      0.05713170
      0.16785440      0.28574555
      0.05917387      0.55178731
      0.02355814      0.26323150
 
          37   0
s              4   1.000000
      8.30897110      0.05675242
      1.52043934      0.26014135
      0.42239470      0.53284611
      0.14018900      0.29162544
s              7   1.000000
      0.92936822     -0.06732839
      0.05643440      0.66945509
      0.02166600      0.51461440
      8.30897110     -0.02902265
      1.52043934     -0.13303382
      0.42239470     -0.27249244
      0.14018900     -0.14913448
p              4   1.000000
      0.64737396      0.05713170
      0.16785440      0.28574555
      0.05917387      0.55178731
      0.02355814      0.26323150
 
          38   0
s              4   1.000000
      8.30889619      0.05675242
      1.52042563      0.26014135
      0.42239089      0.53284611
      0.14018774      0.29162544
s              7   1.000000
      0.92936822     -0.06732849
      0.05643440      0.66945605
      0.02166600      0.51461514
      8.30889619     -0.02902285
      1.52042563     -0.13303474
      0.42239089     -0.27249432
      0.14018774     -0.14913551
p              4   1.000000
      0.64737396      0.05713170
      0.16785440      0.28574555
      0.05917387      0.55178731
      0.02355814      0.26323150
 
          39   0
s              4   1.000000
      8.30890081      0.05675242
      1.52042648      0.26014135
      0.42239112      0.53284611
      0.14018782      0.29162544
s              7   1.000000
      0.92936822     -0.06732848
      0.05643440      0.66945599
      0.02166600      0.51461509
      8.30890081     -0.02902284
      1.52042648     -0.13303468
      0.42239112     -0.27249420
      0.14018782     -0.14913544
p              4   1.000000
      0.64737396      0.05713170
      0.16785440      0.28574555
      0.05917387      0.55178731
      0.02355814      0.26323150
 
          40   0
s              4   1.000000
      8.30889967      0.05675242
      1.52042627      0.26014135
      0.42239107      0.53284611
      0.14018780      0.29162544
s              7   1.000000
      0.92936822     -0.06732849
      0.05643440      0.66945600
      0.02166600      0.51461512
      8.30889967     -0.02902284
      1.52042627     -0.13303469
      0.42239107     -0.27249423
      0.14018780     -0.14913546
p              4   1.000000
      0.64737396      0.05713170
      0.16785440      0.28574555
      0.05917387      0.55178731
      0.02355814      0.26323150
 
          41   0
s              4   1.000000
      8.30889516      0.05675242
      1.52042545      0.26014135
      0.42239084      0.53284611
      0.14018772      0.29162544
s              7   1.000000
      0.92936822     -0.06732849
      0.05643440      0.66945606
      0.02166600      0.51461514
      8.30889516     -0.02902285
      1.52042545     -0.13303475
      0.42239084     -0.27249435
      0.14018772     -0.14913552
p              4   1.000000
      0.64737396      0.05713170
      0.16785440      0.28574555
      0.05917387      0.55178731
      0.02355814      0.26323150
 
          42   0
s              4   1.000000
      8.30895823      0.05675242
      1.52043699      0.26014135
      0.42239404      0.53284611
      0.14018879      0.29162544
s              7   1.000000
      0.92936822     -0.06732841
      0.05643440      0.66945526
      0.02166600      0.51461452
      8.30895823     -0.02902268
      1.52043699     -0.13303397
      0.42239404     -0.27249276
      0.14018879     -0.14913466
p              4   1.000000
      0.64737396      0.05713170
      0.16785440      0.28574555
      0.05917387      0.55178731
      0.02355814      0.26323150
 
          43   0
s              4   1.000000
      8.30927338      0.05675242
      1.52049466      0.26014135
      0.42241007      0.53284611
      0.14019410      0.29162544
s              7   1.000000
      0.92936822     -0.06732801
      0.05643440      0.66945123
      0.02166600      0.51461144
      8.30927338     -0.02902184
      1.52049466     -0.13303011
      0.42241007     -0.27248485
      0.14019410     -0.14913032
p              4   1.000000
      0.64737396      0.05713170
      0.16785440      0.28574555
      0.05917387      0.55178731
      0.02355814      0.26323150
 
          44   0
s              4   1.000000
      8.30952188      0.05675242
      1.52054013      0.26014135
      0.42242270      0.53284611
      0.14019830      0.29162543
s              7   1.000000
      0.92936822     -0.06732769
      0.05643440      0.66944805
      0.02166600      0.51460898
      8.30952188     -0.02902118
      1.52054013     -0.13302706
      0.42242270     -0.27247861
      0.14019830     -0.14912691
p              4   1.000000
      0.64737396      0.05713170
      0.16785440      0.28574555
      0.05917387      0.55178731
      0.02355814      0.26323150
 
          45   0
s              4   1.000000
      8.31051014      0.05675242
      1.52072097      0.26014135
      0.42247294      0.53284611
      0.14021497      0.29162544
s              7   1.000000
      0.92936822     -0.06732641
      0.05643440      0.66943541
      0.02166600      0.51459927
      8.31051014     -0.02901853
      1.52072097     -0.13301495
      0.42247294     -0.27245379
      0.14021497     -0.14911332
p              4   1.000000
      0.64737396      0.05713170
      0.16785440      0.28574555
      0.05917387      0.55178731
      0.02355814      0.26323150
 
 [MO]
 Sym= Hole
 Ene= -0.9390186    
 Spin= Alpha
 Occup= 0
           1 -3.3226374E-03
           2 -3.1496875E-02
           3  1.3076610E-02
           4  1.7684856E-02
           5  1.4253806E-03
           6 -2.2380496E-03
           7 -3.8994483E-03
           8 -1.1033382E-04
           9  4.2226184E-03
          10 -1.4090807E-03
          11 -7.6702968E-03
          12 -2.3677195E-03
          13  3.7625169E-03
          14  3.7416918E-04
          15  6.5673855E-03
          16  5.5097714E-03
          17 -9.7456860E-04
          18 -8.2116444E-03
          19  6.0251765E-03
          20 -3.4700136E-03
          21 -3.8646368E-04
          22 -3.3411987E-03
          23 -3.2850585E-03
          24 -3.2560681E-03
          25  2.0497186E-02
          26  2.3416264E-02
          27  3.4296546E-02
          28  1.1240623E-02
          29 -1.0385944E-02
          30 -5.3115777E-04
          31 -2.8943822E-03
          32 -1.0778902E-03
          33 -4.4522486E-03
          34  3.3005984E-03
          35 -1.1870838E-02
          36  6.4283516E-03
          37  1.8041958E-03
          38  1.7935146E-03
          39  1.0000990E-03
          40 -2.7327514E-03
          41  3.9316998E-03
          42  8.3879556E-04
          43  8.5063353E-03
          44  1.0796387E-03
          45 -9.3644374E-04
          46  6.4179156E-04
          47 -1.5171978E-05
          48 -1.1188341E-03
          49  7.1298506E-04
          50 -8.4562525E-03
          51  5.4742843E-03
          52 -2.2795163E-03
          53  1.1965744E-04
          54  5.8543292E-04
          55  7.9432473E-04
          56  2.3385727E-04
          57  3.0812223E-03
          58  3.2591121E-03
          59  5.3555155E-03
          60  2.2525475E-03
          61 -7.8531163E-04
          62 -2.8001604E-04
          63  3.6312119E-04
          64  1.2856871E-03
          65 -2.0636404E-03
          66  9.3112774E-03
          67 -8.1808222E-03
          68 -5.3514652E-03
          69 -2.2210363E-04
          70  2.4543481E-04
          71  4.5872779E-04
          72  3.0379388E-03
          73  7.9296213E-03
          74  4.5692887E-02
          75  0.2234097    
          76  0.1843371    
          77 -1.9455899E-03
          78 -1.1908306E-03
          79 -3.3718199E-03
          80 -7.1268161E-03
          81  8.5082855E-03
          82  3.9759740E-02
          83  6.4727329E-02
          84  3.8623162E-02
          85 -1.1908377E-03
          86 -8.5586600E-04
          87 -2.2143205E-03
          88 -2.2997495E-03
          89 -3.4946922E-02
          90 -0.1009184    
          91 -0.2175423    
          92 -7.7614777E-02
          93  1.9877765E-02
          94  1.3195809E-02
          95  6.8059377E-03
          96  1.3156070E-03
          97  2.6403629E-04
          98 -3.9255843E-02
          99 -0.1409964    
         100 -0.1631933    
         101 -4.8482965E-04
         102  1.4420996E-03
         103  5.4878271E-03
         104  1.9366786E-02
         105 -1.7414121E-03
         106  3.4890972E-02
         107  6.5452754E-02
         108  0.5131060    
         109  7.6269777E-04
         110  2.5432109E-04
         111  7.8121428E-03
         112 -4.0499263E-02
         113 -9.6425069E-03
         114  1.0251517E-02
         115 -2.2446482E-02
         116 -2.9942248E-02
         117  5.2662161E-03
         118  2.8496168E-03
         119  5.3037480E-03
         120  2.0612745E-02
         121 -3.0295409E-03
         122  3.3680797E-03
         123 -1.0050124E-02
         124 -0.2737521    
         125  1.3870343E-03
         126  2.0795306E-03
         127 -3.0538591E-03
         128  1.3095240E-02
         129 -5.5411656E-04
         130 -2.5669010E-03
         131 -5.0983690E-03
         132 -5.7148762E-02
         133 -4.4790399E-04
         134  8.0863031E-04
         135 -1.4742981E-03
         136 -3.9143129E-03
         137 -1.8918227E-03
         138  1.3273552E-02
         139  1.7990880E-02
         140  0.2438076    
         141  4.2457975E-04
         142 -2.9399456E-04
         143 -1.0961622E-03
         144 -1.1719830E-02
         145 -1.6565461E-03
         146  9.3815168E-03
         147  7.8033260E-03
         148  0.1244570    
         149  1.4591441E-04
         150  9.6778764E-05
         151 -5.1537534E-04
         152 -1.2546341E-02
         153 -2.0855602E-03
         154 -1.9311914E-02
         155 -2.2240015E-02
         156 -0.2247690    
         157  1.0604643E-03
         158  2.6677172E-03
         159  2.9756315E-03
         160  1.0202872E-02
         161  1.6396713E-03
         162 -5.8377120E-03
         163 -2.5130648E-02
         164 -0.2245409    
         165 -1.1068441E-03
         166 -4.1588614E-04
         167  3.7482143E-03
         168  1.0133515E-02
         169  1.9864468E-03
         170  2.5646391E-03
         171  8.7302672E-03
         172  0.1249905    
         173 -2.7089642E-04
         174 -1.2694653E-03
         175 -3.4519882E-04
         176 -1.2554463E-02
         177  1.7587702E-03
         178  1.1314250E-02
         179  1.7914722E-02
         180  0.2417257    
         181 -3.8750848E-04
         182 -1.1263445E-03
         183 -8.1388856E-04
         184 -1.1402878E-02
         185  6.0898304E-04
         186 -3.4175941E-03
         187 -4.6191877E-03
         188 -5.8004733E-02
         189  5.3230947E-04
         190 -1.8161546E-03
         191 -1.0437563E-03
         192 -3.8458884E-03
         193  3.5698358E-03
         194 -2.4595281E-02
         195 -3.3904680E-03
         196 -0.2719966    
         197 -1.9516544E-03
         198 -2.3000862E-03
         199 -2.0142335E-03
         200  1.2701254E-02
         201  1.0488033E-02
         202 -2.2720849E-02
         203 -1.5571646E-02
         204 -2.9623419E-02
         205 -6.1526797E-03
         206  2.0105597E-03
         207  6.3415822E-03
         208  2.0910012E-02
         209  3.7926424E-02
         210 -2.3404868E-02
         211 -0.2382397    
         212 -8.4763184E-02
         213 -2.0061476E-02
         214 -9.6647162E-03
         215  1.1826217E-02
         216  2.6900580E-03
         217 -1.2327307E-02
         218  5.6969384E-03
         219  7.5465962E-02
         220  3.6297102E-02
         221  4.2987652E-03
         222 -3.9338786E-04
         223 -2.9873766E-03
         224 -1.0750756E-04
         225 -7.6235011E-03
         226  3.2798501E-03
         227  5.3061947E-04
         228 -4.2591235E-04
         229 -2.5475603E-03
         230 -5.4700049E-03
         231  7.9509249E-04
         232 -1.0630436E-04
         233  2.2049501E-04
         234 -5.5255089E-04
         235  1.1246819E-03
         236 -2.0872377E-04
         237 -7.3595071E-04
         238  5.9454079E-04
         239 -1.2560202E-04
         240 -5.3790230E-03
         241  8.2261342E-04
         242 -4.2482687E-04
         243  2.6093371E-04
         244  2.9534881E-04
         245 -6.9220290E-03
         246  2.1709166E-03
         247 -1.2581868E-03
         248 -2.6864768E-03
         249  1.9551795E-03
         250 -3.1773120E-02
         251  1.3543996E-03
         252 -2.3354881E-03
         253 -2.7184360E-04
         254 -6.8810192E-04
         255  2.0514481E-02
         256  4.3836189E-03
         257  1.3262819E-02
         258 -1.7508620E-03
         259 -8.5719898E-03
         260  6.8841095E-05
         261 -5.0656141E-05
         262 -4.2733098E-03
         263 -2.3738940E-03
         264 -1.5614620E-02
         265  5.8657117E-03
         266 -1.6750627E-03
         267 -2.8760778E-04
         268 -3.6998212E-04
         269 -2.3724865E-03
         270  6.0581288E-04
         271 -3.6746162E-04
         272  1.3047326E-03
         273  1.0679058E-03
         274  1.6993798E-02
         275  3.7445477E-03
         276 -9.3266356E-04
         277  1.2661482E-03
         278  6.7157211E-04
         279  4.7568511E-03
         280 -3.9321096E-03
         281  1.0525574E-03
         282 -5.0495868E-04
         283  1.2160108E-03
         284  5.0539966E-03
         285 -5.0317449E-04
         286  3.6537912E-04
         287  5.0918845E-04
         288  1.2160022E-03
         289  1.6795380E-02
         290 -5.7544322E-03
         291  1.7998436E-03
         292 -2.0515383E-04
         293 -4.1705024E-04
         294 -2.2476164E-03
         295 -7.8757125E-04
         296 -3.3854053E-04
         297  2.5155898E-03
         298 -4.0460899E-03
         299 -1.5678143E-02
         300 -2.5292596E-02
         301 -4.2308406E-03
         302 -1.3059944E-02
         303  4.1190269E-03
         304 -7.5276969E-03
         305  2.5026919E-02
         306  7.1647507E-04
         307  2.1689890E-03
         308 -1.8646537E-03
         309  1.9141841E-03
 Sym= Particle
 Ene= -0.9390186    
 Spin= Alpha
 Occup= 2
           1 -5.4504732E-03
           2 -1.1504677E-02
           3 -1.0243770E-02
           4  1.5293119E-02
           5  1.0812110E-02
           6  1.4164918E-02
           7  7.2319671E-03
           8 -3.3485172E-03
           9 -4.8980944E-02
          10 -1.0104827E-02
          11  3.2333538E-02
          12  1.4872342E-02
          13  1.6271060E-02
          14  8.4538832E-03
          15  3.1717077E-03
          16  9.4902087E-03
          17  1.0970472E-03
          18  5.5700787E-03
          19 -1.9636836E-02
          20 -7.9863258E-03
          21  2.1584702E-04
          22 -4.8077901E-04
          23  9.2751244E-03
          24  2.5621015E-03
          25  4.3560740E-02
          26 -9.9438019E-03
          27  9.4521798E-02
          28  9.0108942E-03
          29 -3.1617057E-02
          30 -1.8112794E-02
          31 -2.5988800E-02
          32  1.3164273E-03
          33 -9.0630688E-03
          34  2.8131844E-02
          35 -2.9141195E-02
          36  2.1223105E-02
          37  5.6857052E-03
          38 -6.7272359E-03
          39  1.4999370E-02
          40 -7.4828174E-03
          41  8.1601907E-03
          42  1.6950367E-02
          43  1.9577516E-03
          44  9.0226205E-03
          45 -5.0719501E-03
          46 -2.8580821E-03
          47  5.3226497E-05
          48 -2.6920396E-03
          49  9.6679013E-04
          50 -4.5859620E-02
          51  2.5203245E-02
          52 -1.0985063E-02
          53 -2.5291790E-03
          54  1.2257167E-02
          55 -7.3378594E-03
          56  2.8225407E-03
          57  6.7912093E-03
          58  2.9757246E-02
          59 -5.1822667E-03
          60  5.6624203E-03
          61 -5.7265004E-03
          62 -6.9158869E-03
          63  4.8714151E-04
          64  4.3349271E-04
          65 -4.1883057E-03
          66  2.9745582E-02
          67 -1.7026974E-02
          68 -6.6220048E-03
          69 -3.2411851E-03
          70 -1.9948632E-02
          71  4.4737114E-03
          72  2.6492258E-03
          73  2.1939980E-02
          74  5.7642683E-02
          75  0.3624679    
          76  0.2613570    
          77 -1.0068751E-02
          78 -1.3325938E-02
          79 -9.2865139E-02
          80 -7.2025783E-02
          81 -1.6100769E-03
          82 -4.3041360E-02
          83 -0.1692110    
          84 -0.1122834    
          85  4.1079754E-03
          86  1.0172972E-02
          87  5.4585684E-02
          88  2.8084915E-02
          89  3.6995758E-03
          90 -5.8939140E-02
          91 -0.2090032    
          92 -0.1494006    
          93 -9.6256082E-04
          94  1.8316820E-02
          95  7.4148513E-02
          96  4.8488218E-02
          97  2.5519694E-04
          98  0.1154881    
          99  0.4194009    
         100  0.3065457    
         101 -1.5071724E-04
         102 -4.2108309E-02
         103 -0.1509024    
         104 -0.1177549    
         105 -2.3917865E-04
         106  9.1260881E-04
         107  2.5135349E-03
         108 -8.8684242E-03
         109 -2.5960692E-04
         110  7.2020418E-03
         111  2.4290852E-02
         112 -4.1224449E-03
         113  3.1543534E-02
         114 -3.9736010E-02
         115  3.5922781E-02
         116 -0.1758341    
         117 -3.0535100E-02
         118  3.2506227E-02
         119 -1.5143932E-02
         120  6.2357135E-02
         121 -6.3507194E-03
         122  7.7806860E-03
         123  5.0940821E-03
         124  0.1923401    
         125  6.0597758E-05
         126  5.9987297E-03
         127 -4.7566979E-03
         128 -5.3259004E-02
         129  5.1624114E-03
         130 -6.4738789E-03
         131  3.4926469E-03
         132 -3.6345176E-02
         133 -5.0177891E-03
         134  5.7502142E-03
         135 -7.9695799E-04
         136  8.5195042E-03
         137  6.5737806E-04
         138 -6.7892093E-03
         139 -1.1666345E-02
         140 -0.1563062    
         141 -2.6089826E-03
         142  3.4186500E-03
         143  3.5765059E-03
         144  3.8353011E-02
         145  4.3907347E-03
         146  9.2758611E-03
         147  1.8392315E-02
         148  0.1697911    
         149 -2.7203080E-03
         150 -3.5326097E-03
         151 -6.8345753E-04
         152 -4.8398532E-02
         153 -2.0615212E-03
         154  1.4027894E-02
         155  9.0589542E-03
         156 -5.8030011E-03
         157 -2.4418626E-03
         158 -4.3326528E-03
         159 -2.0091794E-03
         160 -3.0675542E-03
         161  2.5403679E-03
         162 -9.5620397E-03
         163  1.4709556E-02
         164 -8.4623545E-03
         165  1.0235349E-03
         166  2.7058439E-03
         167 -3.7644475E-03
         168 -2.2596184E-03
         169 -3.8654034E-03
         170  1.0210371E-02
         171  1.6869787E-02
         172  0.1600483    
         173  1.7408892E-03
         174 -2.1387691E-04
         175 -1.2480703E-03
         176 -4.5956720E-02
         177 -2.3876269E-04
         178 -8.2336655E-03
         179 -9.4964541E-03
         180 -0.1443354    
         181  1.8392515E-03
         182  4.9973506E-04
         183  3.4209858E-03
         184  3.4812380E-02
         185 -5.0310590E-03
         186  5.3656213E-03
         187  1.3827253E-03
         188 -3.8458738E-02
         189  3.8321544E-03
         190 -5.4641115E-03
         191  1.2336102E-03
         192  8.7762456E-03
         193  8.2041835E-03
         194  4.1654222E-03
         195  4.7833715E-03
         196  0.1813818    
         197 -3.9779716E-03
         198 -7.6394775E-03
         199 -5.4289727E-04
         200 -4.9168374E-02
         201 -3.1516757E-02
         202  4.0914036E-02
         203  1.7968901E-02
         204 -0.1662444    
         205  2.7649321E-02
         206 -3.0033411E-02
         207 -6.9406256E-04
         208  6.0044628E-02
         209  4.1879076E-03
         210 -6.8119451E-02
         211 -0.2323318    
         212 -0.1742491    
         213 -2.3832463E-03
         214  2.2176914E-02
         215  7.9377435E-02
         216  5.9262499E-02
         217 -3.9957138E-03
         218 -3.5713192E-02
         219 -0.1341351    
         220 -0.1097914    
         221  4.1547995E-03
         222  7.0105456E-03
         223  4.0009480E-02
         224  3.4883849E-02
         225 -1.7648237E-02
         226  9.2261350E-03
         227  1.0598436E-02
         228  5.1532951E-03
         229 -3.0309081E-03
         230 -9.8558692E-03
         231 -1.1472739E-03
         232  4.3352782E-03
         233 -1.7909221E-03
         234  1.2107710E-03
         235  2.2922530E-04
         236 -4.0032947E-03
         237 -1.0840968E-02
         238  3.7660981E-03
         239 -2.3186461E-03
         240 -9.5363744E-03
         241 -1.4070102E-03
         242  7.6593836E-03
         243 -3.9084279E-03
         244  3.1552657E-03
         245 -1.7289029E-02
         246  2.4182328E-03
         247 -2.3166845E-03
         248 -1.6771132E-03
         249  2.5249756E-04
         250 -1.2230289E-02
         251  6.3610636E-03
         252 -1.0997124E-02
         253 -2.8612107E-02
         254 -2.9819483E-02
         255 -8.1751542E-03
         256  2.0485928E-03
         257 -1.2804728E-02
         258 -5.5879403E-02
         259 -3.9868627E-02
         260 -1.0060688E-02
         261  5.2908771E-03
         262 -1.1880987E-02
         263 -8.2402141E-04
         264  6.2245592E-02
         265 -6.0399524E-03
         266 -2.7395007E-03
         267  8.1835117E-04
         268 -1.6116243E-03
         269 -1.0920332E-02
         270 -1.7969972E-04
         271 -3.7353057E-03
         272  3.3358674E-04
         273 -4.7032782E-03
         274 -3.7443303E-02
         275 -8.9948066E-03
         276  2.0300576E-03
         277  2.0647999E-03
         278  7.4941982E-03
         279  4.3583505E-02
         280  9.1816401E-03
         281 -1.6917211E-03
         282  4.2076940E-03
         283  6.7772139E-03
         284  4.1481867E-02
         285 -2.5484294E-05
         286  4.1384427E-03
         287 -4.5589064E-03
         288 -3.3390087E-03
         289 -3.4186710E-02
         290  5.4942560E-03
         291  3.3510628E-03
         292 -2.1766007E-03
         293 -1.2415962E-03
         294 -1.1167160E-02
         295  9.9349208E-03
         296 -6.9160615E-03
         297  1.7951632E-02
         298 -5.6383242E-03
         299  5.9631806E-02
         300 -5.0250841E-03
         301 -7.6116220E-04
         302 -1.9997921E-02
         303 -6.1313853E-02
         304 -3.9182972E-02
         305 -1.0404086E-02
         306  7.0132292E-03
         307 -1.0265409E-02
         308 -2.8944187E-02
         309 -1.2910696E-02
