 [Molden Format]
 [Atoms] Angs
C       1      6     -5.16281405     -9.56119139     -0.29637094
C       2      6     -5.64722108     -8.12971470      0.00203786
C       3      6     -7.15552917     -8.13149960      0.31464226
C       4      6     -4.90238012     -7.60519334      1.21529115
C       5      6     -5.01936897     -8.27314734      2.42722980
C       6      6     -4.38949566     -7.83032257      3.57569260
C       7      6     -3.62990987     -6.67534727      3.52591730
C       8      6     -3.49688480     -5.99206444      2.33510513
C       9      6     -4.10948565     -6.45362591      1.16591201
N      10      7     -3.95024771     -5.74831853     -0.02006058
C      11      6     -3.14372431     -4.58244810     -0.02733682
C      12      6     -1.75638892     -4.69023552      0.03897419
C      13      6     -0.97331839     -3.55454472      0.03411348
C      14      6     -1.56395391     -2.29262240     -0.03342567
C      15      6     -0.73454782     -1.08856375     -0.03118488
N      16      7      0.58751185     -1.24046248     -0.02812798
C      17      6      1.30300211     -0.11823667     -0.02834389
C      18      6      2.76024216     -0.23334373     -0.02305409
C      19      6      3.55553852      0.91225249      0.01286450
C      20      6      4.93046062      0.80459348      0.02352150
C      21      6      5.53383169     -0.45109109     -0.00350418
N      22      7      6.94683660     -0.55785351      0.00898876
C      23      6      7.61047726     -0.93542120     -1.15179650
C      24      6      6.88100906     -1.19337329     -2.31655379
C      25      6      7.51200752     -1.57506410     -3.48222471
C      26      6      8.88960583     -1.69734874     -3.51132493
C      27      6      9.61532427     -1.41586252     -2.36869010
C      28      6      9.00602789     -1.02970283     -1.18193686
C      29      6      9.86790285     -0.70055847      0.02251232
C      30      6     10.79547967      0.47310904     -0.34493956
C      31      6     10.70024199     -1.94265224      0.39302106
C      32      6      9.03094734     -0.30466243      1.22419718
C      33      6      9.66233440      0.01210603      2.41993659
C      34      6      8.95494421      0.34803772      3.55940434
C      35      6      7.57223965      0.35238168      3.51823360
C      36      6      6.91964888      0.04498244      2.34259996
C      37      6      7.63345014     -0.26332866      1.18024862
C      38      6      4.74280989     -1.59737372     -0.04047936
C      39      6      3.36765598     -1.48886436     -0.04947450
N      40      7      0.77331418      1.10271641     -0.02971090
C      41      6     -0.55616406      1.16125134     -0.02684722
C      42      6     -1.18520238      2.48091732     -0.01783861
C      43      6     -2.57358164      2.59738075      0.05264454
C      44      6     -3.16790592      3.84198089      0.06515299
C      45      6     -2.38349221      4.99188783      0.00556914
N      46      7     -2.99542967      6.27018701      0.01788085
C      47      6     -3.02851780      7.01629948     -1.15340887
C      48      6     -2.49220047      6.48396252     -2.32996132
C      49      6     -2.50282953      7.20377207     -3.50651001
C      50      6     -3.06014633      8.46951336     -3.53401579
C      51      6     -3.61785706      8.98590680     -2.37910550
C      52      6     -3.62150903      8.28300691     -1.18128792
C      53      6     -4.27994426      8.89739650      0.03976742
C      54      6     -3.56781426     10.22200934      0.37332611
C      55      6     -5.76441990      9.15593000     -0.27998795
C      56      6     -4.19161464      7.98433590      1.24820404
C      57      6     -4.74079582      8.39651216      2.45539499
C      58      6     -4.66477329      7.62505705      3.60029869
C      59      6     -4.00544712      6.40992460      3.55252485
C      60      6     -3.45209163      5.97548957      2.36609796
C      61      6     -3.55483109      6.73969374      1.19952208
C      62      6     -0.99669055      4.87956868     -0.06572807
C      63      6     -0.40296647      3.63447075     -0.07615165
N      64      7     -1.34869979      0.09202741     -0.02930341
C      65      6     -2.95338942     -2.18882552     -0.10129014
C      66      6     -3.73692998     -3.32399300     -0.09980465
C      67      6     -4.57219893     -6.14626943     -1.19641252
C      68      6     -4.34070031     -5.43390161     -2.37722167
C      69      6     -4.94936228     -5.79965094     -3.55974496
C      70      6     -5.79658059     -6.89281847     -3.58853798
C      71      6     -6.00467247     -7.61557236     -2.42833551
C      72      6     -5.40311418     -7.27125957     -1.22489750
H      73      1     -5.33381940    -10.21347770      0.55536854
H      74      1     -5.68511585     -9.97672983     -1.15350088
H      75      1     -4.09618863     -9.55373436     -0.51478012
H      76      1     -7.72502820     -8.51536376     -0.52711965
H      77      1     -7.37156201     -8.74938417      1.18169387
H      78      1     -7.49189241     -7.11722988      0.52340785
H      79      1     -5.62237509     -9.16661663      2.48352755
H      80      1     -4.49955214     -8.37644077      4.50049557
H      81      1     -3.14265765     -6.29952113      4.41371124
H      82      1     -2.91448882     -5.08386495      2.31058605
H      83      1     -1.30369833     -5.66917384      0.09475907
H      84      1      0.10181707     -3.62435376      0.08095567
H      85      1      3.07621359      1.87814866      0.02956589
H      86      1      5.55034829      1.68842450      0.05388055
H      87      1      5.80725654     -1.08622040     -2.30988593
H      88      1      6.92406101     -1.77185048     -4.36678611
H      89      1      9.39591558     -1.99771600     -4.41635538
H      90      1     10.69076811     -1.49818900     -2.40924735
H      91      1     11.42428230      0.21942184     -1.19375906
H      92      1     10.20174436      1.34752358     -0.60664453
H      93      1     11.43937801      0.73326477      0.49056107
H      94      1     11.34739395     -1.73740204      1.24100168
H      95      1     10.03896789     -2.76619857      0.65732308
H      96      1     11.32210486     -2.25570627     -0.44087169
H      97      1     10.74038931     -0.00425651      2.47005176
H      98      1      9.47855970      0.59228414      4.47143669
H      99      1      6.99692020      0.59089480      4.40080611
H     100      1      5.84058948      0.03718474      2.32496585
H     101      1      5.21695347     -2.56751077     -0.06042677
H     102      1      2.74424866     -2.36854233     -0.07282773
H     103      1     -3.16976630      1.69969052      0.09462215
H     104      1     -4.24224507      3.93684544      0.12138246
H     105      1     -2.06828942      5.49159901     -2.32259272
H     106      1     -2.07820545      6.77100544     -4.40055412
H     107      1     -3.07155977      9.04537575     -4.44714187
H     108      1     -4.06476158      9.96763182     -2.41846437
H     109      1     -4.02436325     10.70195800      1.23436130
H     110      1     -2.52020855     10.03231051      0.60132747
H     111      1     -3.61709666     10.91028272     -0.46577708
H     112      1     -6.26363220      8.21584623     -0.50908670
H     113      1     -6.26844264      9.61480470      0.56594141
H     114      1     -5.86778171      9.81619198     -1.13645878
H     115      1     -5.24263807      9.35051295      2.51090361
H     116      1     -5.10619488      7.97530745      4.52120239
H     117      1     -3.91575547      5.79840261      4.43847950
H     118      1     -2.92727856      5.03278141      2.34254725
H     119      1     -0.39463385      5.77494190     -0.11278279
H     120      1      0.66964610      3.53446185     -0.12625788
H     121      1     -3.40052556     -1.20874959     -0.15156004
H     122      1     -4.81287933     -3.24830036     -0.15356899
H     123      1     -3.67101797     -4.58758279     -2.36779866
H     124      1     -4.75598345     -5.23063421     -4.45736477
H     125      1     -6.28252464     -7.18767389     -4.50646687
H     126      1     -6.65543945     -8.47577585     -2.46801292
 [GTO]
           1   0
s              4   1.000000
     37.02610632     -0.01198412
      6.37620189     -0.05472052
      0.51235503      0.58055871
      0.19527118      0.47700799
p              4   1.000000
      5.96772433      0.05713170
      1.54734181      0.28574555
      0.54548587      0.55178731
      0.21716732      0.26323149
s              7   1.000000
      0.38350848     -0.19441640
      0.04707223      0.93934860
      0.02222627      0.24668720
     37.02610632      0.00521704
      6.37620189      0.02382146
      0.51235503     -0.25273432
      0.19527118     -0.20765564
p              7   1.000000
      1.83062075     -0.01151068
      0.10124670      0.56565269
      0.03901771      0.59074022
      5.96772433     -0.02389247
      1.54734181     -0.11949877
      0.54548587     -0.23075741
      0.21716732     -0.11008339
 
           2   0
s              4   1.000000
     37.10339907     -0.01198412
      6.38951234     -0.05472053
      0.51342458      0.58055871
      0.19567882      0.47700799
p              4   1.000000
      5.98018207      0.05713170
      1.55057191      0.28574555
      0.54662458      0.55178731
      0.21762066      0.26323149
s              7   1.000000
      0.38350848     -0.19435452
      0.04707223      0.93904959
      0.02222627      0.24660869
     37.10339907      0.00520661
      6.38951234      0.02377382
      0.51342458     -0.25222894
      0.19567882     -0.20724040
p              7   1.000000
      1.83062075     -0.01150725
      0.10124670      0.56548368
      0.03901771      0.59056371
      5.98018207     -0.02384448
      1.55057191     -0.11925870
      0.54662458     -0.23029383
      0.21762066     -0.10986224
 
           3   0
s              4   1.000000
     37.02563112     -0.01198412
      6.37612005     -0.05472052
      0.51234845      0.58055871
      0.19526868      0.47700799
p              4   1.000000
      5.96764774      0.05713170
      1.54732195      0.28574555
      0.54547887      0.55178731
      0.21716454      0.26323149
s              7   1.000000
      0.38350848     -0.19441678
      0.04707223      0.93935045
      0.02222627      0.24668769
     37.02563112      0.00521710
      6.37612005      0.02382175
      0.51234845     -0.25273744
      0.19526868     -0.20765820
p              7   1.000000
      1.83062075     -0.01151071
      0.10124670      0.56565373
      0.03901771      0.59074131
      5.96764774     -0.02389277
      1.54732195     -0.11950025
      0.54547887     -0.23076027
      0.21716454     -0.11008475
 
           4   0
s              4   1.000000
     35.25632895     -0.01198412
      6.07143158     -0.05472052
      0.48786543      0.58055871
      0.18593759      0.47700800
p              4   1.000000
      5.68247847      0.05713170
      1.47338181      0.28574555
      0.51941268      0.55178731
      0.20678714      0.26323149
s              7   1.000000
      0.38350848     -0.19593361
      0.04707223      0.94667920
      0.02222627      0.24861234
     35.25632895      0.00546757
      6.07143158      0.02496539
      0.48786543     -0.26487089
      0.18593759     -0.21762748
p              7   1.000000
      1.83062075     -0.01159501
      0.10124670      0.56979671
      0.03901771      0.59506803
      5.68247847     -0.02504487
      1.47338181     -0.12526250
      0.51941268     -0.24188744
      0.20678714     -0.11539300
 
           5   0
s              4   1.000000
     35.03444252     -0.01198412
      6.03322090     -0.05472053
      0.48479504      0.58055871
      0.18476739      0.47700800
p              4   1.000000
      5.64671567      0.05713170
      1.46410905      0.28574555
      0.51614375      0.55178731
      0.20548572      0.26323149
s              7   1.000000
      0.38350848     -0.19613834
      0.04707223      0.94766840
      0.02222627      0.24887210
     35.03444252      0.00550064
      6.03322090      0.02511642
      0.48479504     -0.26647330
      0.18476739     -0.21894409
p              7   1.000000
      1.83062075     -0.01160639
      0.10124670      0.57035597
      0.03901771      0.59565210
      5.64671567     -0.02519698
      1.46410905     -0.12602329
      0.51614375     -0.24335656
      0.20548572     -0.11609385
 
           6   0
s              4   1.000000
     34.91074179     -0.01198412
      6.01191861     -0.05472053
      0.48308331      0.58055871
      0.18411501      0.47700799
p              4   1.000000
      5.62677807      0.05713170
      1.45893953      0.28574555
      0.51432133      0.55178731
      0.20476019      0.26323149
s              7   1.000000
      0.38350848     -0.19625399
      0.04707223      0.94822715
      0.02222627      0.24901884
     34.91074179      0.00551926
      6.01191861      0.02520141
      0.48308331     -0.26737492
      0.18411501     -0.21968489
p              7   1.000000
      1.83062075     -0.01161282
      0.10124670      0.57067187
      0.03901771      0.59598201
      5.62677807     -0.02528256
      1.45893953     -0.12645134
      0.51432133     -0.24418313
      0.20476019     -0.11648816
 
           7   0
s              4   1.000000
     34.91885427     -0.01198412
      6.01331565     -0.05472052
      0.48319557      0.58055871
      0.18415779      0.47700799
p              4   1.000000
      5.62808561      0.05713170
      1.45927856      0.28574555
      0.51444085      0.55178731
      0.20480777      0.26323149
s              7   1.000000
      0.38350848     -0.19624637
      0.04707223      0.94819034
      0.02222627      0.24900918
     34.91885427      0.00551803
      6.01331565      0.02519582
      0.48319557     -0.26731561
      0.18415779     -0.21963615
p              7   1.000000
      1.83062075     -0.01161240
      0.10124670      0.57065106
      0.03901771      0.59596029
      5.62808561     -0.02527693
      1.45927856     -0.12642318
      0.51444085     -0.24412875
      0.20480777     -0.11646222
 
           8   0
s              4   1.000000
     35.04127616     -0.01198412
      6.03439771     -0.05472052
      0.48488960      0.58055871
      0.18480343      0.47700799
p              4   1.000000
      5.64781709      0.05713170
      1.46439464      0.28574555
      0.51624443      0.55178731
      0.20552580      0.26323149
s              7   1.000000
      0.38350848     -0.19613199
      0.04707223      0.94763767
      0.02222627      0.24886403
     35.04127616      0.00549962
      6.03439771      0.02511175
      0.48488960     -0.26642367
      0.18480343     -0.21890330
p              7   1.000000
      1.83062075     -0.01160604
      0.10124670      0.57033860
      0.03901771      0.59563397
      5.64781709     -0.02519227
      1.46439464     -0.12599973
      0.51624443     -0.24331105
      0.20552580     -0.11607214
 
           9   0
s              4   1.000000
     35.25725502     -0.01198412
      6.07159106     -0.05472053
      0.48787825      0.58055871
      0.18594248      0.47700799
p              4   1.000000
      5.68262773      0.05713170
      1.47342051      0.28574555
      0.51942633      0.55178731
      0.20679257      0.26323149
s              7   1.000000
      0.38350848     -0.19593276
      0.04707223      0.94667511
      0.02222627      0.24861124
     35.25725502      0.00546743
      6.07159106      0.02496476
      0.48787825     -0.26486424
      0.18594248     -0.21762202
p              7   1.000000
      1.83062075     -0.01159497
      0.10124670      0.56979440
      0.03901771      0.59506561
      5.68262773     -0.02504424
      1.47342051     -0.12525935
      0.51942633     -0.24188135
      0.20679257     -0.11539009
 
          10   0
s              4   1.000000
     61.18877424     -0.01198412
     10.53721324     -0.05472053
      0.84671005      0.58055871
      0.32270216      0.47700799
p              4   1.000000
      7.21244173      0.05713170
      1.87007844      0.28574555
      0.65926052      0.55178731
      0.26246297      0.26323149
s              7   1.000000
      0.47894987     -0.18778677
      0.05878681      0.90731667
      0.02775758      0.23827513
     61.18877424      0.00397052
     10.53721324      0.01812975
      0.84671005     -0.19234800
      0.32270216     -0.15804006
p              7   1.000000
      2.28619608     -0.01156638
      0.12644335      0.56838953
      0.04872781      0.59359842
      7.21244173     -0.02465866
      1.87007844     -0.12333086
      0.65926052     -0.23815734
      0.26246297     -0.11361355
 
          11   0
s              4   1.000000
     35.23761125     -0.01198412
      6.06820824     -0.05472052
      0.48760642      0.58055871
      0.18583888      0.47700799
p              4   1.000000
      5.67946162      0.05713170
      1.47259959      0.28574555
      0.51913692      0.55178731
      0.20667736      0.26323149
s              7   1.000000
      0.38350848     -0.19595075
      0.04707223      0.94676201
      0.02222627      0.24863408
     35.23761125      0.00547034
      6.06820824      0.02497806
      0.48760642     -0.26500534
      0.18583888     -0.21773795
p              7   1.000000
      1.83062075     -0.01159597
      0.10124670      0.56984353
      0.03901771      0.59511690
      5.67946162     -0.02505763
      1.47259959     -0.12532634
      0.51913692     -0.24201071
      0.20667736     -0.11545180
 
          12   0
s              4   1.000000
     35.00224522     -0.01198412
      6.02767626     -0.05472052
      0.48434951      0.58055871
      0.18459759      0.47700799
p              4   1.000000
      5.64152624      0.05713170
      1.46276351      0.28574555
      0.51566940      0.55178731
      0.20529687      0.26323149
s              7   1.000000
      0.38350848     -0.19616834
      0.04707223      0.94781332
      0.02222627      0.24891017
     35.00224522      0.00550548
      6.02767626      0.02513849
      0.48434951     -0.26670741
      0.18459759     -0.21913643
p              7   1.000000
      1.83062075     -0.01160806
      0.10124670      0.57043790
      0.03901771      0.59573766
      5.64152624     -0.02521920
      1.46276351     -0.12613443
      0.51566940     -0.24357118
      0.20529687     -0.11619623
 
          13   0
s              4   1.000000
     35.01714747     -0.01198412
      6.03024255     -0.05472053
      0.48455572      0.58055871
      0.18467618      0.47700799
p              4   1.000000
      5.64392813      0.05713170
      1.46338628      0.28574555
      0.51588895      0.55178731
      0.20538428      0.26323149
s              7   1.000000
      0.38350848     -0.19615445
      0.04707223      0.94774620
      0.02222627      0.24889255
     35.01714747      0.00550324
      6.03024255      0.02512827
      0.48455572     -0.26659900
      0.18467618     -0.21904737
p              7   1.000000
      1.83062075     -0.01160729
      0.10124670      0.57039996
      0.03901771      0.59569801
      5.64392813     -0.02520891
      1.46338628     -0.12608297
      0.51588895     -0.24347180
      0.20538428     -0.11614882
 
          14   0
s              4   1.000000
     35.12860273     -0.01198412
      6.04943607     -0.05472053
      0.48609800      0.58055871
      0.18526398      0.47700799
p              4   1.000000
      5.66189205      0.05713170
      1.46804406      0.28574555
      0.51753096      0.55178731
      0.20603799      0.26323149
s              7   1.000000
      0.38350848     -0.19605104
      0.04707223      0.94724659
      0.02222627      0.24876134
     35.12860273      0.00548656
      6.04943607      0.02505211
      0.48609800     -0.26579098
      0.18526398     -0.21838347
p              7   1.000000
      1.83062075     -0.01160154
      0.10124670      0.57011749
      0.03901771      0.59540305
      5.66189205     -0.02513221
      1.46804406     -0.12569935
      0.51753096     -0.24273101
      0.20603799     -0.11579543
 
          15   0
s              4   1.000000
     35.43370422     -0.01198412
      6.10197707     -0.05472052
      0.49031989      0.58055871
      0.18687305      0.47700799
p              4   1.000000
      5.71106713      0.05713170
      1.48079443      0.28574555
      0.52202586      0.55178731
      0.20782749      0.26323149
s              7   1.000000
      0.38350848     -0.19577240
      0.04707223      0.94590028
      0.02222627      0.24840776
     35.43370422      0.00544140
      6.10197707      0.02484593
      0.49031989     -0.26360344
      0.18687305     -0.21658610
p              7   1.000000
      1.83062075     -0.01158605
      0.10124670      0.56935635
      0.03901771      0.59460813
      5.71106713     -0.02492455
      1.48079443     -0.12466072
      0.52202586     -0.24072536
      0.20782749     -0.11483863
 
          16   0
s              4   1.000000
     57.32575379     -0.01198412
      9.87196915     -0.05472052
      0.79325484      0.58055871
      0.30232906      0.47700799
p              4   1.000000
      6.75709987      0.05713170
      1.75201510      0.28574555
      0.61763954      0.55178731
      0.24589294      0.26323149
s              7   1.000000
      0.47894987     -0.18905907
      0.05878681      0.91346396
      0.02775758      0.23988950
     57.32575379      0.00423463
      9.87196915      0.01933569
      0.79325484     -0.20514248
      0.30232906     -0.16855246
p              7   1.000000
      2.28619608     -0.01168661
      0.12644335      0.57429800
      0.04872781      0.59976896
      6.75709987     -0.02624822
      1.75201510     -0.13128109
      0.61763954     -0.25350960
      0.24589294     -0.12093738
 
          17   0
s              4   1.000000
     35.43384350     -0.01198412
      6.10200105     -0.05472052
      0.49032182      0.58055871
      0.18687378      0.47700800
p              4   1.000000
      5.71108958      0.05713170
      1.48080025      0.28574555
      0.52202791      0.55178731
      0.20782831      0.26323149
s              7   1.000000
      0.38350848     -0.19577227
      0.04707223      0.94589967
      0.02222627      0.24840762
     35.43384350      0.00544138
      6.10200105      0.02484583
      0.49032182     -0.26360245
      0.18687378     -0.21658529
p              7   1.000000
      1.83062075     -0.01158605
      0.10124670      0.56935601
      0.03901771      0.59460777
      5.71108958     -0.02492445
      1.48080025     -0.12466025
      0.52202791     -0.24072445
      0.20782831     -0.11483819
 
          18   0
s              4   1.000000
     35.12867902     -0.01198412
      6.04944921     -0.05472053
      0.48609906      0.58055871
      0.18526438      0.47700799
p              4   1.000000
      5.66190435      0.05713170
      1.46804725      0.28574555
      0.51753209      0.55178731
      0.20603844      0.26323149
s              7   1.000000
      0.38350848     -0.19605097
      0.04707223      0.94724624
      0.02222627      0.24876124
     35.12867902      0.00548655
      6.04944921      0.02505206
      0.48609906     -0.26579043
      0.18526438     -0.21838301
p              7   1.000000
      1.83062075     -0.01160154
      0.10124670      0.57011730
      0.03901771      0.59540285
      5.66190435     -0.02513216
      1.46804725     -0.12569909
      0.51753209     -0.24273050
      0.20603844     -0.11579518
 
          19   0
s              4   1.000000
     35.01750907     -0.01198412
      6.03030482     -0.05472052
      0.48456072      0.58055871
      0.18467808      0.47700800
p              4   1.000000
      5.64398641      0.05713170
      1.46340140      0.28574555
      0.51589428      0.55178731
      0.20538640      0.26323149
s              7   1.000000
      0.38350848     -0.19615411
      0.04707223      0.94774457
      0.02222627      0.24889211
     35.01750907      0.00550319
      6.03030482      0.02512802
      0.48456072     -0.26659637
      0.18467808     -0.21904520
p              7   1.000000
      1.83062075     -0.01160727
      0.10124670      0.57039904
      0.03901771      0.59569708
      5.64398641     -0.02520866
      1.46340140     -0.12608172
      0.51589428     -0.24346938
      0.20538640     -0.11614767
 
          20   0
s              4   1.000000
     35.00417651     -0.01198412
      6.02800884     -0.05472053
      0.48437623      0.58055871
      0.18460777      0.47700800
p              4   1.000000
      5.64183752      0.05713170
      1.46284422      0.28574555
      0.51569786      0.55178731
      0.20530820      0.26323149
s              7   1.000000
      0.38350848     -0.19616654
      0.04707223      0.94780462
      0.02222627      0.24890788
     35.00417651      0.00550519
      6.02800884      0.02513717
      0.48437623     -0.26669335
      0.18460777     -0.21912489
p              7   1.000000
      1.83062075     -0.01160796
      0.10124670      0.57043299
      0.03901771      0.59573252
      5.64183752     -0.02521787
      1.46284422     -0.12612776
      0.51569786     -0.24355829
      0.20530820     -0.11619008
 
          21   0
s              4   1.000000
     35.23704321     -0.01198412
      6.06811041     -0.05472052
      0.48759856      0.58055871
      0.18583588      0.47700799
p              4   1.000000
      5.67937007      0.05713170
      1.47257585      0.28574555
      0.51912856      0.55178731
      0.20667402      0.26323149
s              7   1.000000
      0.38350848     -0.19595127
      0.04707223      0.94676452
      0.02222627      0.24863474
     35.23704321      0.00547043
      6.06811041      0.02497845
      0.48759856     -0.26500942
      0.18583588     -0.21774130
p              7   1.000000
      1.83062075     -0.01159599
      0.10124670      0.56984495
      0.03901771      0.59511840
      5.67937007     -0.02505802
      1.47257585     -0.12532828
      0.51912856     -0.24201445
      0.20667402     -0.11545359
 
          22   0
s              4   1.000000
     61.18735814     -0.01198412
     10.53696937     -0.05472053
      0.84669045      0.58055871
      0.32269469      0.47700799
p              4   1.000000
      7.21227481      0.05713170
      1.87003516      0.28574555
      0.65924526      0.55178731
      0.26245690      0.26323149
s              7   1.000000
      0.47894987     -0.18778720
      0.05878681      0.90731872
      0.02775758      0.23827568
     61.18735814      0.00397061
     10.53696937      0.01813016
      0.84669045     -0.19235242
      0.32269469     -0.15804369
p              7   1.000000
      2.28619608     -0.01156642
      0.12644335      0.56839152
      0.04872781      0.59360051
      7.21227481     -0.02465921
      1.87003516     -0.12333360
      0.65924526     -0.23816264
      0.26245690     -0.11361608
 
          23   0
s              4   1.000000
     35.25539407     -0.01198412
      6.07127059     -0.05472052
      0.48785250      0.58055871
      0.18593266      0.47700799
p              4   1.000000
      5.68232779      0.05713170
      1.47334275      0.28574555
      0.51939891      0.55178731
      0.20678166      0.26323149
s              7   1.000000
      0.38350848     -0.19593447
      0.04707223      0.94668333
      0.02222627      0.24861341
     35.25539407      0.00546771
      6.07127059      0.02496602
      0.48785250     -0.26487760
      0.18593266     -0.21763300
p              7   1.000000
      1.83062075     -0.01159506
      0.10124670      0.56979905
      0.03901771      0.59507046
      5.68232779     -0.02504551
      1.47334275     -0.12526569
      0.51939891     -0.24189360
      0.20678166     -0.11539594
 
          24   0
s              4   1.000000
     35.04069629     -0.01198412
      6.03429785     -0.05472052
      0.48488158      0.58055871
      0.18480037      0.47700799
p              4   1.000000
      5.64772363      0.05713170
      1.46437040      0.28574555
      0.51623588      0.55178731
      0.20552240      0.26323149
s              7   1.000000
      0.38350848     -0.19613253
      0.04707223      0.94764028
      0.02222627      0.24886472
     35.04069629      0.00549971
      6.03429785      0.02511214
      0.48488158     -0.26642788
      0.18480037     -0.21890676
p              7   1.000000
      1.83062075     -0.01160607
      0.10124670      0.57034007
      0.03901771      0.59563551
      5.64772363     -0.02519267
      1.46437040     -0.12600173
      0.51623588     -0.24331491
      0.20552240     -0.11607398
 
          25   0
s              4   1.000000
     34.91900354     -0.01198412
      6.01334135     -0.05472052
      0.48319764      0.58055871
      0.18415858      0.47700799
p              4   1.000000
      5.62810967      0.05713170
      1.45928480      0.28574555
      0.51444305      0.55178731
      0.20480864      0.26323149
s              7   1.000000
      0.38350848     -0.19624623
      0.04707223      0.94818966
      0.02222627      0.24900899
     34.91900354      0.00551801
      6.01334135      0.02519571
      0.48319764     -0.26731452
      0.18415858     -0.21963526
p              7   1.000000
      1.83062075     -0.01161239
      0.10124670      0.57065068
      0.03901771      0.59595989
      5.62810967     -0.02527683
      1.45928480     -0.12642266
      0.51444305     -0.24412775
      0.20480864     -0.11646175
 
          26   0
s              4   1.000000
     34.91051223     -0.01198412
      6.01187908     -0.05472052
      0.48308014      0.58055871
      0.18411380      0.47700799
p              4   1.000000
      5.62674107      0.05713170
      1.45892994      0.28574555
      0.51431795      0.55178731
      0.20475884      0.26323149
s              7   1.000000
      0.38350848     -0.19625420
      0.04707223      0.94822819
      0.02222627      0.24901913
     34.91051223      0.00551929
      6.01187908      0.02520156
      0.48308014     -0.26737660
      0.18411380     -0.21968627
p              7   1.000000
      1.83062075     -0.01161283
      0.10124670      0.57067246
      0.03901771      0.59598262
      5.62674107     -0.02528272
      1.45892994     -0.12645213
      0.51431795     -0.24418467
      0.20475884     -0.11648890
 
          27   0
s              4   1.000000
     35.03473525     -0.01198412
      6.03327131     -0.05472052
      0.48479909      0.58055871
      0.18476893      0.47700799
p              4   1.000000
      5.64676285      0.05713170
      1.46412129      0.28574555
      0.51614806      0.55178731
      0.20548744      0.26323149
s              7   1.000000
      0.38350848     -0.19613807
      0.04707223      0.94766708
      0.02222627      0.24887176
     35.03473525      0.00550060
      6.03327131      0.02511622
      0.48479909     -0.26647118
      0.18476893     -0.21894234
p              7   1.000000
      1.83062075     -0.01160638
      0.10124670      0.57035522
      0.03901771      0.59565133
      5.64676285     -0.02519678
      1.46412129     -0.12602228
      0.51614806     -0.24335461
      0.20548744     -0.11609291
 
          28   0
s              4   1.000000
     35.25649131     -0.01198412
      6.07145954     -0.05472052
      0.48786768      0.58055871
      0.18593845      0.47700799
p              4   1.000000
      5.68250464      0.05713170
      1.47338860      0.28574555
      0.51941507      0.55178731
      0.20678809      0.26323149
s              7   1.000000
      0.38350848     -0.19593346
      0.04707223      0.94667848
      0.02222627      0.24861214
     35.25649131      0.00546754
      6.07145954      0.02496528
      0.48786768     -0.26486972
      0.18593845     -0.21762652
p              7   1.000000
      1.83062075     -0.01159500
      0.10124670      0.56979631
      0.03901771      0.59506759
      5.68250464     -0.02504476
      1.47338860     -0.12526195
      0.51941507     -0.24188637
      0.20678809     -0.11539249
 
          29   0
s              4   1.000000
     37.10375349     -0.01198412
      6.38957337     -0.05472053
      0.51342948      0.58055871
      0.19568068      0.47700799
p              4   1.000000
      5.98023920      0.05713170
      1.55058672      0.28574555
      0.54662980      0.55178731
      0.21762274      0.26323149
s              7   1.000000
      0.38350848     -0.19435423
      0.04707223      0.93904823
      0.02222627      0.24660832
     37.10375349      0.00520656
      6.38957337      0.02377361
      0.51342948     -0.25222663
      0.19568068     -0.20723850
p              7   1.000000
      1.83062075     -0.01150723
      0.10124670      0.56548290
      0.03901771      0.59056290
      5.98023920     -0.02384426
      1.55058672     -0.11925760
      0.54662980     -0.23029171
      0.21762274     -0.10986123
 
          30   0
s              4   1.000000
     37.02569807     -0.01198412
      6.37613158     -0.05472052
      0.51234938      0.58055871
      0.19526903      0.47700799
p              4   1.000000
      5.96765853      0.05713170
      1.54732474      0.28574555
      0.54547985      0.55178731
      0.21716493      0.26323149
s              7   1.000000
      0.38350848     -0.19441673
      0.04707223      0.93935018
      0.02222627      0.24668761
     37.02569807      0.00521709
      6.37613158      0.02382171
      0.51234938     -0.25273700
      0.19526903     -0.20765784
p              7   1.000000
      1.83062075     -0.01151070
      0.10124670      0.56565358
      0.03901771      0.59074115
      5.96765853     -0.02389273
      1.54732474     -0.11950004
      0.54547985     -0.23075987
      0.21716493     -0.11008456
 
          31   0
s              4   1.000000
     37.02613329     -0.01198412
      6.37620653     -0.05472053
      0.51235540      0.58055871
      0.19527132      0.47700799
p              4   1.000000
      5.96772867      0.05713170
      1.54734293      0.28574555
      0.54548627      0.55178731
      0.21716748      0.26323149
s              7   1.000000
      0.38350848     -0.19441638
      0.04707223      0.93934850
      0.02222627      0.24668717
     37.02613329      0.00521704
      6.37620653      0.02382144
      0.51235540     -0.25273415
      0.19527132     -0.20765549
p              7   1.000000
      1.83062075     -0.01151068
      0.10124670      0.56565263
      0.03901771      0.59074013
      5.96772867     -0.02389246
      1.54734293     -0.11949869
      0.54548627     -0.23075725
      0.21716748     -0.11008331
 
          32   0
s              4   1.000000
     35.25645678     -0.01198412
      6.07145359     -0.05472052
      0.48786720      0.58055871
      0.18593827      0.47700800
p              4   1.000000
      5.68249907      0.05713170
      1.47338716      0.28574555
      0.51941457      0.55178731
      0.20678789      0.26323149
s              7   1.000000
      0.38350848     -0.19593349
      0.04707223      0.94667863
      0.02222627      0.24861217
     35.25645678      0.00546755
      6.07145359      0.02496530
      0.48786720     -0.26486997
      0.18593827     -0.21762673
p              7   1.000000
      1.83062075     -0.01159501
      0.10124670      0.56979639
      0.03901771      0.59506771
      5.68249907     -0.02504478
      1.47338716     -0.12526207
      0.51941457     -0.24188660
      0.20678789     -0.11539260
 
          33   0
s              4   1.000000
     35.03442747     -0.01198412
      6.03321831     -0.05472052
      0.48479483      0.58055871
      0.18476731      0.47700799
p              4   1.000000
      5.64671325      0.05713170
      1.46410843      0.28574555
      0.51614353      0.55178731
      0.20548563      0.26323149
s              7   1.000000
      0.38350848     -0.19613836
      0.04707223      0.94766847
      0.02222627      0.24887213
     35.03442747      0.00550065
      6.03321831      0.02511643
      0.48479483     -0.26647341
      0.18476731     -0.21894418
p              7   1.000000
      1.83062075     -0.01160639
      0.10124670      0.57035601
      0.03901771      0.59565214
      5.64671325     -0.02519699
      1.46410843     -0.12602334
      0.51614353     -0.24335666
      0.20548563     -0.11609389
 
          34   0
s              4   1.000000
     34.91079266     -0.01198412
      6.01192737     -0.05472052
      0.48308402      0.58055871
      0.18411528      0.47700799
p              4   1.000000
      5.62678627      0.05713170
      1.45894166      0.28574555
      0.51432208      0.55178731
      0.20476048      0.26323149
s              7   1.000000
      0.38350848     -0.19625394
      0.04707223      0.94822691
      0.02222627      0.24901879
     34.91079266      0.00551925
      6.01192737      0.02520137
      0.48308402     -0.26737455
      0.18411528     -0.21968458
p              7   1.000000
      1.83062075     -0.01161282
      0.10124670      0.57067174
      0.03901771      0.59598185
      5.62678627     -0.02528253
      1.45894166     -0.12645116
      0.51432208     -0.24418279
      0.20476048     -0.11648800
 
          35   0
s              4   1.000000
     34.91887334     -0.01198412
      6.01331893     -0.05472052
      0.48319583      0.58055871
      0.18415789      0.47700800
p              4   1.000000
      5.62808868      0.05713170
      1.45927935      0.28574555
      0.51444113      0.55178730
      0.20480788      0.26323149
s              7   1.000000
      0.38350848     -0.19624635
      0.04707223      0.94819026
      0.02222627      0.24900916
     34.91887334      0.00551803
      6.01331893      0.02519580
      0.48319583     -0.26731547
      0.18415789     -0.21963604
p              7   1.000000
      1.83062075     -0.01161240
      0.10124670      0.57065102
      0.03901771      0.59596021
      5.62808868     -0.02527692
      1.45927935     -0.12642311
      0.51444113     -0.24412863
      0.20480788     -0.11646216
 
          36   0
s              4   1.000000
     35.04231173     -0.01198412
      6.03457604     -0.05472052
      0.48490393      0.58055871
      0.18480889      0.47700799
p              4   1.000000
      5.64798400      0.05713170
      1.46443791      0.28574555
      0.51625968      0.55178731
      0.20553188      0.26323149
s              7   1.000000
      0.38350848     -0.19613102
      0.04707223      0.94763302
      0.02222627      0.24886281
     35.04231173      0.00549947
      6.03457604      0.02511104
      0.48490393     -0.26641615
      0.18480889     -0.21889712
p              7   1.000000
      1.83062075     -0.01160599
      0.10124670      0.57033597
      0.03901771      0.59563122
      5.64798400     -0.02519156
      1.46443791     -0.12599616
      0.51625968     -0.24330416
      0.20553188     -0.11606885
 
          37   0
s              4   1.000000
     35.25955495     -0.01198412
      6.07198712     -0.05472053
      0.48791007      0.58055871
      0.18595461      0.47700799
p              4   1.000000
      5.68299842      0.05713170
      1.47351663      0.28574555
      0.51946021      0.55178731
      0.20680606      0.26323149
s              7   1.000000
      0.38350848     -0.19593066
      0.04707223      0.94666494
      0.02222627      0.24860859
     35.25955495      0.00546709
      6.07198712      0.02496321
      0.48791007     -0.26484773
      0.18595461     -0.21760846
p              7   1.000000
      1.83062075     -0.01159485
      0.10124670      0.56978865
      0.03901771      0.59505962
      5.68299842     -0.02504267
      1.47351663     -0.12525151
      0.51946021     -0.24186621
      0.20680606     -0.11538287
 
          38   0
s              4   1.000000
     35.00203813     -0.01198412
      6.02764060     -0.05472053
      0.48434664      0.58055871
      0.18459649      0.47700800
p              4   1.000000
      5.64149286      0.05713170
      1.46275486      0.28574555
      0.51566635      0.55178731
      0.20529566      0.26323149
s              7   1.000000
      0.38350848     -0.19616853
      0.04707223      0.94781425
      0.02222627      0.24891042
     35.00203813      0.00550551
      6.02764060      0.02513863
      0.48434664     -0.26670891
      0.18459649     -0.21913767
p              7   1.000000
      1.83062075     -0.01160807
      0.10124670      0.57043843
      0.03901771      0.59573823
      5.64149286     -0.02521935
      1.46275486     -0.12613515
      0.51566635     -0.24357256
      0.20529566     -0.11619688
 
          39   0
s              4   1.000000
     35.01715946     -0.01198412
      6.03024461     -0.05472052
      0.48455589      0.58055871
      0.18467624      0.47700799
p              4   1.000000
      5.64393006      0.05713170
      1.46338679      0.28574555
      0.51588913      0.55178730
      0.20538435      0.26323149
s              7   1.000000
      0.38350848     -0.19615444
      0.04707223      0.94774615
      0.02222627      0.24889253
     35.01715946      0.00550324
      6.03024461      0.02512826
      0.48455589     -0.26659892
      0.18467624     -0.21904729
p              7   1.000000
      1.83062075     -0.01160729
      0.10124670      0.57039992
      0.03901771      0.59569801
      5.64393006     -0.02520890
      1.46338679     -0.12608293
      0.51588913     -0.24347171
      0.20538435     -0.11614878
 
          40   0
s              4   1.000000
     57.32656777     -0.01198412
      9.87210933     -0.05472053
      0.79326611      0.58055871
      0.30233335      0.47700800
p              4   1.000000
      6.75719582      0.05713170
      1.75203997      0.28574555
      0.61764831      0.55178731
      0.24589643      0.26323149
s              7   1.000000
      0.47894987     -0.18905878
      0.05878681      0.91346255
      0.02775758      0.23988913
     57.32656777      0.00423457
      9.87210933      0.01933542
      0.79326611     -0.20513961
      0.30233335     -0.16855011
p              7   1.000000
      2.28619608     -0.01168658
      0.12644335      0.57429664
      0.04872781      0.59976752
      6.75719582     -0.02624786
      1.75203997     -0.13127931
      0.61764831     -0.25350616
      0.24589643     -0.12093574
 
          41   0
s              4   1.000000
     35.43349811     -0.01198412
      6.10194157     -0.05472052
      0.49031704      0.58055871
      0.18687196      0.47700799
p              4   1.000000
      5.71103391      0.05713170
      1.48078581      0.28574555
      0.52202282      0.55178731
      0.20782628      0.26323149
s              7   1.000000
      0.38350848     -0.19577258
      0.04707223      0.94590118
      0.02222627      0.24840801
     35.43349811      0.00544143
      6.10194157      0.02484606
      0.49031704     -0.26360491
      0.18687196     -0.21658731
p              7   1.000000
      1.83062075     -0.01158606
      0.10124670      0.56935685
      0.03901771      0.59460866
      5.71103391     -0.02492469
      1.48078581     -0.12466141
      0.52202282     -0.24072671
      0.20782628     -0.11483927
 
          42   0
s              4   1.000000
     35.12837810     -0.01198412
      6.04939738     -0.05472052
      0.48609489      0.58055871
      0.18526280      0.47700799
p              4   1.000000
      5.66185585      0.05713170
      1.46803468      0.28574555
      0.51752765      0.55178731
      0.20603668      0.26323149
s              7   1.000000
      0.38350848     -0.19605125
      0.04707223      0.94724759
      0.02222627      0.24876159
     35.12837810      0.00548659
      6.04939738      0.02505227
      0.48609489     -0.26579261
      0.18526280     -0.21838480
p              7   1.000000
      1.83062075     -0.01160155
      0.10124670      0.57011806
      0.03901771      0.59540362
      5.66185585     -0.02513237
      1.46803468     -0.12570012
      0.51752765     -0.24273250
      0.20603668     -0.11579613
 
          43   0
s              4   1.000000
     35.01756524     -0.01198412
      6.03031449     -0.05472053
      0.48456150      0.58055871
      0.18467838      0.47700800
p              4   1.000000
      5.64399546      0.05713170
      1.46340374      0.28574555
      0.51589511      0.55178731
      0.20538673      0.26323149
s              7   1.000000
      0.38350848     -0.19615406
      0.04707223      0.94774432
      0.02222627      0.24889204
     35.01756524      0.00550318
      6.03031449      0.02512799
      0.48456150     -0.26659597
      0.18467838     -0.21904487
p              7   1.000000
      1.83062075     -0.01160727
      0.10124670      0.57039889
      0.03901771      0.59569692
      5.64399546     -0.02520862
      1.46340374     -0.12608153
      0.51589511     -0.24346901
      0.20538673     -0.11614749
 
          44   0
s              4   1.000000
     35.00351846     -0.01198412
      6.02789552     -0.05472052
      0.48436713      0.58055871
      0.18460430      0.47700800
p              4   1.000000
      5.64173145      0.05713170
      1.46281672      0.28574555
      0.51568816      0.55178731
      0.20530434      0.26323149
s              7   1.000000
      0.38350848     -0.19616715
      0.04707223      0.94780759
      0.02222627      0.24890866
     35.00351846      0.00550529
      6.02789552      0.02513762
      0.48436713     -0.26669814
      0.18460430     -0.21912882
p              7   1.000000
      1.83062075     -0.01160800
      0.10124670      0.57043466
      0.03901771      0.59573426
      5.64173145     -0.02521832
      1.46281672     -0.12613003
      0.51568816     -0.24356268
      0.20530434     -0.11619217
 
          45   0
s              4   1.000000
     35.23740894     -0.01198412
      6.06817340     -0.05472052
      0.48760362      0.58055871
      0.18583781      0.47700799
p              4   1.000000
      5.67942902      0.05713170
      1.47259114      0.28574555
      0.51913394      0.55178731
      0.20667617      0.26323149
s              7   1.000000
      0.38350848     -0.19595093
      0.04707223      0.94676289
      0.02222627      0.24863430
     35.23740894      0.00547037
      6.06817340      0.02497820
      0.48760362     -0.26500679
      0.18583781     -0.21773914
p              7   1.000000
      1.83062075     -0.01159598
      0.10124670      0.56984403
      0.03901771      0.59511743
      5.67942902     -0.02505777
      1.47259114     -0.12532703
      0.51913394     -0.24201204
      0.20667617     -0.11545244
 
          46   0
s              4   1.000000
     61.18840750     -0.01198412
     10.53715008     -0.05472052
      0.84670497      0.58055871
      0.32270022      0.47700799
p              4   1.000000
      7.21239850      0.05713170
      1.87006723      0.28574555
      0.65925657      0.55178731
      0.26246140      0.26323149
s              7   1.000000
      0.47894987     -0.18778688
      0.05878681      0.90731720
      0.02775758      0.23827527
     61.18840750      0.00397055
     10.53715008      0.01812986
      0.84670497     -0.19234915
      0.32270022     -0.15804100
p              7   1.000000
      2.28619608     -0.01156639
      0.12644335      0.56839005
      0.04872781      0.59359898
      7.21239850     -0.02465880
      1.87006723     -0.12333157
      0.65925657     -0.23815872
      0.26246140     -0.11361420
 
          47   0
s              4   1.000000
     35.25742740     -0.01198412
      6.07162074     -0.05472052
      0.48788063      0.58055871
      0.18594338      0.47700799
p              4   1.000000
      5.68265551      0.05713170
      1.47342772      0.28574555
      0.51942887      0.55178731
      0.20679358      0.26323149
s              7   1.000000
      0.38350848     -0.19593261
      0.04707223      0.94667434
      0.02222627      0.24861105
     35.25742740      0.00546740
      6.07162074      0.02496465
      0.48788063     -0.26486301
      0.18594338     -0.21762101
p              7   1.000000
      1.83062075     -0.01159496
      0.10124670      0.56979396
      0.03901771      0.59506516
      5.68265551     -0.02504412
      1.47342772     -0.12525876
      0.51942887     -0.24188021
      0.20679358     -0.11538955
 
          48   0
s              4   1.000000
     35.04157128     -0.01198412
      6.03444853     -0.05472052
      0.48489369      0.58055871
      0.18480499      0.47700799
p              4   1.000000
      5.64786466      0.05713170
      1.46440697      0.28574555
      0.51624877      0.55178731
      0.20552753      0.26323149
s              7   1.000000
      0.38350848     -0.19613171
      0.04707223      0.94763635
      0.02222627      0.24886369
     35.04157128      0.00549958
      6.03444853      0.02511154
      0.48489369     -0.26642153
      0.18480499     -0.21890154
p              7   1.000000
      1.83062075     -0.01160603
      0.10124670      0.57033785
      0.03901771      0.59563316
      5.64786466     -0.02519207
      1.46440697     -0.12599871
      0.51624877     -0.24330909
      0.20552753     -0.11607120
 
          49   0
s              4   1.000000
     34.91892979     -0.01198412
      6.01332865     -0.05472052
      0.48319661      0.58055871
      0.18415819      0.47700799
p              4   1.000000
      5.62809778      0.05713170
      1.45928171      0.28574555
      0.51444196      0.55178731
      0.20480821      0.26323149
s              7   1.000000
      0.38350848     -0.19624630
      0.04707223      0.94818999
      0.02222627      0.24900909
     34.91892979      0.00551802
      6.01332865      0.02519576
      0.48319661     -0.26731506
      0.18415819     -0.21963570
p              7   1.000000
      1.83062075     -0.01161239
      0.10124670      0.57065087
      0.03901771      0.59596009
      5.62809778     -0.02527688
      1.45928171     -0.12642292
      0.51444196     -0.24412825
      0.20480821     -0.11646198
 
          50   0
s              4   1.000000
     34.91081450     -0.01198412
      6.01193113     -0.05472052
      0.48308432      0.58055871
      0.18411539      0.47700800
p              4   1.000000
      5.62678979      0.05713170
      1.45894257      0.28574555
      0.51432240      0.55178731
      0.20476061      0.26323149
s              7   1.000000
      0.38350848     -0.19625392
      0.04707223      0.94822682
      0.02222627      0.24901876
     34.91081450      0.00551925
      6.01193113      0.02520136
      0.48308432     -0.26737439
      0.18411539     -0.21968445
p              7   1.000000
      1.83062075     -0.01161282
      0.10124670      0.57067169
      0.03901771      0.59598181
      5.62678979     -0.02528251
      1.45894257     -0.12645108
      0.51432240     -0.24418264
      0.20476061     -0.11648793
 
          51   0
s              4   1.000000
     35.03450819     -0.01198412
      6.03323221     -0.05472053
      0.48479595      0.58055871
      0.18476774      0.47700799
p              4   1.000000
      5.64672626      0.05713170
      1.46411180      0.28574555
      0.51614472      0.55178731
      0.20548611      0.26323149
s              7   1.000000
      0.38350848     -0.19613828
      0.04707223      0.94766809
      0.02222627      0.24887203
     35.03450819      0.00550064
      6.03323221      0.02511638
      0.48479595     -0.26647283
      0.18476774     -0.21894369
p              7   1.000000
      1.83062075     -0.01160639
      0.10124670      0.57035580
      0.03901771      0.59565189
      5.64672626     -0.02519694
      1.46411180     -0.12602306
      0.51614472     -0.24335612
      0.20548611     -0.11609363
 
          52   0
s              4   1.000000
     35.25608061     -0.01198412
      6.07138881     -0.05472052
      0.48786200      0.58055871
      0.18593628      0.47700799
p              4   1.000000
      5.68243844      0.05713170
      1.47337144      0.28574555
      0.51940902      0.55178731
      0.20678568      0.26323149
s              7   1.000000
      0.38350848     -0.19593384
      0.04707223      0.94668030
      0.02222627      0.24861261
     35.25608061      0.00546760
      6.07138881      0.02496556
      0.48786200     -0.26487267
      0.18593628     -0.21762895
p              7   1.000000
      1.83062075     -0.01159503
      0.10124670      0.56979733
      0.03901771      0.59506868
      5.68243844     -0.02504504
      1.47337144     -0.12526335
      0.51940902     -0.24188908
      0.20678568     -0.11539378
 
          53   0
s              4   1.000000
     37.10330707     -0.01198412
      6.38949649     -0.05472052
      0.51342331      0.58055871
      0.19567833      0.47700799
p              4   1.000000
      5.98016724      0.05713170
      1.55056807      0.28574555
      0.54662323      0.55178731
      0.21762013      0.26323149
s              7   1.000000
      0.38350848     -0.19435459
      0.04707223      0.93904996
      0.02222627      0.24660878
     37.10330707      0.00520662
      6.38949649      0.02377388
      0.51342331     -0.25222955
      0.19567833     -0.20724090
p              7   1.000000
      1.83062075     -0.01150725
      0.10124670      0.56548388
      0.03901771      0.59056391
      5.98016724     -0.02384453
      1.55056807     -0.11925899
      0.54662323     -0.23029439
      0.21762013     -0.10986250
 
          54   0
s              4   1.000000
     37.02613826     -0.01198412
      6.37620739     -0.05472052
      0.51235547      0.58055871
      0.19527135      0.47700799
p              4   1.000000
      5.96772947      0.05713170
      1.54734314      0.28574555
      0.54548634      0.55178731
      0.21716751      0.26323149
s              7   1.000000
      0.38350848     -0.19441638
      0.04707223      0.93934848
      0.02222627      0.24668717
     37.02613826      0.00521704
      6.37620739      0.02382144
      0.51235547     -0.25273411
      0.19527135     -0.20765547
p              7   1.000000
      1.83062075     -0.01151068
      0.10124670      0.56565261
      0.03901771      0.59074013
      5.96772947     -0.02389245
      1.54734314     -0.11949867
      0.54548634     -0.23075722
      0.21716751     -0.11008330
 
          55   0
s              4   1.000000
     37.02548668     -0.01198412
      6.37609518     -0.05472052
      0.51234645      0.58055871
      0.19526791      0.47700799
p              4   1.000000
      5.96762446      0.05713170
      1.54731591      0.28574555
      0.54547674      0.55178731
      0.21716369      0.26323149
s              7   1.000000
      0.38350848     -0.19441690
      0.04707223      0.93935100
      0.02222627      0.24668783
     37.02548668      0.00521712
      6.37609518      0.02382184
      0.51234645     -0.25273838
      0.19526791     -0.20765898
p              7   1.000000
      1.83062075     -0.01151071
      0.10124670      0.56565405
      0.03901771      0.59074163
      5.96762446     -0.02389286
      1.54731591     -0.11950070
      0.54547674     -0.23076114
      0.21716369     -0.11008517
 
          56   0
s              4   1.000000
     35.25603693     -0.01198412
      6.07138129     -0.05472052
      0.48786139      0.58055871
      0.18593605      0.47700800
p              4   1.000000
      5.68243140      0.05713170
      1.47336961      0.28574555
      0.51940838      0.55178731
      0.20678543      0.26323149
s              7   1.000000
      0.38350848     -0.19593388
      0.04707223      0.94668049
      0.02222627      0.24861266
     35.25603693      0.00546761
      6.07138129      0.02496559
      0.48786139     -0.26487299
      0.18593605     -0.21762921
p              7   1.000000
      1.83062075     -0.01159503
      0.10124670      0.56979744
      0.03901771      0.59506880
      5.68243140     -0.02504507
      1.47336961     -0.12526350
      0.51940838     -0.24188936
      0.20678543     -0.11539391
 
          57   0
s              4   1.000000
     35.03428674     -0.01198412
      6.03319407     -0.05472052
      0.48479289      0.58055871
      0.18476657      0.47700799
p              4   1.000000
      5.64669057      0.05713170
      1.46410255      0.28574555
      0.51614145      0.55178731
      0.20548481      0.26323149
s              7   1.000000
      0.38350848     -0.19613849
      0.04707223      0.94766909
      0.02222627      0.24887230
     35.03428674      0.00550067
      6.03319407      0.02511653
      0.48479289     -0.26647444
      0.18476657     -0.21894501
p              7   1.000000
      1.83062075     -0.01160640
      0.10124670      0.57035636
      0.03901771      0.59565250
      5.64669057     -0.02519709
      1.46410255     -0.12602383
      0.51614145     -0.24335759
      0.20548481     -0.11609434
 
          58   0
s              4   1.000000
     34.91077644     -0.01198412
      6.01192458     -0.05472052
      0.48308379      0.58055871
      0.18411519      0.47700799
p              4   1.000000
      5.62678365      0.05713170
      1.45894098      0.28574555
      0.51432184      0.55178731
      0.20476039      0.26323149
s              7   1.000000
      0.38350848     -0.19625396
      0.04707223      0.94822698
      0.02222627      0.24901881
     34.91077644      0.00551925
      6.01192458      0.02520138
      0.48308379     -0.26737467
      0.18411519     -0.21968468
p              7   1.000000
      1.83062075     -0.01161282
      0.10124670      0.57067179
      0.03901771      0.59598189
      5.62678365     -0.02528254
      1.45894098     -0.12645122
      0.51432184     -0.24418290
      0.20476039     -0.11648805
 
          59   0
s              4   1.000000
     34.91882571     -0.01198412
      6.01331073     -0.05472052
      0.48319517      0.58055871
      0.18415764      0.47700800
p              4   1.000000
      5.62808101      0.05713170
      1.45927736      0.28574555
      0.51444043      0.55178731
      0.20480760      0.26323149
s              7   1.000000
      0.38350848     -0.19624640
      0.04707223      0.94819047
      0.02222627      0.24900921
     34.91882571      0.00551804
      6.01331073      0.02519584
      0.48319517     -0.26731582
      0.18415764     -0.21963633
p              7   1.000000
      1.83062075     -0.01161240
      0.10124670      0.57065114
      0.03901771      0.59596033
      5.62808101     -0.02527695
      1.45927736     -0.12642328
      0.51444043     -0.24412895
      0.20480760     -0.11646231
 
          60   0
s              4   1.000000
     35.04185745     -0.01198412
      6.03449781     -0.05472052
      0.48489765      0.58055871
      0.18480650      0.47700799
p              4   1.000000
      5.64791078      0.05713170
      1.46441893      0.28574555
      0.51625299      0.55178731
      0.20552921      0.26323149
s              7   1.000000
      0.38350848     -0.19613145
      0.04707223      0.94763506
      0.02222627      0.24886335
     35.04185745      0.00549953
      6.03449781      0.02511135
      0.48489765     -0.26641945
      0.18480650     -0.21889983
p              7   1.000000
      1.83062075     -0.01160601
      0.10124670      0.57033713
      0.03901771      0.59563239
      5.64791078     -0.02519187
      1.46441893     -0.12599772
      0.51625299     -0.24330718
      0.20552921     -0.11607029
 
          61   0
s              4   1.000000
     35.25847255     -0.01198412
      6.07180073     -0.05472053
      0.48789510      0.58055871
      0.18594890      0.47700799
p              4   1.000000
      5.68282397      0.05713170
      1.47347140      0.28574555
      0.51944426      0.55178731
      0.20679971      0.26323149
s              7   1.000000
      0.38350848     -0.19593165
      0.04707223      0.94666972
      0.02222627      0.24860983
     35.25847255      0.00546725
      6.07180073      0.02496394
      0.48789510     -0.26485550
      0.18594890     -0.21761484
p              7   1.000000
      1.83062075     -0.01159490
      0.10124670      0.56979136
      0.03901771      0.59506245
      5.68282397     -0.02504341
      1.47347140     -0.12525520
      0.51944426     -0.24187333
      0.20679971     -0.11538627
 
          62   0
s              4   1.000000
     35.00256411     -0.01198412
      6.02773117     -0.05472052
      0.48435392      0.58055871
      0.18459927      0.47700800
p              4   1.000000
      5.64157763      0.05713170
      1.46277684      0.28574555
      0.51567410      0.55178731
      0.20529875      0.26323149
s              7   1.000000
      0.38350848     -0.19616804
      0.04707223      0.94781189
      0.02222627      0.24890978
     35.00256411      0.00550543
      6.02773117      0.02513827
      0.48435392     -0.26670509
      0.18459927     -0.21913452
p              7   1.000000
      1.83062075     -0.01160804
      0.10124670      0.57043709
      0.03901771      0.59573681
      5.64157763     -0.02521898
      1.46277684     -0.12613333
      0.51567410     -0.24356905
      0.20529875     -0.11619521
 
          63   0
s              4   1.000000
     35.01710041     -0.01198412
      6.03023444     -0.05472053
      0.48455507      0.58055871
      0.18467593      0.47700799
p              4   1.000000
      5.64392054      0.05713170
      1.46338432      0.28574555
      0.51588826      0.55178731
      0.20538401      0.26323149
s              7   1.000000
      0.38350848     -0.19615449
      0.04707223      0.94774641
      0.02222627      0.24889260
     35.01710041      0.00550325
      6.03023444      0.02512830
      0.48455507     -0.26659934
      0.18467593     -0.21904765
p              7   1.000000
      1.83062075     -0.01160729
      0.10124670      0.57040008
      0.03901771      0.59569814
      5.64392054     -0.02520895
      1.46338432     -0.12608313
      0.51588826     -0.24347211
      0.20538401     -0.11614897
 
          64   0
s              4   1.000000
     57.32717672     -0.01198412
      9.87221419     -0.05472052
      0.79327453      0.58055871
      0.30233656      0.47700799
p              4   1.000000
      6.75726760      0.05713170
      1.75205859      0.28574555
      0.61765487      0.55178731
      0.24589905      0.26323149
s              7   1.000000
      0.47894987     -0.18905856
      0.05878681      0.91346149
      0.02775758      0.23988886
     57.32717672      0.00423453
      9.87221419      0.01933522
      0.79327453     -0.20513747
      0.30233656     -0.16854835
p              7   1.000000
      2.28619608     -0.01168656
      0.12644335      0.57429562
      0.04872781      0.59976648
      6.75726760     -0.02624760
      1.75205859     -0.13127798
      0.61765487     -0.25350359
      0.24589905     -0.12093451
 
          65   0
s              4   1.000000
     35.01763248     -0.01198412
      6.03032607     -0.05472053
      0.48456243      0.58055871
      0.18467874      0.47700800
p              4   1.000000
      5.64400630      0.05713170
      1.46340655      0.28574555
      0.51589609      0.55178731
      0.20538713      0.26323149
s              7   1.000000
      0.38350848     -0.19615400
      0.04707223      0.94774401
      0.02222627      0.24889197
     35.01763248      0.00550317
      6.03032607      0.02512794
      0.48456243     -0.26659548
      0.18467874     -0.21904447
p              7   1.000000
      1.83062075     -0.01160726
      0.10124670      0.57039872
      0.03901771      0.59569672
      5.64400630     -0.02520858
      1.46340655     -0.12608129
      0.51589609     -0.24346856
      0.20538713     -0.11614728
 
          66   0
s              4   1.000000
     35.00309450     -0.01198412
      6.02782251     -0.05472053
      0.48436126      0.58055871
      0.18460207      0.47700799
p              4   1.000000
      5.64166312      0.05713170
      1.46279900      0.28574555
      0.51568192      0.55178731
      0.20530186      0.26323149
s              7   1.000000
      0.38350848     -0.19616755
      0.04707223      0.94780949
      0.02222627      0.24890915
     35.00309450      0.00550535
      6.02782251      0.02513791
      0.48436126     -0.26670123
      0.18460207     -0.21913136
p              7   1.000000
      1.83062075     -0.01160802
      0.10124670      0.57043574
      0.03901771      0.59573539
      5.64166312     -0.02521862
      1.46279900     -0.12613150
      0.51568192     -0.24356551
      0.20530186     -0.11619353
 
          67   0
s              4   1.000000
     35.25863119     -0.01198412
      6.07182805     -0.05472053
      0.48789729      0.58055871
      0.18594973      0.47700799
p              4   1.000000
      5.68284954      0.05713170
      1.47347803      0.28574555
      0.51944660      0.55178731
      0.20680064      0.26323149
s              7   1.000000
      0.38350848     -0.19593150
      0.04707223      0.94666902
      0.02222627      0.24860966
     35.25863119      0.00546723
      6.07182805      0.02496383
      0.48789729     -0.26485436
      0.18594973     -0.21761390
p              7   1.000000
      1.83062075     -0.01159490
      0.10124670      0.56979096
      0.03901771      0.59506201
      5.68284954     -0.02504330
      1.47347803     -0.12525466
      0.51944660     -0.24187229
      0.20680064     -0.11538577
 
          68   0
s              4   1.000000
     35.04172010     -0.01198412
      6.03447416     -0.05472053
      0.48489575      0.58055871
      0.18480577      0.47700800
p              4   1.000000
      5.64788865      0.05713170
      1.46441319      0.28574555
      0.51625097      0.55178731
      0.20552840      0.26323149
s              7   1.000000
      0.38350848     -0.19613157
      0.04707223      0.94763569
      0.02222627      0.24886352
     35.04172010      0.00549955
      6.03447416      0.02511144
      0.48489575     -0.26642045
      0.18480577     -0.21890065
p              7   1.000000
      1.83062075     -0.01160602
      0.10124670      0.57033747
      0.03901771      0.59563276
      5.64788865     -0.02519196
      1.46441319     -0.12599820
      0.51625097     -0.24330810
      0.20552840     -0.11607072
 
          69   0
s              4   1.000000
     34.91884390     -0.01198412
      6.01331386     -0.05472053
      0.48319543      0.58055871
      0.18415774      0.47700799
p              4   1.000000
      5.62808394      0.05713170
      1.45927812      0.28574555
      0.51444070      0.55178731
      0.20480771      0.26323149
s              7   1.000000
      0.38350848     -0.19624638
      0.04707223      0.94819038
      0.02222627      0.24900918
     34.91884390      0.00551803
      6.01331386      0.02519582
      0.48319543     -0.26731568
      0.18415774     -0.21963622
p              7   1.000000
      1.83062075     -0.01161240
      0.10124670      0.57065109
      0.03901771      0.59596029
      5.62808394     -0.02527694
      1.45927812     -0.12642321
      0.51444070     -0.24412882
      0.20480771     -0.11646225
 
          70   0
s              4   1.000000
     34.91075937     -0.01198412
      6.01192164     -0.05472052
      0.48308356      0.58055871
      0.18411510      0.47700799
p              4   1.000000
      5.62678090      0.05713170
      1.45894027      0.28574555
      0.51432159      0.55178731
      0.20476029      0.26323149
s              7   1.000000
      0.38350848     -0.19625397
      0.04707223      0.94822707
      0.02222627      0.24901881
     34.91075937      0.00551925
      6.01192164      0.02520139
      0.48308356     -0.26737479
      0.18411510     -0.21968478
p              7   1.000000
      1.83062075     -0.01161282
      0.10124670      0.57067182
      0.03901771      0.59598197
      5.62678090     -0.02528255
      1.45894027     -0.12645128
      0.51432159     -0.24418301
      0.20476029     -0.11648810
 
          71   0
s              4   1.000000
     35.03421540     -0.01198412
      6.03318179     -0.05472053
      0.48479190      0.58055871
      0.18476619      0.47700800
p              4   1.000000
      5.64667907      0.05713170
      1.46409956      0.28574555
      0.51614040      0.55178731
      0.20548439      0.26323149
s              7   1.000000
      0.38350848     -0.19613855
      0.04707223      0.94766941
      0.02222627      0.24887237
     35.03421540      0.00550068
      6.03318179      0.02511658
      0.48479190     -0.26647495
      0.18476619     -0.21894544
p              7   1.000000
      1.83062075     -0.01160641
      0.10124670      0.57035655
      0.03901771      0.59565270
      5.64667907     -0.02519714
      1.46409956     -0.12602407
      0.51614040     -0.24335807
      0.20548439     -0.11609456
 
          72   0
s              4   1.000000
     35.25600552     -0.01198412
      6.07137588     -0.05472052
      0.48786096      0.58055871
      0.18593589      0.47700799
p              4   1.000000
      5.68242634      0.05713170
      1.47336830      0.28574555
      0.51940792      0.55178731
      0.20678524      0.26323149
s              7   1.000000
      0.38350848     -0.19593391
      0.04707223      0.94668063
      0.02222627      0.24861271
     35.25600552      0.00546762
      6.07137588      0.02496561
      0.48786096     -0.26487321
      0.18593589     -0.21762939
p              7   1.000000
      1.83062075     -0.01159503
      0.10124670      0.56979752
      0.03901771      0.59506888
      5.68242634     -0.02504509
      1.47336830     -0.12526361
      0.51940792     -0.24188957
      0.20678524     -0.11539401
 
          73   0
s              4   1.000000
      8.30639129      0.05675242
      1.51996727      0.26014135
      0.42226355      0.53284611
      0.14014548      0.29162544
s              7   1.000000
      0.92936822     -0.06733171
      0.05643440      0.66948810
      0.02166600      0.51463979
      8.30639129     -0.02902955
      1.51996727     -0.13306546
      0.42226355     -0.27255726
      0.14014548     -0.14916996
p              4   1.000000
      0.64737396      0.05713170
      0.16785440      0.28574555
      0.05917387      0.55178731
      0.02355814      0.26323150
 
          74   0
s              4   1.000000
      8.30640138      0.05675242
      1.51996912      0.26014135
      0.42226406      0.53284611
      0.14014565      0.29162544
s              7   1.000000
      0.92936822     -0.06733170
      0.05643440      0.66948798
      0.02166600      0.51463969
      8.30640138     -0.02902953
      1.51996912     -0.13306534
      0.42226406     -0.27255700
      0.14014565     -0.14916981
p              4   1.000000
      0.64737396      0.05713170
      0.16785440      0.28574555
      0.05917387      0.55178731
      0.02355814      0.26323150
 
          75   0
s              4   1.000000
      8.30623224      0.05675242
      1.51993816      0.26014135
      0.42225546      0.53284611
      0.14014279      0.29162544
s              7   1.000000
      0.92936822     -0.06733192
      0.05643440      0.66949014
      0.02166600      0.51464135
      8.30623224     -0.02902998
      1.51993816     -0.13306741
      0.42225546     -0.27256125
      0.14014279     -0.14917214
p              4   1.000000
      0.64737396      0.05713170
      0.16785440      0.28574555
      0.05917387      0.55178731
      0.02355814      0.26323150
 
          76   0
s              4   1.000000
      8.30638710      0.05675242
      1.51996650      0.26014135
      0.42226334      0.53284611
      0.14014541      0.29162544
s              7   1.000000
      0.92936822     -0.06733172
      0.05643440      0.66948816
      0.02166600      0.51463981
      8.30638710     -0.02902956
      1.51996650     -0.13306551
      0.42226334     -0.27255736
      0.14014541     -0.14917001
p              4   1.000000
      0.64737396      0.05713170
      0.16785440      0.28574555
      0.05917387      0.55178731
      0.02355814      0.26323150
 
          77   0
s              4   1.000000
      8.30639471      0.05675242
      1.51996789      0.26014135
      0.42226372      0.53284611
      0.14014553      0.29162544
s              7   1.000000
      0.92936822     -0.06733171
      0.05643440      0.66948807
      0.02166600      0.51463974
      8.30639471     -0.02902954
      1.51996789     -0.13306542
      0.42226372     -0.27255717
      0.14014553     -0.14916990
p              4   1.000000
      0.64737396      0.05713170
      0.16785440      0.28574555
      0.05917387      0.55178731
      0.02355814      0.26323150
 
          78   0
s              4   1.000000
      8.30623321      0.05675242
      1.51993834      0.26014135
      0.42225551      0.53284611
      0.14014281      0.29162544
s              7   1.000000
      0.92936822     -0.06733192
      0.05643440      0.66949013
      0.02166600      0.51464133
      8.30623321     -0.02902998
      1.51993834     -0.13306740
      0.42225551     -0.27256123
      0.14014281     -0.14917213
p              4   1.000000
      0.64737396      0.05713170
      0.16785440      0.28574555
      0.05917387      0.55178731
      0.02355814      0.26323150
 
          79   0
s              4   1.000000
      8.30994364      0.05675242
      1.52061730      0.26014135
      0.42244414      0.53284611
      0.14020541      0.29162544
s              7   1.000000
      0.92936822     -0.06732714
      0.05643440      0.66944265
      0.02166600      0.51460486
      8.30994364     -0.02902005
      1.52061730     -0.13302189
      0.42244414     -0.27246801
      0.14020541     -0.14912111
p              4   1.000000
      0.64737396      0.05713170
      0.16785440      0.28574555
      0.05917387      0.55178731
      0.02355814      0.26323150
 
          80   0
s              4   1.000000
      8.30881915      0.05675242
      1.52041154      0.26014135
      0.42238697      0.53284611
      0.14018644      0.29162544
s              7   1.000000
      0.92936822     -0.06732859
      0.05643440      0.66945703
      0.02166600      0.51461591
      8.30881915     -0.02902306
      1.52041154     -0.13303568
      0.42238697     -0.27249626
      0.14018644     -0.14913657
p              4   1.000000
      0.64737396      0.05713170
      0.16785440      0.28574555
      0.05917387      0.55178731
      0.02355814      0.26323150
 
          81   0
s              4   1.000000
      8.30892165      0.05675242
      1.52043029      0.26014135
      0.42239218      0.53284611
      0.14018817      0.29162544
s              7   1.000000
      0.92936822     -0.06732846
      0.05643440      0.66945572
      0.02166600      0.51461489
      8.30892165     -0.02902278
      1.52043029     -0.13303442
      0.42239218     -0.27249368
      0.14018817     -0.14913516
p              4   1.000000
      0.64737396      0.05713170
      0.16785440      0.28574555
      0.05917387      0.55178731
      0.02355814      0.26323150
 
          82   0
s              4   1.000000
      8.31074343      0.05675242
      1.52076366      0.26014135
      0.42248480      0.53284611
      0.14021891      0.29162544
s              7   1.000000
      0.92936822     -0.06732611
      0.05643440      0.66943242
      0.02166600      0.51459698
      8.31074343     -0.02901791
      1.52076366     -0.13301209
      0.42248480     -0.27244793
      0.14021891     -0.14911012
p              4   1.000000
      0.64737396      0.05713170
      0.16785440      0.28574555
      0.05917387      0.55178731
      0.02355814      0.26323150
 
          83   0
s              4   1.000000
      8.30938192      0.05675242
      1.52051452      0.26014135
      0.42241558      0.53284611
      0.14019593      0.29162544
s              7   1.000000
      0.92936822     -0.06732787
      0.05643440      0.66944983
      0.02166600      0.51461037
      8.30938192     -0.02902155
      1.52051452     -0.13302878
      0.42241558     -0.27248212
      0.14019593     -0.14912883
p              4   1.000000
      0.64737396      0.05713170
      0.16785440      0.28574555
      0.05917387      0.55178731
      0.02355814      0.26323150
 
          84   0
s              4   1.000000
      8.30991973      0.05675242
      1.52061293      0.26014135
      0.42244292      0.53284611
      0.14020501      0.29162544
s              7   1.000000
      0.92936822     -0.06732717
      0.05643440      0.66944296
      0.02166600      0.51460508
      8.30991973     -0.02902011
      1.52061293     -0.13302218
      0.42244292     -0.27246861
      0.14020501     -0.14912144
p              4   1.000000
      0.64737396      0.05713170
      0.16785440      0.28574555
      0.05917387      0.55178731
      0.02355814      0.26323150
 
          85   0
s              4   1.000000
      8.30993244      0.05675242
      1.52061525      0.26014135
      0.42244357      0.53284611
      0.14020522      0.29162544
s              7   1.000000
      0.92936822     -0.06732716
      0.05643440      0.66944279
      0.02166600      0.51460496
      8.30993244     -0.02902008
      1.52061525     -0.13302203
      0.42244357     -0.27246829
      0.14020522     -0.14912126
p              4   1.000000
      0.64737396      0.05713170
      0.16785440      0.28574555
      0.05917387      0.55178731
      0.02355814      0.26323150
 
          86   0
s              4   1.000000
      8.30940539      0.05675242
      1.52051881      0.26014135
      0.42241678      0.53284611
      0.14019633      0.29162544
s              7   1.000000
      0.92936822     -0.06732783
      0.05643440      0.66944954
      0.02166600      0.51461015
      8.30940539     -0.02902149
      1.52051881     -0.13302849
      0.42241678     -0.27248153
      0.14019633     -0.14912851
p              4   1.000000
      0.64737396      0.05713170
      0.16785440      0.28574555
      0.05917387      0.55178731
      0.02355814      0.26323150
 
          87   0
s              4   1.000000
      8.31075744      0.05675242
      1.52076622      0.26014135
      0.42248551      0.53284611
      0.14021914      0.29162544
s              7   1.000000
      0.92936822     -0.06732610
      0.05643440      0.66943225
      0.02166600      0.51459686
      8.31075744     -0.02901787
      1.52076622     -0.13301192
      0.42248551     -0.27244758
      0.14021914     -0.14910993
p              4   1.000000
      0.64737396      0.05713170
      0.16785440      0.28574555
      0.05917387      0.55178731
      0.02355814      0.26323150
 
          88   0
s              4   1.000000
      8.30892160      0.05675242
      1.52043028      0.26014135
      0.42239218      0.53284611
      0.14018817      0.29162544
s              7   1.000000
      0.92936822     -0.06732846
      0.05643440      0.66945572
      0.02166600      0.51461489
      8.30892160     -0.02902278
      1.52043028     -0.13303442
      0.42239218     -0.27249368
      0.14018817     -0.14913516
p              4   1.000000
      0.64737396      0.05713170
      0.16785440      0.28574555
      0.05917387      0.55178731
      0.02355814      0.26323150
 
          89   0
s              4   1.000000
      8.30881543      0.05675242
      1.52041085      0.26014135
      0.42238678      0.53284611
      0.14018638      0.29162544
s              7   1.000000
      0.92936822     -0.06732859
      0.05643440      0.66945708
      0.02166600      0.51461594
      8.30881543     -0.02902307
      1.52041085     -0.13303573
      0.42238678     -0.27249635
      0.14018638     -0.14913662
p              4   1.000000
      0.64737396      0.05713170
      0.16785440      0.28574555
      0.05917387      0.55178731
      0.02355814      0.26323150
 
          90   0
s              4   1.000000
      8.30995103      0.05675242
      1.52061866      0.26014135
      0.42244451      0.53284611
      0.14020554      0.29162544
s              7   1.000000
      0.92936822     -0.06732713
      0.05643440      0.66944256
      0.02166600      0.51460478
      8.30995103     -0.02902003
      1.52061866     -0.13302180
      0.42244451     -0.27246783
      0.14020554     -0.14912101
p              4   1.000000
      0.64737396      0.05713170
      0.16785440      0.28574555
      0.05917387      0.55178731
      0.02355814      0.26323150
 
          91   0
s              4   1.000000
      8.30639361      0.05675242
      1.51996769      0.26014135
      0.42226367      0.53284611
      0.14014552      0.29162544
s              7   1.000000
      0.92936822     -0.06733171
      0.05643440      0.66948808
      0.02166600      0.51463976
      8.30639361     -0.02902955
      1.51996769     -0.13306543
      0.42226367     -0.27255720
      0.14014552     -0.14916992
p              4   1.000000
      0.64737396      0.05713170
      0.16785440      0.28574555
      0.05917387      0.55178731
      0.02355814      0.26323150
 
          92   0
s              4   1.000000
      8.30622371      0.05675242
      1.51993660      0.26014135
      0.42225503      0.53284611
      0.14014265      0.29162544
s              7   1.000000
      0.92936822     -0.06733193
      0.05643440      0.66949025
      0.02166600      0.51464143
      8.30622371     -0.02903000
      1.51993660     -0.13306752
      0.42225503     -0.27256147
      0.14014265     -0.14917226
p              4   1.000000
      0.64737396      0.05713170
      0.16785440      0.28574555
      0.05917387      0.55178731
      0.02355814      0.26323150
 
          93   0
s              4   1.000000
      8.30638540      0.05675242
      1.51996619      0.26014135
      0.42226325      0.53284611
      0.14014538      0.29162544
s              7   1.000000
      0.92936822     -0.06733172
      0.05643440      0.66948819
      0.02166600      0.51463984
      8.30638540     -0.02902957
      1.51996619     -0.13306553
      0.42226325     -0.27255740
      0.14014538     -0.14917004
p              4   1.000000
      0.64737396      0.05713170
      0.16785440      0.28574555
      0.05917387      0.55178731
      0.02355814      0.26323150
 
          94   0
s              4   1.000000
      8.30640729      0.05675242
      1.51997019      0.26014135
      0.42226436      0.53284611
      0.14014575      0.29162544
s              7   1.000000
      0.92936822     -0.06733169
      0.05643440      0.66948791
      0.02166600      0.51463962
      8.30640729     -0.02902951
      1.51997019     -0.13306526
      0.42226436     -0.27255685
      0.14014575     -0.14916973
p              4   1.000000
      0.64737396      0.05713170
      0.16785440      0.28574555
      0.05917387      0.55178731
      0.02355814      0.26323150
 
          95   0
s              4   1.000000
      8.30623858      0.05675242
      1.51993932      0.26014135
      0.42225579      0.53284611
      0.14014290      0.29162544
s              7   1.000000
      0.92936822     -0.06733191
      0.05643440      0.66949006
      0.02166600      0.51464128
      8.30623858     -0.02902996
      1.51993932     -0.13306733
      0.42225579     -0.27256110
      0.14014290     -0.14917206
p              4   1.000000
      0.64737396      0.05713170
      0.16785440      0.28574555
      0.05917387      0.55178731
      0.02355814      0.26323150
 
          96   0
s              4   1.000000
      8.30639553      0.05675242
      1.51996804      0.26014135
      0.42226377      0.53284611
      0.14014555      0.29162544
s              7   1.000000
      0.92936822     -0.06733171
      0.05643440      0.66948805
      0.02166600      0.51463974
      8.30639553     -0.02902954
      1.51996804     -0.13306541
      0.42226377     -0.27255715
      0.14014555     -0.14916989
p              4   1.000000
      0.64737396      0.05713170
      0.16785440      0.28574555
      0.05917387      0.55178731
      0.02355814      0.26323150
 
          97   0
s              4   1.000000
      8.30994555      0.05675242
      1.52061765      0.26014135
      0.42244424      0.53284611
      0.14020544      0.29162544
s              7   1.000000
      0.92936822     -0.06732714
      0.05643440      0.66944262
      0.02166600      0.51460483
      8.30994555     -0.02902004
      1.52061765     -0.13302187
      0.42244424     -0.27246796
      0.14020544     -0.14912109
p              4   1.000000
      0.64737396      0.05713170
      0.16785440      0.28574555
      0.05917387      0.55178731
      0.02355814      0.26323150
 
          98   0
s              4   1.000000
      8.30881848      0.05675242
      1.52041142      0.26014135
      0.42238694      0.53284611
      0.14018643      0.29162544
s              7   1.000000
      0.92936822     -0.06732859
      0.05643440      0.66945704
      0.02166600      0.51461591
      8.30881848     -0.02902306
      1.52041142     -0.13303569
      0.42238694     -0.27249627
      0.14018643     -0.14913658
p              4   1.000000
      0.64737396      0.05713170
      0.16785440      0.28574555
      0.05917387      0.55178731
      0.02355814      0.26323150
 
          99   0
s              4   1.000000
      8.30892232      0.05675242
      1.52043042      0.26014135
      0.42239222      0.53284611
      0.14018818      0.29162544
s              7   1.000000
      0.92936822     -0.06732846
      0.05643440      0.66945571
      0.02166600      0.51461489
      8.30892232     -0.02902278
      1.52043042     -0.13303441
      0.42239222     -0.27249366
      0.14018818     -0.14913515
p              4   1.000000
      0.64737396      0.05713170
      0.16785440      0.28574555
      0.05917387      0.55178731
      0.02355814      0.26323150
 
         100   0
s              4   1.000000
      8.31073748      0.05675242
      1.52076257      0.26014135
      0.42248449      0.53284611
      0.14021881      0.29162544
s              7   1.000000
      0.92936822     -0.06732612
      0.05643440      0.66943250
      0.02166600      0.51459703
      8.31073748     -0.02901792
      1.52076257     -0.13301216
      0.42248449     -0.27244808
      0.14021881     -0.14911020
p              4   1.000000
      0.64737396      0.05713170
      0.16785440      0.28574555
      0.05917387      0.55178731
      0.02355814      0.26323150
 
         101   0
s              4   1.000000
      8.30938574      0.05675242
      1.52051522      0.26014135
      0.42241578      0.53284611
      0.14019600      0.29162544
s              7   1.000000
      0.92936822     -0.06732786
      0.05643440      0.66944978
      0.02166600      0.51461032
      8.30938574     -0.02902154
      1.52051522     -0.13302873
      0.42241578     -0.27248203
      0.14019600     -0.14912878
p              4   1.000000
      0.64737396      0.05713170
      0.16785440      0.28574555
      0.05917387      0.55178731
      0.02355814      0.26323150
 
         102   0
s              4   1.000000
      8.30992170      0.05675242
      1.52061329      0.26014135
      0.42244302      0.53284611
      0.14020504      0.29162544
s              7   1.000000
      0.92936822     -0.06732717
      0.05643440      0.66944294
      0.02166600      0.51460505
      8.30992170     -0.02902011
      1.52061329     -0.13302216
      0.42244302     -0.27246856
      0.14020504     -0.14912141
p              4   1.000000
      0.64737396      0.05713170
      0.16785440      0.28574555
      0.05917387      0.55178731
      0.02355814      0.26323150
 
         103   0
s              4   1.000000
      8.30992714      0.05675242
      1.52061428      0.26014135
      0.42244330      0.53284611
      0.14020513      0.29162544
s              7   1.000000
      0.92936822     -0.06732716
      0.05643440      0.66944286
      0.02166600      0.51460500
      8.30992714     -0.02902009
      1.52061428     -0.13302209
      0.42244330     -0.27246843
      0.14020513     -0.14912134
p              4   1.000000
      0.64737396      0.05713170
      0.16785440      0.28574555
      0.05917387      0.55178731
      0.02355814      0.26323150
 
         104   0
s              4   1.000000
      8.30939826      0.05675242
      1.52051751      0.26014135
      0.42241641      0.53284611
      0.14019621      0.29162544
s              7   1.000000
      0.92936822     -0.06732785
      0.05643440      0.66944963
      0.02166600      0.51461020
      8.30939826     -0.02902151
      1.52051751     -0.13302858
      0.42241641     -0.27248171
      0.14019621     -0.14912861
p              4   1.000000
      0.64737396      0.05713170
      0.16785440      0.28574555
      0.05917387      0.55178731
      0.02355814      0.26323150
 
         105   0
s              4   1.000000
      8.31075694      0.05675242
      1.52076613      0.26014135
      0.42248548      0.53284611
      0.14021913      0.29162544
s              7   1.000000
      0.92936822     -0.06732610
      0.05643440      0.66943225
      0.02166600      0.51459686
      8.31075694     -0.02901787
      1.52076613     -0.13301192
      0.42248548     -0.27244759
      0.14021913     -0.14910993
p              4   1.000000
      0.64737396      0.05713170
      0.16785440      0.28574555
      0.05917387      0.55178731
      0.02355814      0.26323150
 
         106   0
s              4   1.000000
      8.30891840      0.05675242
      1.52042970      0.26014135
      0.42239202      0.53284611
      0.14018811      0.29162544
s              7   1.000000
      0.92936822     -0.06732846
      0.05643440      0.66945577
      0.02166600      0.51461492
      8.30891840     -0.02902279
      1.52042970     -0.13303446
      0.42239202     -0.27249376
      0.14018811     -0.14913521
p              4   1.000000
      0.64737396      0.05713170
      0.16785440      0.28574555
      0.05917387      0.55178731
      0.02355814      0.26323150
 
         107   0
s              4   1.000000
      8.30882304      0.05675242
      1.52041225      0.26014135
      0.42238717      0.53284611
      0.14018650      0.29162544
s              7   1.000000
      0.92936822     -0.06732859
      0.05643440      0.66945698
      0.02166600      0.51461586
      8.30882304     -0.02902304
      1.52041225     -0.13303563
      0.42238717     -0.27249616
      0.14018650     -0.14913651
p              4   1.000000
      0.64737396      0.05713170
      0.16785440      0.28574555
      0.05917387      0.55178731
      0.02355814      0.26323150
 
         108   0
s              4   1.000000
      8.30994442      0.05675242
      1.52061745      0.26014135
      0.42244418      0.53284611
      0.14020542      0.29162544
s              7   1.000000
      0.92936822     -0.06732714
      0.05643440      0.66944265
      0.02166600      0.51460483
      8.30994442     -0.02902004
      1.52061745     -0.13302188
      0.42244418     -0.27246799
      0.14020542     -0.14912110
p              4   1.000000
      0.64737396      0.05713170
      0.16785440      0.28574555
      0.05917387      0.55178731
      0.02355814      0.26323150
 
         109   0
s              4   1.000000
      8.30639578      0.05675242
      1.51996809      0.26014135
      0.42226378      0.53284611
      0.14014555      0.29162544
s              7   1.000000
      0.92936822     -0.06733171
      0.05643440      0.66948805
      0.02166600      0.51463974
      8.30639578     -0.02902954
      1.51996809     -0.13306541
      0.42226378     -0.27255714
      0.14014555     -0.14916989
p              4   1.000000
      0.64737396      0.05713170
      0.16785440      0.28574555
      0.05917387      0.55178731
      0.02355814      0.26323150
 
         110   0
s              4   1.000000
      8.30623484      0.05675242
      1.51993864      0.26014135
      0.42225560      0.53284611
      0.14014284      0.29162544
s              7   1.000000
      0.92936822     -0.06733192
      0.05643440      0.66949011
      0.02166600      0.51464133
      8.30623484     -0.02902997
      1.51993864     -0.13306738
      0.42225560     -0.27256119
      0.14014284     -0.14917211
p              4   1.000000
      0.64737396      0.05713170
      0.16785440      0.28574555
      0.05917387      0.55178731
      0.02355814      0.26323150
 
         111   0
s              4   1.000000
      8.30638941      0.05675242
      1.51996693      0.26014135
      0.42226346      0.53284611
      0.14014545      0.29162544
s              7   1.000000
      0.92936822     -0.06733172
      0.05643440      0.66948813
      0.02166600      0.51463981
      8.30638941     -0.02902956
      1.51996693     -0.13306548
      0.42226346     -0.27255730
      0.14014545     -0.14916998
p              4   1.000000
      0.64737396      0.05713170
      0.16785440      0.28574555
      0.05917387      0.55178731
      0.02355814      0.26323150
 
         112   0
s              4   1.000000
      8.30622958      0.05675242
      1.51993768      0.26014135
      0.42225533      0.53284611
      0.14014275      0.29162544
s              7   1.000000
      0.92936822     -0.06733192
      0.05643440      0.66949017
      0.02166600      0.51464138
      8.30622958     -0.02902998
      1.51993768     -0.13306744
      0.42225533     -0.27256132
      0.14014275     -0.14917218
p              4   1.000000
      0.64737396      0.05713170
      0.16785440      0.28574555
      0.05917387      0.55178731
      0.02355814      0.26323150
 
         113   0
s              4   1.000000
      8.30638868      0.05675242
      1.51996679      0.26014135
      0.42226342      0.53284611
      0.14014543      0.29162544
s              7   1.000000
      0.92936822     -0.06733172
      0.05643440      0.66948814
      0.02166600      0.51463981
      8.30638868     -0.02902956
      1.51996679     -0.13306549
      0.42226342     -0.27255732
      0.14014543     -0.14916999
p              4   1.000000
      0.64737396      0.05713170
      0.16785440      0.28574555
      0.05917387      0.55178731
      0.02355814      0.26323150
 
         114   0
s              4   1.000000
      8.30639945      0.05675242
      1.51996876      0.26014135
      0.42226397      0.53284611
      0.14014561      0.29162544
s              7   1.000000
      0.92936822     -0.06733170
      0.05643440      0.66948800
      0.02166600      0.51463971
      8.30639945     -0.02902953
      1.51996876     -0.13306536
      0.42226397     -0.27255705
      0.14014561     -0.14916984
p              4   1.000000
      0.64737396      0.05713170
      0.16785440      0.28574555
      0.05917387      0.55178731
      0.02355814      0.26323150
 
         115   0
s              4   1.000000
      8.30994219      0.05675242
      1.52061704      0.26014135
      0.42244406      0.53284611
      0.14020539      0.29162544
s              7   1.000000
      0.92936822     -0.06732715
      0.05643440      0.66944267
      0.02166600      0.51460486
      8.30994219     -0.02902005
      1.52061704     -0.13302191
      0.42244406     -0.27246805
      0.14020539     -0.14912113
p              4   1.000000
      0.64737396      0.05713170
      0.16785440      0.28574555
      0.05917387      0.55178731
      0.02355814      0.26323150
 
         116   0
s              4   1.000000
      8.30882070      0.05675242
      1.52041182      0.26014135
      0.42238705      0.53284611
      0.14018647      0.29162544
s              7   1.000000
      0.92936822     -0.06732859
      0.05643440      0.66945702
      0.02166600      0.51461589
      8.30882070     -0.02902305
      1.52041182     -0.13303566
      0.42238705     -0.27249622
      0.14018647     -0.14913654
p              4   1.000000
      0.64737396      0.05713170
      0.16785440      0.28574555
      0.05917387      0.55178731
      0.02355814      0.26323150
 
         117   0
s              4   1.000000
      8.30891777      0.05675242
      1.52042958      0.26014135
      0.42239199      0.53284611
      0.14018810      0.29162544
s              7   1.000000
      0.92936822     -0.06732846
      0.05643440      0.66945577
      0.02166600      0.51461492
      8.30891777     -0.02902279
      1.52042958     -0.13303447
      0.42239199     -0.27249378
      0.14018810     -0.14913521
p              4   1.000000
      0.64737396      0.05713170
      0.16785440      0.28574555
      0.05917387      0.55178731
      0.02355814      0.26323150
 
         118   0
s              4   1.000000
      8.31074687      0.05675242
      1.52076429      0.26014135
      0.42248497      0.53284611
      0.14021896      0.29162544
s              7   1.000000
      0.92936822     -0.06732611
      0.05643440      0.66943238
      0.02166600      0.51459695
      8.31074687     -0.02901790
      1.52076429     -0.13301204
      0.42248497     -0.27244784
      0.14021896     -0.14911007
p              4   1.000000
      0.64737396      0.05713170
      0.16785440      0.28574555
      0.05917387      0.55178731
      0.02355814      0.26323150
 
         119   0
s              4   1.000000
      8.30938822      0.05675242
      1.52051567      0.26014135
      0.42241590      0.53284611
      0.14019604      0.29162544
s              7   1.000000
      0.92936822     -0.06732786
      0.05643440      0.66944976
      0.02166600      0.51461030
      8.30938822     -0.02902153
      1.52051567     -0.13302870
      0.42241590     -0.27248196
      0.14019604     -0.14912875
p              4   1.000000
      0.64737396      0.05713170
      0.16785440      0.28574555
      0.05917387      0.55178731
      0.02355814      0.26323150
 
         120   0
s              4   1.000000
      8.30991873      0.05675242
      1.52061275      0.26014135
      0.42244287      0.53284611
      0.14020499      0.29162544
s              7   1.000000
      0.92936822     -0.06732718
      0.05643440      0.66944297
      0.02166600      0.51460508
      8.30991873     -0.02902011
      1.52061275     -0.13302220
      0.42244287     -0.27246864
      0.14020499     -0.14912145
p              4   1.000000
      0.64737396      0.05713170
      0.16785440      0.28574555
      0.05917387      0.55178731
      0.02355814      0.26323150
 
         121   0
s              4   1.000000
      8.30992730      0.05675242
      1.52061431      0.26014135
      0.42244331      0.53284611
      0.14020514      0.29162544
s              7   1.000000
      0.92936822     -0.06732716
      0.05643440      0.66944286
      0.02166600      0.51460500
      8.30992730     -0.02902009
      1.52061431     -0.13302209
      0.42244331     -0.27246842
      0.14020514     -0.14912134
p              4   1.000000
      0.64737396      0.05713170
      0.16785440      0.28574555
      0.05917387      0.55178731
      0.02355814      0.26323150
 
         122   0
s              4   1.000000
      8.30939447      0.05675242
      1.52051681      0.26014135
      0.42241622      0.53284611
      0.14019615      0.29162544
s              7   1.000000
      0.92936822     -0.06732785
      0.05643440      0.66944968
      0.02166600      0.51461025
      8.30939447     -0.02902152
      1.52051681     -0.13302863
      0.42241622     -0.27248181
      0.14019615     -0.14912866
p              4   1.000000
      0.64737396      0.05713170
      0.16785440      0.28574555
      0.05917387      0.55178731
      0.02355814      0.26323150
 
         123   0
s              4   1.000000
      8.31072090      0.05675242
      1.52075953      0.26014135
      0.42248365      0.53284611
      0.14021853      0.29162544
s              7   1.000000
      0.92936822     -0.06732614
      0.05643440      0.66943271
      0.02166600      0.51459720
      8.31072090     -0.02901797
      1.52075953     -0.13301236
      0.42248365     -0.27244849
      0.14021853     -0.14911043
p              4   1.000000
      0.64737396      0.05713170
      0.16785440      0.28574555
      0.05917387      0.55178731
      0.02355814      0.26323150
 
         124   0
s              4   1.000000
      8.30891826      0.05675242
      1.52042967      0.26014135
      0.42239201      0.53284611
      0.14018811      0.29162544
s              7   1.000000
      0.92936822     -0.06732846
      0.05643440      0.66945577
      0.02166600      0.51461492
      8.30891826     -0.02902279
      1.52042967     -0.13303446
      0.42239201     -0.27249377
      0.14018811     -0.14913521
p              4   1.000000
      0.64737396      0.05713170
      0.16785440      0.28574555
      0.05917387      0.55178731
      0.02355814      0.26323150
 
         125   0
s              4   1.000000
      8.30881740      0.05675242
      1.52041122      0.26014135
      0.42238688      0.53284611
      0.14018641      0.29162543
s              7   1.000000
      0.92936822     -0.06732859
      0.05643440      0.66945706
      0.02166600      0.51461591
      8.30881740     -0.02902306
      1.52041122     -0.13303570
      0.42238688     -0.27249630
      0.14018641     -0.14913659
p              4   1.000000
      0.64737396      0.05713170
      0.16785440      0.28574555
      0.05917387      0.55178731
      0.02355814      0.26323150
 
         126   0
s              4   1.000000
      8.30994244      0.05675242
      1.52061708      0.26014135
      0.42244408      0.53284611
      0.14020539      0.29162544
s              7   1.000000
      0.92936822     -0.06732714
      0.05643440      0.66944267
      0.02166600      0.51460486
      8.30994244     -0.02902005
      1.52061708     -0.13302191
      0.42244408     -0.27246804
      0.14020539     -0.14912113
p              4   1.000000
      0.64737396      0.05713170
      0.16785440      0.28574555
      0.05917387      0.55178731
      0.02355814      0.26323150
 
 [MO]
 Sym= Hole
 Ene= -0.6524768    
 Spin= Alpha
 Occup= 0
           1 -1.4532068E-02
           2  7.0774048E-03
           3 -2.7628025E-02
           4 -5.1588356E-03
           5  8.2180258E-03
           6 -7.6380657E-04
           7  3.9316276E-03
           8  7.3565898E-04
           9  1.7424982E-05
          10 -1.0536606E-02
          11  7.6535465E-03
          12  2.2793319E-03
          13  1.3458012E-05
          14  1.6831466E-03
          15 -1.1230835E-03
          16 -1.2351715E-04
          17  1.4498146E-02
          18  2.8270626E-02
          19  2.2229420E-03
          20 -5.4336535E-03
          21 -8.2053374E-03
          22 -3.9342958E-03
          23 -5.2445289E-04
          24  7.7190570E-04
          25  5.4753979E-04
          26  7.0186548E-02
          27 -4.9555369E-02
          28 -2.1018242E-02
          29 -2.4043302E-04
          30 -6.1508990E-03
          31  4.7952859E-03
          32  2.0228426E-03
          33  1.0850385E-04
          34 -4.9497429E-03
          35  3.5632981E-03
          36  1.5462037E-03
          37  8.5809079E-05
          38  1.2141370E-03
          39 -5.9440610E-04
          40 -3.4440533E-04
          41  2.1506002E-04
          42 -6.9938347E-02
          43  4.7631755E-02
          44  1.9653285E-02
          45  6.7371429E-06
          46  4.8079477E-03
          47 -3.1700947E-03
          48 -1.4702600E-03
          49 -4.7759324E-05
          50 -7.5119846E-03
          51  4.6312772E-03
          52  2.0954849E-03
          53  1.3449285E-04
          54  2.8042404E-03
          55 -1.6018308E-03
          56 -1.0977160E-03
          57  7.6129491E-04
          58  7.7377751E-02
          59 -4.8191816E-02
          60 -1.9630495E-02
          61 -4.5754484E-04
          62 -4.1061747E-03
          63  2.7891782E-03
          64  6.1305746E-04
          65  1.2343972E-03
          66  3.1241402E-02
          67 -2.0448932E-02
          68 -1.0185093E-02
          69 -8.1061706E-04
          70 -6.8206252E-03
          71  4.7091073E-03
          72  2.5387388E-03
          73 -7.5559516E-04
          74 -0.1450997    
          75  0.1015843    
          76  4.1656390E-02
          77  3.4465909E-04
          78  1.5354846E-02
          79 -1.0555283E-02
          80 -2.6614848E-03
          81  7.4129159E-05
          82  1.5319933E-02
          83 -1.1420235E-02
          84 -1.7953051E-02
          85 -2.8608559E-04
          86 -4.4779582E-03
          87  3.2694465E-03
          88  1.7512939E-03
          89  1.5884699E-02
          90 -3.0554073E-02
          91 -1.6995940E-03
          92 -2.7947666E-02
          93 -9.2755100E-03
          94  4.5394446E-03
          95  3.3640403E-03
          96  2.3476132E-03
          97 -4.6858829E-03
          98  8.1985798E-03
          99  4.9269092E-03
         100  1.0608329E-02
         101  1.4355959E-03
         102 -4.0787630E-04
         103 -3.7779659E-04
         104 -8.2488684E-04
         105 -1.6611129E-03
         106 -9.4901752E-03
         107  2.6565378E-03
         108  3.8226184E-02
         109  9.9628861E-04
         110  9.4052736E-04
         111  2.1802832E-04
         112 -2.0348849E-03
         113 -1.7429776E-03
         114 -9.1491884E-04
         115  4.9376744E-04
         116 -4.8840372E-03
         117  7.0588314E-04
         118 -9.4899951E-05
         119  6.2053115E-04
         120 -4.0820200E-04
         121  3.7375821E-03
         122 -5.2961067E-04
         123 -1.0486507E-02
         124 -6.2261201E-02
         125 -1.0022694E-03
         126  3.7907164E-03
         127  3.1094643E-04
         128  4.1091209E-03
         129  5.1586132E-04
         130  2.3629550E-04
         131  3.8388160E-03
         132  6.3098972E-03
         133 -2.3669637E-04
         134 -2.8129134E-04
         135 -4.7872532E-03
         136 -2.8603934E-03
         137  5.8310881E-04
         138 -3.6870940E-03
         139 -2.4971161E-02
         140  0.1108328    
         141 -3.5844155E-04
         142  2.9039828E-04
         143  1.9522134E-03
         144 -7.2189560E-03
         145 -1.5847215E-02
         146 -2.5462683E-02
         147  1.9076191E-02
         148  1.4558822E-02
         149  4.9597020E-03
         150  1.7666484E-03
         151 -8.7944837E-04
         152 -3.0385802E-04
         153  5.0306357E-02
         154  5.1514968E-02
         155 -8.3248623E-02
         156 -9.1222636E-02
         157 -2.7324466E-02
         158 -1.5985949E-02
         159  6.7771268E-03
         160  7.1462570E-03
         161 -7.0393132E-04
         162  2.8719297E-03
         163  5.8734834E-02
         164 -4.2953253E-02
         165  1.1834953E-03
         166 -2.4883382E-04
         167 -1.5954556E-02
         168  5.7802727E-03
         169  2.4937284E-03
         170 -3.9304554E-02
         171 -0.5409260    
         172  0.1543603    
         173 -1.0543532E-03
         174  4.6949750E-03
         175  5.6456927E-02
         176 -1.1441584E-02
         177 -2.4774489E-03
         178  9.8247677E-03
         179  0.1097634    
         180 -3.3960141E-02
         181  1.7341443E-03
         182 -1.9145450E-03
         183 -2.5360718E-02
         184  9.1483062E-03
         185 -2.9680382E-03
         186  3.0554544E-02
         187  0.2745649    
         188 -7.6417737E-02
         189  1.7862500E-03
         190 -1.1203872E-03
         191 -1.4925053E-02
         192  2.8398521E-03
         193  3.4029828E-04
         194 -3.0139554E-03
         195 -2.2237306E-02
         196  7.1771713E-03
         197 -3.3311130E-04
         198  1.5838227E-03
         199  9.8371804E-03
         200 -3.7814362E-03
         201 -4.6213920E-04
         202 -1.8860616E-02
         203 -0.2508732    
         204  7.2616786E-02
         205 -1.0928048E-04
         206  1.7593014E-03
         207  1.7434223E-02
         208 -5.3429515E-03
         209 -2.3181844E-04
         210 -8.4731099E-04
         211 -1.7133806E-02
         212  5.4328516E-03
         213 -2.4698055E-04
         214  8.1107841E-04
         215  4.0564127E-03
         216 -1.4159612E-03
         217 -1.5152846E-03
         218  1.4101415E-02
         219  0.2577408    
         220 -7.7937149E-02
         221  5.2559521E-04
         222 -6.4141037E-05
         223 -2.3378721E-02
         224  7.3673641E-03
         225 -2.1091398E-04
         226 -1.6051019E-03
         227 -3.8287524E-02
         228  8.9147445E-03
         229 -1.1378662E-04
         230  6.1865209E-04
         231  6.4802701E-03
         232 -9.0094848E-04
         233 -4.4252671E-02
         234  5.7845514E-02
         235  6.2958993E-02
         236 -1.9300086E-02
         237  2.5109047E-02
         238 -8.8774106E-03
         239 -8.4306058E-03
         240  2.8062717E-03
         241  4.4104572E-02
         242 -5.2404821E-02
         243  6.6919550E-02
         244 -1.9421834E-02
         245 -2.4987306E-02
         246  8.1534786E-03
         247 -9.1151875E-03
         248  2.8377788E-03
         249  4.2167041E-03
         250  6.3831951E-03
         251  0.2582106    
         252 -7.6326013E-02
         253 -1.8558758E-03
         254 -1.2577579E-03
         255 -2.3172567E-02
         256  7.6258131E-03
         257 -9.1126293E-04
         258  1.4521695E-04
         259 -1.6921844E-02
         260  6.5420503E-03
         261  5.2631716E-04
         262 -2.9765640E-04
         263  4.1606021E-03
         264 -1.4470695E-03
         265  5.9048802E-04
         266 -5.2798190E-03
         267 -0.2517289    
         268  7.0222363E-02
         269 -4.1981461E-05
         270  2.8092420E-04
         271  1.7606536E-02
         272 -5.1773717E-03
         273  1.4729335E-04
         274  9.7027543E-04
         275 -2.2194142E-02
         276  6.1151562E-03
         277  6.4574720E-05
         278 -3.7411595E-04
         279  1.0092489E-02
         280 -3.1236929E-03
         281  4.6046652E-04
         282 -6.2443311E-03
         283  0.2779552    
         284 -6.9135636E-02
         285 -4.8648475E-05
         286  5.1998188E-05
         287 -1.5340496E-02
         288  1.5266266E-03
         289  1.8743466E-03
         290  4.3851603E-03
         291  0.1105960    
         292 -3.1542007E-02
         293 -9.6503011E-04
         294 -2.0297363E-03
         295 -2.5643181E-02
         296  8.1201512E-03
         297 -4.9918298E-02
         298 -6.2003579E-02
         299 -7.3981889E-02
         300 -9.0134874E-02
         301  2.8049195E-02
         302  1.6885085E-02
         303  4.1798246E-03
         304  7.5024404E-03
         305  1.5199837E-02
         306  2.6828174E-02
         307  1.4425778E-02
         308  1.7119480E-02
         309 -4.7058295E-03
         310 -2.2762124E-03
         311 -7.0367678E-04
         312 -6.7827071E-04
         313 -6.0501909E-03
         314 -7.0556663E-03
         315 -1.3122221E-02
         316 -3.0431250E-02
         317  1.5636496E-03
         318 -3.4772232E-03
         319  5.9095506E-05
         320  2.2096410E-03
         321  1.1737136E-03
         322  3.7835047E-03
         323  1.6357501E-03
         324 -6.5128482E-03
         325 -4.9999147E-04
         326 -1.8993103E-03
         327 -4.9325131E-04
         328  1.0549625E-03
         329  1.0307169E-03
         330  1.3768902E-03
         331 -1.4834143E-03
         332  2.3002131E-03
         333 -6.3535769E-04
         334 -4.3359963E-04
         335  3.8191510E-04
         336  4.3092685E-05
         337 -4.1376593E-04
         338  8.0549129E-05
         339 -5.6850730E-04
         340  2.3972930E-03
         341  2.1572482E-04
         342  2.2260037E-04
         343 -1.0258154E-04
         344  2.1135720E-04
         345  1.3963544E-03
         346  1.2201205E-03
         347  1.9896817E-03
         348 -3.1582934E-03
         349 -8.3094958E-04
         350  5.4779310E-05
         351 -3.3879952E-04
         352  8.0326230E-05
         353  5.9258979E-05
         354 -1.3500303E-03
         355 -7.0905208E-04
         356 -3.2138419E-03
         357  1.5387284E-05
         358  4.3856169E-04
         359  1.5289565E-04
         360  4.7432736E-04
         361  3.4654204E-05
         362  1.2977143E-02
         363  6.2376787E-03
         364  3.7003916E-03
         365 -3.5339650E-05
         366 -1.4504598E-03
         367 -6.4313895E-04
         368 -2.6833205E-04
         369 -2.6595412E-04
         370 -2.8887216E-03
         371 -1.2200370E-03
         372 -1.1467526E-03
         373  1.5387345E-04
         374  6.4354239E-04
         375  1.9100042E-04
         376  2.3212223E-04
         377 -5.3511136E-05
         378 -7.1122176E-03
         379 -2.8560148E-03
         380 -1.6784829E-03
         381  5.8792175E-05
         382  4.0814473E-04
         383  1.1767506E-04
         384  8.1735343E-05
         385 -4.7002399E-05
         386  7.3584192E-04
         387  3.0801809E-04
         388  1.8945057E-04
         389 -2.3574386E-05
         390 -2.1484168E-04
         391 -7.5889780E-05
         392 -1.3159488E-04
         393  1.1139255E-05
         394  6.5484741E-03
         395  3.0113747E-03
         396  1.7454382E-03
         397  9.6532858E-06
         398 -4.2345433E-04
         399 -1.9296564E-04
         400 -1.4175610E-04
         401 -5.3082109E-05
         402  5.8372406E-04
         403  1.1074938E-04
         404  2.3699876E-04
         405 -4.3311239E-08
         406 -8.7672073E-05
         407 -5.0575451E-05
         408  1.5632105E-06
         409 -2.5724803E-05
         410 -6.4343703E-03
         411 -3.0562188E-03
         412 -2.0169714E-03
         413  7.3577953E-06
         414  5.9092528E-04
         415  3.9270942E-04
         416  1.2196630E-04
         417  7.8064986E-06
         418  8.8718749E-04
         419  4.5369350E-04
         420  2.1310076E-04
         421 -2.4893936E-06
         422 -1.7246376E-04
         423 -7.1129594E-05
         424  1.5930749E-05
         425  1.2118359E-03
         426 -8.8250003E-04
         427 -2.1374151E-03
         428 -5.4095202E-04
         429 -6.9058820E-04
         430  1.3644149E-04
         431  3.1748362E-04
         432  5.1070892E-05
         433 -1.2111559E-03
         434 -2.1951920E-03
         435  6.3837378E-04
         436 -5.0974434E-04
         437  6.7979377E-04
         438  3.2951386E-04
         439 -8.1805942E-05
         440  4.4978926E-05
         441  3.6843627E-05
         442 -6.3582812E-03
         443 -3.2423590E-03
         444 -2.0319438E-03
         445 -2.1006916E-05
         446  6.5114821E-04
         447  2.1540263E-04
         448  1.1487381E-04
         449  4.9456317E-05
         450  4.2671969E-04
         451  4.0336067E-04
         452  2.7526458E-04
         453 -4.8133707E-06
         454 -1.1224714E-04
         455 -4.2653410E-05
         456  1.7473836E-06
         457  3.7912214E-06
         458  6.3656685E-03
         459  3.3149074E-03
         460  1.7323927E-03
         461 -2.0956773E-05
         462 -4.4251443E-04
         463 -2.1502002E-04
         464 -1.5510265E-04
         465  3.2005293E-05
         466  6.4176385E-04
         467  3.4600496E-04
         468  1.9444482E-04
         469  1.0910548E-05
         470 -2.2166561E-04
         471 -1.3410473E-04
         472 -1.3184940E-04
         473  8.1136735E-05
         474 -6.5937964E-03
         475 -3.9365604E-03
         476 -1.6500606E-03
         477 -8.7638902E-05
         478  3.0857304E-04
         479  3.2536805E-04
         480  9.0585694E-05
         481  2.5830657E-04
         482 -2.7653677E-03
         483 -1.4856957E-03
         484 -1.1328869E-03
         485 -1.5992561E-04
         486  5.1888882E-04
         487  3.9536849E-04
         488  2.0678842E-04
         489 -1.1379009E-03
         490  2.5704105E-03
         491 -6.6992815E-04
         492 -1.2043605E-03
         493  8.9978980E-04
         494 -2.0941244E-04
         495  1.4404922E-04
         496  2.6379360E-04
         497  1.7354699E-04
         498  2.9193077E-04
         499  1.1006492E-03
         500  2.9854928E-03
         501 -8.5227613E-05
         502 -2.1138153E-04
         503  2.6008964E-04
         504 -6.5091503E-04
         505  2.1833254E-03
         506 -5.8117881E-03
         507 -3.3732154E-03
         508  2.8613748E-02
         509 -6.2713725E-04
         510 -6.2564615E-04
         511 -8.2652667E-04
         512 -2.2647094E-03
         513  5.1637185E-03
         514 -1.4229243E-04
         515 -9.9867182E-03
         516  8.8653667E-03
         517 -1.6885696E-03
         518 -5.5913424E-05
         519  6.8554975E-04
         520  3.6321490E-04
         521 -1.6360663E-02
         522 -9.7172726E-03
         523  2.8456610E-02
         524 -3.1742796E-02
         525  9.0124765E-03
         526 -1.6806234E-03
         527 -5.5301529E-03
         528  2.1120128E-03
         529 -9.7259431E-04
         530  2.9744772E-02
         531 -2.2443419E-02
         532 -9.5949946E-03
         533  5.1149243E-04
         534 -6.8063331E-03
         535  4.7776964E-03
         536  2.2321825E-03
         537 -5.0260313E-04
         538  7.0391797E-02
         539 -5.8029748E-02
         540 -1.8622819E-02
         541  2.2907974E-04
         542 -3.9208704E-03
         543  3.1272112E-03
         544  3.9936203E-04
         545  2.4153094E-05
         546 -6.6236868E-03
         547  5.5576572E-03
         548  2.0305375E-03
         549 -8.3121937E-05
         550  2.4982586E-03
         551 -2.1544092E-03
         552 -9.5750118E-04
         553 -1.9398870E-04
         554 -6.7454062E-02
         555  5.0832018E-02
         556  1.9276373E-02
         557  1.6020622E-05
         558  4.6329619E-03
         559 -3.5204992E-03
         560 -1.4318997E-03
         561  7.6178556E-05
         562 -4.7268262E-03
         563  3.5948742E-03
         564  1.7450281E-03
         565 -1.2590103E-04
         566  1.0111441E-03
         567 -9.3940843E-04
         568 -3.5660632E-04
         569 -9.4020390E-04
         570  6.9046035E-02
         571 -5.1154558E-02
         572 -2.0862499E-02
         573  3.5618470E-04
         574 -6.4214570E-03
         575  4.3336959E-03
         576  2.0470342E-03
         577  7.3109032E-03
         578  4.2274676E-04
         579  5.2355765E-04
         580 -2.2167212E-03
         581  2.2465528E-03
         582  6.8258555E-03
         583  4.4590997E-04
         584 -5.2286236E-04
         585 -1.5860387E-03
         586 -2.7265560E-03
         587  3.3470108E-03
         588  1.8588935E-03
         589  4.8399344E-03
         590  1.2630400E-03
         591 -7.6845381E-04
         592 -7.2783623E-03
         593 -4.0980306E-04
         594  2.2877920E-03
         595  2.2533270E-04
         596  2.2266286E-03
         597 -6.8088449E-03
         598 -4.3788334E-04
         599  1.2983198E-03
         600  9.4462803E-04
         601 -2.7707885E-03
         602 -3.3071570E-03
         603 -1.7916457E-03
         604  4.1782507E-04
         605 -4.9857805E-03
         606 -7.1415905E-04
         607 -5.6871865E-04
         608  2.8042245E-04
         609 -5.7853194E-04
         610  6.2421948E-04
         611  1.4995120E-04
         612 -1.8576677E-04
         613  9.3139439E-05
         614 -6.0349000E-03
         615  4.1423663E-03
         616  1.7336752E-03
         617 -9.6378417E-04
         618  3.6827009E-04
         619 -1.2599638E-03
         620  8.3114224E-04
         621  2.8311682E-04
         622  3.0144840E-04
         623 -1.8147721E-04
         624  4.3825018E-03
         625 -3.8314080E-03
         626 -1.4571314E-03
         627 -8.7522641E-03
         628 -2.4636516E-03
         629  6.2464997E-03
         630  4.1945889E-03
         631  2.6991744E-05
         632  1.2093776E-02
         633  6.4549106E-04
         634  3.2719210E-05
         635 -7.1559334E-04
         636 -1.7233953E-03
         637  3.8168874E-02
         638 -4.2005445E-04
         639  3.9156773E-03
         640 -7.5724325E-04
         641 -1.5583251E-03
         642 -2.8665457E-02
         643 -7.6715797E-03
         644 -2.0573273E-02
         645  9.7687608E-03
         646 -1.0318811E-03
         647 -2.6441380E-04
         648  7.5563008E-04
         649 -1.0353595E-03
         650  1.7019378E-02
         651 -5.2094525E-03
         652  2.2826951E-03
         653 -9.6046965E-04
         654 -4.1844658E-04
         655 -4.9073054E-03
         656  1.1136539E-03
         657  4.0432697E-04
         658 -3.1741420E-04
         659 -1.6694099E-03
         660 -2.2294596E-02
         661  6.5647722E-03
         662  1.8217606E-03
         663 -8.4698928E-04
         664  3.4140344E-04
         665 -2.7636797E-03
         666  7.0682407E-04
         667  2.0508092E-02
         668  1.2373950E-03
         669  4.8948983E-03
         670  9.3844428E-04
         671 -8.4990095E-03
         672  1.0029525E-02
         673  5.5445354E-03
         674 -1.1024284E-02
         675  1.0291752E-02
         676 -2.8142484E-03
         677  2.2084329E-02
         678  1.2462618E-03
         679  4.7603901E-03
         680  5.5131824E-03
         681  6.5375986E-03
         682 -2.0324295E-02
         683 -1.1552870E-03
         684 -5.0279470E-03
         685  1.3771448E-03
         686 -8.3390437E-03
         687 -1.0137652E-02
         688 -5.7708346E-03
         689  1.2242165E-02
         690  9.1589643E-03
         691 -2.7808531E-03
         692 -2.1881659E-02
         693 -1.1762060E-03
         694 -4.5022229E-03
         695  5.8897478E-03
         696  6.3621374E-03
         697 -5.9358944E-04
         698  6.4815633E-04
         699 -5.5994396E-04
         700 -2.8135309E-03
         701  4.8791181E-04
         702 -5.6089414E-04
         703  2.8544071E-04
         704 -4.9450685E-04
         705 -2.2437435E-02
         706  6.2885736E-03
         707 -3.4517252E-03
         708  8.9963281E-04
         709  2.0053471E-05
         710 -4.8958501E-03
         711  1.3604754E-03
         712  1.5673839E-03
         713 -5.9525197E-04
         714  2.6594710E-03
         715  1.6561957E-02
         716 -5.5136555E-03
         717  2.9227337E-02
         718  7.3592197E-03
         719  2.1825224E-02
         720  6.3086445E-03
         721 -7.3030603E-04
         722 -3.7629176E-02
         723  2.5444882E-07
         724 -3.7609164E-03
         725 -1.3681863E-04
         726 -2.3251621E-03
         727  5.1706820E-04
         728  5.6431990E-04
         729  1.5116713E-04
         730 -4.4168750E-04
         731  1.3859178E-03
         732 -8.5703813E-04
         733 -2.5409620E-04
         734 -1.1214563E-04
         735 -6.1266450E-04
         736 -3.1143916E-04
         737  9.8078567E-07
         738  1.4196753E-05
         739 -5.2958325E-04
         740 -3.0067039E-04
         741 -1.2334238E-04
         742  9.1686808E-05
         743 -5.8515638E-05
         744  8.9743138E-05
         745  4.6203637E-05
         746  2.2014599E-05
         747  1.0198709E-04
         748  1.4504268E-05
         749  5.3685758E-04
         750  2.5673461E-04
         751  1.7240927E-04
         752 -9.7825723E-05
         753 -8.4430183E-05
         754  3.9921881E-05
         755  4.8623595E-05
         756 -2.4091569E-05
         757 -6.3731166E-04
         758 -6.0780323E-05
         759  2.2316950E-05
         760 -1.2073217E-04
         761 -2.3506681E-04
         762 -2.1529970E-04
         763 -1.3869107E-04
         764 -3.7762127E-04
         765  1.5225190E-04
         766 -6.4644933E-05
         767 -5.6068168E-04
         768 -1.6748698E-05
         769 -9.0574336E-05
         770 -1.8181001E-04
         771  1.7599572E-04
         772  1.9452690E-04
         773  1.2141657E-04
         774 -1.2412027E-04
         775 -3.9265043E-04
         776 -6.7722918E-05
         777  5.5196497E-04
         778  9.5823389E-06
         779 -2.0315735E-04
         780  4.0524694E-05
         781  1.6911402E-04
         782  6.3215429E-04
         783  5.6070901E-05
         784 -8.8721805E-05
         785  8.6231637E-05
         786 -2.3721690E-04
         787  1.2266275E-04
         788  7.8253310E-05
         789  7.1889495E-05
         790  2.4582378E-05
         791 -3.4895969E-05
         792 -1.0184033E-04
         793 -1.6144850E-05
         794  5.3986616E-04
         795  2.6951294E-04
         796  1.7923291E-04
         797 -9.4944524E-05
         798  3.4817469E-05
         799  1.0017029E-04
         800  7.6692675E-05
         801  4.6168723E-05
         802  4.2230426E-05
         803 -8.2855513E-05
         804 -4.6924170E-04
         805 -1.0864537E-05
         806 -5.1304636E-05
         807  3.8973065E-04
         808  2.1837201E-04
         809 -6.4400909E-04
         810  3.4136721E-04
         811  1.7272550E-04
         812 -7.0183224E-04
         813 -9.6993847E-04
         814 -8.3475420E-04
         815  5.1168940E-04
         816 -5.1761908E-04
         817 -1.1917328E-02
         818 -1.7190534E-04
         819  3.7753989E-04
         820  1.0026025E-03
         821  9.3772926E-04
         822  9.3719354E-03
         823  2.5203046E-03
         824 -1.7173436E-03
         825 -7.1755457E-03
         826 -5.3119753E-04
         827 -5.6659384E-04
         828  2.5380924E-04
         829  4.9522552E-03
         830 -2.5755283E-03
         831 -1.4445644E-03
         832  1.0418684E-03
         833 -2.9986136E-04
         834 -1.2018170E-03
         835  9.6916355E-04
         836  3.5488719E-04
         837  2.0106044E-04
         838 -7.4567375E-05
         839 -5.8775526E-03
         840  4.4145328E-03
         841  1.7057402E-03
         842  3.1699298E-04
         843 -2.1263426E-04
         844 -7.8319741E-04
         845  3.9892239E-04
         846  1.2328345E-04
 Sym= Particle
 Ene= -0.6524768    
 Spin= Alpha
 Occup= 2
           1  1.6260698E-03
           2 -9.6611626E-04
           3  2.6143249E-03
           4  3.2940274E-04
           5 -1.1900549E-03
           6  2.5053899E-04
           7 -8.3784619E-04
           8  6.3364662E-04
           9  7.4373261E-06
          10  1.2210761E-03
          11 -8.6766895E-04
          12  4.3970076E-03
          13  2.7705939E-05
          14 -3.5062511E-04
          15  1.9100835E-04
          16 -8.4780046E-04
          17 -1.8333421E-03
          18 -2.5546518E-03
          19  1.2597931E-04
          20  3.2318186E-04
          21  1.5045764E-03
          22  6.8906206E-04
          23  2.2163500E-05
          24  6.2583975E-04
          25  4.0135374E-03
          26 -3.5859661E-03
          27  9.8111294E-03
          28  9.4559632E-04
          29 -2.0922073E-03
          30  1.2541288E-03
          31 -3.4797781E-03
          32  7.9040055E-04
          33 -2.6475659E-03
          34 -6.1226240E-03
          35  2.9438110E-03
          36  4.7664857E-03
          37  1.4669574E-03
          38  1.6422224E-03
          39 -7.2924339E-04
          40  1.5205143E-04
          41 -6.6199381E-04
          42  9.4500678E-03
          43 -7.7023613E-03
          44 -2.7272226E-03
          45  1.0220023E-03
          46 -1.0030570E-04
          47  2.2447333E-03
          48  3.4537460E-04
          49  7.1015995E-04
          50  2.4399194E-03
          51 -1.0824396E-03
          52 -1.0924308E-03
          53 -4.7150417E-04
          54  2.1279165E-04
          55  1.0929925E-03
          56  1.0361084E-03
          57 -1.6021308E-03
          58 -1.5459142E-02
          59  4.2060604E-03
          60  2.1117833E-03
          61  1.8297108E-03
          62  4.2618709E-03
          63  2.6117773E-03
          64 -1.0921984E-03
          65 -1.2367479E-02
          66  6.0525844E-03
          67 -1.7274437E-02
          68  1.4738919E-02
          69  1.0217034E-02
          70  1.5572527E-03
          71  9.1048637E-03
          72 -3.9940211E-03
          73  2.0060266E-04
          74  1.3303832E-02
          75 -9.0486491E-03
          76 -5.6280703E-03
          77  1.2138672E-07
          78 -2.0433953E-03
          79  1.8098652E-03
          80  6.5809907E-03
          81 -2.1180682E-04
          82 -7.2024222E-03
          83  6.0002240E-03
          84  0.1628250    
          85  3.9532810E-04
          86  3.2425697E-03
          87 -2.0052197E-03
          88 -4.7181144E-02
          89 -9.7539969E-04
          90  5.0675855E-03
          91 -1.5866640E-03
          92 -6.0042325E-02
          93  8.6441421E-04
          94 -1.2029118E-03
          95 -3.8898911E-04
          96  1.4963811E-02
          97 -5.5206451E-04
          98  4.1422257E-03
          99 -5.1259482E-03
         100 -0.1009419    
         101  1.1102488E-04
         102 -5.8262859E-04
         103  8.8434358E-04
         104  2.6334602E-02
         105  3.6384445E-04
         106 -4.5632464E-03
         107  3.7463112E-03
         108  0.1044868    
         109 -3.2789135E-04
         110  9.4544113E-04
         111 -1.6478472E-03
         112 -2.2329003E-02
         113 -3.3765679E-04
         114 -9.2785206E-04
         115 -6.7209784E-04
         116  0.1671294    
         117 -1.1446961E-04
         118 -2.7938685E-04
         119  6.0327270E-04
         120 -3.0644448E-02
         121  1.1622095E-03
         122 -5.0138857E-04
         123  1.7291575E-03
         124  0.1419232    
         125 -1.0636717E-03
         126  3.3936184E-04
         127 -8.6923910E-04
         128 -3.6489636E-02
         129 -6.3092069E-05
         130  4.3745185E-04
         131 -1.4751105E-04
         132 -0.3075317    
         133  5.6734039E-05
         134  3.2065055E-04
         135  7.6194346E-04
         136  6.3531026E-02
         137  3.4610488E-04
         138  2.6455072E-03
         139  8.7562837E-03
         140 -0.3715731    
         141 -1.0773003E-04
         142 -8.4832439E-04
         143 -3.1503094E-03
         144  9.4523914E-02
         145 -4.9632433E-04
         146 -3.9204094E-03
         147 -7.1856705E-03
         148  0.2574227    
         149  1.1506705E-03
         150  1.6372696E-04
         151  9.3806343E-04
         152 -5.6247953E-02
         153  2.4426326E-03
         154  5.7006200E-05
         155 -8.9291064E-03
         156  0.2025024    
         157 -1.2325447E-03
         158 -2.0809658E-03
         159  1.4745162E-03
         160 -6.6057362E-02
         161  5.3360866E-04
         162  5.4303836E-03
         163  1.2950813E-02
         164 -0.5019470    
         165 -1.4712322E-04
         166 -2.1692382E-03
         167 -8.2081249E-03
         168  0.1634660    
         169 -1.8831280E-04
         170 -2.3121350E-03
         171 -3.4647707E-02
         172  1.1231289E-02
         173  2.5376561E-04
         174  1.9524584E-04
         175  2.3648462E-03
         176 -2.1359351E-02
         177 -3.8213998E-02
         178  2.8497491E-02
         179 -6.0776725E-02
         180 -3.8479108E-02
         181  3.1471137E-02
         182 -2.5499910E-02
         183  1.9279620E-02
         184  1.0489757E-02
         185 -3.1427213E-03
         186  1.6668418E-02
         187  4.7894262E-02
         188 -9.2647402E-03
         189  3.1694991E-03
         190 -1.4924021E-02
         191 -7.3345806E-03
         192  3.4907162E-03
         193  1.9771918E-03
         194 -1.3882661E-03
         195 -6.4382730E-03
         196  3.5025012E-03
         197 -1.8150923E-03
         198 -4.1466174E-03
         199  1.1599640E-03
         200 -3.3732711E-03
         201 -1.7774153E-03
         202 -6.3664449E-04
         203 -4.0550031E-02
         204  1.1511637E-02
         205  3.1486591E-03
         206 -4.8405509E-03
         207  6.7992313E-03
         208 -2.0111138E-03
         209 -7.7544991E-03
         210  4.7854590E-03
         211  2.6391659E-02
         212 -1.7371029E-02
         213  4.5827972E-03
         214 -2.3138181E-03
         215 -7.5183413E-03
         216  5.1377906E-04
         217  1.2985273E-02
         218 -1.7267445E-02
         219  2.3947114E-02
         220 -3.8371740E-03
         221 -7.3736985E-03
         222  6.5046395E-03
         223 -1.0814821E-02
         224 -2.6545152E-03
         225 -1.3656286E-05
         226 -2.8905597E-05
         227 -3.6422608E-03
         228 -1.2476138E-02
         229 -2.7973056E-05
         230  1.0517218E-04
         231  5.4329977E-04
         232  1.6799512E-03
         233 -5.3241677E-03
         234  4.1763126E-03
         235  5.9529417E-03
         236 -8.2616706E-04
         237  4.6391580E-03
         238 -1.7395080E-03
         239 -1.8063890E-03
         240 -2.3342660E-03
         241  5.1331744E-03
         242 -3.8843593E-03
         243  6.2619573E-03
         244 -1.0089625E-03
         245 -4.3908684E-03
         246  1.7264587E-03
         247 -2.0986397E-03
         248 -2.3219483E-03
         249 -1.2804970E-02
         250  1.9510100E-02
         251  2.6709260E-02
         252 -4.8827329E-03
         253  7.2736684E-03
         254 -7.3085660E-03
         255 -1.1195557E-02
         256 -2.5389821E-03
         257  7.6390402E-03
         258 -2.4818664E-03
         259  2.4036253E-02
         260 -1.6254347E-02
         261 -4.4758623E-03
         262  2.0521136E-03
         263 -6.8535814E-03
         264  1.0592401E-04
         265  1.8825426E-03
         266 -3.4525804E-03
         267 -4.2493317E-02
         268  1.1529905E-02
         269 -3.1687689E-03
         270  5.7830336E-03
         271  6.8522310E-03
         272 -1.9154191E-03
         273 -2.4107883E-03
         274  1.1693520E-03
         275 -2.6760995E-03
         276  2.9978936E-03
         277  2.1719697E-03
         278  4.1330163E-03
         279  2.7340028E-04
         280 -3.3601329E-03
         281  3.9591310E-03
         282 -1.3682506E-02
         283  4.8842058E-02
         284 -8.6353254E-03
         285 -3.3949511E-03
         286  1.4852208E-02
         287 -9.0529183E-03
         288  3.3179449E-03
         289  3.7774209E-02
         290 -3.3436675E-02
         291 -5.7845097E-02
         292 -3.9398294E-02
         293 -3.0753251E-02
         294  2.6623990E-02
         295  1.6629068E-02
         296  1.0759078E-02
         297 -2.7285991E-03
         298 -4.9896943E-03
         299 -8.9229923E-03
         300  0.2049513    
         301  1.5787603E-03
         302  3.4565064E-03
         303  1.0874646E-03
         304 -6.5859556E-02
         305  3.8789894E-04
         306 -2.9888196E-04
         307 -7.4982126E-03
         308  0.2581047    
         309 -9.0240804E-04
         310  3.4062052E-04
         311  1.0233735E-03
         312 -5.9770737E-02
         313 -9.7065832E-04
         314 -4.3808650E-05
         315  1.5948479E-03
         316  0.2405922    
         317  7.7571784E-04
         318 -1.4972080E-04
         319 -8.4775768E-04
         320 -5.9035897E-02
         321  4.0849208E-04
         322  7.2294910E-04
         323 -9.2283136E-04
         324  7.5750172E-02
         325 -7.0246249E-05
         326 -3.0595242E-04
         327  3.7229122E-04
         328 -1.2315949E-02
         329 -4.8451731E-04
         330  4.8656974E-04
         331  7.9927308E-04
         332  1.3876366E-02
         333  3.8677602E-04
         334  2.6372104E-04
         335 -8.3105068E-04
         336 -1.9414902E-04
         337  4.9013854E-04
         338 -2.5167542E-03
         339 -1.0134341E-03
         340 -3.3811048E-02
         341 -3.4386473E-04
         342  7.6063478E-04
         343  5.5772689E-04
         344 -3.0300217E-03
         345 -8.9841901E-04
         346 -8.3289859E-05
         347 -2.6891436E-04
         348  4.6958989E-03
         349  4.9408054E-04
         350 -7.9242554E-06
         351  5.0559285E-04
         352  7.6034735E-04
         353  1.7057025E-04
         354  1.9333522E-03
         355  5.5783329E-04
         356  3.6228668E-02
         357 -3.2546566E-04
         358 -7.9290249E-04
         359  2.7432234E-04
         360 -7.0316880E-03
         361 -4.9907845E-05
         362 -6.0511739E-03
         363 -2.7113170E-03
         364 -2.9322403E-03
         365 -1.3997685E-04
         366  1.1735422E-03
         367  1.0646702E-03
         368  1.2830379E-03
         369  2.6989451E-03
         370 -8.5970020E-04
         371 -3.3603325E-03
         372  3.5614544E-03
         373 -2.3224142E-03
         374 -5.9901766E-04
         375  1.6705591E-03
         376 -9.3559886E-04
         377  5.5977062E-04
         378  3.8808787E-03
         379  1.7335455E-04
         380  5.7562609E-04
         381 -7.5596507E-04
         382 -3.4368483E-04
         383  6.9151266E-04
         384 -3.2311110E-04
         385 -1.2258285E-04
         386 -1.0036718E-03
         387 -2.7514351E-04
         388 -2.6071904E-04
         389  1.7649238E-05
         390  8.4270672E-05
         391  2.8043978E-05
         392  2.3215143E-04
         393  2.0195273E-04
         394 -2.5324386E-03
         395 -1.4874752E-03
         396 -7.9831848E-04
         397 -3.2607350E-04
         398 -1.6661458E-04
         399  3.6863040E-04
         400  1.2385703E-04
         401  7.1364228E-04
         402  1.0605885E-03
         403  2.6334525E-04
         404  1.0374712E-03
         405 -4.5840914E-04
         406 -1.9943336E-04
         407 -2.5334212E-04
         408  5.2554689E-05
         409 -7.4886053E-04
         410  1.9069508E-03
         411  2.2780881E-03
         412  3.9664735E-04
         413  2.2262264E-04
         414 -4.6325437E-04
         415 -6.0373609E-04
         416 -4.8181104E-05
         417 -6.1255168E-06
         418 -5.6572584E-04
         419 -3.6070147E-04
         420  1.1233856E-03
         421 -1.0964539E-04
         422  1.9430796E-04
         423  1.0982676E-04
         424 -3.5951645E-04
         425 -2.9409194E-04
         426  5.0129602E-04
         427  8.9890917E-04
         428  2.1655255E-04
         429 -2.6204739E-06
         430 -1.9839052E-04
         431 -2.2526430E-04
         432  1.4152743E-05
         433  6.9071341E-04
         434  6.9789024E-04
         435 -6.5244247E-05
         436  1.6401894E-04
         437 -6.2476442E-04
         438 -6.8648471E-05
         439 -1.9096316E-05
         440  4.7266964E-05
         441  7.1252580E-04
         442  3.2050414E-03
         443  2.6124631E-04
         444  4.9311249E-04
         445 -3.4595633E-04
         446 -4.3202331E-04
         447  2.3445502E-04
         448  8.9825107E-06
         449 -4.8226453E-04
         450  1.1437457E-04
         451  6.1022164E-04
         452  8.0407131E-04
         453  5.9312556E-06
         454  1.1930992E-04
         455  2.2626615E-05
         456  1.8252830E-04
         457 -2.0551623E-04
         458 -2.9141454E-03
         459 -1.0098068E-03
         460 -6.3941185E-04
         461  7.4176649E-05
         462  5.8574782E-04
         463 -2.5837562E-06
         464  6.6299981E-05
         465  2.6036199E-04
         466 -1.0882517E-04
         467 -2.8367963E-04
         468 -2.7720761E-04
         469 -2.8301274E-06
         470  3.7832491E-04
         471 -7.2124662E-05
         472  1.6885780E-04
         473 -8.3167187E-04
         474  2.5166541E-03
         475  3.6938912E-03
         476  6.8028038E-04
         477  1.0746819E-03
         478 -6.3017076E-05
         479 -1.7631460E-03
         480 -2.0249339E-04
         481 -2.5617955E-03
         482 -2.3186733E-03
         483  1.7057618E-03
         484  3.6835254E-03
         485  2.0237535E-03
         486  7.9811731E-04
         487 -1.2588202E-03
         488 -7.5243751E-04
         489  1.9909452E-04
         490 -1.8583569E-03
         491  3.7453207E-04
         492 -1.2932229E-02
         493 -2.9158263E-04
         494  1.5134990E-04
         495 -3.1136908E-04
         496 -6.5967487E-04
         497  4.7155502E-04
         498 -1.2372708E-03
         499 -1.4254859E-03
         500 -3.2132983E-02
         501 -1.9391016E-04
         502 -3.4141867E-05
         503  2.0174685E-04
         504  1.3005704E-02
         505 -2.6349834E-04
         506 -1.3569245E-04
         507  1.8596392E-03
         508 -0.2734785    
         509  2.1392966E-04
         510 -1.5844840E-05
         511 -5.4854213E-04
         512  5.7900682E-02
         513 -3.7615537E-04
         514  6.3723777E-03
         515 -3.6482648E-03
         516 -0.1019754    
         517  5.2398175E-04
         518 -1.4472512E-03
         519  9.7653852E-04
         520  1.3227369E-02
         521  1.4505343E-03
         522  2.7888645E-03
         523 -3.3289716E-03
         524 -4.6075027E-02
         525 -7.6367764E-04
         526 -1.9781820E-04
         527  1.6135389E-03
         528  1.6124025E-02
         529  1.2119838E-02
         530  1.7665518E-02
         531  4.0977163E-04
         532  1.4541802E-02
         533 -9.8246606E-03
         534 -7.8538125E-03
         535 -4.2799348E-03
         536 -3.6300672E-03
         537  1.8674301E-03
         538 -8.6899335E-03
         539  1.3882332E-02
         540  1.9540964E-03
         541 -1.9949700E-03
         542 -9.1863220E-04
         543 -5.8279629E-03
         544 -8.4748963E-04
         545 -8.5373811E-04
         546  7.9002790E-04
         547 -1.2818628E-03
         548 -1.0844499E-03
         549  5.2169850E-04
         550 -1.1021890E-03
         551 -6.9299212E-04
         552  1.0484043E-03
         553  6.8033632E-04
         554  1.0672357E-02
         555 -6.5905903E-03
         556 -2.6945733E-03
         557 -8.6047302E-04
         558 -2.4803074E-03
         559 -3.0974220E-04
         560  3.8296709E-04
         561  2.4861798E-03
         562 -3.8273174E-03
         563  4.3998500E-03
         564  4.3973480E-03
         565 -1.2027533E-03
         566  7.6762901E-04
         567 -1.1447404E-03
         568  3.0567028E-04
         569 -3.9301375E-03
         570 -1.1081504E-02
         571  8.6034473E-04
         572  1.2700951E-03
         573  2.1296598E-03
         574  3.5748323E-03
         575  7.0808032E-06
         576  7.6066569E-04
         577 -1.5544923E-03
         578  4.6474359E-04
         579 -4.1629907E-04
         580  8.0576853E-04
         581 -3.8438127E-05
         582 -5.8072255E-05
         583 -7.4952072E-04
         584 -5.6013854E-05
         585 -8.6091779E-04
         586  8.2455488E-04
         587 -1.9606740E-04
         588 -2.3251573E-04
         589  1.7626531E-04
         590  2.3959829E-04
         591  6.6113978E-04
         592  1.6330264E-03
         593 -4.2330488E-04
         594 -1.0512589E-03
         595 -4.4422636E-06
         596 -1.2902220E-04
         597  1.6976480E-04
         598  8.1456208E-04
         599  7.1071758E-04
         600  2.2312475E-04
         601  1.0505943E-03
         602  2.9950112E-04
         603  2.1766490E-04
         604 -2.4339180E-04
         605 -4.1942094E-05
         606  6.6622178E-04
         607  3.0823983E-03
         608  7.3764245E-06
         609 -1.1180384E-03
         610  7.2170427E-04
         611  9.2912017E-04
         612  2.0194874E-04
         613  1.4604635E-03
         614  2.6564335E-03
         615 -3.3277585E-04
         616 -1.4009721E-03
         617  2.0912357E-03
         618  6.1485393E-04
         619  4.0821210E-04
         620 -7.2676159E-04
         621 -9.5542718E-04
         622  1.7142128E-03
         623 -4.7451095E-04
         624 -8.4071616E-03
         625  4.3781139E-03
         626 -4.4040387E-03
         627  5.8704842E-04
         628  6.7102286E-04
         629  2.4316389E-04
         630 -1.6666416E-03
         631 -1.6703462E-02
         632 -2.2776016E-04
         633  6.2892027E-04
         634  5.3015462E-04
         635  8.4620976E-04
         636 -3.1863623E-03
         637  4.8217564E-04
         638  1.1679564E-04
         639 -2.1459293E-03
         640 -8.7699952E-04
         641  5.2033074E-02
         642 -1.4085385E-03
         643 -1.2313855E-03
         644 -4.0311529E-03
         645 -1.5676524E-03
         646  5.1052094E-02
         647  6.3463910E-03
         648 -2.1956530E-03
         649  5.8478918E-03
         650  2.9583491E-02
         651  1.0558779E-02
         652  6.7326897E-03
         653  2.3379782E-03
         654 -2.6839375E-04
         655 -2.1940011E-03
         656  2.8394153E-03
         657  1.0952174E-03
         658  4.6097427E-03
         659 -4.1282126E-03
         660 -7.9172356E-03
         661  4.8850803E-03
         662  8.9663388E-03
         663  4.5723774E-04
         664 -5.3864473E-04
         665  5.1625911E-03
         666 -4.0494935E-03
         667  4.7654932E-04
         668  2.8504932E-03
         669 -2.6117889E-03
         670 -8.3418324E-04
         671 -3.5357648E-03
         672  8.4457797E-04
         673  7.4417895E-04
         674  1.5876556E-03
         675  5.2942301E-04
         676 -2.8025371E-03
         677  4.5162812E-03
         678 -1.1503608E-03
         679  1.6850687E-03
         680  2.4244697E-03
         681  1.1766176E-04
         682 -1.6739940E-04
         683 -2.8678216E-03
         684  2.8207065E-03
         685 -1.0486995E-03
         686 -3.1697259E-03
         687 -6.9950911E-04
         688 -9.1045006E-04
         689 -1.4298332E-03
         690  2.4711946E-04
         691 -3.0505357E-03
         692 -4.6938490E-03
         693  1.2711806E-03
         694 -1.4194649E-03
         695  2.5365308E-03
         696  9.3376926E-05
         697 -8.9181066E-03
         698 -4.7721501E-04
         699  1.3753229E-03
         700  4.3584271E-03
         701 -3.8140870E-03
         702 -1.3204555E-03
         703 -4.7085024E-03
         704  3.6183815E-03
         705 -8.7136049E-03
         706  5.1289904E-03
         707 -7.0954328E-03
         708 -2.3917933E-03
         709  7.0101283E-05
         710 -1.3138652E-03
         711  2.7815260E-03
         712 -6.9342600E-03
         713  2.2251748E-03
         714 -1.0142657E-03
         715  2.7110446E-02
         716  1.2038480E-02
         717  1.3373483E-03
         718  1.2965844E-03
         719  2.8829975E-03
         720 -2.1490699E-03
         721  5.2301835E-02
         722 -8.6106022E-04
         723  1.9582993E-04
         724  8.9684041E-04
         725 -7.3313201E-04
         726  4.5365814E-02
         727 -3.0217457E-04
         728 -6.3589786E-04
         729 -1.9408331E-03
         730  1.8783156E-03
         731 -2.2563366E-02
         732 -4.8523128E-05
         733 -7.3949959E-05
         734 -5.6195044E-04
         735  5.3942908E-04
         736  3.1219937E-03
         737 -2.0527221E-04
         738  9.9079989E-05
         739  3.0673582E-03
         740  7.9583714E-04
         741 -1.1493682E-03
         742 -4.2843714E-04
         743  8.9468325E-05
         744  1.0489499E-04
         745 -4.1877711E-04
         746 -1.8425236E-04
         747  3.1780819E-05
         748 -3.2267129E-04
         749 -5.3912884E-04
         750 -9.3665121E-06
         751 -1.9608732E-04
         752 -8.0311589E-04
         753  9.5027144E-06
         754  4.0639821E-04
         755 -2.0223268E-04
         756  9.8539145E-05
         757 -1.2661643E-05
         758  2.6461610E-05
         759 -4.5929406E-05
         760 -2.2390563E-04
         761 -2.0640296E-05
         762 -6.5058382E-05
         763  5.0806128E-05
         764 -1.9244564E-04
         765 -1.4509236E-06
         766 -1.7050613E-06
         767  3.7500347E-04
         768 -1.7100909E-04
         769  1.9674819E-04
         770  5.5482695E-05
         771  3.8709157E-05
         772 -1.8685841E-04
         773 -3.6417568E-05
         774  3.3633100E-05
         775  2.1350315E-04
         776  6.1969469E-05
         777 -5.5436493E-04
         778  4.0161864E-05
         779  3.2445657E-04
         780 -1.6244924E-04
         781 -1.9146732E-04
         782 -1.4100518E-04
         783 -2.0726630E-04
         784 -1.5846209E-04
         785 -1.7287178E-04
         786  3.3673478E-04
         787  6.7448540E-04
         788 -1.6612888E-04
         789  1.6502400E-04
         790 -1.4966646E-04
         791  9.0381480E-05
         792  6.9713940E-05
         793  2.1934818E-04
         794 -2.1318211E-04
         795 -4.7878193E-04
         796 -3.8062045E-04
         797  4.6685315E-04
         798  3.0074184E-04
         799 -2.3228883E-04
         800 -2.3592309E-04
         801 -3.5972346E-04
         802  1.3647914E-04
         803  2.7017694E-04
         804 -4.8134709E-05
         805 -8.5945684E-04
         806 -1.0387432E-03
         807 -2.1832925E-04
         808 -4.2063190E-04
         809 -7.4559299E-05
         810 -1.8212735E-04
         811 -5.2150358E-03
         812  1.5725028E-04
         813 -8.0861128E-04
         814 -1.5956067E-04
         815  1.9860121E-03
         816  1.2795543E-02
         817  5.8424013E-04
         818  4.9396983E-04
         819  2.4943112E-03
         820  1.3813047E-03
         821 -3.1737763E-02
         822 -4.3113341E-05
         823 -3.1733478E-04
         824  1.7371100E-03
         825  7.0424174E-04
         826 -1.0103919E-02
         827 -1.7115030E-03
         828  2.6221175E-04
         829 -5.0764009E-03
         830  3.6236788E-03
         831 -4.5095179E-03
         832 -2.2349283E-03
         833 -8.5068430E-04
         834  6.4397731E-04
         835 -5.4555299E-04
         836 -1.0262381E-03
         837 -3.7765424E-04
         838 -1.3613621E-03
         839  1.0942313E-03
         840 -2.4657832E-03
         841 -1.4887707E-03
         842 -2.9969558E-03
         843  5.0166334E-05
         844 -1.0432501E-03
         845  4.1351942E-04
         846  8.9522282E-04
 Sym= Hole
 Ene= -0.3124147    
 Spin= Alpha
 Occup= 0
           1  4.3915682E-02
           2 -2.1360395E-02
           3  8.2656942E-02
           4  1.5412352E-02
           5 -2.4942154E-02
           6  2.2496562E-03
           7 -1.2207066E-02
           8 -2.3120046E-03
           9 -3.3404249E-05
          10  3.0923994E-02
          11 -2.2254700E-02
          12 -7.0138923E-03
          13 -1.7937758E-05
          14 -5.5015092E-03
          15  3.7782146E-03
          16  6.8858598E-04
          17 -4.3850865E-02
          18 -8.4801748E-02
          19 -6.4170016E-03
          20  1.6245168E-02
          21  2.4945015E-02
          22  1.2187473E-02
          23  1.7645443E-03
          24 -2.4406440E-03
          25 -2.0763981E-03
          26 -0.2130568    
          27  0.1496723    
          28  6.3734479E-02
          29  9.2081726E-04
          30  1.8694874E-02
          31 -1.4304121E-02
          32 -6.2465235E-03
          33  4.2799551E-05
          34  1.3936605E-02
          35 -9.9564185E-03
          36 -4.6060341E-03
          37 -2.7540221E-04
          38 -3.7526039E-03
          39  1.9222891E-03
          40  1.1941975E-03
          41 -5.7937909E-04
          42  0.2091620    
          43 -0.1422581    
          44 -5.8946773E-02
          45 -3.8493021E-05
          46 -1.4849622E-02
          47  9.7345393E-03
          48  4.4469782E-03
          49  1.5858353E-04
          50  1.8112054E-02
          51 -1.0958017E-02
          52 -5.2293404E-03
          53 -2.3067174E-04
          54 -8.8078007E-03
          55  5.1262700E-03
          56  3.1176999E-03
          57 -1.9515950E-03
          58 -0.2369888    
          59  0.1489956    
          60  6.0777918E-02
          61  1.2422365E-03
          62  1.2482238E-02
          63 -8.4105618E-03
          64 -1.9199465E-03
          65 -2.3432672E-03
          66 -9.1383889E-02
          67  6.1379179E-02
          68  2.7633261E-02
          69  1.7223961E-03
          70  2.1270655E-02
          71 -1.4824598E-02
          72 -7.6292399E-03
          73  2.3824223E-03
          74  0.4506944    
          75 -0.3153800    
          76 -0.1275890    
          77 -9.9643634E-04
          78 -4.6984877E-02
          79  3.2525618E-02
          80  8.8838553E-03
          81 -6.2717742E-04
          82 -4.8766661E-02
          83  3.5725124E-02
          84  3.7043955E-02
          85  8.1580156E-04
          86  1.2665563E-02
          87 -9.7406004E-03
          88 -4.7028335E-03
          89 -5.0439022E-02
          90  9.5539756E-02
          91  4.1537634E-03
          92  8.6165912E-02
          93  2.7944829E-02
          94 -1.3722410E-02
          95 -1.0679875E-02
          96 -6.9832215E-03
          97  1.5568090E-02
          98 -2.8516235E-02
          99 -1.2313023E-02
         100 -1.5671832E-02
         101 -4.9065975E-03
         102  2.0813672E-03
         103  1.3328852E-03
         104  2.6373260E-04
         105  3.9086040E-05
         106  2.3297861E-02
         107 -1.5589937E-02
         108 -0.1032110    
         109 -4.3719418E-05
         110 -1.7017048E-03
         111  1.4216787E-03
         112  6.8057133E-03
         113 -7.4137504E-05
         114 -4.8357961E-03
         115  2.9038533E-03
         116 -1.0261540E-02
         117  2.1906526E-05
         118  4.7227610E-03
         119 -3.2916279E-03
         120  3.2558755E-03
         121  6.1443672E-03
         122  1.0469000E-02
         123 -1.3042487E-02
         124  4.3208729E-02
         125 -1.4745031E-03
         126 -5.3678459E-04
         127 -3.2138394E-03
         128 -2.2884223E-03
         129 -1.8171286E-03
         130  2.6909259E-04
         131  2.9144727E-03
         132  1.1483855E-02
         133  7.4290833E-04
         134 -7.6702522E-04
         135 -2.4501744E-03
         136 -1.0303538E-03
         137 -1.8157784E-03
         138  2.7374162E-03
         139 -8.2843592E-03
         140  2.3855846E-02
         141  1.0889880E-03
         142 -7.6311902E-04
         143  8.9621427E-04
         144 -2.5396345E-03
         145 -5.3106011E-03
         146 -8.7390831E-03
         147  5.6550885E-03
         148 -4.1472674E-03
         149  1.5908451E-03
         150  6.0685858E-04
         151 -1.6206879E-05
         152 -8.6588063E-04
         153  1.6866833E-02
         154  1.7780889E-02
         155 -2.8516168E-02
         156 -2.4220217E-02
         157 -8.8976473E-03
         158 -4.9138553E-03
         159  2.0958278E-03
         160  2.6376829E-03
         161 -4.4388033E-04
         162  1.1125205E-03
         163  2.0416725E-02
         164 -2.2767913E-03
         165  3.7804333E-04
         166  1.1171805E-04
         167 -4.6410430E-03
         168  1.8351163E-03
         169  8.7649131E-04
         170 -1.3197670E-02
         171 -0.1807175    
         172  5.0386544E-02
         173 -3.1925860E-04
         174  1.4443378E-03
         175  1.8456165E-02
         176 -4.3052528E-03
         177  5.4483673E-05
         178  1.8950927E-03
         179  3.3621661E-02
         180 -8.9238547E-03
         181  1.2801657E-04
         182 -7.9390383E-04
         183 -8.5839573E-03
         184  2.8268206E-03
         185 -6.5667450E-04
         186  9.2298957E-03
         187  9.0230085E-02
         188 -2.5200551E-02
         189  5.0665694E-04
         190 -4.9359858E-04
         191 -4.7052889E-03
         192  1.0875294E-03
         193  4.1460320E-05
         194 -4.5398157E-04
         195 -3.8355675E-03
         196  1.4108208E-03
         197  1.4012893E-05
         198  5.4245180E-04
         199  3.3447009E-03
         200 -1.1498719E-03
         201 -6.5910514E-05
         202 -6.1944001E-03
         203 -7.8319781E-02
         204  2.2639737E-02
         205 -2.9698991E-05
         206  5.1248906E-04
         207  5.7159271E-03
         208 -1.7742895E-03
         209  1.4420984E-04
         210 -4.6358429E-04
         211 -4.7323671E-03
         212  2.0366975E-03
         213 -8.5751351E-05
         214  2.1307560E-04
         215  1.3764579E-03
         216 -4.4427032E-04
         217 -7.8636827E-04
         218  5.0660511E-03
         219  8.2220733E-02
         220 -2.5261370E-02
         221  2.9291018E-04
         222 -3.4146320E-05
         223 -7.4811513E-03
         224  2.3003779E-03
         225 -7.1434712E-05
         226 -6.1343372E-04
         227 -1.1339425E-02
         228  3.0697386E-03
         229 -2.8480206E-05
         230  1.6276490E-04
         231  2.3947423E-03
         232 -4.4475959E-04
         233 -1.4077314E-02
         234  1.8136764E-02
         235  1.9731026E-02
         236 -6.1101499E-03
         237  8.0647264E-03
         238 -2.9909154E-03
         239 -2.7612275E-03
         240  9.4881316E-04
         241  1.4005996E-02
         242 -1.6328463E-02
         243  2.0848382E-02
         244 -6.1532380E-03
         245 -8.0045406E-03
         246  2.7496070E-03
         247 -3.0036978E-03
         248  9.4975985E-04
         249  1.7396117E-03
         250  1.5646722E-03
         251  8.2384117E-02
         252 -2.4781458E-02
         253 -7.2063261E-04
         254 -3.2556220E-04
         255 -7.4622873E-03
         256  2.3833218E-03
         257 -5.3369050E-04
         258  1.9643425E-04
         259 -4.9043940E-03
         260  2.4247360E-03
         261  1.9547757E-04
         262 -6.3481086E-05
         263  1.3678805E-03
         264 -4.4875019E-04
         265  8.5135463E-05
         266 -1.3671959E-03
         267 -7.8905597E-02
         268  2.1934871E-02
         269  9.3150720E-07
         270  1.4637518E-04
         271  5.7153185E-03
         272 -1.6981985E-03
         273  1.5171769E-04
         274  1.0447112E-04
         275 -3.9488939E-03
         276  1.1225486E-03
         277 -8.3105777E-05
         278 -1.3847648E-04
         279  3.3730532E-03
         280 -9.1154623E-04
         281 -2.6699688E-04
         282 -1.0481661E-03
         283  9.1444440E-02
         284 -2.2887062E-02
         285  1.5130115E-04
         286  1.1243737E-05
         287 -4.8677637E-03
         288  6.1705563E-04
         289 -3.0781914E-04
         290  2.3933619E-03
         291  3.4008965E-02
         292 -8.1404485E-03
         293  1.6792225E-04
         294 -6.2443136E-04
         295 -8.7255975E-03
         296  2.5245470E-03
         297 -1.7145235E-02
         298 -2.0654021E-02
         299 -2.5430236E-02
         300 -2.7282150E-02
         301  8.9946231E-03
         302  5.4207272E-03
         303  1.1282025E-03
         304  2.4347058E-03
         305  5.3708805E-03
         306  8.9221094E-03
         307  6.2035196E-03
         308 -4.2541069E-03
         309 -1.7041425E-03
         310 -9.3496218E-04
         311 -4.5176537E-04
         312  4.2745212E-04
         313 -1.0575757E-04
         314  4.7912803E-03
         315 -3.8482191E-03
         316 -5.9599217E-02
         317 -1.3574246E-04
         318 -1.4050279E-03
         319  3.0870803E-04
         320  4.3868432E-03
         321  2.0390882E-03
         322 -2.6739740E-03
         323 -1.6284926E-03
         324  1.4525085E-03
         325 -8.3833747E-04
         326  1.2866427E-03
         327  1.2972393E-03
         328 -1.3145556E-03
         329  1.9274302E-03
         330  4.4456348E-03
         331 -1.9017240E-03
         332  1.7851472E-02
         333 -1.1415420E-03
         334 -4.8103090E-04
         335  8.3510426E-04
         336 -8.4430067E-04
         337 -1.7879645E-03
         338 -1.4019669E-03
         339 -3.1220526E-03
         340  3.8975594E-03
         341  5.9282989E-04
         342  6.5182408E-05
         343  6.1175419E-04
         344  9.1779471E-04
         345  5.0986195E-03
         346  4.1700122E-03
         347  7.6796087E-03
         348 -1.3380718E-02
         349 -2.6254200E-03
         350  3.0608656E-04
         351 -2.0196524E-03
         352  5.1210826E-04
         353  6.6865112E-05
         354 -5.2607465E-03
         355 -2.5961578E-03
         356 -8.6255837E-03
         357  4.9492657E-05
         358  1.5997402E-03
         359  7.2730047E-04
         360  2.8515237E-04
         361  1.4708868E-04
         362  4.8205670E-02
         363  2.3086967E-02
         364  1.3886741E-02
         365 -9.6469252E-05
         366 -5.1521263E-03
         367 -2.3803941E-03
         368 -6.3555560E-04
         369 -5.8808248E-04
         370 -1.0646902E-02
         371 -4.3036868E-03
         372 -3.6478848E-03
         373  2.7904395E-04
         374  2.2117058E-03
         375  1.2222739E-03
         376  8.7666541E-04
         377 -3.0312015E-04
         378 -2.5585426E-02
         379 -1.0221664E-02
         380 -6.2792003E-03
         381  1.0501931E-04
         382  1.3546380E-03
         383  8.0257485E-04
         384  8.3743420E-05
         385  3.3894084E-05
         386  2.9509258E-03
         387  1.1505000E-03
         388  7.9542422E-04
         389 -7.8431920E-05
         390 -9.2188542E-04
         391 -2.9981011E-04
         392 -3.5969476E-04
         393 -6.0761264E-05
         394  2.3660945E-02
         395  1.0884603E-02
         396  6.6027022E-03
         397 -1.5740221E-05
         398 -1.6176988E-03
         399 -6.8418542E-04
         400 -4.4123770E-04
         401 -9.5282856E-05
         402  1.5715355E-03
         403  8.9217862E-04
         404  2.3799304E-04
         405 -3.5241843E-05
         406 -3.9571230E-04
         407 -9.2702910E-05
         408 -1.5468967E-04
         409 -8.3803563E-05
         410 -2.3894629E-02
         411 -1.1536780E-02
         412 -6.6418704E-03
         413  5.1247924E-05
         414  2.1057765E-03
         415  1.1173462E-03
         416  7.5415825E-04
         417 -1.1388636E-06
         418  3.7284410E-03
         419  1.8745785E-03
         420  4.8631403E-04
         421 -7.5653306E-06
         422 -5.3161441E-04
         423 -2.3101619E-04
         424 -6.9376067E-05
         425  4.5319083E-03
         426 -3.7252584E-03
         427 -8.0477707E-03
         428 -1.7289460E-03
         429 -2.5491628E-03
         430  4.1316144E-04
         431  1.1510859E-03
         432  2.6236105E-04
         433 -4.5034681E-03
         434 -8.5716713E-03
         435  2.0353801E-03
         436 -1.6292519E-03
         437  2.5263669E-03
         438  1.1496185E-03
         439 -3.7478097E-04
         440  2.4292391E-04
         441  1.5820157E-04
         442 -2.3723794E-02
         443 -1.1927971E-02
         444 -6.6536944E-03
         445 -8.2575149E-05
         446  2.1329445E-03
         447  9.5941965E-04
         448  7.4960379E-04
         449  6.2686653E-05
         450  1.6066383E-03
         451  7.1862061E-04
         452  3.1089663E-04
         453  3.1826592E-05
         454 -3.5322216E-04
         455 -2.5833852E-04
         456 -1.5694968E-04
         457  8.8771529E-05
         458  2.3066910E-02
         459  1.1928445E-02
         460  6.5604053E-03
         461 -1.1145070E-05
         462 -1.5924220E-03
         463 -8.5022236E-04
         464 -4.5839581E-04
         465 -5.6737081E-05
         466  2.6147601E-03
         467  1.5561833E-03
         468  8.0741546E-04
         469  5.2561336E-05
         470 -8.6085912E-04
         471 -5.5747776E-04
         472 -3.4193482E-04
         473  3.0774513E-04
         474 -2.3694213E-02
         475 -1.4086912E-02
         476 -6.1499681E-03
         477 -1.2968489E-04
         478  1.4075264E-03
         479  7.0797099E-04
         480  8.3934523E-05
         481  5.3896819E-04
         482 -1.0028630E-02
         483 -5.5632200E-03
         484 -3.5638453E-03
         485 -2.6355844E-04
         486  2.2904563E-03
         487  9.9379185E-04
         488  8.0002710E-04
         489 -4.6064882E-03
         490  9.0769483E-03
         491 -2.1652286E-03
         492 -9.7298240E-03
         493  2.7622113E-03
         494 -1.3107390E-03
         495  1.3180324E-03
         496  8.6421298E-04
         497  1.3000490E-03
         498 -2.1717034E-03
         499  2.1504050E-03
         500  5.2269376E-03
         501 -3.1803807E-04
         502 -3.9946248E-05
         503 -3.0824845E-04
         504 -6.1299599E-04
         505 -6.4982865E-03
         506  1.5954502E-02
         507 -5.2832221E-03
         508  4.2714868E-02
         509  1.6075027E-03
         510  2.3080448E-03
         511  2.4878741E-03
         512 -3.5492466E-03
         513 -1.6007714E-02
         514  1.3527075E-03
         515  3.1511765E-02
         516 -1.1968123E-02
         517  4.9414281E-03
         518 -4.9450184E-04
         519 -2.0093375E-03
         520  5.8487500E-04
         521  5.0728589E-02
         522  3.0372735E-02
         523 -9.0638451E-02
         524  8.9532927E-02
         525 -2.7496437E-02
         526  5.0405008E-03
         527  1.6493240E-02
         528 -7.0598135E-03
         529  1.4834742E-03
         530 -8.8608958E-02
         531  6.5229580E-02
         532  2.5802011E-02
         533 -7.4200152E-04
         534  2.1530723E-02
         535 -1.4817684E-02
         536 -6.7926077E-03
         537  1.0042234E-03
         538 -0.2172079    
         539  0.1770936    
         540  5.7733998E-02
         541 -3.5408567E-04
         542  1.2059699E-02
         543 -9.2504397E-03
         544 -1.2353769E-03
         545 -5.2576670E-05
         546  1.5899528E-02
         547 -1.3633782E-02
         548 -4.9735117E-03
         549  1.1280239E-04
         550 -7.7959462E-03
         551  6.6619930E-03
         552  2.6787773E-03
         553  4.9961515E-04
         554  0.2017986    
         555 -0.1522565    
         556 -5.7792168E-02
         557  1.7385340E-05
         558 -1.4141669E-02
         559  1.0820432E-02
         560  4.2984122E-03
         561 -6.4210169E-04
         562  1.3380035E-02
         563 -1.0189846E-02
         564 -5.2775531E-03
         565  4.3207043E-04
         566 -3.1302508E-03
         567  2.8512054E-03
         568  1.1728244E-03
         569  3.3216297E-03
         570 -0.2088339    
         571  0.1553642    
         572  6.3330553E-02
         573 -1.2641030E-03
         574  1.9320017E-02
         575 -1.3387498E-02
         576 -6.3012950E-03
         577 -2.1764850E-02
         578 -1.2005040E-03
         579 -1.5968302E-03
         580  6.9020712E-03
         581 -6.6930419E-03
         582 -2.0312527E-02
         583 -1.1804211E-03
         584  1.5742134E-03
         585  5.0691571E-03
         586  8.2605286E-03
         587 -9.9995127E-03
         588 -5.7590050E-03
         589 -1.4777124E-02
         590 -3.7873879E-03
         591  2.3093177E-03
         592  2.1717858E-02
         593  1.1884746E-03
         594 -7.0658289E-03
         595 -7.3366018E-04
         596 -6.6654771E-03
         597  2.0258533E-02
         598  1.1736091E-03
         599 -4.1520707E-03
         600 -2.9653925E-03
         601  8.3815828E-03
         602  9.9337185E-03
         603  5.6154872E-03
         604 -1.3106078E-03
         605  1.5160220E-02
         606  2.1407811E-03
         607  1.6140806E-03
         608 -7.0995715E-04
         609  2.0673184E-03
         610 -2.0141276E-03
         611 -5.4686383E-04
         612  3.6463267E-04
         613 -3.1976079E-04
         614  1.8769374E-02
         615 -1.2801998E-02
         616 -5.3507942E-03
         617  2.5385378E-03
         618 -9.0175244E-04
         619  4.2542075E-03
         620 -2.7332916E-03
         621 -9.8366570E-04
         622 -6.3501234E-04
         623  5.9892988E-04
         624 -1.2883177E-02
         625  1.1325113E-02
         626  4.4588461E-03
         627  2.9137174E-02
         628  7.4981977E-03
         629 -1.8771576E-02
         630 -1.3221144E-02
         631  7.5731054E-04
         632 -3.8010634E-02
         633  5.9752585E-04
         634  2.9781905E-03
         635  3.0755771E-03
         636  1.8551714E-03
         637  1.2962193E-02
         638 -3.3066442E-04
         639  1.2599002E-03
         640 -1.5844034E-04
         641 -2.0836173E-03
         642 -9.3896138E-03
         643 -2.4702335E-03
         644 -6.8438221E-03
         645  3.2215447E-03
         646  1.7683358E-04
         647  1.2941645E-04
         648  2.6144303E-04
         649 -2.9905126E-04
         650  5.2745445E-03
         651 -1.6837048E-03
         652  3.6399689E-04
         653 -2.0696031E-04
         654 -2.4122784E-04
         655 -1.8234758E-03
         656  4.7061444E-04
         657  9.5481715E-05
         658 -9.8993085E-05
         659 -5.5134972E-04
         660 -7.4158977E-03
         661  2.2198907E-03
         662  3.4748387E-04
         663 -2.4611293E-04
         664  3.6405352E-05
         665 -1.0864480E-03
         666  1.8927388E-04
         667  6.5144887E-03
         668  3.5012522E-04
         669  1.6751237E-03
         670  3.6378382E-04
         671 -2.7252675E-03
         672  3.0279332E-03
         673  1.8445128E-03
         674 -3.5316877E-03
         675  3.3364694E-03
         676 -8.7827735E-04
         677  6.8201497E-03
         678  3.6367492E-04
         679  1.5709609E-03
         680  1.8132969E-03
         681  2.0320404E-03
         682 -6.4268038E-03
         683 -3.0969028E-04
         684 -1.7132277E-03
         685  5.3971616E-04
         686 -2.6761747E-03
         687 -3.0706385E-03
         688 -1.8881860E-03
         689  3.9148415E-03
         690  2.9979891E-03
         691 -8.6866668E-04
         692 -6.6625383E-03
         693 -3.1108398E-04
         694 -1.4980366E-03
         695  1.9606778E-03
         696  1.9539546E-03
         697 -6.0553186E-05
         698  1.7274726E-04
         699 -1.5549095E-04
         700 -1.0629188E-03
         701  1.4003608E-04
         702 -1.6061027E-04
         703  8.9704270E-05
         704 -1.7092460E-04
         705 -7.4346769E-03
         706  2.1058125E-03
         707 -7.0209306E-04
         708  2.4031124E-04
         709  3.9290229E-05
         710 -1.7849612E-03
         711  5.0342141E-04
         712  1.5911787E-04
         713 -1.0285900E-04
         714  5.1533664E-04
         715  5.4285591E-03
         716 -1.8921673E-03
         717  1.0613328E-02
         718  2.4094987E-03
         719  7.0950859E-03
         720  1.9316415E-03
         721 -5.3791027E-04
         722 -1.2659078E-02
         723  7.7649229E-04
         724 -2.1732165E-03
         725 -7.0729555E-04
         726  7.9021836E-04
         727  3.6736769E-03
         728 -8.8931370E-04
         729  8.0537262E-05
         730  1.2994485E-03
         731  1.0743807E-03
         732 -3.2611669E-03
         733 -7.7905500E-04
         734  3.2564794E-04
         735 -2.1248418E-03
         736 -4.8627800E-04
         737 -1.2460162E-04
         738  5.9756712E-06
         739 -1.6384034E-03
         740 -8.6674554E-04
         741 -5.8784563E-04
         742  3.9046168E-04
         743 -1.6724886E-04
         744  3.7239809E-04
         745  2.0216283E-04
         746  4.9718692E-05
         747 -4.5200777E-05
         748 -6.1397099E-05
         749  2.0226601E-03
         750  9.3588390E-04
         751  5.3015538E-04
         752  2.6171698E-04
         753 -8.8992587E-05
         754  1.6163230E-04
         755  1.7568811E-04
         756  8.8574699E-05
         757 -1.9507085E-03
         758 -1.0378227E-04
         759  1.0252118E-04
         760 -5.0198368E-04
         761 -8.4249809E-04
         762 -1.1608540E-03
         763 -6.0189510E-04
         764 -1.3976317E-03
         765  6.3567271E-04
         766 -2.5166146E-04
         767 -2.3407156E-03
         768 -1.3337839E-04
         769 -2.6252266E-04
         770 -6.6106132E-04
         771  6.9624337E-04
         772  1.1597719E-03
         773  5.7610811E-04
         774 -3.8171187E-04
         775 -1.4912450E-03
         776 -2.6079253E-04
         777  2.3120462E-03
         778  1.1926263E-04
         779 -6.8098045E-04
         780  2.0027922E-04
         781  6.8898743E-04
         782  1.9291872E-03
         783  9.7579883E-05
         784 -3.4187463E-04
         785  3.7981899E-04
         786 -8.4380736E-04
         787 -1.8870505E-04
         788  6.5434848E-05
         789  2.5444367E-04
         790  5.9051788E-05
         791  7.1216404E-05
         792  2.7136723E-05
         793  5.3213986E-05
         794  1.9936697E-03
         795  1.0319763E-03
         796  5.3707836E-04
         797 -4.1504978E-04
         798  1.1692448E-04
         799  4.0203717E-04
         800  2.3430634E-04
         801  1.0202406E-04
         802  2.6208506E-04
         803 -1.4300666E-04
         804 -1.5412336E-03
         805 -3.5344501E-04
         806 -4.6990498E-04
         807  2.4413508E-03
         808  6.9688325E-04
         809 -1.6275479E-03
         810  1.6684843E-03
         811  3.7100291E-04
         812 -4.1497229E-03
         813  3.8312748E-05
         814 -6.5606597E-05
         815 -5.2936497E-04
         816 -2.3276992E-03
         817  3.8155507E-02
         818 -6.1852642E-04
         819 -1.9979896E-03
         820 -3.7593828E-03
         821  2.3510307E-03
         822 -2.8665833E-02
         823 -7.6174452E-03
         824  5.5737956E-03
         825  2.2156512E-02
         826  2.1605896E-04
         827  1.3015743E-03
         828 -5.4906588E-04
         829 -1.4835902E-02
         830  8.6005656E-03
         831  4.6491567E-03
         832 -2.8053611E-03
         833  7.8839081E-04
         834  3.9607817E-03
         835 -3.1197921E-03
         836 -1.1161104E-03
         837 -4.3385086E-04
         838  2.7289282E-04
         839  1.8182306E-02
         840 -1.3693751E-02
         841 -5.2416255E-03
         842 -9.4597618E-04
         843  5.1974389E-04
         844  2.5606342E-03
         845 -1.3677856E-03
         846 -4.7784613E-04
 Sym= Particle
 Ene= -0.3124147    
 Spin= Alpha
 Occup= 2
           1 -5.1854108E-03
           2  2.4493388E-03
           3 -6.1505125E-03
           4 -4.1199155E-04
           5  4.7948300E-03
           6 -4.3387304E-04
           7  2.3528093E-03
           8 -2.6134711E-03
           9 -7.0370311E-06
          10 -2.1651292E-03
          11  1.3684740E-03
          12 -1.2673637E-02
          13  1.3621619E-04
          14  2.9522387E-04
          15 -9.1711583E-05
          16  1.4989972E-03
          17  4.8472020E-03
          18  6.9414675E-03
          19 -2.2984676E-04
          20 -4.0767374E-04
          21 -4.2348946E-03
          22 -2.5872868E-03
          23 -3.8511941E-04
          24 -2.5458187E-03
          25 -1.3377095E-02
          26  7.3707500E-03
          27 -2.8535368E-02
          28 -2.2880617E-03
          29  7.7574621E-03
          30 -4.3460429E-03
          31  1.1949198E-02
          32 -3.6324132E-03
          33  7.7586174E-03
          34  2.4249038E-02
          35 -1.3098921E-02
          36 -1.6063837E-02
          37 -4.6064118E-03
          38 -7.7477572E-03
          39  2.5659315E-03
          40  1.2986401E-04
          41  1.9383573E-03
          42 -3.2748051E-02
          43  2.5131090E-02
          44  9.4099138E-03
          45 -3.3805002E-03
          46  2.9398531E-03
          47 -8.6025987E-03
          48 -1.7416128E-03
          49 -2.2303462E-03
          50 -3.8833511E-03
          51  1.5869776E-03
          52  3.2123707E-03
          53  1.9606594E-03
          54 -2.2430399E-03
          55 -3.9220019E-03
          56 -3.3844779E-03
          57  3.5477886E-03
          58  4.6959024E-02
          59 -1.5063294E-02
          60 -6.4034327E-03
          61 -3.2264946E-03
          62 -1.5817542E-02
          63 -7.7086152E-03
          64  3.1255221E-03
          65  3.8849019E-02
          66 -3.0052327E-02
          67  5.9580460E-02
          68 -4.2534031E-02
          69 -3.1778958E-02
          70 -3.3466204E-04
          71 -3.2506522E-02
          72  1.1910163E-02
          73 -2.9572664E-04
          74 -2.3339594E-02
          75  1.6138315E-02
          76  6.6857236E-03
          77  2.3013570E-04
          78  1.0035792E-03
          79 -2.4779863E-04
          80 -2.1368843E-02
          81  7.6679018E-05
          82  2.2544190E-02
          83 -1.8599473E-02
          84 -0.5072150    
          85 -2.4743512E-04
          86 -1.0563245E-02
          87  8.3795879E-03
          88  0.1694870    
          89  2.1544844E-03
          90 -1.2989036E-02
          91  7.6768291E-03
          92  0.2119406    
          93 -1.3404182E-03
          94  3.9789998E-03
          95 -4.3371678E-04
          96 -7.1387880E-02
          97  9.6932818E-05
          98 -1.1690983E-02
          99  1.0650512E-02
         100  0.2486121    
         101  3.1198721E-04
         102  2.4508485E-03
         103 -1.6591349E-03
         104 -5.5130031E-02
         105  3.3321552E-04
         106  1.7955253E-02
         107 -1.1691379E-02
         108 -0.3884271    
         109 -4.0158827E-04
         110 -5.8804904E-03
         111  3.5593242E-03
         112  0.1019277    
         113 -2.0780282E-04
         114  7.7683671E-04
         115  2.7412840E-04
         116 -0.2617472    
         117  1.4381154E-04
         118  1.1214059E-03
         119 -1.0861715E-03
         120  5.7141297E-02
         121 -1.0905918E-03
         122  2.3023165E-03
         123  2.1564667E-04
         124  0.2948773    
         125  9.4178849E-04
         126 -1.2922265E-03
         127 -2.8065991E-04
         128 -7.5520635E-02
         129  2.3004870E-04
         130 -4.4420428E-04
         131 -4.0931476E-04
         132 -2.9161813E-02
         133  2.2868287E-04
         134  2.1774994E-04
         135  3.5416009E-04
         136  1.0476837E-02
         137 -2.4103651E-04
         138  1.5978859E-03
         139  3.7811638E-03
         140 -0.1577983    
         141  2.9931928E-04
         142 -8.6337730E-04
         143 -1.4731654E-03
         144  4.5557719E-02
         145  2.2434435E-04
         146 -1.1395322E-03
         147 -1.7513229E-03
         148  7.1944006E-02
         149  1.4868406E-04
         150  5.2977866E-05
         151 -1.5496757E-04
         152 -2.7333146E-02
         153 -8.7268162E-08
         154 -6.5848645E-04
         155 -3.4531534E-03
         156  0.1000215    
         157  1.7139393E-04
         158 -2.6206116E-04
         159  4.1944097E-04
         160 -3.1128975E-02
         161  2.9679667E-04
         162  2.0479821E-03
         163  4.7004959E-03
         164 -0.1855799    
         165 -2.6495705E-04
         166 -5.4065196E-04
         167 -3.2711208E-03
         168  6.7751601E-02
         169 -7.3766350E-05
         170 -2.7702469E-04
         171 -6.0966839E-03
         172  3.5095404E-04
         173 -4.4879407E-06
         174  2.5571894E-04
         175 -1.3927864E-03
         176 -8.1607169E-03
         177 -1.4269128E-02
         178  9.7981244E-03
         179 -2.6010051E-02
         180 -1.3076928E-02
         181  1.1681353E-02
         182 -9.6860258E-03
         183  8.9250142E-03
         184  3.6757782E-03
         185 -6.6400133E-04
         186  5.4283626E-03
         187  1.8325055E-02
         188 -3.5267239E-03
         189  3.5885570E-04
         190 -5.9761209E-03
         191 -3.6050526E-03
         192  1.3296552E-03
         193  7.6701777E-04
         194 -3.6367675E-04
         195 -2.1540697E-03
         196  1.3686597E-03
         197 -8.9944829E-04
         198 -1.9125211E-03
         199  5.3117186E-04
         200 -1.3113176E-03
         201 -5.9285655E-04
         202 -5.1836629E-04
         203 -1.5385453E-02
         204  4.3418063E-03
         205  1.1621630E-03
         206 -1.7336126E-03
         207  3.2607678E-03
         208 -8.9793338E-04
         209 -2.6881571E-03
         210  1.8637705E-03
         211  1.2174802E-02
         212 -7.0337011E-03
         213  1.6679623E-03
         214 -1.3325977E-03
         215 -3.5826887E-03
         216  4.4539184E-04
         217  5.0757076E-03
         218 -6.6919182E-03
         219  6.6047516E-03
         220 -8.7402499E-04
         221 -3.1119992E-03
         222  2.6202349E-03
         223 -4.1264542E-03
         224 -1.4149859E-03
         225  6.9775609E-07
         226 -6.2576211E-05
         227 -6.7186961E-04
         228 -4.2804182E-03
         229 -9.7817596E-05
         230  3.6271587E-05
         231 -1.9968693E-04
         232  2.6428135E-04
         233 -1.5290229E-03
         234  1.1892046E-03
         235  1.7716507E-03
         236 -2.9399256E-05
         237  1.4036596E-03
         238 -7.0816302E-04
         239 -6.9493853E-04
         240 -1.1076865E-03
         241  1.7792659E-03
         242 -9.4696914E-04
         243  1.6068395E-03
         244 -1.4822520E-04
         245 -1.8124976E-03
         246  6.0305855E-04
         247 -6.0065789E-04
         248 -1.0701834E-03
         249 -5.0710626E-03
         250  7.3295985E-03
         251  7.7561243E-03
         252 -1.2525120E-03
         253  3.0294263E-03
         254 -2.8977944E-03
         255 -4.7252122E-03
         256 -1.3164754E-03
         257  2.8278918E-03
         258 -5.8531092E-04
         259  1.1547506E-02
         260 -6.7222342E-03
         261 -1.9916266E-03
         262  1.0545877E-03
         263 -3.5945731E-03
         264  3.6837274E-04
         265  6.3462096E-04
         266 -9.0564362E-04
         267 -1.5943723E-02
         268  4.4425041E-03
         269 -1.4019944E-03
         270  2.2546449E-03
         271  2.7811313E-03
         272 -8.5740973E-04
         273 -8.5041818E-04
         274  2.7702801E-04
         275 -1.1858463E-03
         276  1.1001242E-03
         277  1.1114524E-03
         278  1.6242861E-03
         279 -9.5629643E-05
         280 -1.3016994E-03
         281  7.5884297E-04
         282 -3.6883738E-03
         283  1.7894574E-02
         284 -3.0950794E-03
         285 -1.0743529E-04
         286  5.0778445E-03
         287 -3.3135647E-03
         288  1.2404441E-03
         289  1.4164235E-02
         290 -1.2020377E-02
         291 -2.5879340E-02
         292 -1.3304142E-02
         293 -1.1564517E-02
         294  1.0393964E-02
         295  7.9876520E-03
         296  3.9176042E-03
         297 -5.4422324E-04
         298 -1.0444147E-03
         299 -2.8415231E-03
         300  8.3817787E-02
         301  1.7069164E-04
         302  9.9037855E-04
         303  4.6706866E-04
         304 -3.2423995E-02
         305  1.6395954E-04
         306 -5.1017123E-04
         307 -2.1620796E-03
         308  7.3814966E-02
         309 -2.3292250E-04
         310  2.3047822E-04
         311  2.1869309E-04
         312 -1.3084472E-02
         313 -2.6472146E-04
         314  1.3231796E-04
         315  7.8014767E-05
         316 -0.1635160    
         317  2.4088730E-04
         318 -4.7589634E-05
         319 -1.1364561E-04
         320  2.8698612E-02
         321 -5.1275437E-04
         322  8.8847219E-04
         323  1.4241194E-04
         324  0.1617735    
         325  1.8625664E-04
         326 -1.8058023E-05
         327 -1.3891028E-04
         328 -2.7188957E-02
         329  4.1494559E-04
         330  2.1915063E-03
         331  2.1359288E-05
         332  3.5514694E-02
         333 -3.0752434E-04
         334 -8.4091641E-04
         335  3.3176848E-04
         336 -2.2627991E-03
         337 -4.2511206E-04
         338 -4.9907099E-03
         339 -5.9520800E-05
         340 -7.2124273E-02
         341  1.6441676E-04
         342  1.0027469E-03
         343 -7.3163363E-05
         344  1.5373112E-02
         345 -9.6336479E-04
         346 -1.4255411E-03
         347 -2.4309256E-03
         348 -1.6290454E-02
         349  8.2171807E-04
         350 -1.6662956E-04
         351  9.9775230E-04
         352  8.3133345E-04
         353 -1.0683890E-04
         354  4.4830050E-03
         355  1.2984381E-03
         356  8.3341517E-02
         357  1.2961337E-04
         358 -1.3662307E-03
         359 -6.9680286E-04
         360 -1.7353922E-02
         361  8.7677763E-05
         362 -1.3303420E-02
         363 -6.4954446E-03
         364 -6.3635134E-03
         365 -4.0325758E-05
         366  3.1947922E-03
         367  1.3274581E-03
         368  3.1229828E-03
         369  6.0520424E-03
         370 -8.3480461E-04
         371 -7.0277769E-03
         372  8.2730604E-03
         373 -4.9775806E-03
         374 -1.3626431E-03
         375  3.5249267E-03
         376 -1.9084408E-03
         377  1.5412177E-03
         378  9.4596185E-03
         379 -1.1370615E-04
         380  1.3864740E-03
         381 -1.9720180E-03
         382 -2.3792938E-03
         383  2.0470198E-03
         384 -5.4205098E-04
         385 -4.6142060E-04
         386 -1.6520378E-03
         387 -3.1343830E-04
         388 -7.2812341E-04
         389  1.1578684E-04
         390  3.7809639E-04
         391  6.1673624E-04
         392  5.2085752E-04
         393  4.3589281E-04
         394 -5.2272072E-03
         395 -3.3175969E-03
         396 -1.4480127E-03
         397 -3.3664529E-04
         398  1.7125087E-04
         399  9.1509003E-04
         400  1.6954148E-04
         401  1.3221283E-03
         402  1.6085460E-03
         403 -1.5679737E-04
         404  2.0180242E-03
         405 -4.5614614E-04
         406 -1.4154473E-05
         407 -6.0533730E-05
         408  3.3506064E-04
         409 -1.7386603E-03
         410  4.3794126E-03
         411  5.2125510E-03
         412  9.6104917E-04
         413  7.2930660E-04
         414 -5.7662767E-04
         415 -1.2491598E-03
         416  6.1892984E-05
         417 -1.4342550E-07
         418 -1.2681932E-03
         419 -6.3512468E-04
         420  2.4754743E-03
         421 -2.9575119E-07
         422  3.8468599E-04
         423  2.2089716E-04
         424 -7.1710441E-04
         425 -1.0864525E-03
         426  9.5955783E-04
         427  1.5976750E-03
         428  3.6620232E-04
         429  6.8368018E-04
         430 -2.5842604E-04
         431 -2.8482056E-04
         432  1.7284241E-04
         433  1.0098231E-03
         434  1.9173650E-03
         435 -2.6244394E-04
         436  3.9002727E-04
         437 -5.9266458E-04
         438 -4.3184691E-04
         439 -1.8153867E-06
         440  1.1637663E-04
         441  1.7621500E-03
         442  6.8030269E-03
         443  2.3886707E-04
         444  9.0393197E-04
         445 -7.5535133E-04
         446 -1.5087652E-03
         447  2.5139636E-04
         448  5.1194944E-05
         449 -1.3819595E-03
         450  1.1305715E-03
         451  1.4255729E-03
         452  2.1141919E-03
         453  5.7078176E-04
         454 -2.3636005E-04
         455 -3.1740987E-05
         456  2.5547639E-04
         457 -4.0076798E-04
         458 -5.8966372E-03
         459 -2.1314896E-03
         460 -1.4220608E-03
         461  3.9491057E-04
         462  6.3288334E-04
         463 -6.5020373E-04
         464  6.4476939E-05
         465  4.2859415E-04
         466 -1.5236591E-03
         467 -1.2744099E-03
         468 -6.5959420E-04
         469 -1.3581922E-04
         470  5.9053401E-04
         471  2.9594510E-05
         472  4.9500301E-04
         473 -1.3863804E-03
         474  5.7896967E-03
         475  7.2483937E-03
         476  1.3865049E-03
         477  1.7720214E-03
         478  3.5183149E-04
         479 -2.5413120E-03
         480 -5.8344618E-04
         481 -6.1135436E-03
         482 -6.3984469E-03
         483  3.3439761E-03
         484  8.3473902E-03
         485  5.0236946E-03
         486  2.0196971E-03
         487 -3.2585913E-03
         488 -2.0669198E-03
         489  1.3504495E-03
         490 -2.1318700E-03
         491  3.3629400E-04
         492 -7.5404728E-03
         493 -9.6005446E-04
         494  7.4753712E-04
         495 -6.4184924E-04
         496  1.4649068E-03
         497 -1.8021135E-04
         498 -4.3299207E-03
         499 -2.3021731E-03
         500 -7.3085770E-02
         501  1.7787133E-04
         502  9.6651854E-04
         503  7.7494734E-04
         504  7.4359709E-03
         505  1.7926275E-03
         506  1.0110777E-03
         507 -2.0286143E-03
         508  8.7727562E-02
         509 -1.4772613E-03
         510 -3.9826505E-04
         511  1.0985807E-03
         512 -2.8581167E-02
         513 -1.3391172E-04
         514 -1.4087684E-02
         515  7.3400834E-03
         516  0.2463846    
         517 -8.3864300E-04
         518  2.4419359E-03
         519 -1.4445187E-03
         520 -6.1046127E-02
         521 -1.5393656E-03
         522 -1.1738515E-02
         523  1.1480659E-02
         524  0.2205448    
         525  4.0810919E-04
         526  1.5785776E-03
         527 -4.1215322E-03
         528 -7.1054153E-02
         529 -3.8526569E-02
         530 -6.6188999E-02
         531  8.7285750E-03
         532 -4.1940130E-02
         533  3.1470902E-02
         534  3.0437201E-02
         535  1.1108308E-02
         536  1.1435769E-02
         537 -3.6606847E-03
         538  2.8414162E-02
         539 -3.8993333E-02
         540 -5.6347311E-03
         541  2.9703968E-03
         542  2.5540232E-03
         543  1.7008632E-02
         544  2.7510889E-03
         545  2.3593199E-03
         546 -1.2408101E-03
         547  2.3630580E-03
         548  2.8899037E-03
         549 -2.1111940E-03
         550  2.5314288E-03
         551  3.4114558E-03
         552 -3.4348979E-03
         553 -1.9675978E-03
         554 -3.4653522E-02
         555  2.3152886E-02
         556  9.4129816E-03
         557  3.6726948E-03
         558  9.0840971E-03
         559  3.3204313E-04
         560 -1.7579135E-03
         561 -7.8663193E-03
         562  1.8814361E-02
         563 -1.7639725E-02
         564 -1.5380410E-02
         565  5.0497614E-03
         566 -4.5761010E-03
         567  6.2370673E-03
         568 -6.3043037E-05
         569  1.3239864E-02
         570  3.1124480E-02
         571  6.5490860E-04
         572 -3.0460311E-03
         573 -7.5868745E-03
         574 -1.3315369E-02
         575  8.0335571E-04
         576 -3.4422241E-03
         577  4.6526762E-03
         578 -1.1951495E-03
         579  9.7905356E-04
         580 -2.8865286E-03
         581  3.6324840E-04
         582  2.3478882E-04
         583  3.0833960E-03
         584  1.1038284E-03
         585  2.6539117E-03
         586 -3.6536267E-03
         587  8.1034092E-04
         588  9.5686037E-04
         589 -3.8981572E-04
         590 -1.5993962E-03
         591 -3.2512881E-03
         592 -4.3443646E-03
         593  1.3210197E-03
         594  2.7830885E-03
         595 -1.0888263E-04
         596 -2.5697089E-05
         597 -1.4580360E-04
         598 -2.9408422E-03
         599 -2.2905499E-03
         600 -2.0980719E-03
         601 -3.3594472E-03
         602 -6.7982933E-04
         603 -8.4719545E-04
         604  1.3386948E-03
         605  1.0030622E-03
         606 -3.0989274E-03
         607 -9.0185879E-03
         608 -5.1640993E-04
         609  3.5207113E-03
         610 -4.2137997E-03
         611 -4.0188422E-03
         612 -1.4933379E-03
         613 -4.7991234E-03
         614 -9.1031883E-03
         615  1.8651338E-03
         616  4.5071947E-03
         617 -7.1936250E-03
         618 -2.5645201E-03
         619 -1.7187310E-03
         620  6.5403833E-04
         621  2.6612044E-03
         622 -7.1859420E-03
         623  2.2770544E-03
         624  2.4147088E-02
         625 -1.3560483E-02
         626  1.2539092E-02
         627 -1.0812504E-03
         628 -1.1846125E-03
         629 -1.1547487E-03
         630  4.8048589E-03
         631  5.2643437E-02
         632 -4.8640264E-05
         633  3.5932704E-04
         634 -7.0236623E-04
         635  3.9653601E-03
         636  5.5217564E-02
         637 -1.5236877E-04
         638 -3.0812790E-04
         639  3.1864602E-04
         640 -8.7649234E-05
         641 -8.5778956E-05
         642 -3.8173352E-04
         643 -5.8818283E-04
         644 -9.8942849E-04
         645 -4.4827341E-04
         646  2.7114710E-02
         647  2.8759516E-03
         648 -1.0096282E-03
         649  1.7938096E-03
         650  1.0593009E-02
         651  3.5993611E-03
         652  2.6198358E-03
         653  1.0803713E-03
         654 -5.3704617E-04
         655 -8.2411768E-04
         656  1.0922451E-03
         657  6.1081554E-04
         658  1.7878026E-03
         659 -1.5484614E-03
         660 -3.1587051E-03
         661  1.8991103E-03
         662  3.0826943E-03
         663  3.2106994E-04
         664 -7.3798274E-04
         665  2.3430192E-03
         666 -1.8541598E-03
         667  2.4384361E-05
         668  1.1068237E-03
         669 -1.3782582E-03
         670 -6.1260776E-05
         671 -1.3439709E-03
         672  1.6762475E-04
         673  2.9372721E-04
         674  1.0097484E-03
         675  1.1490516E-04
         676 -1.3175267E-03
         677  1.3245586E-03
         678 -4.2108409E-04
         679  4.1738272E-04
         680  7.6521572E-04
         681 -9.5806550E-05
         682  3.9693849E-05
         683 -1.3087647E-03
         684  1.2497652E-03
         685 -2.1325784E-04
         686 -1.4038885E-03
         687 -3.4743833E-04
         688 -2.8244260E-04
         689 -7.6395692E-04
         690  2.4891854E-04
         691 -1.5385344E-03
         692 -1.5981140E-03
         693  3.8812097E-04
         694 -7.1274315E-04
         695  8.5257384E-04
         696  9.5417185E-05
         697 -3.1369398E-03
         698 -4.7875184E-04
         699  6.1415537E-04
         700  2.0691257E-03
         701 -1.7742957E-03
         702 -5.7645893E-04
         703 -1.9367954E-03
         704  1.1629983E-03
         705 -3.5377708E-03
         706  1.8186569E-03
         707 -2.6592892E-03
         708 -7.2354235E-04
         709 -4.3251719E-05
         710 -2.4329135E-04
         711  9.5356209E-04
         712 -3.2074775E-03
         713  1.4662603E-03
         714 -1.1220009E-03
         715  1.2901816E-02
         716  4.0575759E-03
         717  2.5040127E-04
         718  2.4431272E-04
         719  7.7081192E-04
         720 -8.3358726E-04
         721  1.9557243E-02
         722 -5.2828007E-05
         723 -4.6241906E-04
         724  1.2765011E-03
         725 -7.8835024E-04
         726  3.1876698E-02
         727 -5.3792907E-04
         728  6.7329674E-04
         729  5.0824793E-04
         730 -7.2497060E-04
         731 -2.2685588E-03
         732  2.9363015E-04
         733  4.1288856E-04
         734 -7.9031062E-04
         735  7.4980379E-04
         736 -5.0718724E-03
         737 -4.4272796E-04
         738 -2.4516042E-04
         739  1.8713521E-03
         740  1.4310041E-03
         741 -2.4926707E-03
         742 -1.0987782E-03
         743 -2.6260773E-04
         744 -5.3872843E-04
         745 -3.9940566E-04
         746 -6.9608557E-04
         747 -1.2239351E-04
         748 -5.0826382E-04
         749 -1.0091084E-03
         750  2.4384318E-04
         751 -7.0204976E-04
         752 -1.6488511E-03
         753  1.8697843E-04
         754  2.8223390E-04
         755  9.3057723E-05
         756  2.0692608E-04
         757  1.4688344E-04
         758  2.6738120E-04
         759 -2.8226487E-04
         760 -2.6721385E-04
         761  4.0967989E-04
         762  1.5679392E-04
         763  4.9590355E-05
         764  1.0675418E-05
         765 -8.1170947E-05
         766  1.4156816E-04
         767  1.0085985E-03
         768 -2.5410909E-04
         769  2.6807428E-04
         770  4.6923259E-04
         771 -1.1510817E-04
         772 -1.2231490E-04
         773 -7.2393501E-05
         774 -6.7641886E-05
         775  1.0279806E-05
         776  6.8260262E-05
         777 -9.5325394E-04
         778  2.2359836E-04
         779  5.2324333E-04
         780 -2.9050114E-05
         781 -7.9996185E-05
         782 -9.3341841E-05
         783 -2.6537190E-04
         784 -4.0671637E-04
         785 -3.7803944E-05
         786  2.6145452E-04
         787  1.6556586E-03
         788 -1.5673127E-04
         789  2.4156310E-04
         790  3.3958955E-04
         791  2.0586305E-04
         792 -3.0085213E-05
         793  6.1606063E-04
         794 -5.5593177E-04
         795 -1.0431014E-03
         796 -7.4464170E-04
         797  9.8910450E-04
         798  1.9245443E-04
         799 -6.2489189E-04
         800  1.3512652E-04
         801 -6.4297876E-04
         802  4.2660287E-04
         803  8.6360989E-05
         804  3.5136058E-03
         805  1.9897541E-03
         806 -2.4542485E-03
         807 -1.3274273E-04
         808 -3.0745307E-04
         809  1.7723136E-04
         810 -1.2401782E-03
         811 -1.0134553E-03
         812  5.3374231E-04
         813  2.8349998E-05
         814 -2.3535960E-05
         815 -1.0482345E-03
         816 -1.9735171E-02
         817 -7.3059695E-04
         818  3.1868363E-04
         819 -2.0819183E-03
         820  5.6435005E-05
         821  4.0640190E-02
         822  4.2984192E-04
         823  1.3878208E-03
         824 -4.2632660E-03
         825 -3.5620117E-04
         826  5.6508534E-02
         827  7.2433469E-03
         828 -2.5526152E-03
         829  2.1075623E-02
         830 -1.8449135E-02
         831  1.3440852E-02
         832  7.1723447E-03
         833  2.4691094E-03
         834 -8.4878824E-04
         835  7.5223716E-04
         836  2.4857644E-03
         837  1.4154681E-03
         838  5.0668567E-03
         839 -4.8039886E-03
         840  8.1904875E-03
         841  4.4072396E-03
         842  8.9528747E-03
         843  8.4436074E-04
         844  4.5036874E-03
         845 -2.0434775E-03
         846 -3.8864578E-03
