 [Molden Format]
 [Atoms] Angs
O       1      8     -1.72338497     -0.38600680      2.46254342
C       2      6     -2.60662924      0.63951793      2.06720759
C       3      6     -3.44920015      0.29775902      0.85543656
C       4      6     -4.83409462      0.29430505      0.95371343
C       5      6     -5.62901709     -0.00259982     -0.13933634
C       6      6     -5.04311279     -0.31038690     -1.35489693
C       7      6     -3.66513438     -0.31942414     -1.46675702
C       8      6     -2.86205239     -0.01553035     -0.37343850
C       9      6     -1.38907146     -0.03199437     -0.51363889
C      10      6     -0.69109036      1.17630921     -0.63144206
C      11      6     -1.36507382      2.42243423     -0.72512189
C      12      6     -0.67318407      3.59034472     -0.82013445
C      13      6      0.73671063      3.58384951     -0.83327968
C      14      6      1.41970261      2.40963147     -0.75048692
C      15      6      0.73652344      1.16998037     -0.64411062
C      16      6      1.42440984     -0.04425477     -0.53567721
C      17      6      2.89364310     -0.03572103     -0.36345794
C      18      6      3.73904414     -0.37906307     -1.41163142
C      19      6      5.11132150     -0.37805914     -1.24004608
C      20      6      5.65059317     -0.03924902     -0.01094403
C      21      6      4.81497750      0.29686503      1.03973873
C      22      6      3.43652022      0.30719663      0.87861448
C      23      6      2.54258279      0.70553570      2.03050623
O      24      8      1.39920116     -0.10493011      2.19907005
C      25      6      0.72721791     -1.25956355     -0.50781714
C      26      6      1.39842896     -2.50823707     -0.43613598
C      27      6      0.70503397     -3.67749640     -0.37079862
C      28      6     -0.70416564     -3.66999414     -0.35720227
C      29      6     -1.38540891     -2.49347530     -0.41055390
C      30      6     -0.70139839     -1.25296274     -0.49382887
H      31      1     -0.87470683     -0.28537930      2.01403440
H      32      1     -2.05904273      1.57321056      1.87664122
H      33      1     -3.27355902      0.80666152      2.91968614
H      34      1     -5.29553212      0.52894432      1.90232059
H      35      1     -6.70456133      0.00315893     -0.04117381
H      36      1     -5.65652733     -0.54520662     -2.21233981
H      37      1     -3.19541784     -0.55891616     -2.41039210
H      38      1     -2.44571993      2.42236083     -0.72973611
H      39      1     -1.19772730      4.53185886     -0.89258023
H      40      1      1.26850581      4.52052940     -0.91639914
H      41      1      2.50020105      2.40132861     -0.77756073
H      42      1      3.30786634     -0.64069369     -2.36728317
H      43      1      5.75837902     -0.64274141     -2.06312593
H      44      1      6.72095098     -0.03925557      0.13134419
H      45      1      5.23794836      0.55911933      1.99939477
H      46      1      2.15002950      1.71364218      1.85509708
H      47      1      3.13341431      0.72749797      2.95741447
H      48      1      1.67823340     -1.01585579      2.34508175
H      49      1      2.47913444     -2.51484049     -0.43896465
H      50      1      1.22978186     -4.62069298     -0.32243654
H      51      1     -1.23670435     -4.60761706     -0.29720164
H      52      1     -2.46455666     -2.48476569     -0.38777272
 [GTO]
           1   0
s              4   1.000000
     77.67001586     -0.01198412
     13.37541942     -0.05472053
      1.07477202      0.58055871
      0.40962222      0.47700799
p              4   1.000000
      8.00954788      0.05713170
      2.07675616      0.28574555
      0.73212081      0.55178731
      0.29146991      0.26323149
s              7   1.000000
      0.57971233     -0.18694603
      0.07115450      0.90325451
      0.03359728      0.23720835
     77.67001586      0.00378696
     13.37541942      0.01729160
      1.07477202     -0.18345562
      0.40962222     -0.15073376
p              7   1.000000
      2.76717072     -0.01172797
      0.15304476      0.57633057
      0.05897927      0.60189167
      8.00954788     -0.02677685
      2.07675616     -0.13392505
      0.73212081     -0.25861520
      0.29146991     -0.12337302
 
           2   0
s              4   1.000000
     36.93679847     -0.01198412
      6.36082233     -0.05472053
      0.51111922      0.58055871
      0.19480018      0.47700799
p              4   1.000000
      5.95333003      0.05713170
      1.54360958      0.28574555
      0.54417014      0.55178731
      0.21664351      0.26323149
s              7   1.000000
      0.38350848     -0.19448834
      0.04707223      0.93969617
      0.02222627      0.24677848
     36.93679847      0.00522914
      6.36082233      0.02387673
      0.51111922     -0.25332072
      0.19480018     -0.20813744
p              7   1.000000
      1.83062075     -0.01151468
      0.10124670      0.56584916
      0.03901771      0.59094541
      5.95333003     -0.02394817
      1.54360958     -0.11977732
      0.54417014     -0.23129530
      0.21664351     -0.11033999
 
           3   0
s              4   1.000000
     35.04809517     -0.01198412
      6.03557200     -0.05472052
      0.48498396      0.58055871
      0.18483939      0.47700799
p              4   1.000000
      5.64891616      0.05713170
      1.46467961      0.28574555
      0.51634489      0.55178731
      0.20556580      0.26323149
s              7   1.000000
      0.38350848     -0.19612565
      0.04707223      0.94760705
      0.02222627      0.24885599
     35.04809517      0.00549860
      6.03557200      0.02510708
      0.48498396     -0.26637416
      0.18483939     -0.21886263
p              7   1.000000
      1.83062075     -0.01160569
      0.10124670      0.57032128
      0.03901771      0.59561585
      5.64891616     -0.02518757
      1.46467961     -0.12597622
      0.51634489     -0.24326566
      0.20556580     -0.11605048
 
           4   0
s              4   1.000000
     35.00018956     -0.01198412
      6.02732226     -0.05472052
      0.48432106      0.58055871
      0.18458674      0.47700799
p              4   1.000000
      5.64119491      0.05713170
      1.46267761      0.28574555
      0.51563912      0.55178731
      0.20528482      0.26323149
s              7   1.000000
      0.38350848     -0.19617026
      0.04707223      0.94782258
      0.02222627      0.24891261
     35.00018956      0.00550579
      6.02732226      0.02513990
      0.48432106     -0.26672237
      0.18458674     -0.21914872
p              7   1.000000
      1.83062075     -0.01160817
      0.10124670      0.57044315
      0.03901771      0.59574312
      5.64119491     -0.02522062
      1.46267761     -0.12614154
      0.51563912     -0.24358489
      0.20528482     -0.11620277
 
           5   0
s              4   1.000000
     34.91686495     -0.01198412
      6.01297307     -0.05472052
      0.48316804      0.58055871
      0.18414730      0.47700800
p              4   1.000000
      5.62776498      0.05713170
      1.45919542      0.28574555
      0.51441154      0.55178731
      0.20479610      0.26323149
s              7   1.000000
      0.38350848     -0.19624824
      0.04707223      0.94819937
      0.02222627      0.24901155
     34.91686495      0.00551833
      6.01297307      0.02519719
      0.48316804     -0.26733015
      0.18414730     -0.21964810
p              7   1.000000
      1.83062075     -0.01161250
      0.10124670      0.57065616
      0.03901771      0.59596559
      5.62776498     -0.02527831
      1.45919542     -0.12643008
      0.51441154     -0.24414209
      0.20479610     -0.11646858
 
           6   0
s              4   1.000000
     34.91622179     -0.01198412
      6.01286231     -0.05472052
      0.48315914      0.58055871
      0.18414391      0.47700800
p              4   1.000000
      5.62766132      0.05713170
      1.45916854      0.28574555
      0.51440207      0.55178731
      0.20479233      0.26323149
s              7   1.000000
      0.38350848     -0.19624884
      0.04707223      0.94820228
      0.02222627      0.24901230
     34.91622179      0.00551843
      6.01286231      0.02519763
      0.48315914     -0.26733485
      0.18414391     -0.21965197
p              7   1.000000
      1.83062075     -0.01161254
      0.10124670      0.57065781
      0.03901771      0.59596733
      5.62766132     -0.02527876
      1.45916854     -0.12643231
      0.51440207     -0.24414640
      0.20479233     -0.11647064
 
           7   0
s              4   1.000000
     35.01546046     -0.01198412
      6.02995203     -0.05472052
      0.48453238      0.58055871
      0.18466728      0.47700799
p              4   1.000000
      5.64365622      0.05713170
      1.46331578      0.28574555
      0.51586410      0.55178731
      0.20537439      0.26323149
s              7   1.000000
      0.38350848     -0.19615602
      0.04707223      0.94775380
      0.02222627      0.24889453
     35.01546046      0.00550349
      6.02995203      0.02512943
      0.48453238     -0.26661127
      0.18466728     -0.21905744
p              7   1.000000
      1.83062075     -0.01160738
      0.10124670      0.57040425
      0.03901771      0.59570250
      5.64365622     -0.02521008
      1.46331578     -0.12608879
      0.51586410     -0.24348304
      0.20537439     -0.11615419
 
           8   0
s              4   1.000000
     35.20019638     -0.01198412
      6.06176509     -0.05472053
      0.48708869      0.58055871
      0.18564156      0.47700799
p              4   1.000000
      5.67343124      0.05713170
      1.47103600      0.28574555
      0.51858571      0.55178731
      0.20645791      0.26323149
s              7   1.000000
      0.38350848     -0.19598508
      0.04707223      0.94692788
      0.02222627      0.24867764
     35.20019638      0.00547590
      6.06176509      0.02500343
      0.48708869     -0.26527448
      0.18564156     -0.21795909
p              7   1.000000
      1.83062075     -0.01159787
      0.10124670      0.56993730
      0.03901771      0.59521485
      5.67343124     -0.02508318
      1.47103600     -0.12545412
      0.51858571     -0.24225747
      0.20645791     -0.11556952
 
           9   0
s              4   1.000000
     35.25459565     -0.01198412
      6.07113309     -0.05472052
      0.48784145      0.58055871
      0.18592845      0.47700799
p              4   1.000000
      5.68219910      0.05713170
      1.47330938      0.28574555
      0.51938715      0.55178731
      0.20677697      0.26323149
s              7   1.000000
      0.38350848     -0.19593520
      0.04707223      0.94668687
      0.02222627      0.24861434
     35.25459565      0.00546782
      6.07113309      0.02496656
      0.48784145     -0.26488333
      0.18592845     -0.21763771
p              7   1.000000
      1.83062075     -0.01159510
      0.10124670      0.56980105
      0.03901771      0.59507256
      5.68219910     -0.02504605
      1.47330938     -0.12526841
      0.51938715     -0.24189885
      0.20677697     -0.11539844
 
          10   0
s              4   1.000000
     35.22534491     -0.01198412
      6.06609587     -0.05472052
      0.48743669      0.58055871
      0.18577419      0.47700799
p              4   1.000000
      5.67748458      0.05713170
      1.47208697      0.28574555
      0.51895621      0.55178731
      0.20660541      0.26323149
s              7   1.000000
      0.38350848     -0.19596199
      0.04707223      0.94681633
      0.02222627      0.24864834
     35.22534491      0.00547216
      6.06609587      0.02498637
      0.48743669     -0.26509351
      0.18577419     -0.21781040
p              7   1.000000
      1.83062075     -0.01159659
      0.10124670      0.56987425
      0.03901771      0.59514899
      5.67748458     -0.02506600
      1.47208697     -0.12536820
      0.51895621     -0.24209155
      0.20660541     -0.11549037
 
          11   0
s              4   1.000000
     35.00399595     -0.01198412
      6.02797775     -0.05472052
      0.48437373      0.58055871
      0.18460682      0.47700799
p              4   1.000000
      5.64180841      0.05713170
      1.46283668      0.28574555
      0.51569520      0.55178730
      0.20530714      0.26323149
s              7   1.000000
      0.38350848     -0.19616671
      0.04707223      0.94780543
      0.02222627      0.24890810
     35.00399595      0.00550521
      6.02797775      0.02513729
      0.48437373     -0.26669467
      0.18460682     -0.21912596
p              7   1.000000
      1.83062075     -0.01160797
      0.10124670      0.57043344
      0.03901771      0.59573301
      5.64180841     -0.02521799
      1.46283668     -0.12612839
      0.51569520     -0.24355950
      0.20530714     -0.11619065
 
          12   0
s              4   1.000000
     34.90172595     -0.01198412
      6.01036601     -0.05472053
      0.48295855      0.58055871
      0.18406746      0.47700800
p              4   1.000000
      5.62532493      0.05713170
      1.45856275      0.28574555
      0.51418851      0.55178731
      0.20470731      0.26323149
s              7   1.000000
      0.38350848     -0.19626246
      0.04707223      0.94826808
      0.02222627      0.24902959
     34.90172595      0.00552062
      6.01036601      0.02520762
      0.48295855     -0.26744087
      0.18406746     -0.21973907
p              7   1.000000
      1.83062075     -0.01161329
      0.10124670      0.57069502
      0.03901771      0.59600617
      5.62532493     -0.02528882
      1.45856275     -0.12648264
      0.51418851     -0.24424359
      0.20470731     -0.11651700
 
          13   0
s              4   1.000000
     34.90210192     -0.01198412
      6.01043075     -0.05472052
      0.48296376      0.58055871
      0.18406944      0.47700799
p              4   1.000000
      5.62538553      0.05713170
      1.45857847      0.28574555
      0.51419404      0.55178731
      0.20470951      0.26323149
s              7   1.000000
      0.38350848     -0.19626211
      0.04707223      0.94826637
      0.02222627      0.24902915
     34.90210192      0.00552056
      6.01043075      0.02520736
      0.48296376     -0.26743812
      0.18406944     -0.21973681
p              7   1.000000
      1.83062075     -0.01161327
      0.10124670      0.57069405
      0.03901771      0.59600516
      5.62538553     -0.02528856
      1.45857847     -0.12648134
      0.51419404     -0.24424106
      0.20470951     -0.11651580
 
          14   0
s              4   1.000000
     35.00511675     -0.01198412
      6.02817076     -0.05472052
      0.48438924      0.58055871
      0.18461273      0.47700799
p              4   1.000000
      5.64198906      0.05713170
      1.46288351      0.28574555
      0.51571171      0.55178730
      0.20531372      0.26323149
s              7   1.000000
      0.38350848     -0.19616566
      0.04707223      0.94780038
      0.02222627      0.24890676
     35.00511675      0.00550505
      6.02817076      0.02513652
      0.48438924     -0.26668651
      0.18461273     -0.21911927
p              7   1.000000
      1.83062075     -0.01160791
      0.10124670      0.57043059
      0.03901771      0.59573001
      5.64198906     -0.02521722
      1.46288351     -0.12612451
      0.51571171     -0.24355202
      0.20531372     -0.11618709
 
          15   0
s              4   1.000000
     35.22808246     -0.01198412
      6.06656730     -0.05472053
      0.48747457      0.58055871
      0.18578862      0.47700799
p              4   1.000000
      5.67792581      0.05713170
      1.47220138      0.28574555
      0.51899654      0.55178730
      0.20662147      0.26323149
s              7   1.000000
      0.38350848     -0.19595948
      0.04707223      0.94680420
      0.02222627      0.24864515
     35.22808246      0.00547176
      6.06656730      0.02498452
      0.48747457     -0.26507383
      0.18578862     -0.21779423
p              7   1.000000
      1.83062075     -0.01159645
      0.10124670      0.56986738
      0.03901771      0.59514182
      5.67792581     -0.02506413
      1.47220138     -0.12535886
      0.51899654     -0.24207350
      0.20662147     -0.11548176
 
          16   0
s              4   1.000000
     35.26121452     -0.01198412
      6.07227292     -0.05472052
      0.48793304      0.58055871
      0.18596336      0.47700799
p              4   1.000000
      5.68326591      0.05713170
      1.47358598      0.28574555
      0.51948466      0.55178730
      0.20681579      0.26323149
s              7   1.000000
      0.38350848     -0.19592914
      0.04707223      0.94665760
      0.02222627      0.24860666
     35.26121452      0.00546684
      6.07227292      0.02496208
      0.48793304     -0.26483582
      0.18596336     -0.21759867
p              7   1.000000
      1.83062075     -0.01159476
      0.10124670      0.56978450
      0.03901771      0.59505529
      5.68326591     -0.02504154
      1.47358598     -0.12524585
      0.51948466     -0.24185529
      0.20681579     -0.11537766
 
          17   0
s              4   1.000000
     35.20241763     -0.01198412
      6.06214760     -0.05472052
      0.48711943      0.58055871
      0.18565327      0.47700800
p              4   1.000000
      5.67378925      0.05713170
      1.47112883      0.28574555
      0.51861844      0.55178731
      0.20647094      0.26323149
s              7   1.000000
      0.38350848     -0.19598304
      0.04707223      0.94691801
      0.02222627      0.24867506
     35.20241763      0.00547557
      6.06214760      0.02500192
      0.48711943     -0.26525849
      0.18565327     -0.21794595
p              7   1.000000
      1.83062075     -0.01159776
      0.10124670      0.56993172
      0.03901771      0.59520902
      5.67378925     -0.02508166
      1.47112883     -0.12544653
      0.51861844     -0.24224280
      0.20647094     -0.11556252
 
          18   0
s              4   1.000000
     35.00899209     -0.01198412
      6.02883813     -0.05472052
      0.48444287      0.58055871
      0.18463317      0.47700799
p              4   1.000000
      5.64261367      0.05713170
      1.46304547      0.28574555
      0.51576880      0.55178731
      0.20533645      0.26323149
s              7   1.000000
      0.38350848     -0.19616205
      0.04707223      0.94778293
      0.02222627      0.24890218
     35.00899209      0.00550446
      6.02883813      0.02513386
      0.48444287     -0.26665832
      0.18463317     -0.21909610
p              7   1.000000
      1.83062075     -0.01160771
      0.10124670      0.57042072
      0.03901771      0.59571970
      5.64261367     -0.02521454
      1.46304547     -0.12611113
      0.51576880     -0.24352617
      0.20533645     -0.11617476
 
          19   0
s              4   1.000000
     34.91696059     -0.01198412
      6.01298954     -0.05472053
      0.48316937      0.58055871
      0.18414780      0.47700799
p              4   1.000000
      5.62778039      0.05713170
      1.45919942      0.28574555
      0.51441295      0.55178731
      0.20479666      0.26323149
s              7   1.000000
      0.38350848     -0.19624815
      0.04707223      0.94819894
      0.02222627      0.24901143
     34.91696059      0.00551832
      6.01298954      0.02519712
      0.48316937     -0.26732945
      0.18414780     -0.21964753
p              7   1.000000
      1.83062075     -0.01161250
      0.10124670      0.57065592
      0.03901771      0.59596535
      5.62778039     -0.02527825
      1.45919942     -0.12642975
      0.51441295     -0.24414144
      0.20479666     -0.11646828
 
          20   0
s              4   1.000000
     34.91722544     -0.01198412
      6.01303515     -0.05472053
      0.48317303      0.58055871
      0.18414920      0.47700799
p              4   1.000000
      5.62782308      0.05713170
      1.45921049      0.28574555
      0.51441685      0.55178731
      0.20479821      0.26323149
s              7   1.000000
      0.38350848     -0.19624790
      0.04707223      0.94819773
      0.02222627      0.24901111
     34.91722544      0.00551828
      6.01303515      0.02519694
      0.48317303     -0.26732752
      0.18414920     -0.21964594
p              7   1.000000
      1.83062075     -0.01161248
      0.10124670      0.57065524
      0.03901771      0.59596462
      5.62782308     -0.02527806
      1.45921049     -0.12642883
      0.51441685     -0.24413967
      0.20479821     -0.11646743
 
          21   0
s              4   1.000000
     34.99606571     -0.01198412
      6.02661209     -0.05472053
      0.48426400      0.58055871
      0.18456500      0.47700799
p              4   1.000000
      5.64053025      0.05713170
      1.46250527      0.28574555
      0.51557836      0.55178731
      0.20526063      0.26323149
s              7   1.000000
      0.38350848     -0.19617411
      0.04707223      0.94784117
      0.02222627      0.24891749
     34.99606571      0.00550641
      6.02661209      0.02514273
      0.48426400     -0.26675238
      0.18456500     -0.21917339
p              7   1.000000
      1.83062075     -0.01160838
      0.10124670      0.57045365
      0.03901771      0.59575413
      5.64053025     -0.02522347
      1.46250527     -0.12615579
      0.51557836     -0.24361241
      0.20526063     -0.11621590
 
          22   0
s              4   1.000000
     35.05830235     -0.01198412
      6.03732976     -0.05472052
      0.48512521      0.58055871
      0.18489322      0.47700800
p              4   1.000000
      5.65056131      0.05713170
      1.46510617      0.28574555
      0.51649526      0.55178731
      0.20562566      0.26323149
s              7   1.000000
      0.38350848     -0.19611616
      0.04707223      0.94756123
      0.02222627      0.24884397
     35.05830235      0.00549707
      6.03732976      0.02510010
      0.48512521     -0.26630008
      0.18489322     -0.21880176
p              7   1.000000
      1.83062075     -0.01160516
      0.10124670      0.57029537
      0.03901771      0.59558882
      5.65056131     -0.02518054
      1.46510617     -0.12594105
      0.51649526     -0.24319775
      0.20562566     -0.11601808
 
          23   0
s              4   1.000000
     36.94646982     -0.01198412
      6.36248782     -0.05472053
      0.51125304      0.58055871
      0.19485119      0.47700799
p              4   1.000000
      5.95488883      0.05713170
      1.54401375      0.28574555
      0.54431263      0.55178731
      0.21670024      0.26323149
s              7   1.000000
      0.38350848     -0.19448053
      0.04707223      0.93965842
      0.02222627      0.24676856
     36.94646982      0.00522783
      6.36248782      0.02387073
      0.51125304     -0.25325709
      0.19485119     -0.20808516
p              7   1.000000
      1.83062075     -0.01151425
      0.10124670      0.56582782
      0.03901771      0.59092312
      5.95488883     -0.02394212
      1.54401375     -0.11974709
      0.54431263     -0.23123693
      0.21670024     -0.11031215
 
          24   0
s              4   1.000000
     77.70411799     -0.01198412
     13.38129209     -0.05472052
      1.07524392      0.58055871
      0.40980207      0.47700799
p              4   1.000000
      8.01306459      0.05713170
      2.07766799      0.28574555
      0.73244226      0.55178731
      0.29159789      0.26323149
s              7   1.000000
      0.57971233     -0.18693859
      0.07115450      0.90321859
      0.03359728      0.23719891
     77.70411799      0.00378530
     13.38129209      0.01728402
      1.07524392     -0.18337524
      0.40980207     -0.15066771
p              7   1.000000
      2.76717072     -0.01172709
      0.15304476      0.57628715
      0.05897927      0.60184632
      8.01306459     -0.02676565
      2.07766799     -0.13386901
      0.73244226     -0.25850699
      0.29159789     -0.12332139
 
          25   0
s              4   1.000000
     35.22237899     -0.01198412
      6.06558512     -0.05472053
      0.48739564      0.58055871
      0.18575854      0.47700799
p              4   1.000000
      5.67700655      0.05713170
      1.47196303      0.28574555
      0.51891252      0.55178731
      0.20658801      0.26323149
s              7   1.000000
      0.38350848     -0.19596471
      0.04707223      0.94682947
      0.02222627      0.24865180
     35.22237899      0.00547260
      6.06558512      0.02498838
      0.48739564     -0.26511484
      0.18575854     -0.21782793
p              7   1.000000
      1.83062075     -0.01159674
      0.10124670      0.56988167
      0.03901771      0.59515675
      5.67700655     -0.02506803
      1.47196303     -0.12537833
      0.51891252     -0.24211111
      0.20658801     -0.11549970
 
          26   0
s              4   1.000000
     35.00205730     -0.01198412
      6.02764390     -0.05472052
      0.48434691      0.58055871
      0.18459659      0.47700799
p              4   1.000000
      5.64149595      0.05713170
      1.46275566      0.28574555
      0.51566663      0.55178731
      0.20529577      0.26323149
s              7   1.000000
      0.38350848     -0.19616851
      0.04707223      0.94781417
      0.02222627      0.24891039
     35.00205730      0.00550551
      6.02764390      0.02513862
      0.48434691     -0.26670877
      0.18459659     -0.21913756
p              7   1.000000
      1.83062075     -0.01160807
      0.10124670      0.57043838
      0.03901771      0.59573815
      5.64149595     -0.02521933
      1.46275566     -0.12613508
      0.51566663     -0.24357243
      0.20529577     -0.11619683
 
          27   0
s              4   1.000000
     34.90233575     -0.01198412
      6.01047102     -0.05472052
      0.48296699      0.58055871
      0.18407067      0.47700799
p              4   1.000000
      5.62542322      0.05713170
      1.45858824      0.28574555
      0.51419749      0.55178731
      0.20471088      0.26323149
s              7   1.000000
      0.38350848     -0.19626189
      0.04707223      0.94826530
      0.02222627      0.24902886
     34.90233575      0.00552053
      6.01047102      0.02520720
      0.48296699     -0.26743641
      0.18407067     -0.21973541
p              7   1.000000
      1.83062075     -0.01161326
      0.10124670      0.57069344
      0.03901771      0.59600455
      5.62542322     -0.02528840
      1.45858824     -0.12648053
      0.51419749     -0.24423950
      0.20471088     -0.11651505
 
          28   0
s              4   1.000000
     34.90240420     -0.01198412
      6.01048281     -0.05472053
      0.48296794      0.58055871
      0.18407104      0.47700799
p              4   1.000000
      5.62543425      0.05713170
      1.45859110      0.28574555
      0.51419850      0.55178731
      0.20471128      0.26323149
s              7   1.000000
      0.38350848     -0.19626182
      0.04707223      0.94826500
      0.02222627      0.24902878
     34.90240420      0.00552052
      6.01048281      0.02520715
      0.48296794     -0.26743591
      0.18407104     -0.21973500
p              7   1.000000
      1.83062075     -0.01161326
      0.10124670      0.57069327
      0.03901771      0.59600435
      5.62543425     -0.02528835
      1.45859110     -0.12648029
      0.51419850     -0.24423904
      0.20471128     -0.11651484
 
          29   0
s              4   1.000000
     35.00359528     -0.01198412
      6.02790875     -0.05472052
      0.48436819      0.58055871
      0.18460471      0.47700799
p              4   1.000000
      5.64174384      0.05713170
      1.46281993      0.28574555
      0.51568929      0.55178730
      0.20530479      0.26323149
s              7   1.000000
      0.38350848     -0.19616708
      0.04707223      0.94780724
      0.02222627      0.24890857
     35.00359528      0.00550527
      6.02790875      0.02513756
      0.48436819     -0.26669758
      0.18460471     -0.21912836
p              7   1.000000
      1.83062075     -0.01160799
      0.10124670      0.57043446
      0.03901771      0.59573406
      5.64174384     -0.02521827
      1.46281993     -0.12612977
      0.51568929     -0.24356217
      0.20530479     -0.11619193
 
          30   0
s              4   1.000000
     35.22338213     -0.01198412
      6.06575786     -0.05472052
      0.48740953      0.58055871
      0.18576383      0.47700799
p              4   1.000000
      5.67716823      0.05713170
      1.47200495      0.28574555
      0.51892730      0.55178731
      0.20659390      0.26323149
s              7   1.000000
      0.38350848     -0.19596379
      0.04707223      0.94682503
      0.02222627      0.24865063
     35.22338213      0.00547245
      6.06575786      0.02498770
      0.48740953     -0.26510763
      0.18576383     -0.21782200
p              7   1.000000
      1.83062075     -0.01159669
      0.10124670      0.56987916
      0.03901771      0.59515412
      5.67716823     -0.02506734
      1.47200495     -0.12537491
      0.51892730     -0.24210449
      0.20659390     -0.11549655
 
          31   0
s              4   1.000000
      8.31171149      0.05675242
      1.52094080      0.26014135
      0.42253401      0.53284611
      0.14023524      0.29162544
s              7   1.000000
      0.92936822     -0.06732487
      0.05643440      0.66942005
      0.02166600      0.51458746
      8.31171149     -0.02901532
      1.52094080     -0.13300022
      0.42253401     -0.27242362
      0.14023524     -0.14909681
p              4   1.000000
      0.64737396      0.05713170
      0.16785440      0.28574555
      0.05917387      0.55178731
      0.02355814      0.26323150
 
          32   0
s              4   1.000000
      8.30674258      0.05675242
      1.52003155      0.26014135
      0.42228141      0.53284611
      0.14015140      0.29162544
s              7   1.000000
      0.92936822     -0.06733126
      0.05643440      0.66948361
      0.02166600      0.51463634
      8.30674258     -0.02902861
      1.52003155     -0.13306115
      0.42228141     -0.27254843
      0.14015140     -0.14916512
p              4   1.000000
      0.64737396      0.05713170
      0.16785440      0.28574555
      0.05917387      0.55178731
      0.02355814      0.26323150
 
          33   0
s              4   1.000000
      8.30728368      0.05675242
      1.52013057      0.26014135
      0.42230892      0.53284611
      0.14016053      0.29162544
s              7   1.000000
      0.92936822     -0.06733057
      0.05643440      0.66947669
      0.02166600      0.51463099
      8.30728368     -0.02902716
      1.52013057     -0.13305451
      0.42230892     -0.27253483
      0.14016053     -0.14915768
p              4   1.000000
      0.64737396      0.05713170
      0.16785440      0.28574555
      0.05917387      0.55178731
      0.02355814      0.26323150
 
          34   0
s              4   1.000000
      8.30924234      0.05675242
      1.52048897      0.26014135
      0.42240849      0.53284611
      0.14019358      0.29162544
s              7   1.000000
      0.92936822     -0.06732805
      0.05643440      0.66945163
      0.02166600      0.51461174
      8.30924234     -0.02902192
      1.52048897     -0.13303049
      0.42240849     -0.27248562
      0.14019358     -0.14913075
p              4   1.000000
      0.64737396      0.05713170
      0.16785440      0.28574555
      0.05917387      0.55178731
      0.02355814      0.26323150
 
          35   0
s              4   1.000000
      8.30883494      0.05675242
      1.52041443      0.26014135
      0.42238778      0.53284611
      0.14018671      0.29162544
s              7   1.000000
      0.92936822     -0.06732857
      0.05643440      0.66945684
      0.02166600      0.51461574
      8.30883494     -0.02902301
      1.52041443     -0.13303549
      0.42238778     -0.27249586
      0.14018671     -0.14913635
p              4   1.000000
      0.64737396      0.05713170
      0.16785440      0.28574555
      0.05917387      0.55178731
      0.02355814      0.26323150
 
          36   0
s              4   1.000000
      8.30881954      0.05675242
      1.52041161      0.26014135
      0.42238699      0.53284611
      0.14018645      0.29162544
s              7   1.000000
      0.92936822     -0.06732859
      0.05643440      0.66945703
      0.02166600      0.51461589
      8.30881954     -0.02902305
      1.52041161     -0.13303568
      0.42238699     -0.27249625
      0.14018645     -0.14913656
p              4   1.000000
      0.64737396      0.05713170
      0.16785440      0.28574555
      0.05917387      0.55178731
      0.02355814      0.26323150
 
          37   0
s              4   1.000000
      8.30936444      0.05675242
      1.52051132      0.26014135
      0.42241469      0.53284611
      0.14019564      0.29162544
s              7   1.000000
      0.92936822     -0.06732789
      0.05643440      0.66945006
      0.02166600      0.51461055
      8.30936444     -0.02902160
      1.52051132     -0.13302899
      0.42241469     -0.27248256
      0.14019564     -0.14912907
p              4   1.000000
      0.64737396      0.05713170
      0.16785440      0.28574555
      0.05917387      0.55178731
      0.02355814      0.26323150
 
          38   0
s              4   1.000000
      8.31015840      0.05675242
      1.52065660      0.26014135
      0.42245506      0.53284611
      0.14020904      0.29162544
s              7   1.000000
      0.92936822     -0.06732687
      0.05643440      0.66943991
      0.02166600      0.51460274
      8.31015840     -0.02901947
      1.52065660     -0.13301926
      0.42245506     -0.27246262
      0.14020904     -0.14911816
p              4   1.000000
      0.64737396      0.05713170
      0.16785440      0.28574555
      0.05917387      0.55178731
      0.02355814      0.26323150
 
          39   0
s              4   1.000000
      8.30889715      0.05675242
      1.52042581      0.26014135
      0.42239094      0.53284611
      0.14018775      0.29162544
s              7   1.000000
      0.92936822     -0.06732849
      0.05643440      0.66945604
      0.02166600      0.51461514
      8.30889715     -0.02902285
      1.52042581     -0.13303472
      0.42239094     -0.27249430
      0.14018775     -0.14913550
p              4   1.000000
      0.64737396      0.05713170
      0.16785440      0.28574555
      0.05917387      0.55178731
      0.02355814      0.26323150
 
          40   0
s              4   1.000000
      8.30888777      0.05675242
      1.52042409      0.26014135
      0.42239046      0.53284611
      0.14018760      0.29162544
s              7   1.000000
      0.92936822     -0.06732850
      0.05643440      0.66945616
      0.02166600      0.51461522
      8.30888777     -0.02902287
      1.52042409     -0.13303484
      0.42239046     -0.27249453
      0.14018760     -0.14913562
p              4   1.000000
      0.64737396      0.05713170
      0.16785440      0.28574555
      0.05917387      0.55178731
      0.02355814      0.26323150
 
          41   0
s              4   1.000000
      8.31013752      0.05675242
      1.52065278      0.26014135
      0.42245399      0.53284611
      0.14020868      0.29162544
s              7   1.000000
      0.92936822     -0.06732689
      0.05643440      0.66944017
      0.02166600      0.51460294
      8.31013752     -0.02901953
      1.52065278     -0.13301951
      0.42245399     -0.27246314
      0.14020868     -0.14911845
p              4   1.000000
      0.64737396      0.05713170
      0.16785440      0.28574555
      0.05917387      0.55178731
      0.02355814      0.26323150
 
          42   0
s              4   1.000000
      8.30936053      0.05675242
      1.52051060      0.26014135
      0.42241450      0.53284611
      0.14019557      0.29162544
s              7   1.000000
      0.92936822     -0.06732789
      0.05643440      0.66945011
      0.02166600      0.51461057
      8.30936053     -0.02902161
      1.52051060     -0.13302904
      0.42241450     -0.27248266
      0.14019557     -0.14912913
p              4   1.000000
      0.64737396      0.05713170
      0.16785440      0.28574555
      0.05917387      0.55178731
      0.02355814      0.26323150
 
          43   0
s              4   1.000000
      8.30885031      0.05675242
      1.52041724      0.26014135
      0.42238856      0.53284611
      0.14018696      0.29162544
s              7   1.000000
      0.92936822     -0.06732855
      0.05643440      0.66945664
      0.02166600      0.51461559
      8.30885031     -0.02902297
      1.52041724     -0.13303530
      0.42238856     -0.27249547
      0.14018696     -0.14913614
p              4   1.000000
      0.64737396      0.05713170
      0.16785440      0.28574555
      0.05917387      0.55178731
      0.02355814      0.26323150
 
          44   0
s              4   1.000000
      8.30885263      0.05675242
      1.52041766      0.26014135
      0.42238867      0.53284611
      0.14018700      0.29162544
s              7   1.000000
      0.92936822     -0.06732855
      0.05643440      0.66945661
      0.02166600      0.51461556
      8.30885263     -0.02902297
      1.52041766     -0.13303527
      0.42238867     -0.27249541
      0.14018700     -0.14913611
p              4   1.000000
      0.64737396      0.05713170
      0.16785440      0.28574555
      0.05917387      0.55178731
      0.02355814      0.26323150
 
          45   0
s              4   1.000000
      8.30916763      0.05675242
      1.52047530      0.26014135
      0.42240469      0.53284611
      0.14019232      0.29162544
s              7   1.000000
      0.92936822     -0.06732814
      0.05643440      0.66945258
      0.02166600      0.51461248
      8.30916763     -0.02902212
      1.52047530     -0.13303141
      0.42240469     -0.27248750
      0.14019232     -0.14913178
p              4   1.000000
      0.64737396      0.05713170
      0.16785440      0.28574555
      0.05917387      0.55178731
      0.02355814      0.26323150
 
          46   0
s              4   1.000000
      8.30746476      0.05675242
      1.52016370      0.26014135
      0.42231812      0.53284611
      0.14016359      0.29162544
s              7   1.000000
      0.92936822     -0.06733033
      0.05643440      0.66947437
      0.02166600      0.51462923
      8.30746476     -0.02902668
      1.52016370     -0.13305229
      0.42231812     -0.27253028
      0.14016359     -0.14915519
p              4   1.000000
      0.64737396      0.05713170
      0.16785440      0.28574555
      0.05917387      0.55178731
      0.02355814      0.26323150
 
          47   0
s              4   1.000000
      8.30640993      0.05675242
      1.51997068      0.26014135
      0.42226450      0.53284611
      0.14014579      0.29162544
s              7   1.000000
      0.92936822     -0.06733169
      0.05643440      0.66948787
      0.02166600      0.51463959
      8.30640993     -0.02902950
      1.51997068     -0.13306523
      0.42226450     -0.27255679
      0.14014579     -0.14916970
p              4   1.000000
      0.64737396      0.05713170
      0.16785440      0.28574555
      0.05917387      0.55178731
      0.02355814      0.26323150
 
          48   0
s              4   1.000000
      8.31135405      0.05675242
      1.52087539      0.26014135
      0.42251584      0.53284611
      0.14022921      0.29162544
s              7   1.000000
      0.92936822     -0.06732533
      0.05643440      0.66942462
      0.02166600      0.51459099
      8.31135405     -0.02901628
      1.52087539     -0.13300460
      0.42251584     -0.27243260
      0.14022921     -0.14910173
p              4   1.000000
      0.64737396      0.05713170
      0.16785440      0.28574555
      0.05917387      0.55178731
      0.02355814      0.26323150
 
          49   0
s              4   1.000000
      8.31019389      0.05675242
      1.52066310      0.26014135
      0.42245686      0.53284611
      0.14020963      0.29162544
s              7   1.000000
      0.92936822     -0.06732682
      0.05643440      0.66943945
      0.02166600      0.51460237
      8.31019389     -0.02901938
      1.52066310     -0.13301882
      0.42245686     -0.27246173
      0.14020963     -0.14911767
p              4   1.000000
      0.64737396      0.05713170
      0.16785440      0.28574555
      0.05917387      0.55178731
      0.02355814      0.26323150
 
          50   0
s              4   1.000000
      8.30888488      0.05675242
      1.52042356      0.26014135
      0.42239032      0.53284611
      0.14018755      0.29162544
s              7   1.000000
      0.92936822     -0.06732851
      0.05643440      0.66945619
      0.02166600      0.51461527
      8.30888488     -0.02902288
      1.52042356     -0.13303487
      0.42239032     -0.27249460
      0.14018755     -0.14913566
p              4   1.000000
      0.64737396      0.05713170
      0.16785440      0.28574555
      0.05917387      0.55178731
      0.02355814      0.26323150
 
          51   0
s              4   1.000000
      8.30892333      0.05675242
      1.52043060      0.26014135
      0.42239227      0.53284611
      0.14018820      0.29162544
s              7   1.000000
      0.92936822     -0.06732846
      0.05643440      0.66945570
      0.02166600      0.51461487
      8.30892333     -0.02902278
      1.52043060     -0.13303440
      0.42239227     -0.27249364
      0.14018820     -0.14913513
p              4   1.000000
      0.64737396      0.05713170
      0.16785440      0.28574555
      0.05917387      0.55178731
      0.02355814      0.26323150
 
          52   0
s              4   1.000000
      8.31031771      0.05675242
      1.52068575      0.26014135
      0.42246315      0.53284611
      0.14021172      0.29162544
s              7   1.000000
      0.92936822     -0.06732666
      0.05643440      0.66943787
      0.02166600      0.51460118
      8.31031771     -0.02901905
      1.52068575     -0.13301731
      0.42246315     -0.27245862
      0.14021172     -0.14911597
p              4   1.000000
      0.64737396      0.05713170
      0.16785440      0.28574555
      0.05917387      0.55178731
      0.02355814      0.26323150
 
 [MO]
 Sym= Hole
 Ene= -0.7714190    
 Spin= Alpha
 Occup= 0
           1 -2.5265175E-03
           2  4.5547616E-03
           3  5.2591353E-03
           4 -1.5809573E-02
           5  3.3259436E-03
           6  3.0721501E-03
           7 -9.5580546E-03
           8 -7.0323525E-03
           9 -6.6534481E-03
          10 -1.2675078E-02
          11 -1.6187459E-02
          12  8.4984871E-03
          13  1.2998778E-03
          14 -1.9845320E-03
          15 -3.0772046E-03
          16  2.6398583E-03
          17  1.0864168E-03
          18  1.8024623E-03
          19  4.8010591E-03
          20 -3.3556428E-03
          21 -1.0025295E-03
          22 -5.8918755E-04
          23 -1.7804988E-03
          24 -1.1854860E-03
          25 -1.3605267E-03
          26 -1.7092137E-03
          27  6.3977442E-03
          28 -2.0158114E-03
          29  1.6156760E-05
          30 -5.7216757E-04
          31  1.4955865E-03
          32 -7.8258786E-04
          33  9.4620409E-05
          34  4.8096517E-05
          35  2.6508733E-03
          36  3.3948768E-04
          37 -2.3376063E-04
          38 -1.3694272E-05
          39  2.4160306E-04
          40  4.7322930E-05
          41  9.5061102E-04
          42  1.9481017E-03
          43 -4.3205828E-03
          44  7.3383836E-04
          45 -3.3175858E-04
          46  1.0675684E-04
          47 -1.3169993E-03
          48  1.0852973E-04
          49 -2.2832083E-03
          50 -2.8363923E-03
          51 -7.2275749E-03
          52  2.6601898E-03
          53  9.7921165E-04
          54 -9.1408473E-04
          55  2.8444254E-03
          56  8.2339143E-04
          57  5.3789379E-04
          58 -2.4372621E-05
          59  5.2387333E-03
          60  1.3349208E-03
          61 -6.7534449E-04
          62  1.1824614E-03
          63 -2.5176274E-05
          64 -3.0004347E-04
          65  4.8651712E-04
          66 -1.7257367E-03
          67 -8.7665124E-03
          68 -1.2905374E-02
          69 -4.0898880E-04
          70  2.1412980E-05
          71 -2.5353450E-04
          72  2.5028651E-04
          73 -3.7696161E-03
          74  2.4784363E-03
          75  2.2603352E-02
          76  0.1768654    
          77  1.1347439E-03
          78 -2.0405955E-03
          79  1.7649216E-03
          80  4.8463936E-03
          81  3.0749717E-03
          82  3.6324162E-04
          83  2.2772735E-02
          84  0.3752745    
          85 -1.9493428E-04
          86 -1.0032023E-03
          87 -9.7638910E-04
          88  1.1202305E-02
          89 -1.2035810E-03
          90  2.0343508E-03
          91  1.9813992E-02
          92  0.2015610    
          93  4.5945222E-04
          94 -9.6773956E-04
          95  2.9253747E-04
          96  6.3153002E-03
          97  1.1791034E-03
          98 -9.6069364E-04
          99 -2.0622538E-02
         100 -0.2077508    
         101 -2.2085221E-04
         102 -1.0225348E-03
         103 -4.9191585E-04
         104 -6.3719321E-03
         105 -3.0882293E-03
         106 -8.6201010E-03
         107 -2.3649158E-02
         108 -0.3759597    
         109  2.4050240E-04
         110 -1.4847148E-03
         111  9.4788655E-04
         112 -1.1032064E-02
         113  3.7012461E-03
         114  9.6457494E-05
         115 -2.1563396E-02
         116 -0.1702607    
         117 -1.8757561E-03
         118 -2.1584702E-03
         119 -1.7066010E-03
         120 -5.8896104E-03
         121 -5.7483080E-04
         122 -4.1463720E-03
         123  8.1593283E-03
         124  1.5860356E-02
         125 -1.6090277E-04
         126 -1.6802190E-04
         127 -1.1858674E-03
         128 -1.9558326E-03
         129 -1.3020469E-03
         130  7.4585358E-04
         131  3.9780308E-03
         132 -6.7526414E-03
         133  5.0014700E-04
         134  1.7218866E-03
         135  2.5203309E-04
         136 -7.7667943E-04
         137  3.2967122E-03
         138 -2.9269948E-03
         139  4.2935558E-02
         140 -1.1133171E-02
         141 -5.4365728E-04
         142 -1.3572572E-03
         143 -1.5815323E-03
         144 -3.0303314E-05
         145 -9.3712588E-04
         146  3.2839598E-03
         147  2.9257463E-02
         148 -8.4227109E-03
         149  7.5527997E-04
         150 -2.6393629E-04
         151  1.5907638E-03
         152  1.8738178E-06
         153  6.3547544E-04
         154 -1.5218140E-03
         155 -1.2307933E-02
         156  4.2961878E-03
         157  4.6986758E-04
         158 -6.7280745E-04
         159 -6.3177076E-04
         160  2.8312125E-04
         161  8.4672461E-04
         162 -8.9393451E-04
         163 -3.9645858E-02
         164  1.1199925E-02
         165 -6.3669351E-05
         166 -9.4783976E-04
         167 -2.2619134E-03
         168  1.0004995E-03
         169  2.8260967E-03
         170 -4.7394289E-03
         171 -2.2898231E-02
         172  1.6612934E-02
         173 -1.5189815E-03
         174  5.1102170E-04
         175  1.9990003E-03
         176  4.8810293E-04
         177  8.6390907E-03
         178 -1.2161961E-02
         179  1.7621364E-02
         180 -1.6643643E-02
         181 -2.5228569E-03
         182 -1.8144697E-04
         183  4.9923137E-03
         184 -2.5633224E-03
         185 -6.1396509E-03
         186 -2.2209822E-03
         187  8.1891380E-03
         188  4.2088673E-02
         189  2.0644439E-03
         190  1.0627976E-03
         191  1.2711162E-02
         192  1.5310462E-03
         193 -3.2489095E-03
         194 -8.0936916E-05
         195  1.8600622E-03
         196  0.1947328    
         197  5.9330725E-04
         198  5.8915338E-04
         199 -2.6482104E-03
         200  4.9877143E-03
         201  4.3992023E-03
         202 -1.3729243E-04
         203  2.9531207E-02
         204  0.3756307    
         205 -5.8058498E-04
         206  2.6804311E-04
         207  2.4899149E-03
         208  1.1718151E-02
         209 -9.2791329E-04
         210 -8.8097103E-04
         211  6.0133860E-03
         212  0.1948425    
         213  4.6057414E-04
         214  4.1978713E-04
         215  8.1833923E-04
         216  6.9341799E-03
         217  1.0058818E-03
         218 -3.1844678E-03
         219 -7.3975222E-03
         220 -0.2086295    
         221  2.0784987E-04
         222  7.7752472E-04
         223  5.0337014E-05
         224 -6.8901707E-03
         225 -1.8946253E-03
         226 -1.0424749E-02
         227 -2.8416255E-02
         228 -0.3773557    
         229 -1.7573317E-05
         230  1.3821767E-04
         231 -1.7963996E-03
         232 -1.2017112E-02
         233  3.8137115E-03
         234 -5.5590956E-03
         235  8.2526874E-04
         236 -0.1890778    
         237 -1.4828879E-03
         238  5.9363083E-04
         239  1.4545630E-03
         240 -5.0676074E-03
         241  7.7483389E-03
         242 -2.7002553E-03
         243  1.6188228E-03
         244  5.4401322E-04
         245 -1.9898308E-03
         246 -1.3794024E-02
         247 -2.0360241E-03
         248 -2.9867669E-03
         249 -6.4440421E-04
         250  6.1950102E-03
         251  1.4286222E-02
         252 -9.8584360E-04
         253 -1.3931999E-04
         254  3.1785609E-03
         255  1.4120949E-03
         256  4.1208457E-04
         257 -2.9231072E-04
         258 -7.5020493E-05
         259  1.0716731E-03
         260 -2.8242215E-05
         261  1.3628992E-04
         262 -1.7856246E-04
         263 -2.4385008E-04
         264 -7.7642588E-05
         265 -1.3486053E-04
         266 -1.8149045E-04
         267  6.7919195E-06
         268  8.8487017E-05
         269 -1.7717334E-03
         270  7.1562456E-05
         271 -1.4123905E-03
         272 -2.1230037E-04
         273 -1.2205030E-03
         274  2.2579166E-04
         275 -9.2540309E-04
         276  6.8997440E-04
         277  3.4115888E-04
         278  1.0134019E-03
         279 -1.3650550E-03
         280 -1.5631856E-02
         281  3.2986545E-03
         282  6.3516031E-04
         283 -3.6750687E-04
         284 -1.4265182E-03
         285 -7.1567693E-03
         286 -2.3671282E-03
         287 -3.5419627E-04
         288 -3.2004027E-04
         289  1.2626695E-03
         290  7.4495892E-03
         291 -1.5564796E-03
         292 -8.5836640E-05
         293  8.6341909E-04
         294  1.1632125E-03
         295  1.6007490E-02
         296 -1.3073943E-04
         297  6.8564719E-04
         298 -7.9681346E-04
         299 -1.2580139E-03
         300  1.9481261E-03
         301  1.1892209E-03
         302  2.7299827E-04
         303  3.4529710E-06
         304  6.0510915E-04
         305  2.1388476E-04
         306 -1.3115100E-03
         307  4.3734719E-04
         308 -2.0471844E-04
         309  2.3215993E-04
         310 -1.2517902E-04
         311 -1.8131294E-03
         312  5.1438593E-04
         313 -4.9280969E-04
         314 -2.2214497E-04
         315 -5.7165930E-04
         316  1.7621420E-02
         317  1.7518862E-03
         318 -1.4268531E-03
         319  1.6567229E-04
         320 -5.3511504E-03
         321 -2.7424276E-02
         322  7.5151940E-04
         323 -1.1909051E-03
         324 -2.4262036E-03
         325 -1.1017298E-03
         326  7.5705587E-03
         327  8.2665111E-04
         328  3.3461591E-03
         329 -3.1429294E-03
         330  8.4565664E-03
         331 -4.3684660E-04
         332  7.9554325E-04
         333 -1.2306430E-03
         334 -1.5617831E-04
         335 -1.6529258E-02
         336  4.2223549E-03
         337  5.6489860E-04
         338  2.0469259E-05
         339  4.2114698E-04
         340 -8.4267827E-03
         341 -5.1568071E-03
         342  2.9353949E-05
         343  1.7708173E-04
         344  1.7964632E-05
         345  8.6608166E-03
         346  1.2855243E-03
         347 -4.0954220E-04
         348  1.0603454E-04
         349  8.5214188E-04
         350  1.8142032E-02
 Sym= Particle
 Ene= -0.7714190    
 Spin= Alpha
 Occup= 2
           1  2.3773923E-03
           2 -8.4625911E-03
           3 -2.1643795E-03
           4  9.2292856E-03
           5  1.9237841E-03
           6  4.2951670E-03
           7 -1.2468555E-04
           8 -5.6883683E-03
           9  4.7795787E-03
          10 -1.7561194E-03
          11  5.8958516E-03
          12 -9.0979869E-03
          13 -1.7666359E-03
          14  7.0536709E-03
          15 -6.0072159E-03
          16 -6.7143107E-04
          17 -3.7251588E-02
          18 -3.0642336E-02
          19  5.1867664E-02
          20  3.6232613E-02
          21  2.5605399E-02
          22  1.7895812E-02
          23 -1.1523097E-02
          24 -1.2021732E-02
          25  1.3601898E-02
          26  1.6567981E-02
          27  5.3665489E-03
          28 -3.3884412E-03
          29 -8.7138582E-03
          30 -5.4288898E-03
          31  2.5508762E-03
          32  2.6194502E-03
          33 -2.1380439E-04
          34  1.1716041E-03
          35 -3.7648190E-02
          36  1.7807780E-02
          37 -5.0042232E-04
          38  4.3934499E-04
          39  5.8302782E-03
          40 -2.3184901E-03
          41 -1.3385085E-02
          42 -1.7178632E-02
          43  7.6304143E-03
          44 -1.2189989E-03
          45  7.1485592E-03
          46  7.1095577E-03
          47  1.2603087E-03
          48  3.5916020E-03
          49  3.8228668E-02
          50  3.6913633E-02
          51  5.0801542E-02
          52  2.9665358E-02
          53 -2.9206548E-02
          54 -1.9131415E-02
          55 -1.1120887E-02
          56 -6.6392948E-03
          57  2.0750719E-03
          58  3.8787092E-03
          59 -2.5279293E-02
          60  2.9387974E-04
          61 -4.6637575E-03
          62 -8.0881192E-04
          63  9.0534678E-03
          64  1.5153594E-02
          65 -2.7531933E-03
          66  4.3532051E-02
          67  2.7113551E-02
          68  0.4796495    
          69  5.9778307E-05
          70 -7.7720922E-03
          71 -7.4721193E-03
          72 -0.1204174    
          73 -2.3219953E-03
          74 -1.5845105E-02
          75 -1.5603847E-02
          76 -0.1443790    
          77  1.8858565E-05
          78  8.0996566E-03
          79  5.8756396E-03
          80  3.9131194E-02
          81  5.9055425E-03
          82  2.8877603E-03
          83 -2.7304947E-02
          84 -0.2416694    
          85 -3.9293077E-03
          86 -4.2493665E-04
          87  6.0361447E-03
          88  2.9625166E-02
          89 -5.1013520E-04
          90 -3.3696077E-04
          91  1.5725179E-02
          92  0.1970004    
          93  1.6796230E-03
          94  7.9703768E-04
          95 -4.9339635E-03
          96 -3.7154019E-02
          97 -4.1612209E-04
          98  4.0604956E-03
          99  1.5878910E-02
         100  0.1942347    
         101  1.4012660E-03
         102 -4.5857733E-04
         103 -5.7393303E-03
         104 -3.5888292E-02
         105  6.4975061E-03
         106 -7.1204561E-03
         107 -2.7858453E-02
         108 -0.2396420    
         109 -5.6648990E-03
         110  1.7322397E-03
         111  6.5212566E-03
         112  2.9615557E-02
         113  1.3262359E-03
         114  1.3039351E-02
         115 -1.8642817E-02
         116 -0.1416573    
         117 -3.1036609E-03
         118 -6.7375647E-03
         119  7.5436686E-03
         120  3.8276467E-02
         121 -7.6233726E-03
         122 -4.7380976E-02
         123  2.7438372E-02
         124  0.4796433    
         125  1.1311487E-03
         126  1.0216474E-02
         127 -8.1488620E-03
         128 -0.1208578    
         129  5.6679957E-03
         130 -1.0283158E-02
         131 -3.4851689E-02
         132  4.9217828E-03
         133 -9.1940369E-03
         134  4.6523693E-03
         135  1.1595585E-02
         136  1.4951700E-02
         137  3.7449617E-02
         138 -3.6531515E-02
         139  5.7442021E-02
         140  2.4581065E-02
         141 -2.9394012E-02
         142  1.9490702E-02
         143 -1.3239416E-02
         144 -4.7420468E-03
         145 -1.2383611E-02
         146  1.5670097E-02
         147  1.3006472E-02
         148 -2.1704277E-03
         149  7.4148574E-03
         150 -7.5245108E-03
         151  5.7365518E-04
         152  3.6325166E-03
         153  1.3916473E-05
         154 -2.6927826E-03
         155 -4.5342911E-02
         156  2.1545468E-02
         157 -1.9650890E-04
         158 -8.0539833E-04
         159  7.3723155E-03
         160 -2.8613079E-03
         161  1.4598079E-02
         162 -1.6538387E-02
         163  5.2929400E-03
         164 -2.6837057E-03
         165 -1.0175911E-02
         166  4.6489686E-03
         167  2.3624150E-03
         168  1.6204870E-03
         169 -3.5997357E-02
         170  2.7978549E-02
         171  6.2527515E-02
         172  3.5566192E-02
         173  2.2738364E-02
         174 -1.6506553E-02
         175 -1.4982454E-02
         176 -1.3752290E-02
         177  5.2508996E-03
         178  3.5422738E-03
         179  1.0219643E-02
         180 -7.4384976E-03
         181 -4.9849041E-03
         182 -6.0681612E-03
         183 -7.3938956E-03
         184 -1.6904760E-03
         185  4.5555509E-05
         186  9.7362529E-03
         187 -2.0982983E-05
         188  2.1864301E-02
         189  4.2846259E-03
         190 -1.6219716E-03
         191 -8.7993237E-04
         192 -1.5685124E-02
         193 -8.7549601E-04
         194  6.3635223E-03
         195 -6.5443711E-03
         196 -0.1433186    
         197 -1.7746248E-03
         198 -4.1916063E-03
         199 -2.1978132E-03
         200  3.6878988E-02
         201  5.0935913E-03
         202 -1.7711481E-03
         203 -7.1138702E-03
         204 -0.2492507    
         205 -5.1384047E-03
         206  5.4110709E-04
         207 -1.0664981E-03
         208  3.2681711E-02
         209 -2.1019303E-04
         210  2.1061797E-03
         211  1.0481563E-02
         212  0.2059605    
         213  9.0536370E-04
         214  6.8643643E-04
         215  7.4174342E-04
         216 -3.9714590E-02
         217 -3.7912160E-04
         218  1.7104674E-03
         219  1.0152943E-02
         220  0.1960232    
         221  9.0793741E-04
         222  8.9051924E-04
         223 -8.8941306E-05
         224 -3.8038209E-02
         225  4.6485919E-03
         226 -3.2974770E-03
         227 -8.3979424E-03
         228 -0.2511114    
         229 -3.6757882E-03
         230  1.9013304E-03
         231 -5.2471115E-04
         232  3.0803166E-02
         233 -3.1311107E-03
         234 -9.5974533E-03
         235 -7.1794665E-03
         236 -0.1386221    
         237  4.8174267E-04
         238  6.5018083E-03
         239 -7.5233082E-04
         240  3.5568461E-02
         241 -6.4395450E-04
         242  3.6257931E-03
         243 -9.4876345E-03
         244  1.2055849E-02
         245 -1.0707055E-02
         246 -8.4275575E-03
         247  2.0189004E-03
         248 -6.7383656E-03
         249 -1.3376933E-02
         250  5.3683254E-03
         251 -6.8740631E-03
         252  4.0028761E-03
         253  1.5033165E-03
         254 -4.3914720E-04
         255  2.0551640E-03
         256 -1.6110165E-02
         257  3.4715908E-03
         258  1.1083651E-03
         259  2.1361317E-03
         260 -2.1978298E-03
         261  1.1892442E-05
         262 -2.9837442E-04
         263  3.8301281E-05
         264 -6.7451643E-03
         265  4.8948750E-03
         266  1.5156443E-02
         267 -3.9933939E-03
         268 -2.8611270E-03
         269  7.1518240E-04
         270 -1.0603752E-03
         271 -1.0929769E-02
         272 -3.9428910E-03
         273 -1.4676363E-02
         274  2.7443483E-03
         275  6.5108277E-03
         276 -4.0326566E-03
         277  2.4530375E-03
         278  7.9539843E-04
         279 -9.5694768E-04
         280 -3.0789437E-02
         281  1.2990589E-03
         282  1.7778694E-03
         283  2.6488048E-04
         284  1.9729284E-03
         285  3.4991696E-02
         286  1.2659386E-03
         287  1.7850195E-03
         288  1.5544090E-04
         289  1.2587754E-03
         290  3.3767916E-02
         291 -3.3797161E-03
         292  2.1982256E-03
         293 -1.9453441E-03
         294 -1.1950121E-03
         295 -2.9715972E-02
         296 -1.1669899E-02
         297 -3.1681708E-03
         298  1.4943914E-02
         299  2.9749894E-03
         300  6.8173567E-03
         301  1.4521867E-02
         302 -2.6701540E-03
         303  2.9475128E-03
         304  1.8473529E-03
         305 -1.6463985E-03
         306  6.0659877E-05
         307  7.1583362E-04
         308 -2.1164483E-04
         309 -8.3291363E-03
         310  5.4486841E-03
         311 -1.7055111E-02
         312  3.8767103E-03
         313 -1.2604900E-03
         314  1.2924636E-03
         315 -4.0943325E-03
         316 -1.0553303E-02
         317  1.3987047E-03
         318  9.1534955E-03
         319 -1.1172662E-02
         320  7.7920696E-03
         321 -8.6922459E-03
         322  3.9316765E-03
         323 -4.3756077E-03
         324  5.1730202E-04
         325  2.4013175E-04
         326  1.4857007E-03
         327 -4.8389435E-03
         328 -2.2098821E-04
         329  1.7314667E-02
         330  1.2946977E-02
         331 -2.7603048E-03
         332  6.4032525E-04
         333 -4.6096770E-03
         334 -1.4661400E-03
         335 -3.2036979E-02
         336  5.1227183E-04
         337  2.3609705E-03
         338  4.9128354E-04
         339  3.4927153E-03
         340  3.6840230E-02
         341  2.8133925E-04
         342  1.7615798E-03
         343  9.1339531E-04
         344  2.7133294E-03
         345  3.3769194E-02
         346 -3.7734429E-03
         347  5.7337363E-04
         348  3.1716570E-03
         349 -2.0469308E-03
         350 -3.2755539E-02
 Sym= Hole
 Ene= -0.2223717    
 Spin= Alpha
 Occup= 0
           1 -1.8621411E-03
           2  1.5998885E-02
           3 -5.0432337E-03
           4 -3.3347957E-02
           5  3.9182222E-03
           6  1.2913321E-03
           7  5.7033631E-03
           8 -6.6364175E-03
           9 -2.4922502E-03
          10  9.5811943E-03
          11  8.0594672E-03
          12  1.2524648E-02
          13  2.6532670E-03
          14 -2.8820717E-04
          15 -1.8243127E-03
          16 -6.7074029E-03
          17  3.6728989E-02
          18  3.7935305E-02
          19 -6.0868982E-02
          20 -5.2012656E-02
          21 -1.5535693E-02
          22  2.8298218E-03
          23  1.9651742E-03
          24  4.3996652E-03
          25 -1.3202831E-02
          26 -1.8991493E-02
          27  5.3423923E-03
          28  6.6840332E-03
          29  5.4683173E-03
          30  2.0326963E-03
          31 -1.3763338E-03
          32 -1.1513160E-03
          33 -6.2604441E-04
          34 -1.9197579E-03
          35  3.9621480E-02
          36 -2.0492462E-02
          37  3.5285874E-04
          38  3.8847007E-05
          39 -2.1096329E-04
          40  4.1159312E-03
          41  1.4401826E-02
          42  2.2916034E-02
          43  9.6447635E-03
          44  1.9228302E-03
          45 -4.9447869E-03
          46 -3.0952848E-03
          47 -6.3885457E-04
          48 -9.2552422E-04
          49 -4.2899057E-02
          50 -5.1348373E-02
          51 -5.4529887E-02
          52 -3.9069753E-02
          53  1.9675151E-02
          54 -1.2051781E-03
          55  2.6547580E-03
          56  5.1760627E-03
          57  2.0313840E-03
          58  7.1656625E-03
          59 -1.4758605E-02
          60  5.1807959E-02
          61 -1.9070198E-04
          62  8.4839627E-04
          63  2.1327818E-03
          64  4.4405479E-03
          65  3.5871055E-03
          66 -4.6022944E-02
          67 -2.3606384E-02
          68 -0.4865383    
          69 -3.4746641E-04
          70  3.2018826E-03
          71  1.4932231E-04
          72  1.2512870E-02
          73 -5.5396929E-03
          74 -9.9474574E-03
          75 -1.7569235E-02
          76 -0.1810551    
          77  2.0140319E-03
          78  2.5021825E-03
          79  8.5368330E-05
          80 -5.6560672E-05
          81 -7.1331253E-04
          82 -1.7029444E-03
          83  1.9793397E-02
          84  0.1910523    
          85  1.1414387E-03
          86  1.9935898E-03
          87 -1.1043887E-03
          88 -1.0571240E-02
          89  9.3885686E-04
          90 -3.1623794E-04
          91  1.1031986E-02
          92  0.1782425    
          93  2.4626422E-04
          94  1.7344389E-03
          95 -5.2872149E-04
          96 -7.5245206E-03
          97 -9.8060444E-04
          98 -3.3291290E-03
          99 -9.8702405E-03
         100 -0.1671519    
         101  8.1435248E-04
         102  1.4148451E-03
         103 -8.4170490E-04
         104  8.6185094E-03
         105  3.0569334E-03
         106 -7.5741084E-03
         107 -2.3799164E-02
         108 -0.1860373    
         109 -2.0353184E-03
         110  1.5607306E-03
         111 -3.5678217E-04
         112  1.1790637E-02
         113  7.1745357E-03
         114  9.2992408E-04
         115  1.4901008E-02
         116  0.1755395    
         117 -5.1489803E-03
         118  1.2088836E-03
         119  1.9967197E-03
         120 -1.5121875E-03
         121 -6.9815377E-03
         122 -5.2567106E-02
         123  2.2465670E-02
         124  0.4835357    
         125 -1.3640331E-03
         126  3.0277749E-03
         127 -4.4291749E-04
         128 -1.6223026E-02
         129 -2.7996618E-03
         130  7.6824012E-03
         131  9.6803121E-03
         132 -4.7040634E-02
         133 -9.4018783E-04
         134  1.1990888E-03
         135 -1.7481996E-03
         136 -3.0447091E-03
         137  4.2842481E-02
         138 -4.9844883E-02
         139  5.9334844E-02
         140  3.2868072E-02
         141 -1.9759506E-02
         142 -6.6622119E-06
         143 -3.5209362E-03
         144 -4.1101021E-03
         145 -1.3488644E-02
         146  2.0437308E-02
         147 -6.5705460E-03
         148 -2.5666342E-03
         149  5.1809372E-03
         150 -4.8574596E-03
         151  6.0009392E-04
         152  9.5521921E-04
         153  1.1806438E-03
         154 -3.6692990E-03
         155 -3.9626442E-02
         156  2.4231534E-02
         157  3.6140267E-05
         158 -1.1029738E-03
         159  6.5560441E-04
         160 -3.2598800E-03
         161  1.3067769E-02
         162 -1.4945628E-02
         163 -5.9222938E-03
         164 -6.1580907E-03
         165 -5.4935589E-03
         166  1.8030527E-03
         167  1.1463875E-03
         168  7.4835552E-04
         169 -3.2062933E-02
         170  2.8528692E-02
         171  6.5416642E-02
         172  5.4418560E-02
         173  1.2402524E-02
         174  3.4391019E-03
         175 -3.1240988E-03
         176 -7.4816993E-03
         177  4.2406237E-03
         178  7.4200346E-03
         179 -9.3954932E-03
         180 -1.4638171E-02
         181 -4.4112341E-03
         182  6.0786132E-04
         183  3.1107117E-03
         184  6.3757664E-03
         185 -5.5115032E-03
         186  1.1657452E-02
         187  1.4266676E-02
         188  7.1183950E-02
         189  1.0785612E-03
         190 -1.3742371E-03
         191 -2.2756725E-03
         192 -5.5712089E-04
         193  7.4875834E-03
         194  2.6513501E-03
         195  1.5343983E-02
         196  0.1689963    
         197 -6.3477526E-03
         198  1.1175986E-03
         199 -2.8342782E-03
         200 -3.0291318E-03
         201  2.3124081E-03
         202  1.6462709E-03
         203 -6.7295334E-03
         204 -0.2102686    
         205 -2.9178346E-03
         206  1.4176193E-03
         207  1.5353549E-03
         208  9.7944513E-03
         209 -3.4914428E-04
         210 -1.5731745E-03
         211 -1.2716285E-02
         212 -0.1833523    
         213  8.1360474E-04
         214  9.3355274E-04
         215  2.0609847E-03
         216  7.6875635E-03
         217  6.7563902E-04
         218  2.0613337E-03
         219  1.2059613E-02
         220  0.1824406    
         221  5.3126662E-04
         222  1.6581819E-03
         223 -2.8632185E-04
         224 -6.4646099E-03
         225 -4.3076702E-04
         226  7.8842938E-03
         227  1.1789265E-02
         228  0.2124570    
         229  2.0097895E-03
         230  1.5145888E-03
         231 -5.3265417E-04
         232 -7.8292415E-03
         233 -6.4064208E-03
         234 -8.4643494E-03
         235 -1.3023680E-02
         236 -0.1605122    
         237  3.0687614E-03
         238  1.2681124E-03
         239  1.5923394E-04
         240  6.5900193E-04
         241  1.3455225E-03
         242 -4.5384765E-03
         243 -1.6173082E-03
         244 -4.4169212E-03
         245  1.6851174E-03
         246  1.0114195E-02
         247  2.5344167E-03
         248 -9.8720891E-04
         249  2.8392982E-03
         250 -2.7973806E-03
         251  1.2110432E-02
         252 -2.0608329E-03
         253 -3.7004787E-03
         254  8.4593007E-04
         255  1.6564916E-05
         256  2.2870950E-02
         257 -1.6690233E-03
         258  2.6541934E-03
         259  6.6315196E-04
         260  2.3356699E-03
         261  7.6979765E-04
         262 -3.1982950E-04
         263 -2.3217456E-04
         264  2.7616876E-03
         265 -1.3199536E-03
         266 -2.2171116E-02
         267  1.5773093E-03
         268 -1.4708028E-03
         269  9.2113012E-04
         270  1.7732178E-03
         271  1.4094051E-02
         272  1.4171590E-03
         273  6.7314608E-03
         274 -2.9714126E-03
         275 -8.5697733E-03
         276 -2.7307726E-03
         277  2.9579265E-04
         278  2.0266138E-04
         279  1.6953241E-03
         280  1.5291839E-02
         281 -3.3261278E-03
         282  4.1736133E-04
         283  4.3990117E-04
         284  1.1227656E-03
         285  1.1263621E-02
         286  4.3328879E-03
         287  8.6879206E-04
         288  3.3097205E-04
         289 -1.9700320E-03
         290 -1.2439206E-02
         291  2.7102279E-04
         292  1.1615577E-03
         293 -1.7367870E-03
         294 -1.9708634E-03
         295 -1.5176428E-02
         296 -1.4255354E-02
         297 -1.3823486E-04
         298  6.3810823E-03
         299  3.3677139E-03
         300  1.0124143E-02
         301  2.1505883E-02
         302 -9.6977723E-04
         303 -8.4348238E-04
         304 -6.8355916E-04
         305 -1.3566257E-03
         306 -1.4052844E-03
         307  1.1910590E-03
         308 -4.4923031E-04
         309 -3.3544153E-03
         310  9.7859686E-04
         311 -2.2213235E-02
         312  3.1107040E-03
         313  1.3909928E-03
         314 -1.1842658E-03
         315 -2.7102774E-03
         316 -1.5180314E-02
         317 -2.4804503E-03
         318  1.0139134E-04
         319 -9.8108221E-04
         320  3.4322771E-03
         321 -2.0128153E-02
         322  3.1047328E-03
         323 -5.4668309E-03
         324 -8.8233955E-04
         325 -1.8075672E-03
         326  2.8132952E-03
         327 -1.7880913E-03
         328  6.6818338E-04
         329  4.1244449E-03
         330  1.5075160E-02
         331  1.2900775E-03
         332  9.9529338E-04
         333 -1.5862513E-03
         334 -6.4379728E-04
         335 -1.4991960E-02
         336  2.0370074E-03
         337  1.7148893E-03
         338  1.5077373E-05
         339  6.9955835E-04
         340 -1.1385920E-02
         341 -3.9641443E-04
         342  2.7254949E-04
         343  2.4424351E-05
         344  6.2478025E-04
         345  1.0648275E-02
         346 -2.7026751E-03
         347  9.5575914E-04
         348  3.6648908E-04
         349  3.5075427E-04
         350  1.5464062E-02
 Sym= Particle
 Ene= -0.2223717    
 Spin= Alpha
 Occup= 2
           1  3.2625228E-04
           2 -2.1229482E-03
           3 -3.0364650E-03
           4  3.8128104E-03
           5  1.3116031E-04
           6 -7.3272234E-04
           7 -6.1494592E-03
           8 -5.4253015E-04
           9 -8.7454496E-03
          10 -6.9032363E-03
          11 -1.6622864E-02
          12  4.1269758E-03
          13  1.3741053E-02
          14  4.4183764E-03
          15  7.2603747E-03
          16 -1.2177032E-03
          17  1.2120601E-03
          18  1.6781854E-03
          19 -3.4652680E-02
          20  1.0545755E-02
          21  2.5039730E-03
          22  1.0635753E-03
          23  1.8613853E-02
          24 -3.0639654E-03
          25 -1.1852181E-03
          26 -2.2327616E-03
          27  8.1576467E-02
          28 -2.1871766E-02
          29  2.3042739E-03
          30  6.8780594E-04
          31 -2.6551954E-02
          32  6.8412647E-03
          33  1.5446196E-04
          34  1.3477081E-03
          35 -5.3623050E-02
          36  1.4662253E-02
          37  2.7170279E-05
          38 -6.1547785E-04
          39  1.4749653E-02
          40 -4.5061740E-03
          41  2.6976963E-04
          42  1.4541176E-03
          43 -3.0238181E-02
          44  8.3391527E-03
          45  1.6108662E-04
          46 -2.4281714E-04
          47  1.1594439E-02
          48 -2.9632603E-03
          49 -1.2382090E-03
          50 -2.4157357E-03
          51  9.6084259E-02
          52 -2.2709081E-02
          53  1.2312484E-03
          54  2.2318505E-03
          55 -4.0441677E-02
          56  6.3614557E-03
          57  5.5498304E-04
          58  2.4977936E-03
          59 -6.0287327E-02
          60  1.5376344E-02
          61 -1.6222708E-03
          62 -2.0798368E-03
          63  2.3299495E-02
          64 -5.9975982E-03
          65 -2.9634307E-06
          66 -3.5554668E-04
          67 -5.6075868E-03
          68 -1.2926366E-03
          69 -1.0845789E-03
          70 -2.2198664E-04
          71 -3.4198677E-03
          72  3.1724523E-04
          73  6.0072350E-03
          74 -5.8187898E-03
          75 -2.5496555E-02
          76 -0.2059781    
          77 -6.6149118E-03
          78  5.0836639E-03
          79  6.0492591E-03
          80  8.1543043E-02
          81  2.0833646E-03
          82 -2.5833240E-03
          83  3.1980380E-02
          84  0.3919159    
          85 -2.4546005E-03
          86  3.7973556E-03
          87 -1.1323350E-02
          88 -0.1248083    
          89 -3.8824126E-04
          90 -5.7611542E-06
          91 -1.5452418E-02
          92 -0.2051753    
          93 -1.5439702E-03
          94  2.2754047E-04
          95  4.6967939E-03
          96  5.1990438E-02
          97  2.0552486E-04
          98 -4.4932025E-03
          99 -1.6802190E-02
         100 -0.2182293    
         101 -2.7703869E-03
         102  1.8861367E-03
         103  5.4580295E-03
         104  5.6166459E-02
         105  2.8491351E-03
         106  8.8275857E-03
         107  3.0452941E-02
         108  0.3926587    
         109 -4.0372005E-03
         110 -3.9630029E-03
         111 -1.1654904E-02
         112 -0.1239606    
         113 -2.9317124E-04
         114  1.3984679E-03
         115 -1.9611137E-02
         116 -0.1958825    
         117 -2.4818461E-03
         118 -1.5946010E-03
         119  3.5569707E-03
         120  7.8303061E-02
         121  7.3584507E-04
         122  1.0668543E-03
         123 -5.5756611E-03
         124 -6.1694896E-03
         125 -3.4922909E-03
         126  4.0885370E-04
         127 -1.5593768E-03
         128  3.0189496E-03
         129  6.6782790E-04
         130 -1.4160983E-03
         131 -4.5616864E-03
         132  9.1922039E-04
         133 -3.7941146E-03
         134  2.1451244E-03
         135  2.7823292E-03
         136 -4.7643605E-04
         137 -1.3731524E-03
         138  1.4510369E-03
         139  1.0207043E-02
         140 -3.3819224E-04
         141  2.7420180E-04
         142 -1.6172328E-03
         143 -1.3063856E-02
         144  5.8504393E-06
         145  6.7839760E-04
         146 -8.6186250E-04
         147  6.1178571E-03
         148 -1.6370822E-03
         149 -9.9653564E-04
         150  3.1549917E-04
         151  4.6735082E-04
         152  4.9130921E-04
         153  1.7678320E-04
         154 -3.9847131E-04
         155 -7.2737676E-03
         156  2.7586864E-03
         157 -7.0385542E-04
         158  7.3695381E-05
         159  1.8412125E-03
         160 -1.3864337E-03
         161 -8.6904032E-04
         162  5.5091985E-04
         163  2.1418605E-03
         164 -1.4037585E-03
         165  1.1258115E-03
         166 -3.1589871E-04
         167 -4.3009105E-03
         168  8.2607107E-04
         169  1.0134331E-03
         170 -1.0779198E-03
         171 -7.1423375E-03
         172  1.7533756E-03
         173  8.0476084E-04
         174 -6.6425157E-04
         175  1.0758206E-02
         176 -7.9447334E-04
         177 -9.7181657E-03
         178  7.7984892E-03
         179 -1.6370846E-02
         180  3.6621285E-03
         181  1.1566620E-02
         182 -1.5124962E-03
         183  1.1039759E-02
         184 -3.8294096E-03
         185  3.6734215E-03
         186  7.0053767E-03
         187 -6.6542858E-03
         188 -2.1169917E-03
         189 -3.2179600E-03
         190 -1.6335757E-03
         191 -1.2556794E-02
         192  1.5962576E-03
         193 -9.5363101E-04
         194 -5.8406363E-03
         195  5.6703398E-03
         196  0.2002341    
         197 -1.5894172E-03
         198  4.3083439E-03
         199 -3.8849867E-03
         200 -7.9683788E-02
         201 -6.1562349E-04
         202 -6.7920494E-04
         203 -2.1521563E-02
         204 -0.3761531    
         205 -2.0321761E-03
         206  7.8026351E-04
         207  5.3369598E-03
         208  0.1201209    
         209  2.5471629E-04
         210  8.1835908E-04
         211  1.0333849E-02
         212  0.2028555    
         213 -1.7310685E-03
         214  2.3370539E-04
         215 -3.1023344E-03
         216 -5.3462621E-02
         217 -1.8720681E-04
         218  3.7340862E-03
         219  9.9058775E-03
         220  0.1986087    
         221 -1.4974151E-03
         222 -8.3852513E-04
         223 -3.6144452E-03
         224 -5.3309076E-02
         225  1.3285489E-03
         226 -7.4135801E-03
         227 -2.0336973E-02
         228 -0.3802683    
         229 -2.4021012E-03
         230  2.5399097E-03
         231  5.3232675E-03
         232  0.1217899    
         233 -7.1309195E-03
         234  1.1068300E-02
         235  3.3131961E-04
         236  0.1918867    
         237  4.0919674E-03
         238 -6.3462849E-03
         239 -9.1439119E-04
         240 -7.4171558E-02
         241  5.6341081E-03
         242 -2.5974782E-03
         243  2.5469274E-03
         244 -2.1132361E-03
         245  2.1429344E-04
         246  1.4593322E-02
         247  6.1303265E-03
         248  2.1667129E-03
         249  1.8901141E-02
         250 -1.1129987E-02
         251  1.9802402E-03
         252  3.8019547E-03
         253  2.4339436E-03
         254 -9.5976697E-04
         255  2.1142848E-03
         256 -1.4993688E-04
         257  1.4235816E-03
         258  2.9550208E-04
         259  1.8137818E-02
         260 -3.7499797E-03
         261  3.0927073E-05
         262  6.1394536E-04
         263  6.1937294E-04
         264 -1.3927844E-02
         265  3.4570121E-03
         266  3.6084701E-04
         267  4.8467473E-04
         268  1.5024358E-04
         269 -6.6939443E-03
         270  2.4087406E-03
         271  5.8175996E-04
         272  3.1378611E-03
         273  2.5484457E-03
         274  7.3236050E-03
         275 -4.2340490E-03
         276 -5.6013442E-03
         277  9.5775897E-05
         278  1.3915810E-04
         279  9.0860128E-03
         280  8.5870482E-02
         281 -1.8013020E-03
         282 -2.9015925E-03
         283 -1.2046804E-03
         284 -2.6055085E-03
         285 -5.7931978E-02
         286 -1.2547803E-03
         287 -3.7482446E-03
         288 -3.0677352E-04
         289 -2.8209230E-03
         290 -6.1095856E-02
         291 -5.8824481E-03
         292 -1.3954759E-03
         293  1.1663395E-03
         294  6.2935622E-03
         295  9.0248853E-02
         296  5.8974524E-04
         297  3.2725956E-03
         298 -3.4276547E-03
         299 -1.4167785E-02
         300  1.9250415E-03
         301  4.0586569E-04
         302  2.2990501E-04
         303 -1.8716433E-04
         304  3.2030973E-03
         305  4.2792835E-04
         306  3.5205440E-04
         307  4.5629873E-04
         308 -8.5417076E-04
         309 -2.7720018E-03
         310  5.9564371E-04
         311  1.0374228E-04
         312  1.6317292E-03
         313 -6.6018844E-04
         314 -8.0605858E-04
         315  1.1325363E-03
         316  1.0906406E-02
         317  6.7385086E-03
         318  1.9809790E-04
         319  1.8625770E-02
         320 -1.7673049E-02
         321  4.2733196E-03
         322  1.4504138E-03
         323  5.6518154E-04
         324 -6.5964862E-04
         325  2.9519915E-03
         326 -7.8648869E-03
         327 -7.8113829E-03
         328 -7.6295231E-03
         329  2.2282410E-02
         330  8.3221300E-03
         331  3.4902450E-03
         332 -1.5934570E-03
         333 -1.4922740E-03
         334 -6.0868701E-03
         335 -8.7447651E-02
         336  1.3450479E-04
         337  8.9375715E-04
         338 -4.1051000E-05
         339  3.9940523E-03
         340  5.7059452E-02
         341  4.3911979E-04
         342  7.0394814E-04
         343  1.4034101E-03
         344  3.5745462E-03
         345  5.5963621E-02
         346  1.4033294E-03
         347 -1.9924734E-03
         348  2.1711313E-03
         349 -4.7294502E-03
         350 -7.9425640E-02
