 [Molden Format]
 [Atoms] Angs
O       1      8      3.45849111      3.31621261     -0.57449483
S       2     16      3.18751235      1.95901549     -0.99770718
O       3      8      3.46755858      1.67002784     -2.39180926
C       4      6      4.08873466      0.80427183      0.00245389
C       5      6      5.42960015      1.06042869      0.22678551
C       6      6      6.21224061      0.14419380      0.90117248
C       7      6      5.62948902     -1.04193565      1.32853530
C       8      6      4.29095945     -1.29434490      1.11501699
C       9      6      3.47313827     -0.36259632      0.45400692
N      10      7      2.12136528     -0.61797496      0.29564023
C      11      6      1.64669624     -1.93361187      0.62409189
C      12      6      1.53858413     -2.87804308     -0.38662090
C      13      6      1.06168718     -4.14450199     -0.09239496
C      14      6      0.69833511     -4.46582960      1.20494737
C      15      6      0.81124227     -3.52139719      2.21292799
C      16      6      1.28378907     -2.25190758      1.92684695
C      17      6      1.17603382      0.30017423     -0.11792161
C      18      6     -0.18715200      0.00657777      0.03400905
C      19      6     -1.16988630      0.89992602     -0.36521558
N      20      7     -2.52433043      0.54635773     -0.21662932
C      21      6     -3.04172122     -0.58870678     -0.85369782
C      22      6     -2.27684655     -1.38832736     -1.69447832
C      23      6     -2.82190249     -2.50741759     -2.30560018
C      24      6     -4.14534663     -2.84126924     -2.09950468
C      25      6     -4.93385542     -2.03245731     -1.29475959
C      26      6     -4.39442088     -0.91377100     -0.68571222
O      27      8     -5.25293426     -0.14392144      0.06279123
C      28      6     -4.72775309      0.95957016      0.69232947
C      29      6     -5.59526557      1.70518953      1.46987524
C      30      6     -5.13514963      2.81250972      2.16705531
C      31      6     -3.79832678      3.15011508      2.09812944
C      32      6     -2.92559974      2.40582791      1.31851361
C      33      6     -3.37774391      1.31775456      0.58165188
C      34      6     -0.81923206      2.13881582     -0.90840308
C      35      6      0.51758620      2.44493415     -1.04717998
C      36      6      1.49579694      1.54222900     -0.66863076
H      37      1      5.82826693      1.99074313     -0.14800362
H      38      1      7.25702867      0.34162194      1.07844835
H      39      1      6.22764529     -1.78024647      1.84038729
H      40      1      3.86636124     -2.22233242      1.46168129
H      41      1      1.82631110     -2.61392139     -1.39337661
H      42      1      0.97454593     -4.87866118     -0.87854062
H      43      1      0.32547167     -5.45311476      1.43104227
H      44      1      0.52856869     -3.77082644      3.22435742
H      45      1      1.37227467     -1.50620895      2.70271395
H      46      1     -0.49124068     -0.93109710      0.47082979
H      47      1     -1.24812890     -1.12866385     -1.88462469
H      48      1     -2.19966873     -3.11059841     -2.94844960
H      49      1     -4.57406895     -3.71351562     -2.56702196
H      50      1     -5.97809573     -2.24771793     -1.13103357
H      51      1     -6.62821439      1.39822208      1.51928713
H      52      1     -5.81996635      3.39151602      2.76626541
H      53      1     -3.41884433      3.99466690      2.65247800
H      54      1     -1.88128091      2.67269253      1.28756349
H      55      1     -1.58330387      2.83117730     -1.22316495
H      56      1      0.84144733      3.38470395     -1.46661542
 [GTO]
           1   0
s              4   1.000000
     72.81254686     -0.01198412
     12.53892307     -0.05472053
      1.00755597      0.58055871
      0.38400452      0.47700799
p              4   1.000000
      7.50863218      0.05713170
      1.94687620      0.28574555
      0.68633411      0.55178731
      0.27324143      0.26323149
s              7   1.000000
      0.57971233     -0.18810486
      0.07115450      0.90885357
      0.03359728      0.23867875
     72.81254686      0.00403800
     12.53892307      0.01843787
      1.00755597     -0.19561704
      0.38400452     -0.16072602
p              7   1.000000
      2.76717072     -0.01186522
      0.15304476      0.58307509
      0.05897927      0.60893530
      7.50863218     -0.02847316
      1.94687620     -0.14240919
      0.68633411     -0.27499846
      0.27324143     -0.13118869
 
           2   0
s              4   1.000000
     13.78072676     -0.03295496
      3.88169227     -0.17245169
      0.69604779      0.75185111
      0.34245835      0.35896273
p              4   1.000000
      7.95748970     -0.01434249
      0.82232667      0.27551776
      0.37166356      0.58467508
      0.17967036      0.21449865
s              7   1.000000
      0.16124732     -0.33687894
      0.03162593      1.06297368
      0.01560824      0.12640691
     13.78072676      0.00358344
      3.88169227      0.01875196
      0.69604779     -0.08175438
      0.34245835     -0.03903270
p              7   1.000000
      0.34551743     -0.06390057
      0.05282782      0.68643867
      0.02597475      0.40875915
      7.95748970      0.00406568
      0.82232667     -0.07810119
      0.37166356     -0.16573821
      0.17967036     -0.06080406
 
           3   0
s              4   1.000000
     72.81720061     -0.01198412
     12.53972448     -0.05472053
      1.00762037      0.58055871
      0.38402906      0.47700799
p              4   1.000000
      7.50911209      0.05713170
      1.94700064      0.28574555
      0.68637797      0.55178731
      0.27325890      0.26323149
s              7   1.000000
      0.57971233     -0.18810365
      0.07115450      0.90884771
      0.03359728      0.23867721
     72.81720061      0.00403775
     12.53972448      0.01843671
      1.00762037     -0.19560467
      0.38402906     -0.16071586
p              7   1.000000
      2.76717072     -0.01186508
      0.15304476      0.58306804
      0.05897927      0.60892796
      7.50911209     -0.02847144
      1.94700064     -0.14240056
      0.68637797     -0.27498178
      0.27325890     -0.13118074
 
           4   0
s              4   1.000000
     35.08173435     -0.01198412
      6.04136494     -0.05472052
      0.48544945      0.58055871
      0.18501680      0.47700799
p              4   1.000000
      5.65433799      0.05713170
      1.46608541      0.28574555
      0.51684047      0.55178731
      0.20576310      0.26323149
s              7   1.000000
      0.38350848     -0.19609442
      0.04707223      0.94745617
      0.02222627      0.24881638
     35.08173435      0.00549356
      6.04136494      0.02508408
      0.48544945     -0.26613018
      0.18501680     -0.21866216
p              7   1.000000
      1.83062075     -0.01160395
      0.10124670      0.57023598
      0.03901771      0.59552676
      5.65433799     -0.02516441
      1.46608541     -0.12586039
      0.51684047     -0.24304198
      0.20576310     -0.11594378
 
           5   0
s              4   1.000000
     35.15661010     -0.01198412
      6.05425917     -0.05472052
      0.48648556      0.58055871
      0.18541169      0.47700799
p              4   1.000000
      5.66640617      0.05713170
      1.46921451      0.28574555
      0.51794358      0.55178731
      0.20620226      0.26323149
s              7   1.000000
      0.38350848     -0.19602520
      0.04707223      0.94712170
      0.02222627      0.24872853
     35.15661010      0.00548238
      6.05425917      0.02503305
      0.48648556     -0.26558869
      0.18541169     -0.21821726
p              7   1.000000
      1.83062075     -0.01160010
      0.10124670      0.57004688
      0.03901771      0.59532930
      5.66640617     -0.02511301
      1.46921451     -0.12560331
      0.51794358     -0.24254555
      0.20620226     -0.11570695
 
           6   0
s              4   1.000000
     34.91226951     -0.01198412
      6.01218170     -0.05472052
      0.48310445      0.58055871
      0.18412307      0.47700799
p              4   1.000000
      5.62702430      0.05713170
      1.45900338      0.28574555
      0.51434384      0.55178731
      0.20476915      0.26323149
s              7   1.000000
      0.38350848     -0.19625255
      0.04707223      0.94822021
      0.02222627      0.24901703
     34.91226951      0.00551903
      6.01218170      0.02520035
      0.48310445     -0.26736375
      0.18412307     -0.21967571
p              7   1.000000
      1.83062075     -0.01161274
      0.10124670      0.57066795
      0.03901771      0.59597789
      5.62702430     -0.02528150
      1.45900338     -0.12644603
      0.51434384     -0.24417289
      0.20476915     -0.11648328
 
           7   0
s              4   1.000000
     34.92322063     -0.01198412
      6.01406757     -0.05472053
      0.48325599      0.58055871
      0.18418082      0.47700799
p              4   1.000000
      5.62878936      0.05713170
      1.45946103      0.28574555
      0.51450518      0.55178731
      0.20483338      0.26323149
s              7   1.000000
      0.38350848     -0.19624227
      0.04707223      0.94817054
      0.02222627      0.24900397
     34.92322063      0.00551737
      6.01406757      0.02519281
      0.48325599     -0.26728370
      0.18418082     -0.21960993
p              7   1.000000
      1.83062075     -0.01161217
      0.10124670      0.57063986
      0.03901771      0.59594860
      5.62878936     -0.02527390
      1.45946103     -0.12640803
      0.51450518     -0.24409950
      0.20483338     -0.11644827
 
           8   0
s              4   1.000000
     35.04703488     -0.01198412
      6.03538941     -0.05472052
      0.48496929      0.58055871
      0.18483380      0.47700799
p              4   1.000000
      5.64874526      0.05713170
      1.46463530      0.28574555
      0.51632926      0.55178731
      0.20555958      0.26323149
s              7   1.000000
      0.38350848     -0.19612663
      0.04707223      0.94761181
      0.02222627      0.24885726
     35.04703488      0.00549876
      6.03538941      0.02510781
      0.48496929     -0.26638186
      0.18483380     -0.21886895
p              7   1.000000
      1.83062075     -0.01160574
      0.10124670      0.57032397
      0.03901771      0.59561868
      5.64874526     -0.02518830
      1.46463530     -0.12597988
      0.51632926     -0.24327272
      0.20555958     -0.11605385
 
           9   0
s              4   1.000000
     35.33628513     -0.01198412
      6.08520070     -0.05472052
      0.48897184      0.58055871
      0.18635927      0.47700800
p              4   1.000000
      5.69536550      0.05713170
      1.47672323      0.28574555
      0.52059064      0.55178731
      0.20725610      0.26323149
s              7   1.000000
      0.38350848     -0.19586067
      0.04707223      0.94632680
      0.02222627      0.24851979
     35.33628513      0.00545574
      6.08520070      0.02491140
      0.48897184     -0.26429809
      0.18635927     -0.21715684
p              7   1.000000
      1.83062075     -0.01159096
      0.10124670      0.56959748
      0.03901771      0.59485997
      5.69536550     -0.02499049
      1.47672323     -0.12499054
      0.52059064     -0.24136226
      0.20725610     -0.11514246
 
          10   0
s              4   1.000000
     61.19302275     -0.01198412
     10.53794487     -0.05472052
      0.84676883      0.58055871
      0.32272456      0.47700799
p              4   1.000000
      7.21294251      0.05713170
      1.87020829      0.28574555
      0.65930629      0.55178731
      0.26248120      0.26323149
s              7   1.000000
      0.47894987     -0.18778549
      0.05878681      0.90731049
      0.02775758      0.23827352
     61.19302275      0.00397025
     10.53794487      0.01812850
      0.84676883     -0.19233476
      0.32272456     -0.15802918
p              7   1.000000
      2.28619608     -0.01156626
      0.12644335      0.56838359
      0.04872781      0.59359220
      7.21294251     -0.02465701
      1.87020829     -0.12332263
      0.65930629     -0.23814146
      0.26248120     -0.11360597
 
          11   0
s              4   1.000000
     35.26919661     -0.01198412
      6.07364750     -0.05472052
      0.48804349      0.58055871
      0.18600545      0.47700799
p              4   1.000000
      5.68455243      0.05713170
      1.47391956      0.28574555
      0.51960226      0.55178731
      0.20686261      0.26323149
s              7   1.000000
      0.38350848     -0.19592184
      0.04707223      0.94662233
      0.02222627      0.24859740
     35.26919661      0.00546566
      6.07364750      0.02495669
      0.48804349     -0.26477854
      0.18600545     -0.21755161
p              7   1.000000
      1.83062075     -0.01159436
      0.10124670      0.56976457
      0.03901771      0.59503445
      5.68455243     -0.02503610
      1.47391956     -0.12521866
      0.51960226     -0.24180277
      0.20686261     -0.11535261
 
          12   0
s              4   1.000000
     35.00507198     -0.01198412
      6.02816305     -0.05472052
      0.48438862      0.58055871
      0.18461249      0.47700799
p              4   1.000000
      5.64198185      0.05713170
      1.46288164      0.28574555
      0.51571105      0.55178731
      0.20531346      0.26323149
s              7   1.000000
      0.38350848     -0.19616570
      0.04707223      0.94780059
      0.02222627      0.24890681
     35.00507198      0.00550505
      6.02816305      0.02513655
      0.48438862     -0.26668684
      0.18461249     -0.21911953
p              7   1.000000
      1.83062075     -0.01160791
      0.10124670      0.57043071
      0.03901771      0.59573014
      5.64198185     -0.02521725
      1.46288164     -0.12612467
      0.51571105     -0.24355232
      0.20531346     -0.11618723
 
          13   0
s              4   1.000000
     34.92356935     -0.01198412
      6.01412762     -0.05472052
      0.48326082      0.58055871
      0.18418266      0.47700799
p              4   1.000000
      5.62884557      0.05713170
      1.45947560      0.28574555
      0.51451031      0.55178731
      0.20483542      0.26323149
s              7   1.000000
      0.38350848     -0.19624195
      0.04707223      0.94816896
      0.02222627      0.24900355
     34.92356935      0.00551732
      6.01412762      0.02519257
      0.48326082     -0.26728115
      0.18418266     -0.21960784
p              7   1.000000
      1.83062075     -0.01161215
      0.10124670      0.57063898
      0.03901771      0.59594763
      5.62884557     -0.02527366
      1.45947560     -0.12640682
      0.51451031     -0.24409716
      0.20483542     -0.11644715
 
          14   0
s              4   1.000000
     34.92053493     -0.01198412
      6.01360507     -0.05472052
      0.48321883      0.58055871
      0.18416666      0.47700799
p              4   1.000000
      5.62835649      0.05713170
      1.45934879      0.28574555
      0.51446561      0.55178731
      0.20481762      0.26323149
s              7   1.000000
      0.38350848     -0.19624479
      0.04707223      0.94818272
      0.02222627      0.24900719
     34.92053493      0.00551778
      6.01360507      0.02519466
      0.48321883     -0.26730333
      0.18416666     -0.21962606
p              7   1.000000
      1.83062075     -0.01161231
      0.10124670      0.57064675
      0.03901771      0.59595576
      5.62835649     -0.02527577
      1.45934879     -0.12641735
      0.51446561     -0.24411749
      0.20481762     -0.11645685
 
          15   0
s              4   1.000000
     34.92355511     -0.01198412
      6.01412517     -0.05472052
      0.48326062      0.58055871
      0.18418258      0.47700800
p              4   1.000000
      5.62884327      0.05713170
      1.45947501      0.28574555
      0.51451010      0.55178731
      0.20483534      0.26323149
s              7   1.000000
      0.38350848     -0.19624196
      0.04707223      0.94816903
      0.02222627      0.24900358
     34.92355511      0.00551732
      6.01412517      0.02519258
      0.48326062     -0.26728125
      0.18418258     -0.21960793
p              7   1.000000
      1.83062075     -0.01161215
      0.10124670      0.57063901
      0.03901771      0.59594767
      5.62884327     -0.02527367
      1.45947501     -0.12640687
      0.51451010     -0.24409726
      0.20483534     -0.11644720
 
          16   0
s              4   1.000000
     34.99817947     -0.01198412
      6.02697610     -0.05472052
      0.48429325      0.58055871
      0.18457614      0.47700800
p              4   1.000000
      5.64087094      0.05713170
      1.46259360      0.28574555
      0.51560951      0.55178731
      0.20527303      0.26323149
s              7   1.000000
      0.38350848     -0.19617213
      0.04707223      0.94783165
      0.02222627      0.24891498
     34.99817947      0.00550609
      6.02697610      0.02514128
      0.48429325     -0.26673700
      0.18457614     -0.21916074
p              7   1.000000
      1.83062075     -0.01160827
      0.10124670      0.57044827
      0.03901771      0.59574846
      5.64087094     -0.02522201
      1.46259360     -0.12614848
      0.51560951     -0.24359830
      0.20527303     -0.11620917
 
          17   0
s              4   1.000000
     35.34595194     -0.01198412
      6.08686540     -0.05472053
      0.48910561      0.58055871
      0.18641025      0.47700799
p              4   1.000000
      5.69692355      0.05713170
      1.47712721      0.28574555
      0.52073305      0.55178731
      0.20731280      0.26323149
s              7   1.000000
      0.38350848     -0.19585188
      0.04707223      0.94628433
      0.02222627      0.24850863
     35.34595194      0.00545432
      6.08686540      0.02490489
      0.48910561     -0.26422899
      0.18641025     -0.21710008
p              7   1.000000
      1.83062075     -0.01159047
      0.10124670      0.56957347
      0.03901771      0.59483489
      5.69692355     -0.02498393
      1.47712721     -0.12495773
      0.52073305     -0.24129892
      0.20731280     -0.11511224
 
          18   0
s              4   1.000000
     35.16042617     -0.01198412
      6.05491633     -0.05472052
      0.48653836      0.58055871
      0.18543181      0.47700799
p              4   1.000000
      5.66702123      0.05713170
      1.46937398      0.28574555
      0.51799980      0.55178731
      0.20622465      0.26323149
s              7   1.000000
      0.38350848     -0.19602168
      0.04707223      0.94710471
      0.02222627      0.24872407
     35.16042617      0.00548182
      6.05491633      0.02503045
      0.48653836     -0.26556116
      0.18543181     -0.21819463
p              7   1.000000
      1.83062075     -0.01159991
      0.10124670      0.57003728
      0.03901771      0.59531926
      5.66702123     -0.02511040
      1.46937398     -0.12559023
      0.51799980     -0.24252030
      0.20622465     -0.11569490
 
          19   0
s              4   1.000000
     35.19095678     -0.01198412
      6.06017395     -0.05472052
      0.48696083      0.58055871
      0.18559283      0.47700799
p              4   1.000000
      5.67194204      0.05713170
      1.47064987      0.28574555
      0.51844959      0.55178730
      0.20640371      0.26323149
s              7   1.000000
      0.38350848     -0.19599357
      0.04707223      0.94696891
      0.02222627      0.24868841
     35.19095678      0.00547727
      6.06017395      0.02500970
      0.48696083     -0.26534103
      0.18559283     -0.21801376
p              7   1.000000
      1.83062075     -0.01159835
      0.10124670      0.56996050
      0.03901771      0.59523908
      5.67194204     -0.02508950
      1.47064987     -0.12548572
      0.51844959     -0.24231848
      0.20640371     -0.11559863
 
          20   0
s              4   1.000000
     61.15385616     -0.01198412
     10.53120006     -0.05472052
      0.84622686      0.58055871
      0.32251800      0.47700799
p              4   1.000000
      7.20832587      0.05713170
      1.86901126      0.28574555
      0.65888430      0.55178731
      0.26231320      0.26323149
s              7   1.000000
      0.47894987     -0.18779729
      0.05878681      0.90736750
      0.02775758      0.23828847
     61.15385616      0.00397277
     10.53120006      0.01814002
      0.84622686     -0.19245692
      0.32251800     -0.15812956
p              7   1.000000
      2.28619608     -0.01156737
      0.12644335      0.56843852
      0.04872781      0.59364960
      7.20832587     -0.02467219
      1.86901126     -0.12339852
      0.65888430     -0.23828801
      0.26231320     -0.11367588
 
          21   0
s              4   1.000000
     35.21993302     -0.01198412
      6.06516390     -0.05472052
      0.48736180      0.58055871
      0.18574564      0.47700799
p              4   1.000000
      5.67661231      0.05713170
      1.47186081      0.28574555
      0.51887648      0.55178731
      0.20657367      0.26323149
s              7   1.000000
      0.38350848     -0.19596696
      0.04707223      0.94684031
      0.02222627      0.24865463
     35.21993302      0.00547297
      6.06516390      0.02499004
      0.48736180     -0.26513244
      0.18574564     -0.21784238
p              7   1.000000
      1.83062075     -0.01159687
      0.10124670      0.56988780
      0.03901771      0.59516315
      5.67661231     -0.02506970
      1.47186081     -0.12538668
      0.51887648     -0.24212724
      0.20657367     -0.11550739
 
          22   0
s              4   1.000000
     35.02602964     -0.01198412
      6.03177213     -0.05472052
      0.48467863      0.58055871
      0.18472302      0.47700799
p              4   1.000000
      5.64535972      0.05713170
      1.46375748      0.28574555
      0.51601981      0.55178731
      0.20543638      0.26323149
s              7   1.000000
      0.38350848     -0.19614618
      0.04707223      0.94770623
      0.02222627      0.24888205
     35.02602964      0.00550191
      6.03177213      0.02512219
      0.48467863     -0.26653444
      0.18472302     -0.21899431
p              7   1.000000
      1.83062075     -0.01160683
      0.10124670      0.57037736
      0.03901771      0.59567443
      5.64535972     -0.02520278
      1.46375748     -0.12605231
      0.51601981     -0.24341260
      0.20543638     -0.11612058
 
          23   0
s              4   1.000000
     34.92073025     -0.01198412
      6.01363871     -0.05472052
      0.48322153      0.58055871
      0.18416768      0.47700799
p              4   1.000000
      5.62838797      0.05713170
      1.45935696      0.28574555
      0.51446849      0.55178731
      0.20481877      0.26323149
s              7   1.000000
      0.38350848     -0.19624461
      0.04707223      0.94818183
      0.02222627      0.24900694
     34.92073025      0.00551775
      6.01363871      0.02519452
      0.48322153     -0.26730190
      0.18416768     -0.21962489
p              7   1.000000
      1.83062075     -0.01161230
      0.10124670      0.57064625
      0.03901771      0.59595523
      5.62838797     -0.02527563
      1.45935696     -0.12641667
      0.51446849     -0.24411618
      0.20481877     -0.11645622
 
          24   0
s              4   1.000000
     34.91437906     -0.01198412
      6.01254498     -0.05472053
      0.48313364      0.58055871
      0.18413419      0.47700799
p              4   1.000000
      5.62736431      0.05713170
      1.45909154      0.28574555
      0.51437492      0.55178731
      0.20478152      0.26323149
s              7   1.000000
      0.38350848     -0.19625057
      0.04707223      0.94821064
      0.02222627      0.24901450
     34.91437906      0.00551871
      6.01254498      0.02519890
      0.48313364     -0.26734833
      0.18413419     -0.21966304
p              7   1.000000
      1.83062075     -0.01161263
      0.10124670      0.57066254
      0.03901771      0.59597226
      5.62736431     -0.02528004
      1.45909154     -0.12643871
      0.51437492     -0.24415875
      0.20478152     -0.11647653
 
          25   0
s              4   1.000000
     34.97398021     -0.01198412
      6.02280879     -0.05472052
      0.48395838      0.58055871
      0.18444852      0.47700799
p              4   1.000000
      5.63697059      0.05713170
      1.46158230      0.28574555
      0.51525299      0.55178731
      0.20513109      0.26323149
s              7   1.000000
      0.38350848     -0.19619473
      0.04707223      0.94794085
      0.02222627      0.24894367
     34.97398021      0.00550973
      6.02280879      0.02515789
      0.48395838     -0.26691325
      0.18444852     -0.21930556
p              7   1.000000
      1.83062075     -0.01160953
      0.10124670      0.57051000
      0.03901771      0.59581295
      5.63697059     -0.02523874
      1.46158230     -0.12623216
      0.51525299     -0.24375989
      0.20513109     -0.11628625
 
          26   0
s              4   1.000000
     35.22231268     -0.01198412
      6.06557370     -0.05472052
      0.48739473      0.58055871
      0.18575819      0.47700799
p              4   1.000000
      5.67699586      0.05713170
      1.47196025      0.28574555
      0.51891154      0.55178731
      0.20658763      0.26323149
s              7   1.000000
      0.38350848     -0.19596477
      0.04707223      0.94682977
      0.02222627      0.24865188
     35.22231268      0.00547261
      6.06557370      0.02498843
      0.48739473     -0.26511532
      0.18575819     -0.21782832
p              7   1.000000
      1.83062075     -0.01159675
      0.10124670      0.56988184
      0.03901771      0.59515692
      5.67699586     -0.02506807
      1.47196025     -0.12537856
      0.51891154     -0.24211155
      0.20658763     -0.11549991
 
          27   0
s              4   1.000000
     78.07418807     -0.01198412
     13.44502122     -0.05472053
      1.08036482      0.58055871
      0.41175377      0.47700799
p              4   1.000000
      8.05122725      0.05713170
      2.08756300      0.28574555
      0.73593056      0.55178731
      0.29298664      0.26323149
s              7   1.000000
      0.57971233     -0.18685849
      0.07115450      0.90283154
      0.03359728      0.23709726
     78.07418807      0.00376738
     13.44502122      0.01720220
      1.08036482     -0.18250716
      0.41175377     -0.14995447
p              7   1.000000
      2.76717072     -0.01171757
      0.15304476      0.57581912
      0.05897927      0.60135754
      8.05122725     -0.02664465
      2.08756300     -0.13326382
      0.73593056     -0.25733834
      0.29298664     -0.12276389
 
          28   0
s              4   1.000000
     35.22121165     -0.01198412
      6.06538409     -0.05472052
      0.48737949      0.58055871
      0.18575239      0.47700799
p              4   1.000000
      5.67681840      0.05713170
      1.47191424      0.28574555
      0.51889532      0.55178731
      0.20658117      0.26323149
s              7   1.000000
      0.38350848     -0.19596578
      0.04707223      0.94683465
      0.02222627      0.24865314
     35.22121165      0.00547278
      6.06538409      0.02498917
      0.48737949     -0.26512324
      0.18575239     -0.21783482
p              7   1.000000
      1.83062075     -0.01159680
      0.10124670      0.56988460
      0.03901771      0.59515983
      5.67681840     -0.02506883
      1.47191424     -0.12538232
      0.51889532     -0.24211881
      0.20658117     -0.11550337
 
          29   0
s              4   1.000000
     34.97308414     -0.01198412
      6.02265448     -0.05472052
      0.48394599      0.58055871
      0.18444379      0.47700800
p              4   1.000000
      5.63682617      0.05713170
      1.46154485      0.28574555
      0.51523979      0.55178731
      0.20512584      0.26323149
s              7   1.000000
      0.38350848     -0.19619557
      0.04707223      0.94794489
      0.02222627      0.24894471
     34.97308414      0.00550986
      6.02265448      0.02515851
      0.48394599     -0.26691978
      0.18444379     -0.21931092
p              7   1.000000
      1.83062075     -0.01160957
      0.10124670      0.57051229
      0.03901771      0.59581534
      5.63682617     -0.02523936
      1.46154485     -0.12623526
      0.51523979     -0.24376588
      0.20512584     -0.11628911
 
          30   0
s              4   1.000000
     34.91434881     -0.01198412
      6.01253977     -0.05472052
      0.48313322      0.58055871
      0.18413403      0.47700799
p              4   1.000000
      5.62735944      0.05713170
      1.45909027      0.28574555
      0.51437447      0.55178731
      0.20478134      0.26323149
s              7   1.000000
      0.38350848     -0.19625060
      0.04707223      0.94821078
      0.02222627      0.24901455
     34.91434881      0.00551871
      6.01253977      0.02519892
      0.48313322     -0.26734855
      0.18413403     -0.21966322
p              7   1.000000
      1.83062075     -0.01161263
      0.10124670      0.57066261
      0.03901771      0.59597235
      5.62735944     -0.02528006
      1.45909027     -0.12643882
      0.51437447     -0.24415895
      0.20478134     -0.11647663
 
          31   0
s              4   1.000000
     34.91973334     -0.01198412
      6.01346703     -0.05472053
      0.48320773      0.58055871
      0.18416243      0.47700799
p              4   1.000000
      5.62822729      0.05713170
      1.45931529      0.28574555
      0.51445380      0.55178731
      0.20481292      0.26323149
s              7   1.000000
      0.38350848     -0.19624555
      0.04707223      0.94818636
      0.02222627      0.24900814
     34.91973334      0.00551790
      6.01346703      0.02519521
      0.48320773     -0.26730918
      0.18416243     -0.21963087
p              7   1.000000
      1.83062075     -0.01161235
      0.10124670      0.57064880
      0.03901771      0.59595790
      5.62822729     -0.02527632
      1.45931529     -0.12642013
      0.51445380     -0.24412286
      0.20481292     -0.11645941
 
          32   0
s              4   1.000000
     35.02425568     -0.01198412
      6.03146664     -0.05472052
      0.48465408      0.58055871
      0.18471367      0.47700799
p              4   1.000000
      5.64507380      0.05713170
      1.46368334      0.28574555
      0.51599367      0.55178731
      0.20542597      0.26323149
s              7   1.000000
      0.38350848     -0.19614783
      0.04707223      0.94771422
      0.02222627      0.24888414
     35.02425568      0.00550217
      6.03146664      0.02512340
      0.48465408     -0.26654733
      0.18471367     -0.21900491
p              7   1.000000
      1.83062075     -0.01160692
      0.10124670      0.57038186
      0.03901771      0.59567912
      5.64507380     -0.02520401
      1.46368334     -0.12605843
      0.51599367     -0.24342442
      0.20542597     -0.11612622
 
          33   0
s              4   1.000000
     35.22179678     -0.01198412
      6.06548485     -0.05472052
      0.48738759      0.58055871
      0.18575547      0.47700799
p              4   1.000000
      5.67691271      0.05713170
      1.47193869      0.28574555
      0.51890394      0.55178731
      0.20658460      0.26323149
s              7   1.000000
      0.38350848     -0.19596525
      0.04707223      0.94683205
      0.02222627      0.24865246
     35.22179678      0.00547269
      6.06548485      0.02498878
      0.48738759     -0.26511903
      0.18575547     -0.21783137
p              7   1.000000
      1.83062075     -0.01159677
      0.10124670      0.56988313
      0.03901771      0.59515829
      5.67691271     -0.02506843
      1.47193869     -0.12538032
      0.51890394     -0.24211495
      0.20658460     -0.11550153
 
          34   0
s              4   1.000000
     35.00241494     -0.01198412
      6.02770549     -0.05472052
      0.48435185      0.58055871
      0.18459848      0.47700799
p              4   1.000000
      5.64155359      0.05713170
      1.46277060      0.28574555
      0.51567190      0.55178731
      0.20529787      0.26323149
s              7   1.000000
      0.38350848     -0.19616818
      0.04707223      0.94781256
      0.02222627      0.24890996
     35.00241494      0.00550545
      6.02770549      0.02513837
      0.48435185     -0.26670617
      0.18459848     -0.21913542
p              7   1.000000
      1.83062075     -0.01160805
      0.10124670      0.57043747
      0.03901771      0.59573722
      5.64155359     -0.02521909
      1.46277060     -0.12613385
      0.51567190     -0.24357004
      0.20529787     -0.11619569
 
          35   0
s              4   1.000000
     35.14959714     -0.01198412
      6.05305148     -0.05472052
      0.48638851      0.58055871
      0.18537470      0.47700799
p              4   1.000000
      5.66527585      0.05713170
      1.46892143      0.28574555
      0.51784026      0.55178731
      0.20616113      0.26323149
s              7   1.000000
      0.38350848     -0.19603166
      0.04707223      0.94715294
      0.02222627      0.24873675
     35.14959714      0.00548343
      6.05305148      0.02503782
      0.48638851     -0.26563932
      0.18537470     -0.21825885
p              7   1.000000
      1.83062075     -0.01160046
      0.10124670      0.57006455
      0.03901771      0.59534775
      5.66527585     -0.02511782
      1.46892143     -0.12562734
      0.51784026     -0.24259196
      0.20616113     -0.11572909
 
          36   0
s              4   1.000000
     35.07752239     -0.01198412
      6.04063961     -0.05472053
      0.48539117      0.58055871
      0.18499459      0.47700799
p              4   1.000000
      5.65365912      0.05713170
      1.46590939      0.28574555
      0.51677842      0.55178731
      0.20573839      0.26323149
s              7   1.000000
      0.38350848     -0.19609832
      0.04707223      0.94747504
      0.02222627      0.24882133
     35.07752239      0.00549419
      6.04063961      0.02508696
      0.48539117     -0.26616071
      0.18499459     -0.21868724
p              7   1.000000
      1.83062075     -0.01160417
      0.10124670      0.57024664
      0.03901771      0.59553793
      5.65365912     -0.02516731
      1.46590939     -0.12587488
      0.51677842     -0.24306997
      0.20573839     -0.11595713
 
          37   0
s              4   1.000000
      8.31103387      0.05675242
      1.52081680      0.26014135
      0.42249956      0.53284611
      0.14022381      0.29162544
s              7   1.000000
      0.92936822     -0.06732574
      0.05643440      0.66942871
      0.02166600      0.51459412
      8.31103387     -0.02901713
      1.52081680     -0.13300853
      0.42249956     -0.27244064
      0.14022381     -0.14910613
p              4   1.000000
      0.64737396      0.05713170
      0.16785440      0.28574555
      0.05917387      0.55178731
      0.02355814      0.26323150
 
          38   0
s              4   1.000000
      8.30882624      0.05675242
      1.52041283      0.26014135
      0.42238733      0.53284611
      0.14018656      0.29162544
s              7   1.000000
      0.92936822     -0.06732858
      0.05643440      0.66945695
      0.02166600      0.51461584
      8.30882624     -0.02902304
      1.52041283     -0.13303559
      0.42238733     -0.27249608
      0.14018656     -0.14913647
p              4   1.000000
      0.64737396      0.05713170
      0.16785440      0.28574555
      0.05917387      0.55178731
      0.02355814      0.26323150
 
          39   0
s              4   1.000000
      8.30909723      0.05675242
      1.52046242      0.26014135
      0.42240111      0.53284611
      0.14019113      0.29162544
s              7   1.000000
      0.92936822     -0.06732823
      0.05643440      0.66945348
      0.02166600      0.51461315
      8.30909723     -0.02902231
      1.52046242     -0.13303227
      0.42240111     -0.27248927
      0.14019113     -0.14913274
p              4   1.000000
      0.64737396      0.05713170
      0.16785440      0.28574555
      0.05917387      0.55178731
      0.02355814      0.26323150
 
          40   0
s              4   1.000000
      8.31075897      0.05675242
      1.52076650      0.26014135
      0.42248559      0.53284611
      0.14021917      0.29162544
s              7   1.000000
      0.92936822     -0.06732609
      0.05643440      0.66943223
      0.02166600      0.51459683
      8.31075897     -0.02901787
      1.52076650     -0.13301190
      0.42248559     -0.27244754
      0.14021917     -0.14910991
p              4   1.000000
      0.64737396      0.05713170
      0.16785440      0.28574555
      0.05917387      0.55178731
      0.02355814      0.26323150
 
          41   0
s              4   1.000000
      8.30929903      0.05675242
      1.52049935      0.26014135
      0.42241137      0.53284611
      0.14019454      0.29162544
s              7   1.000000
      0.92936822     -0.06732797
      0.05643440      0.66945090
      0.02166600      0.51461119
      8.30929903     -0.02902177
      1.52049935     -0.13302980
      0.42241137     -0.27248420
      0.14019454     -0.14912997
p              4   1.000000
      0.64737396      0.05713170
      0.16785440      0.28574555
      0.05917387      0.55178731
      0.02355814      0.26323150
 
          42   0
s              4   1.000000
      8.30895324      0.05675242
      1.52043607      0.26014135
      0.42239379      0.53284611
      0.14018870      0.29162544
s              7   1.000000
      0.92936822     -0.06732842
      0.05643440      0.66945532
      0.02166600      0.51461457
      8.30895324     -0.02902270
      1.52043607     -0.13303404
      0.42239379     -0.27249289
      0.14018870     -0.14913472
p              4   1.000000
      0.64737396      0.05713170
      0.16785440      0.28574555
      0.05917387      0.55178731
      0.02355814      0.26323150
 
          43   0
s              4   1.000000
      8.30890373      0.05675242
      1.52042701      0.26014135
      0.42239127      0.53284611
      0.14018787      0.29162544
s              7   1.000000
      0.92936822     -0.06732848
      0.05643440      0.66945595
      0.02166600      0.51461507
      8.30890373     -0.02902283
      1.52042701     -0.13303464
      0.42239127     -0.27249413
      0.14018787     -0.14913540
p              4   1.000000
      0.64737396      0.05713170
      0.16785440      0.28574555
      0.05917387      0.55178731
      0.02355814      0.26323150
 
          44   0
s              4   1.000000
      8.30892575      0.05675242
      1.52043104      0.26014135
      0.42239239      0.53284611
      0.14018824      0.29162544
s              7   1.000000
      0.92936822     -0.06732845
      0.05643440      0.66945567
      0.02166600      0.51461484
      8.30892575     -0.02902277
      1.52043104     -0.13303437
      0.42239239     -0.27249358
      0.14018824     -0.14913510
p              4   1.000000
      0.64737396      0.05713170
      0.16785440      0.28574555
      0.05917387      0.55178731
      0.02355814      0.26323150
 
          45   0
s              4   1.000000
      8.30925600      0.05675242
      1.52049147      0.26014135
      0.42240918      0.53284611
      0.14019381      0.29162544
s              7   1.000000
      0.92936822     -0.06732803
      0.05643440      0.66945144
      0.02166600      0.51461161
      8.30925600     -0.02902189
      1.52049147     -0.13303032
      0.42240918     -0.27248528
      0.14019381     -0.14913056
p              4   1.000000
      0.64737396      0.05713170
      0.16785440      0.28574555
      0.05917387      0.55178731
      0.02355814      0.26323150
 
          46   0
s              4   1.000000
      8.31157437      0.05675242
      1.52091571      0.26014135
      0.42252704      0.53284611
      0.14023293      0.29162544
s              7   1.000000
      0.92936822     -0.06732505
      0.05643440      0.66942180
      0.02166600      0.51458881
      8.31157437     -0.02901569
      1.52091571     -0.13300190
      0.42252704     -0.27242707
      0.14023293     -0.14909870
p              4   1.000000
      0.64737396      0.05713170
      0.16785440      0.28574555
      0.05917387      0.55178731
      0.02355814      0.26323150
 
          47   0
s              4   1.000000
      8.31071342      0.05675242
      1.52075816      0.26014135
      0.42248327      0.53284611
      0.14021840      0.29162544
s              7   1.000000
      0.92936822     -0.06732615
      0.05643440      0.66943281
      0.02166600      0.51459728
      8.31071342     -0.02901799
      1.52075816     -0.13301246
      0.42248327     -0.27244868
      0.14021840     -0.14911053
p              4   1.000000
      0.64737396      0.05713170
      0.16785440      0.28574555
      0.05917387      0.55178731
      0.02355814      0.26323150
 
          48   0
s              4   1.000000
      8.30906185      0.05675242
      1.52045595      0.26014135
      0.42239931      0.53284611
      0.14019053      0.29162544
s              7   1.000000
      0.92936822     -0.06732828
      0.05643440      0.66945393
      0.02166600      0.51461350
      8.30906185     -0.02902241
      1.52045595     -0.13303270
      0.42239931     -0.27249016
      0.14019053     -0.14913323
p              4   1.000000
      0.64737396      0.05713170
      0.16785440      0.28574555
      0.05917387      0.55178731
      0.02355814      0.26323150
 
          49   0
s              4   1.000000
      8.30890298      0.05675242
      1.52042688      0.26014135
      0.42239123      0.53284611
      0.14018785      0.29162544
s              7   1.000000
      0.92936822     -0.06732848
      0.05643440      0.66945596
      0.02166600      0.51461507
      8.30890298     -0.02902283
      1.52042688     -0.13303465
      0.42239123     -0.27249415
      0.14018785     -0.14913541
p              4   1.000000
      0.64737396      0.05713170
      0.16785440      0.28574555
      0.05917387      0.55178731
      0.02355814      0.26323150
 
          50   0
s              4   1.000000
      8.30922709      0.05675242
      1.52048618      0.26014135
      0.42240771      0.53284611
      0.14019332      0.29162544
s              7   1.000000
      0.92936822     -0.06732806
      0.05643440      0.66945182
      0.02166600      0.51461189
      8.30922709     -0.02902196
      1.52048618     -0.13303068
      0.42240771     -0.27248601
      0.14019332     -0.14913096
p              4   1.000000
      0.64737396      0.05713170
      0.16785440      0.28574555
      0.05917387      0.55178731
      0.02355814      0.26323150
 
          51   0
s              4   1.000000
      8.30921165      0.05675242
      1.52048336      0.26014135
      0.42240693      0.53284611
      0.14019306      0.29162544
s              7   1.000000
      0.92936822     -0.06732809
      0.05643440      0.66945201
      0.02166600      0.51461204
      8.30921165     -0.02902201
      1.52048336     -0.13303087
      0.42240693     -0.27248640
      0.14019306     -0.14913117
p              4   1.000000
      0.64737396      0.05713170
      0.16785440      0.28574555
      0.05917387      0.55178731
      0.02355814      0.26323150
 
          52   0
s              4   1.000000
      8.30889345      0.05675242
      1.52042513      0.26014135
      0.42239075      0.53284611
      0.14018769      0.29162544
s              7   1.000000
      0.92936822     -0.06732849
      0.05643440      0.66945609
      0.02166600      0.51461517
      8.30889345     -0.02902286
      1.52042513     -0.13303477
      0.42239075     -0.27249439
      0.14018769     -0.14913555
p              4   1.000000
      0.64737396      0.05713170
      0.16785440      0.28574555
      0.05917387      0.55178731
      0.02355814      0.26323150
 
          53   0
s              4   1.000000
      8.30900858      0.05675242
      1.52044620      0.26014135
      0.42239660      0.53284611
      0.14018964      0.29162544
s              7   1.000000
      0.92936822     -0.06732835
      0.05643440      0.66945461
      0.02166600      0.51461405
      8.30900858     -0.02902255
      1.52044620     -0.13303336
      0.42239660     -0.27249150
      0.14018964     -0.14913396
p              4   1.000000
      0.64737396      0.05713170
      0.16785440      0.28574555
      0.05917387      0.55178731
      0.02355814      0.26323150
 
          54   0
s              4   1.000000
      8.31052082      0.05675242
      1.52072292      0.26014135
      0.42247348      0.53284611
      0.14021515      0.29162544
s              7   1.000000
      0.92936822     -0.06732640
      0.05643440      0.66943527
      0.02166600      0.51459917
      8.31052082     -0.02901850
      1.52072292     -0.13301482
      0.42247348     -0.27245352
      0.14021515     -0.14911318
p              4   1.000000
      0.64737396      0.05713170
      0.16785440      0.28574555
      0.05917387      0.55178731
      0.02355814      0.26323150
 
          55   0
s              4   1.000000
      8.30938500      0.05675242
      1.52051508      0.26014135
      0.42241574      0.53284611
      0.14019599      0.29162544
s              7   1.000000
      0.92936822     -0.06732786
      0.05643440      0.66944980
      0.02166600      0.51461035
      8.30938500     -0.02902154
      1.52051508     -0.13302874
      0.42241574     -0.27248204
      0.14019599     -0.14912879
p              4   1.000000
      0.64737396      0.05713170
      0.16785440      0.28574555
      0.05917387      0.55178731
      0.02355814      0.26323150
 
          56   0
s              4   1.000000
      8.31110886      0.05675242
      1.52083053      0.26014135
      0.42250337      0.53284611
      0.14022507      0.29162544
s              7   1.000000
      0.92936822     -0.06732564
      0.05643440      0.66942775
      0.02166600      0.51459340
      8.31110886     -0.02901693
      1.52083053     -0.13300761
      0.42250337     -0.27243876
      0.14022507     -0.14910509
p              4   1.000000
      0.64737396      0.05713170
      0.16785440      0.28574555
      0.05917387      0.55178731
      0.02355814      0.26323150
 
 [MO]
 Sym= Hole
 Ene= -0.6714955    
 Spin= Alpha
 Occup= 0
           1 -4.2725443E-03
           2  1.2557799E-02
           3  3.8870826E-02
           4 -1.3413960E-02
           5  3.2037981E-03
           6 -9.5307740E-04
           7 -1.1744627E-03
           8 -3.2515109E-03
           9  8.1150783E-03
          10 -2.1313070E-03
          11 -2.2545790E-03
          12  6.5954705E-04
          13 -1.5920172E-03
          14 -1.4897010E-03
          15  6.9727800E-03
          16  1.4125891E-02
          17  3.2807805E-03
          18 -1.0927452E-02
          19 -2.3478599E-02
          20  5.0409123E-02
          21 -3.3946289E-03
          22 -9.4066811E-04
          23 -3.1821989E-04
          24 -4.2168741E-04
          25 -8.5285809E-03
          26 -5.0790969E-02
          27  0.1274717    
          28  0.2190674    
          29  5.7015712E-03
          30  9.2689140E-04
          31 -1.0223529E-02
          32 -1.5130204E-02
          33  1.7991601E-03
          34  2.4240960E-03
          35 -1.1116812E-02
          36 -1.6235240E-02
          37 -4.5519709E-04
          38 -1.1291951E-03
          39  3.2498788E-03
          40  6.4035081E-03
          41 -1.5440966E-03
          42  5.6506015E-02
          43 -0.1005823    
          44 -0.2093917    
          45  6.0859014E-04
          46 -3.2988468E-03
          47  5.0666416E-03
          48  1.3721582E-02
          49 -4.3858569E-03
          50  1.1636151E-02
          51 -9.8991226E-03
          52 -1.8281791E-02
          53  1.0600606E-03
          54 -2.7174659E-03
          55  2.2779882E-03
          56  7.1377526E-03
          57  1.2976278E-02
          58 -6.8546429E-02
          59  0.1194403    
          60  0.2057753    
          61 -7.3165018E-03
          62  6.5265638E-03
          63 -8.8210329E-03
          64 -9.4352691E-03
          65 -4.9684583E-03
          66 -6.1639636E-03
          67  3.4690294E-02
          68  8.8298544E-02
          69  4.0197070E-03
          70  1.4679240E-03
          71 -7.5173383E-03
          72 -2.2093164E-02
          73  1.2379127E-02
          74  6.7090131E-02
          75 -0.1425705    
          76 -0.4824101    
          77 -4.5110467E-03
          78 -8.2180155E-03
          79  1.0828280E-02
          80  4.8157677E-02
          81  1.8193199E-04
          82 -1.0336137E-02
          83  1.3712916E-02
          84  3.6531273E-02
          85  9.2500835E-05
          86  2.1781018E-03
          87 -5.6506367E-03
          88 -1.8097956E-02
          89 -4.5751575E-02
          90 -2.2920156E-02
          91 -5.4770559E-02
          92 -4.8648018E-02
          93  2.5728757E-02
          94  5.4373886E-03
          95  1.8332584E-02
          96  3.8304753E-03
          97  1.5206834E-02
          98  7.7870535E-03
          99  2.0110201E-02
         100  1.2928785E-03
         101 -5.3470898E-03
         102 -1.1316405E-03
         103 -3.7655784E-03
         104 -1.1625093E-03
         105 -4.5678284E-04
         106  1.4142765E-02
         107 -7.9710241E-03
         108 -8.8882437E-03
         109  2.1473800E-04
         110 -1.3579886E-03
         111  9.9908817E-04
         112  2.0165462E-03
         113 -1.4213501E-02
         114 -6.1443178E-03
         115 -1.6344486E-02
         116  1.0480302E-02
         117  5.0087865E-03
         118 -1.4209466E-04
         119  2.1019818E-03
         120 -3.0655442E-03
         121  4.5188986E-02
         122  8.4435334E-03
         123  3.1343464E-02
         124 -7.1078256E-02
         125 -2.3713756E-02
         126 -6.2269638E-03
         127 -1.3323367E-02
         128  1.0339088E-02
         129 -1.1848518E-02
         130 -5.3403544E-04
         131  5.4760005E-02
         132  0.1301390    
         133  6.9156671E-03
         134  2.2304801E-03
         135 -7.8102816E-03
         136 -1.8373372E-02
         137  3.4823511E-02
         138 -6.8313675E-03
         139  0.1868332    
         140  0.3161902    
         141 -1.7915748E-02
         142  4.8011565E-03
         143 -1.0907974E-02
         144 -1.8622600E-02
         145 -5.0318418E-03
         146  1.7100631E-03
         147 -2.1281691E-02
         148  1.9927113E-03
         149  3.6656121E-03
         150 -2.9468113E-03
         151  7.7625802E-03
         152 -5.3284521E-04
         153  3.4784493E-03
         154 -6.2556617E-02
         155  0.1673806    
         156 -0.2330525    
         157  8.6277178E-06
         158  9.3406802E-03
         159 -2.3130214E-02
         160  2.6675990E-02
         161 -2.1650004E-03
         162  2.1099474E-02
         163 -5.9472263E-02
         164  7.7253580E-02
         165  2.5473060E-03
         166 -3.5629538E-03
         167  1.2818470E-02
         168 -1.6625592E-02
         169  8.9171743E-03
         170  5.9714627E-02
         171 -7.9480521E-02
         172  0.1158376    
         173 -4.7151078E-03
         174 -3.2629492E-03
         175  4.1357963E-03
         176 -4.3473314E-03
         177 -3.2486604E-03
         178 -1.8265937E-02
         179  2.3168955E-02
         180 -4.3642331E-02
         181  1.0650561E-03
         182  4.2316508E-03
         183 -6.3583613E-03
         184  9.7046653E-03
         185  1.7123760E-03
         186 -3.0749038E-02
         187  7.5432174E-02
         188 -0.1079555    
         189 -6.2771008E-04
         190  3.5133241E-03
         191 -7.8682238E-03
         192  1.1884446E-02
         193 -2.3885895E-04
         194  8.6042685E-03
         195 -2.2899996E-02
         196  3.0057287E-02
         197  3.3034323E-04
         198 -1.0526138E-03
         199  2.9944403E-03
         200 -4.0173521E-03
         201  2.6766651E-03
         202  3.3880398E-02
         203 -6.9579042E-02
         204  0.1049811    
         205 -2.6197778E-04
         206 -5.8708987E-03
         207  1.2598790E-02
         208 -1.9716319E-02
         209  7.5827952E-04
         210 -3.0831307E-02
         211  7.6619506E-02
         212 -0.1122396    
         213 -4.2027904E-04
         214  5.6157238E-03
         215 -1.5326986E-02
         216  2.1927498E-02
         217 -1.5062919E-03
         218  2.8056899E-02
         219 -7.0197962E-02
         220  0.1009483    
         221  1.9824663E-03
         222 -5.6214370E-03
         223  1.3022173E-02
         224 -1.9675361E-02
         225  7.0330797E-04
         226  1.1079269E-02
         227 -2.8184693E-02
         228  3.6658127E-02
         229 -5.5667345E-04
         230 -1.6291598E-03
         231  3.4646457E-03
         232 -4.3789693E-03
         233  1.4703894E-03
         234 -2.2848802E-02
         235  7.6324612E-02
         236 -0.1014738    
         237 -5.2384404E-04
         238  2.3502270E-03
         239 -8.0535254E-03
         240  1.1040987E-02
         241 -3.2282600E-03
         242 -1.4813749E-02
         243  3.7831169E-02
         244 -4.3385286E-02
         245  1.1776838E-03
         246  2.6943912E-03
         247 -6.9980710E-03
         248  7.6913424E-03
         249  6.9759279E-03
         250  3.8490329E-02
         251 -8.7018862E-02
         252  0.1102085    
         253 -3.4283265E-03
         254 -1.4155295E-03
         255  5.6527029E-03
         256 -4.5284731E-03
         257 -1.1460034E-03
         258  1.7839208E-02
         259 -5.3139191E-02
         260  6.8974517E-02
         261  1.3787337E-03
         262 -4.4980086E-03
         263  1.1756224E-02
         264 -1.5437775E-02
         265 -2.7120519E-02
         266  1.7471818E-02
         267 -4.7494419E-02
         268 -0.2240012    
         269  1.6271882E-02
         270 -9.1742836E-03
         271 -4.1662515E-03
         272  9.2358133E-03
         273  9.6797030E-03
         274 -8.3032409E-03
         275 -4.2717002E-02
         276 -6.4399347E-02
         277 -2.4545435E-03
         278 -3.7715759E-04
         279  4.0046233E-03
         280  5.8599194E-03
         281 -1.3050628E-02
         282 -5.0198752E-03
         283  9.7790539E-02
         284  0.1646245    
         285  8.4364712E-03
         286  2.6348417E-03
         287 -1.0402368E-02
         288 -7.5438651E-03
         289 -5.0283340E-03
         290  9.6363954E-05
         291  1.7040297E-03
         292 -2.8418723E-04
         293 -1.2212011E-03
         294  1.1555980E-03
         295  4.6769048E-05
         296  4.8493179E-03
         297 -8.4105125E-03
         298 -1.7379520E-02
         299  6.5104850E-03
         300 -3.8544595E-04
         301 -5.0865160E-04
         302 -1.4832927E-03
         303 -2.7206494E-03
         304 -2.6375183E-03
         305 -2.6024836E-03
         306 -1.1132861E-03
         307  6.7670480E-03
         308  1.6129665E-02
         309  1.2816131E-02
         310  7.3522897E-03
         311  4.5946022E-03
         312  2.0431601E-02
         313  2.7521062E-03
         314 -2.2030884E-02
         315  1.9086212E-03
         316 -9.7320473E-05
         317 -2.6056953E-03
         318 -2.8308947E-04
         319  5.4404308E-04
         320  5.7741685E-04
         321  1.3150338E-03
         322 -8.1963220E-04
         323 -2.2631153E-03
         324  2.2409422E-02
         325 -1.1125813E-03
         326  1.3753031E-04
         327  2.1230059E-03
         328 -1.6291793E-03
         329 -1.6778829E-02
         330 -3.8374430E-03
         331 -8.1939520E-03
         332 -1.3784211E-02
         333  9.8644653E-03
         334 -1.6546413E-02
         335 -3.5615761E-03
         336  6.3904962E-03
         337  4.2806598E-03
         338  1.3246999E-02
         339  6.4123115E-03
         340 -5.1629692E-03
         341 -6.7295437E-03
         342 -6.3061286E-03
         343  7.3514841E-03
         344 -3.1216755E-03
         345  1.3652669E-03
         346 -1.3593205E-03
         347  3.5150319E-03
         348 -6.0673235E-03
         349 -3.3709011E-03
         350  1.3819573E-04
         351 -3.1912515E-03
         352  6.8045245E-03
         353 -9.2347758E-03
         354  8.7502541E-04
         355  6.9398200E-05
         356  8.7008876E-04
         357 -9.6595130E-04
         358  1.0829467E-03
         359  7.4686157E-04
         360 -8.7082025E-04
         361  3.9016228E-04
         362 -1.4012842E-03
         363  2.0316290E-03
         364 -1.1724341E-03
         365  5.7887199E-05
         366 -2.2590095E-03
         367  6.2199133E-03
         368 -8.7481113E-03
         369 -4.1621359E-04
         370  7.7646831E-04
         371 -1.1616062E-03
         372  4.8149722E-03
         373 -7.3771761E-03
         374  5.1754974E-03
         375 -5.9829908E-04
         376  2.1744345E-03
         377 -6.3890922E-03
         378  1.4036484E-02
         379  1.4443490E-02
         380  2.3882331E-03
         381 -5.6249406E-03
         382 -1.0797798E-02
         383 -9.0807509E-03
         384 -1.9495716E-02
         385 -5.4747157E-04
         386 -6.0489570E-04
         387  3.2901808E-03
         388 -7.7073387E-04
 Sym= Particle
 Ene= -0.6714955    
 Spin= Alpha
 Occup= 2
           1 -4.8767943E-03
           2  4.1560675E-03
           3  1.5530032E-02
           4 -3.3844728E-03
           5  6.3056280E-03
           6 -1.1269684E-02
           7 -3.4315491E-03
           8  1.6875553E-03
           9  6.9659477E-04
          10  2.4974285E-02
          11 -2.5910521E-03
          12  1.4995154E-02
          13  1.7390844E-03
          14 -1.2701760E-02
          15  1.1236003E-02
          16  7.7597131E-03
          17  3.5805013E-03
          18 -3.8589597E-02
          19  5.2925558E-03
          20  1.3178709E-02
          21 -1.0369380E-02
          22  3.2374185E-02
          23 -4.5133852E-03
          24 -1.0110959E-03
          25 -1.6596287E-02
          26  7.5508058E-02
          27 -0.1380883    
          28 -0.2029991    
          29  1.0944142E-02
          30 -2.7982129E-02
          31  4.9284503E-02
          32  7.6248728E-02
          33  3.3653274E-04
          34 -1.5521246E-03
          35 -9.2536137E-03
          36 -1.4383207E-02
          37 -9.7918883E-04
          38  7.2851120E-03
          39 -2.3143971E-03
          40  3.2883554E-04
          41 -1.3958636E-03
          42 -5.3072825E-02
          43  9.4841436E-02
          44  0.1988555    
          45  1.2948131E-03
          46  1.4181843E-02
          47 -2.3403652E-02
          48 -4.8425473E-02
          49 -9.1707316E-04
          50  3.7264444E-02
          51 -7.1514659E-02
          52 -0.1484070    
          53  2.6278393E-03
          54 -1.1116634E-02
          55  1.9108927E-02
          56  3.9789747E-02
          57 -5.6476295E-03
          58  1.9602234E-02
          59 -3.5156548E-02
          60 -5.6666266E-02
          61  4.1090087E-03
          62 -3.9631505E-03
          63  8.3832722E-03
          64  1.3307537E-02
          65  5.2545941E-03
          66 -5.5093527E-02
          67  0.1265824    
          68  0.2374922    
          69 -4.8513501E-03
          70  2.4769289E-02
          71 -5.1354315E-02
          72 -8.6228497E-02
          73  1.3463458E-03
          74  2.7968609E-03
          75  7.4001127E-03
          76  3.2815423E-02
          77 -1.2810997E-03
          78 -3.4161753E-03
          79 -2.8191851E-03
          80 -1.0425524E-02
          81 -2.5764646E-03
          82  1.8575810E-02
          83 -9.9658463E-03
          84  7.0996778E-03
          85  4.3939585E-03
          86 -1.1435910E-02
          87  3.7543613E-03
          88 -6.0688281E-03
          89  3.8984331E-04
          90  9.8292574E-02
          91 -3.1283785E-02
          92  2.5614807E-02
          93  6.6250241E-03
          94 -3.6657959E-02
          95  1.3979497E-02
          96 -8.8896295E-03
          97 -2.6923926E-03
          98 -0.1098744    
          99  3.6690257E-02
         100 -1.8710777E-02
         101  7.0344675E-03
         102  3.3310160E-02
         103 -1.0775512E-02
         104  6.5625631E-03
         105 -1.3057138E-03
         106  1.4212646E-02
         107 -2.7863297E-03
         108  3.2869785E-03
         109  3.4165105E-03
         110 -4.8803994E-03
         111  5.8318843E-04
         112  1.0496310E-03
         113  1.1198121E-04
         114  9.5563561E-02
         115 -3.0352794E-02
         116  1.8080492E-02
         117 -2.4742444E-04
         118 -2.9449293E-02
         119  9.8392963E-03
         120 -2.7022590E-03
         121 -2.6273674E-03
         122 -0.1148755    
         123  3.6368456E-02
         124 -1.8923989E-02
         125 -7.0248893E-04
         126  4.2384896E-02
         127 -1.3743523E-02
         128  9.3615176E-03
         129 -6.5686889E-03
         130 -6.0878014E-03
         131 -0.1378257    
         132 -0.3023132    
         133  7.6378230E-03
         134  5.0053131E-03
         135  5.9057280E-02
         136  0.1243060    
         137  9.6513415E-03
         138 -4.6329307E-03
         139 -4.5214154E-02
         140 -0.1080695    
         141 -8.5916584E-03
         142  8.8551585E-03
         143  1.7728148E-02
         144  3.8485695E-02
         145 -2.0848734E-03
         146 -1.4657450E-03
         147  0.1770471    
         148  0.3960013    
         149  6.9242651E-03
         150 -3.3504821E-03
         151 -5.7370145E-02
         152 -0.1573428    
         153  1.2367336E-03
         154 -1.7026588E-02
         155  4.5631584E-02
         156 -5.6568477E-02
         157 -5.1808031E-04
         158  5.5874181E-03
         159 -9.1875559E-03
         160  4.0673912E-02
         161  3.0603938E-02
         162  1.6932547E-02
         163  4.8096459E-02
         164  9.3559492E-03
         165 -2.3746127E-02
         166 -2.3492482E-02
         167 -1.3743564E-02
         168 -1.0396356E-02
         169 -1.1326986E-03
         170 -6.2671332E-03
         171  1.9897614E-02
         172 -3.3614654E-02
         173  1.3272817E-03
         174 -2.8257542E-03
         175 -1.5709478E-02
         176  1.6019762E-02
         177 -2.4584052E-03
         178  1.9372717E-02
         179 -3.9894715E-02
         180  6.2518440E-02
         181  6.1549926E-03
         182 -6.4675529E-03
         183  1.0554478E-02
         184 -1.5288243E-02
         185 -5.6855776E-04
         186 -8.3098225E-03
         187  2.4053663E-02
         188 -2.9798221E-02
         189  1.5144834E-03
         190 -2.5732699E-04
         191 -8.7376153E-03
         192  8.3159059E-03
         193  3.9644376E-03
         194 -8.0915168E-03
         195  3.3505257E-02
         196 -3.5006084E-02
         197 -3.9205601E-04
         198  2.3658557E-03
         199 -9.1650505E-03
         200  1.1947179E-02
         201 -1.0898427E-02
         202  1.4863891E-02
         203 -7.3357612E-02
         204  0.1032376    
         205  1.0095416E-02
         206 -6.6063902E-03
         207  4.1535418E-02
         208 -5.0940406E-02
         209 -2.2037493E-04
         210 -1.5863748E-02
         211  5.0152436E-02
         212 -5.7467300E-02
         213 -4.3032298E-04
         214  7.8029744E-03
         215 -2.6317041E-02
         216  3.7204981E-02
         217  8.4445123E-03
         218  4.1300889E-02
         219 -6.0548760E-02
         220  9.1534451E-02
         221 -2.5642486E-03
         222 -2.3268223E-02
         223  3.6511276E-02
         224 -4.5889605E-02
         225 -6.2045059E-03
         226 -9.6650450E-03
         227  2.8541632E-02
         228 -2.7588150E-02
         229  5.3626481E-03
         230 -5.7381389E-05
         231 -6.9641001E-03
         232  1.0993193E-02
         233 -1.4934780E-03
         234 -5.2378559E-03
         235  1.9907176E-02
         236 -2.7228253E-02
         237  4.2762058E-03
         238  2.7987356E-03
         239 -4.3465644E-03
         240  7.6285992E-03
         241 -2.4141443E-03
         242  8.4172068E-03
         243 -3.7041422E-02
         244  5.1182672E-02
         245  2.4736538E-03
         246  1.1094811E-03
         247  1.5325839E-02
         248 -1.4258783E-02
         249  3.6445551E-03
         250 -4.5922166E-03
         251  1.9007206E-02
         252 -3.1245233E-02
         253 -2.1745311E-05
         254  8.9182397E-03
         255 -1.0844323E-02
         256  1.8675396E-02
         257 -3.4185942E-02
         258 -3.6144145E-02
         259  3.5666943E-02
         260  1.7494608E-02
         261  3.2221299E-02
         262  2.4044277E-02
         263 -3.2756610E-03
         264 -1.5744779E-02
         265 -8.9943940E-03
         266  1.1665368E-02
         267 -0.1170088    
         268 -0.2733385    
         269  1.8633099E-02
         270 -1.2511922E-02
         271  3.3395775E-02
         272  7.6436661E-02
         273 -1.5758516E-03
         274 -8.9870347E-03
         275 -4.8087016E-02
         276 -0.1123233    
         277  8.5916668E-03
         278  7.9838540E-03
         279  1.6884400E-02
         280  4.0875230E-02
         281  1.3165277E-02
         282  3.4247730E-02
         283  0.1893400    
         284  0.4138979    
         285 -6.1344816E-03
         286 -1.2171387E-02
         287 -5.8205973E-02
         288 -0.1323834    
         289  1.0719522E-02
         290 -6.9613154E-03
         291  6.3352729E-03
         292  5.5523459E-03
         293  2.3814365E-03
         294  3.3833706E-03
         295  1.4120391E-04
         296 -1.1270656E-02
         297  2.3534194E-02
         298  4.6583962E-02
         299 -6.4992055E-05
         300  1.9515671E-03
         301  8.5992161E-03
         302 -1.7377764E-02
         303 -3.3421077E-02
         304  5.8754343E-03
         305 -1.5965354E-03
         306  9.4479220E-03
         307 -1.3492477E-02
         308 -2.4978306E-02
         309  2.1308011E-04
         310  2.1107772E-03
         311  1.0853693E-02
         312 -2.2276498E-03
         313  1.7405096E-03
         314  2.5433458E-03
         315  4.2321734E-04
         316 -2.6846964E-02
         317  6.2113386E-03
         318 -6.6555934E-03
         319  1.4711121E-03
         320  5.0646189E-04
         321  2.4108458E-03
         322 -3.3241455E-03
         323  2.0911482E-03
         324  1.9582518E-04
         325  8.0593402E-04
         326  2.2962054E-02
         327 -7.7081425E-03
         328  6.4439056E-03
         329  3.5715459E-03
         330 -4.4399775E-03
         331 -1.6890060E-02
         332  5.8101364E-03
         333  8.1475318E-04
         334 -4.8975199E-03
         335 -6.0897456E-03
         336  1.0257872E-02
         337 -7.9328632E-03
         338 -1.3781345E-02
         339 -6.1483830E-03
         340  6.9457764E-04
         341  7.9428982E-03
         342 -7.7911355E-03
         343 -1.3848929E-02
         344 -3.2192173E-03
         345 -8.4756897E-04
         346  9.3755387E-03
         347 -1.5355034E-02
         348  1.3652272E-02
         349  9.1061229E-04
         350 -4.2908438E-03
         351 -4.9476745E-03
         352 -1.0825589E-03
         353 -8.0888206E-03
         354 -6.3022845E-03
         355 -2.1631818E-03
         356 -9.0601351E-03
         357  1.1934770E-02
         358 -1.8867062E-02
         359  8.3469488E-03
         360  1.9920114E-04
         361 -7.7200728E-03
         362  1.3165286E-02
         363 -1.6679754E-02
         364  8.5092813E-04
         365  2.6963183E-03
         366 -3.2441560E-04
         367  2.6856393E-03
         368 -3.6986722E-03
         369  3.8735298E-03
         370  3.0638154E-03
         371  5.3869770E-03
         372 -8.5240239E-03
         373  1.1952552E-02
         374  6.1928704E-03
         375 -6.5516620E-03
         376 -7.7572092E-03
         377 -1.4289004E-02
         378  5.1463218E-03
         379  7.0827536E-04
         380  1.1064438E-02
         381 -1.5828507E-02
         382 -2.8231695E-02
         383 -6.5974556E-02
         384 -7.4401600E-03
         385  6.5531950E-03
         386  2.0961305E-03
         387 -1.3369480E-02
         388 -2.6468197E-02
 Sym= Hole
 Ene= -0.2240763    
 Spin= Alpha
 Occup= 0
           1  4.8472476E-03
           2 -1.6299115E-02
           3 -2.7199360E-02
           4  7.7804406E-03
           5 -2.7460200E-03
           6 -1.1047486E-03
           7  1.2105742E-03
           8  3.2346314E-03
           9 -2.7756119E-04
          10  1.1161362E-03
          11 -1.7883601E-03
          12 -3.7129282E-04
          13 -2.7913458E-04
          14  1.9112972E-03
          15 -5.7291798E-03
          16 -1.6572144E-02
          17 -5.3196047E-03
          18  1.7279601E-02
          19  2.0920446E-02
          20 -4.5472432E-02
          21  5.7837297E-03
          22 -2.8684100E-03
          23  1.5433393E-03
          24  2.9787244E-03
          25  8.8257203E-03
          26  2.5333574E-02
          27 -7.0975810E-02
          28 -0.1355329    
          29 -6.1302958E-03
          30  2.0141650E-03
          31  4.6467292E-03
          32  8.1903590E-03
          33 -1.8053304E-03
          34  7.2908110E-04
          35  1.1042013E-02
          36  1.6168931E-02
          37  6.1686960E-04
          38  1.8103933E-04
          39 -1.1046130E-03
          40 -3.4459948E-03
          41  1.3902518E-03
          42 -3.5224993E-02
          43  6.4927474E-02
          44  0.1298789    
          45 -5.9525733E-04
          46  1.6021315E-03
          47 -2.4138652E-03
          48 -7.1425666E-03
          49  1.6732583E-03
          50 -6.7886636E-03
          51  7.5369235E-03
          52  1.5151908E-02
          53  7.5270735E-05
          54  3.7387785E-05
          55 -1.5134052E-03
          56 -3.4381042E-03
          57 -3.9957254E-03
          58  3.8068224E-02
          59 -6.7599200E-02
          60 -0.1253849    
          61  2.5134110E-03
          62 -1.8454782E-03
          63  4.1346159E-03
          64  6.2396051E-03
          65 -2.6401572E-03
          66  1.5504367E-02
          67 -2.5436426E-02
          68 -6.0660686E-02
          69 -5.0372718E-04
          70 -5.7310489E-04
          71  2.7957906E-03
          72  1.0466065E-02
          73  7.8190183E-03
          74 -4.9517371E-02
          75  8.9119174E-02
          76  0.2653728    
          77 -3.6690335E-03
          78  5.0396691E-03
          79 -7.7513978E-03
          80 -2.6549893E-02
          81 -4.7100158E-04
          82  3.0295562E-03
          83 -9.3849720E-03
          84 -2.2730701E-02
          85  1.1683144E-03
          86 -1.8673445E-03
          87  5.4831095E-03
          88  1.0888789E-02
          89  2.6485801E-02
          90  9.8210517E-03
          91  3.3424519E-02
          92  2.8766070E-02
          93 -1.4747344E-02
          94 -3.0942550E-03
          95 -1.0846912E-02
          96 -1.6696856E-03
          97 -9.0488698E-03
          98 -6.4466018E-03
          99 -1.1696741E-02
         100 -1.2158875E-03
         101  2.5372081E-03
         102  2.4268006E-04
         103  8.7576715E-04
         104  7.7141111E-04
         105  4.8544880E-05
         106 -5.1504332E-03
         107  4.7793658E-03
         108  6.0313744E-03
         109 -1.5137841E-04
         110 -6.1529729E-04
         111 -4.4817873E-04
         112 -8.0816384E-04
         113  7.4489000E-03
         114  5.5389572E-03
         115  7.5573921E-03
         116 -6.7130718E-03
         117 -2.1471221E-03
         118 -2.1389031E-03
         119 -1.4087585E-03
         120  1.6566783E-03
         121 -2.5292603E-02
         122 -6.7293597E-03
         123 -1.6564041E-02
         124  4.0491939E-02
         125  1.5050041E-02
         126  1.6619925E-03
         127  9.0110060E-03
         128 -5.2177371E-03
         129 -1.2270222E-02
         130  2.0751426E-02
         131 -1.7657833E-02
         132 -5.8074649E-02
         133  1.8602512E-03
         134 -6.2329816E-03
         135  5.5332617E-03
         136  1.3213033E-02
         137  3.2306053E-02
         138 -5.9620399E-02
         139  1.9379441E-02
         140 -4.6993680E-02
         141 -1.9753955E-02
         142  2.1487122E-02
         143 -6.2820460E-03
         144 -3.0377479E-03
         145  9.5882069E-04
         146  8.9948727E-03
         147 -1.1055416E-02
         148  3.8290650E-02
         149 -1.1769489E-03
         150 -5.2434378E-03
         151  1.0859456E-02
         152 -1.8166618E-02
         153  1.2381359E-03
         154 -0.1114328    
         155  0.2577051    
         156 -0.3619592    
         157 -1.0559701E-03
         158  1.4502561E-02
         159 -3.7549134E-02
         160  4.5723666E-02
         161  1.3676018E-03
         162  3.9810602E-02
         163 -8.6593263E-02
         164  0.1207168    
         165 -7.9737726E-04
         166 -8.3786892E-03
         167  1.7483680E-02
         168 -2.5256215E-02
         169 -3.6593273E-04
         170  5.5452630E-02
         171 -0.1158556    
         172  0.1593415    
         173 -1.5456379E-04
         174 -3.5278816E-03
         175  8.6284103E-03
         176 -8.9417510E-03
         177  8.9909055E-04
         178 -3.6890198E-02
         179  7.8008838E-02
         180 -0.1083253    
         181 -2.1327540E-04
         182  5.5468492E-03
         183 -9.9568916E-03
         184  1.5082917E-02
         185 -5.7105435E-04
         186 -5.7135556E-02
         187  0.1218194    
         188 -0.1771669    
         189  3.7059191E-04
         190  6.5483409E-03
         191 -1.3622730E-02
         192  2.0071166E-02
         193  1.2261960E-04
         194  2.6171964E-02
         195 -5.9811532E-02
         196  8.7194100E-02
         197  4.6367233E-04
         198 -1.5095246E-03
         199  5.9961369E-03
         200 -7.8698741E-03
         201  1.1257761E-03
         202  5.1645163E-02
         203 -0.1256658    
         204  0.1848535    
         205  2.4376795E-04
         206 -7.8239711E-03
         207  2.3930311E-02
         208 -3.5040185E-02
         209  1.2400432E-03
         210 -5.5637851E-02
         211  0.1480128    
         212 -0.2151942    
         213 -7.0116745E-04
         214  9.8846396E-03
         215 -2.6957909E-02
         216  3.8143780E-02
         217 -4.3725586E-03
         218  4.5325316E-02
         219 -0.1253580    
         220  0.1800023    
         221  2.5912323E-03
         222 -8.9569250E-03
         223  2.2607375E-02
         224 -3.5760939E-02
         225  1.4375417E-03
         226  2.2262154E-02
         227 -5.8043640E-02
         228  7.4307591E-02
         229 -9.5216266E-04
         230 -2.7656709E-03
         231  5.9290421E-03
         232 -7.2675566E-03
         233 -1.8354555E-03
         234 -4.6317097E-02
         235  0.1304906    
         236 -0.1756488    
         237  4.2806246E-04
         238  4.9135443E-03
         239 -1.4202236E-02
         240  2.0469351E-02
         241  1.1201072E-03
         242 -1.9530607E-02
         243  7.3959902E-02
         244 -9.9806577E-02
         245 -2.9033920E-04
         246  2.7473059E-03
         247 -1.1403164E-02
         248  1.6564630E-02
         249 -4.5197946E-03
         250  2.5259135E-02
         251 -0.1363100    
         252  0.1675660    
         253  3.0514721E-03
         254 -1.2786754E-03
         255  8.8138226E-03
         256 -8.4105888E-03
         257 -2.1868378E-03
         258  3.4560282E-02
         259 -9.3723223E-02
         260  0.1265379    
         261  2.1679327E-03
         262 -7.1315048E-03
         263  1.6724184E-02
         264 -2.6990196E-02
         265 -3.6302228E-02
         266  1.9599972E-02
         267  0.1544839    
         268  0.2042552    
         269  2.1378802E-02
         270 -1.1074061E-02
         271 -1.9913182E-02
         272 -1.3636774E-02
         273  9.5787402E-03
         274 -1.3726884E-02
         275  4.3563615E-03
         276  2.1210702E-02
         277 -3.9275633E-03
         278  2.8478201E-03
         279  1.8210952E-03
         280 -2.3037468E-03
         281  6.7638685E-03
         282 -1.1670700E-02
         283 -0.1022605    
         284 -0.2256620    
         285 -4.9141287E-03
         286  6.6607958E-04
         287  7.6823239E-03
         288  1.8807270E-02
         289  3.3784520E-03
         290  1.1180538E-03
         291 -1.8769547E-03
         292 -2.0267395E-04
         293  4.4260724E-04
         294 -1.4290668E-03
         295  4.3834347E-04
         296 -2.8230886E-03
         297  4.3073837E-03
         298  9.5693441E-03
         299 -1.8731717E-03
         300  1.3191289E-04
         301  4.8023553E-04
         302  5.8700191E-04
         303  1.1392408E-03
         304  1.3744340E-03
         305  4.5280240E-04
         306  1.0134167E-03
         307 -4.3928772E-03
         308 -8.2426444E-03
         309 -8.6962134E-03
         310 -5.3174612E-03
         311 -1.8416647E-03
         312 -1.2809992E-02
         313 -2.7963484E-03
         314  1.3364452E-02
         315 -1.7019473E-03
         316  5.9326668E-04
         317  7.7285490E-04
         318  2.4509529E-05
         319 -1.7623787E-03
         320 -8.2857106E-05
         321 -9.2436577E-04
         322  6.0139486E-04
         323  1.4472296E-03
         324 -1.3891357E-02
         325  1.4933740E-03
         326 -1.6888459E-03
         327 -8.3027012E-04
         328  8.7900244E-04
         329  1.0763722E-02
         330  4.5802658E-03
         331  1.4545007E-03
         332  9.6922945E-03
         333 -6.2328726E-03
         334 -7.2055645E-03
         335 -2.0003256E-03
         336  1.6402762E-02
         337 -5.4706321E-03
         338 -3.4824284E-03
         339 -2.3420006E-03
         340  4.2691079E-04
         341  5.4741669E-03
         342 -1.0052064E-02
         343  1.5243299E-02
         344 -1.6480731E-03
         345  3.9012881E-04
         346 -3.4884976E-03
         347  7.5826733E-03
         348 -9.8211989E-03
         349  7.5294968E-04
         350  2.0616059E-04
         351 -4.8336009E-03
         352  1.0099553E-02
         353 -1.4676126E-02
         354 -2.0639508E-03
         355  5.9655396E-04
         356  1.4422024E-03
         357 -2.9421456E-03
         358  2.6704671E-03
         359  5.2297203E-04
         360 -7.6524966E-04
         361  2.0133454E-04
         362 -2.1056784E-03
         363  3.2721958E-03
         364  3.0568487E-03
         365 -1.5704191E-04
         366 -3.4943759E-03
         367  1.0891074E-02
         368 -1.4875776E-02
         369  5.0578243E-03
         370 -1.3225557E-03
         371 -2.4898842E-03
         372  7.2221919E-03
         373 -9.4638765E-03
         374 -4.3845251E-03
         375  1.9386088E-03
         376  7.4774791E-03
         377 -7.9115005E-03
         378  1.0142983E-02
         379  1.3051314E-02
         380  1.8492959E-03
         381 -8.1977919E-03
         382 -2.2156108E-03
         383  1.6076347E-02
         384 -1.3900100E-02
         385  2.1402838E-03
         386  2.4831109E-03
         387  6.6017068E-04
         388  7.6951372E-04
 Sym= Particle
 Ene= -0.2240763    
 Spin= Alpha
 Occup= 2
           1 -2.5218101E-03
           2  5.9387926E-03
           3 -9.4763255E-03
           4 -1.7394430E-03
           5 -6.4609683E-04
           6  2.9326060E-03
           7  1.7753157E-03
           8  6.9946615E-04
           9 -2.4540767E-02
          10 -1.1773828E-02
          11  1.1139056E-02
          12 -6.9195176E-03
          13  1.0215328E-02
          14  3.9178445E-03
          15 -3.6853165E-03
          16  1.1533547E-02
          17  1.9116632E-03
          18  9.0957703E-03
          19 -6.3733063E-03
          20  2.0582311E-02
          21 -7.4528428E-03
          22 -4.5238980E-03
          23  2.0728135E-03
          24 -9.9477246E-03
          25  1.1333755E-02
          26 -4.9545955E-02
          27  8.8941067E-02
          28  0.1300865    
          29 -9.0892622E-03
          30  2.2823067E-02
          31 -3.3774517E-02
          32 -4.9264293E-02
          33 -1.6667733E-03
          34  1.0246080E-02
          35 -1.2288415E-02
          36 -2.6214331E-02
          37  1.4217912E-03
          38 -5.9483401E-03
          39  3.8384052E-03
          40  6.1272210E-03
          41  6.6963380E-04
          42  2.6421024E-02
          43 -4.8517209E-02
          44 -0.1024336    
          45 -7.1715185E-04
          46 -6.3454350E-03
          47  1.2894230E-02
          48  2.6669260E-02
          49  5.4987159E-04
          50 -3.4783330E-02
          51  6.1585553E-02
          52  0.1254352    
          53 -7.5104428E-05
          54  1.2010336E-02
          55 -1.9751089E-02
          56 -3.7838317E-02
          57 -1.1669393E-03
          58  7.0887851E-03
          59 -1.1308330E-02
          60 -2.6713656E-02
          61  2.5253068E-03
          62 -3.5058255E-03
          63  3.0017018E-03
          64  1.0919610E-02
          65  8.5427659E-04
          66  2.5141183E-02
          67 -7.9307079E-02
          68 -0.1433088    
          69  1.5202762E-03
          70 -9.7685456E-03
          71  3.9411653E-02
          72  6.8548806E-02
          73 -4.1880985E-03
          74 -1.6360084E-02
          75  1.9186737E-02
          76  7.6735862E-02
          77  3.2969089E-03
          78  4.9191006E-03
          79 -1.2527088E-02
          80 -3.6654592E-02
          81 -2.3228782E-03
          82 -3.8027305E-02
          83  6.0188491E-03
          84 -5.0737010E-03
          85  4.7457192E-04
          86  1.4869339E-02
          87 -4.0714229E-03
          88  7.4303481E-03
          89  4.7736634E-03
          90 -7.6408595E-02
          91  3.1375542E-02
          92 -6.1455742E-03
          93 -2.4394223E-03
          94  2.5967713E-02
          95 -1.6906811E-02
          96  3.3357251E-03
          97 -4.7041448E-03
          98  0.1086049    
          99 -3.4034301E-02
         100  2.6059816E-02
         101  7.9407580E-03
         102 -2.9719217E-02
         103  7.3491759E-03
         104 -5.9128148E-03
         105 -1.6800446E-03
         106 -2.6808299E-02
         107  1.3882482E-02
         108 -5.7315463E-03
         109  4.5438465E-03
         110  4.0692692E-03
         111 -4.6607624E-03
         112  3.1670032E-03
         113 -1.5391190E-04
         114 -8.4579006E-02
         115  3.1183898E-02
         116 -1.9617064E-02
         117  1.4484938E-03
         118  2.1363404E-02
         119 -9.1328211E-03
         120  7.8296075E-03
         121 -8.4433742E-03
         122  0.1108658    
         123 -4.3035164E-02
         124  2.8194809E-02
         125  5.5296170E-03
         126 -3.6769480E-02
         127  1.6103705E-02
         128 -6.7846039E-03
         129 -6.5823691E-03
         130  6.9427676E-03
         131 -2.1790229E-03
         132 -6.2279752E-03
         133  8.1771398E-03
         134 -4.0404275E-03
         135 -5.3669522E-03
         136 -4.8231576E-03
         137  1.0753331E-02
         138 -1.5490815E-02
         139  1.9212865E-03
         140  2.2996955E-02
         141 -1.7223770E-02
         142  2.3321453E-02
         143  3.5119427E-03
         144  8.3334354E-04
         145 -4.5738863E-03
         146  4.7579547E-03
         147  2.0170756E-02
         148  3.8164493E-02
         149  1.6456136E-02
         150 -5.7428461E-03
         151 -7.7821040E-03
         152 -6.0959328E-02
         153  4.9103959E-03
         154 -2.1901643E-02
         155  5.4705016E-02
         156 -6.2606052E-02
         157 -3.7235203E-03
         158  1.2131515E-02
         159 -3.9732248E-02
         160  4.5044109E-02
         161  1.4678304E-03
         162  3.2838289E-02
         163 -7.2560981E-02
         164  0.1002006    
         165  1.0322742E-02
         166 -1.9113371E-02
         167  3.4917943E-02
         168 -5.0510123E-02
         169 -9.1161393E-03
         170 -9.8326728E-02
         171  0.1683586    
         172 -0.2371354    
         173  2.3030801E-02
         174  3.8471743E-02
         175 -5.5246808E-02
         176  8.0997892E-02
         177 -7.0922226E-03
         178  5.8575422E-02
         179 -0.1273466    
         180  0.1935257    
         181  1.8927274E-02
         182 -1.3913135E-02
         183  3.2136083E-02
         184 -5.5605672E-02
         185 -4.2562429E-03
         186  1.5602170E-02
         187 -2.4464874E-02
         188  4.9453080E-02
         189  1.1794299E-02
         190 -4.1988418E-03
         191 -3.1520212E-03
         192 -8.5270600E-03
         193 -4.1420334E-03
         194 -6.3100070E-02
         195  0.1564617    
         196 -0.2242450    
         197  1.0306099E-02
         198  1.5764421E-02
         199 -4.4906236E-02
         200  6.2223524E-02
         201 -6.9715702E-03
         202  6.3249797E-02
         203 -0.1676713    
         204  0.2414682    
         205  1.5273201E-02
         206 -2.7767478E-02
         207  8.7147057E-02
         208 -0.1237502    
         209 -7.5837394E-04
         210 -3.1599537E-02
         211  0.1050037    
         212 -0.1467926    
         213  1.0038810E-04
         214  1.8854622E-02
         215 -6.7062035E-02
         216  9.2881545E-02
         217 -1.6196999E-03
         218  7.2671741E-02
         219 -0.1652610    
         220  0.2425855    
         221  7.0496909E-03
         222 -3.8960341E-02
         223  8.4250547E-02
         224 -0.1219414    
         225 -3.4895488E-03
         226 -4.9115025E-02
         227  0.1574813    
         228 -0.2131139    
         229  6.3123261E-03
         230  8.5925357E-03
         231 -4.2054530E-02
         232  6.1231866E-02
         233 -3.2629806E-03
         234  1.2932247E-02
         235 -2.6186056E-02
         236  3.2995813E-02
         237  5.2869581E-03
         238 -4.5649563E-03
         239  3.5548443E-03
         240 -1.8964900E-04
         241 -3.4395186E-03
         242  4.1619100E-02
         243 -0.1454646    
         244  0.1851939    
         245  4.5040217E-03
         246 -1.0970175E-02
         247  4.2725708E-02
         248 -4.7877401E-02
         249 -2.2988841E-04
         250 -5.4385263E-02
         251  0.1785735    
         252 -0.2303741    
         253  4.9621658E-04
         254  1.7135510E-02
         255 -6.1140388E-02
         256  8.7901965E-02
         257 -1.1597593E-02
         258  1.8862875E-02
         259 -6.0636841E-02
         260  9.4838649E-02
         261  1.5044685E-02
         262 -8.7681636E-03
         263  2.7152864E-02
         264 -4.8085663E-02
         265 -2.3055969E-02
         266  2.1680422E-02
         267 -4.3204878E-02
         268 -7.2474360E-02
         269  4.8989121E-02
         270 -2.4462208E-02
         271  2.5996067E-02
         272  3.7342135E-02
         273 -2.8531326E-04
         274 -8.0155525E-03
         275  4.4168442E-02
         276  0.1206641    
         277  1.5371487E-02
         278  5.2639255E-03
         279 -1.6303439E-02
         280 -4.9283333E-02
         281 -3.9429049E-04
         282  2.9131313E-04
         283 -4.4365302E-02
         284 -8.9053400E-02
         285  6.1429725E-03
         286  1.8293237E-03
         287  1.8111600E-02
         288  4.2786907E-02
         289 -8.1256395E-03
         290  2.1272078E-03
         291 -6.3490006E-05
         292 -5.9990776E-03
         293 -1.0595453E-02
         294 -2.0436647E-03
         295 -2.0418325E-03
         296  9.3299886E-03
         297 -1.3312791E-02
         298 -2.5938865E-02
         299 -6.4836506E-04
         300 -2.0824699E-03
         301 -6.1482964E-03
         302  1.1761625E-02
         303  2.9827980E-02
         304 -4.0567140E-03
         305  2.9454089E-03
         306 -6.4570308E-03
         307 -5.3123088E-04
         308  1.1031092E-02
         309  2.9687758E-03
         310 -1.8276970E-03
         311 -1.6219215E-02
         312  3.0523652E-04
         313 -8.4236013E-03
         314  5.6853727E-03
         315  3.7201962E-03
         316  2.5922829E-02
         317 -1.2460314E-02
         318  1.2575184E-03
         319  3.4583379E-03
         320  2.3769999E-03
         321 -1.0332022E-02
         322 -2.5050706E-04
         323  2.4434741E-04
         324  1.0943791E-03
         325  2.7516915E-03
         326 -2.5219534E-02
         327  6.3672252E-03
         328 -6.0060591E-04
         329  4.8777498E-03
         330  4.5064403E-04
         331  2.6205044E-02
         332 -3.6780536E-03
         333  1.0849925E-02
         334 -4.2129010E-03
         335 -1.9019492E-02
         336  2.4900930E-02
         337  5.7305149E-03
         338 -2.7583425E-03
         339  6.8154437E-03
         340  8.1826774E-03
         341 -1.3612949E-03
         342  4.5425862E-02
         343 -6.7757241E-02
         344  8.2904845E-03
         345  2.0887505E-03
         346  2.7320705E-02
         347 -4.2767111E-02
         348  4.1316535E-02
         349  4.5847562E-03
         350  9.7253104E-04
         351  1.4955666E-03
         352 -1.8608227E-02
         353  8.0299377E-03
         354  1.0941081E-03
         355 -6.5630930E-04
         356 -3.1533509E-02
         357  5.0645221E-02
         358 -8.0863006E-02
         359  6.0229120E-03
         360 -2.8164391E-03
         361 -3.0283971E-02
         362  5.5947069E-02
         363 -7.6658934E-02
         364  3.7184744E-03
         365 -2.1505211E-03
         366 -1.7883518E-03
         367 -4.8593134E-03
         368  1.3571973E-02
         369  8.7614171E-04
         370 -1.2063103E-03
         371  1.3831261E-02
         372 -3.4148701E-02
         373  5.2495837E-02
         374  1.1017082E-03
         375 -7.0597609E-03
         376 -1.0759953E-02
         377  4.8760392E-02
         378 -4.4373635E-02
         379  8.6731557E-03
         380  2.6863761E-02
         381 -4.0835463E-02
         382  7.8292767E-04
         383 -2.7880382E-02
         384  2.3005744E-03
         385 -6.9488020E-04
         386 -2.0471979E-03
         387  2.2172736E-02
         388  3.0639600E-02
