 [Molden Format]
 [Atoms] Angs
F       1      9      5.21800659      2.28358993     -2.08265440
B       2      5      5.02707600      1.91723227     -0.75732621
F       3      9      5.18576901      3.04721514      0.03870675
O       4      8      5.97994593      0.89373473     -0.37470226
C       5      6      5.63770324     -0.28110519      0.11179153
C       6      6      6.76092071     -1.15043327      0.48458366
C       7      6      6.63376578     -2.54000132      0.53985554
C       8      6      7.71446508     -3.32297840      0.89928873
C       9      6      8.93185483     -2.73712033      1.21092816
C      10      6      9.07031856     -1.35928031      1.14944999
C      11      6      7.99602393     -0.57091691      0.78441297
C      12      6      4.32847195     -0.66162926      0.27988223
C      13      6      3.26363497      0.19001121     -0.08190956
C      14      6      1.91301641     -0.16724592      0.05939477
C      15      6      0.92781776      0.73025083     -0.31758586
C      16      6     -0.49960708      0.47281574     -0.20169859
C      17      6     -1.39936498      1.29904922     -0.88638506
C      18      6     -2.75708718      1.08655168     -0.80579038
C      19      6     -3.26053036      0.03917855     -0.03162738
N      20      7     -4.64430865     -0.18237004      0.05581533
C      21      6     -5.50004559      0.81734205      0.53546934
C      22      6     -5.02954814      2.03697007      1.00934961
C      23      6     -5.90417711      3.00189233      1.48419749
C      24      6     -7.26397316      2.76205071      1.50900462
C      25      6     -7.74716904      1.53582935      1.07872697
C      26      6     -6.87747275      0.56919754      0.60561270
O      27      8     -7.43164462     -0.63286172      0.23762545
C      28      6     -6.58037580     -1.60609539     -0.22590006
C      29      6     -7.15512961     -2.80601984     -0.60594219
C      30      6     -6.37051967     -3.82536127     -1.12324976
C      31      6     -5.01288087     -3.62494605     -1.27750359
C      32      6     -4.43267741     -2.42538125     -0.89536648
C      33      6     -5.19756549     -1.40745123     -0.33653406
C      34      6     -2.37002172     -0.78331452      0.66125621
C      35      6     -1.01171592     -0.56951404      0.57904328
N      36      7      1.27776064      1.93550459     -0.84605467
C      37      6      2.53131644      2.21711684     -0.95827004
N      38      7      3.54652263      1.41852374     -0.59639759
H      39      1      5.70082057     -3.01034362      0.27346238
H      40      1      7.60864095     -4.39697335      0.93343660
H      41      1      9.77178027     -3.35305815      1.49527543
H      42      1     10.01751983     -0.89787109      1.38572990
H      43      1      8.08995614      0.50343835      0.73379964
H      44      1      4.08786825     -1.61597258      0.71110597
H      45      1      1.68088530     -1.14313879      0.44924246
H      46      1     -1.00397993      2.09846750     -1.49221048
H      47      1     -3.44011298      1.71923770     -1.35245746
H      48      1     -3.96963554      2.23407392      1.01768180
H      49      1     -5.50883764      3.94101117      1.83937300
H      50      1     -7.94940408      3.51136557      1.87240530
H      51      1     -8.80023613      1.30364562      1.10697459
H      52      1     -8.22234610     -2.91722573     -0.49490603
H      53      1     -6.82689781     -4.75840422     -1.41387735
H      54      1     -4.39212194     -4.39839429     -1.70288854
H      55      1     -3.37515376     -2.27739287     -1.04380026
H      56      1     -2.75726670     -1.57928923      1.27962026
H      57      1     -0.35031581     -1.19812258      1.15310449
H      58      1      2.81254635      3.17437610     -1.37509382
 [GTO]
           1   0
s              4   1.000000
     47.11057641     -0.01198412
      8.11283108     -0.05472053
      0.65190059      0.58055871
      0.24845545      0.47700799
p              4   1.000000
     12.57264839      0.05713170
      3.25989999      0.28574555
      1.14921562      0.55178731
      0.45752254      0.26323149
s              7   1.000000
      0.68659740     -0.20806226
      0.08427369      1.00528037
      0.03979181      0.26400189
     47.11057641      0.00721393
      8.11283108      0.03293942
      0.65190059     -0.34947160
      0.24845545     -0.28713848
p              7   1.000000
      3.27737070     -0.01127558
      0.18126254      0.55409914
      0.06985363      0.57867423
     12.57264839     -0.02039103
      3.25989999     -0.10198621
      1.14921562     -0.19693988
      0.45752254     -0.09395065
 
           2   0
s              4   1.000000
     25.08992476     -0.01198412
      4.32069265     -0.05472052
      0.34718609      0.58055871
      0.13232121      0.47700799
p              4   1.000000
      4.89012494      0.05713170
      1.26793638      0.28574555
      0.44698681      0.55178731
      0.17795315      0.26323149
s              7   1.000000
      0.29139959     -0.19816610
      0.03576669      0.95746577
      0.01688809      0.25144504
     25.08992476      0.00581987
      4.32069265      0.02657403
      0.34718609     -0.28193782
      0.13232121     -0.23165029
p              7   1.000000
      1.39095266     -0.01139352
      0.07692984      0.55989501
      0.02964666      0.58472713
      4.89012494     -0.02220762
      1.26793638     -0.11107194
      0.44698681     -0.21448483
      0.17795315     -0.10232052
 
           3   0
s              4   1.000000
     47.10939485     -0.01198412
      8.11262761     -0.05472052
      0.65188424      0.58055871
      0.24844922      0.47700799
p              4   1.000000
     12.57233306      0.05713170
      3.25981823      0.28574555
      1.14918680      0.55178731
      0.45751107      0.26323149
s              7   1.000000
      0.68659740     -0.20806357
      0.08427369      1.00528669
      0.03979181      0.26400354
     47.10939485      0.00721410
      8.11262761      0.03294020
      0.65188424     -0.34947987
      0.24844922     -0.28714528
p              7   1.000000
      3.27737070     -0.01127561
      0.18126254      0.55410069
      0.06985363      0.57867586
     12.57233306     -0.02039153
      3.25981823     -0.10198872
      1.14918680     -0.19694474
      0.45751107     -0.09395297
 
           4   0
s              4   1.000000
     78.05194312     -0.01198412
     13.44119046     -0.05472053
      1.08005701      0.58055871
      0.41163646      0.47700799
p              4   1.000000
      8.04893329      0.05713170
      2.08696821      0.28574555
      0.73572088      0.55178731
      0.29290316      0.26323149
s              7   1.000000
      0.57971233     -0.18686327
      0.07115450      0.90285466
      0.03359728      0.23710334
     78.05194312      0.00376846
     13.44119046      0.01720710
      1.08005701     -0.18255912
      0.41163646     -0.14999716
p              7   1.000000
      2.76717072     -0.01171813
      0.15304476      0.57584709
      0.05897927      0.60138675
      8.04893329     -0.02665189
      2.08696821     -0.13330005
      0.73572088     -0.25740829
      0.29290316     -0.12279726
 
           5   0
s              4   1.000000
     35.07154818     -0.01198412
      6.03961080     -0.05472052
      0.48530850      0.58055871
      0.18496308      0.47700799
p              4   1.000000
      5.65269622      0.05713170
      1.46565972      0.28574555
      0.51669041      0.55178730
      0.20570335      0.26323149
s              7   1.000000
      0.38350848     -0.19610387
      0.04707223      0.94750182
      0.02222627      0.24882835
     35.07154818      0.00549509
      6.03961080      0.02509104
      0.48530850     -0.26620401
      0.18496308     -0.21872283
p              7   1.000000
      1.83062075     -0.01160448
      0.10124670      0.57026179
      0.03901771      0.59555375
      5.65269622     -0.02517142
      1.46565972     -0.12589544
      0.51669041     -0.24310967
      0.20570335     -0.11597607
 
           6   0
s              4   1.000000
     35.06645359     -0.01198412
      6.03873347     -0.05472053
      0.48523800      0.58055871
      0.18493621      0.47700800
p              4   1.000000
      5.65187509      0.05713170
      1.46544682      0.28574555
      0.51661535      0.55178731
      0.20567347      0.26323149
s              7   1.000000
      0.38350848     -0.19610859
      0.04707223      0.94752466
      0.02222627      0.24883437
     35.06645359      0.00549585
      6.03873347      0.02509452
      0.48523800     -0.26624095
      0.18493621     -0.21875318
p              7   1.000000
      1.83062075     -0.01160474
      0.10124670      0.57027470
      0.03901771      0.59556722
      5.65187509     -0.02517493
      1.46544682     -0.12591298
      0.51661535     -0.24314354
      0.20567347     -0.11599222
 
           7   0
s              4   1.000000
     34.99831416     -0.01198412
      6.02699930     -0.05472052
      0.48429511      0.58055871
      0.18457685      0.47700799
p              4   1.000000
      5.64089264      0.05713170
      1.46259923      0.28574555
      0.51561149      0.55178731
      0.20527382      0.26323149
s              7   1.000000
      0.38350848     -0.19617201
      0.04707223      0.94783104
      0.02222627      0.24891483
     34.99831416      0.00550607
      6.02699930      0.02514119
      0.48429511     -0.26673602
      0.18457685     -0.21915994
p              7   1.000000
      1.83062075     -0.01160826
      0.10124670      0.57044793
      0.03901771      0.59574814
      5.64089264     -0.02522192
      1.46259923     -0.12614802
      0.51561149     -0.24359740
      0.20527382     -0.11620874
 
           8   0
s              4   1.000000
     34.91566431     -0.01198412
      6.01276631     -0.05472052
      0.48315143      0.58055871
      0.18414097      0.47700799
p              4   1.000000
      5.62757146      0.05713170
      1.45914525      0.28574555
      0.51439385      0.55178730
      0.20478906      0.26323149
s              7   1.000000
      0.38350848     -0.19624937
      0.04707223      0.94820481
      0.02222627      0.24901299
     34.91566431      0.00551851
      6.01276631      0.02519801
      0.48315143     -0.26733893
      0.18414097     -0.21965531
p              7   1.000000
      1.83062075     -0.01161257
      0.10124670      0.57065925
      0.03901771      0.59596883
      5.62757146     -0.02527915
      1.45914525     -0.12643425
      0.51439385     -0.24415013
      0.20478906     -0.11647242
 
           9   0
s              4   1.000000
     34.91792565     -0.01198412
      6.01315573     -0.05472052
      0.48318272      0.58055871
      0.18415289      0.47700799
p              4   1.000000
      5.62793594      0.05713170
      1.45923975      0.28574555
      0.51442717      0.55178730
      0.20480232      0.26323149
s              7   1.000000
      0.38350848     -0.19624724
      0.04707223      0.94819455
      0.02222627      0.24901028
     34.91792565      0.00551817
      6.01315573      0.02519646
      0.48318272     -0.26732240
      0.18415289     -0.21964173
p              7   1.000000
      1.83062075     -0.01161245
      0.10124670      0.57065345
      0.03901771      0.59596276
      5.62793594     -0.02527758
      1.45923975     -0.12642640
      0.51442717     -0.24413498
      0.20480232     -0.11646519
 
          10   0
s              4   1.000000
     34.91177786     -0.01198412
      6.01209703     -0.05472052
      0.48309765      0.58055871
      0.18412047      0.47700799
p              4   1.000000
      5.62694506      0.05713170
      1.45898283      0.28574555
      0.51433660      0.55178731
      0.20476626      0.26323149
s              7   1.000000
      0.38350848     -0.19625302
      0.04707223      0.94822244
      0.02222627      0.24901762
     34.91177786      0.00551910
      6.01209703      0.02520069
      0.48309765     -0.26736735
      0.18412047     -0.21967866
p              7   1.000000
      1.83062075     -0.01161277
      0.10124670      0.57066921
      0.03901771      0.59597922
      5.62694506     -0.02528184
      1.45898283     -0.12644774
      0.51433660     -0.24417618
      0.20476626     -0.11648485
 
          11   0
s              4   1.000000
     35.01759552     -0.01198412
      6.03031971     -0.05472052
      0.48456192      0.58055871
      0.18467854      0.47700799
p              4   1.000000
      5.64400034      0.05713170
      1.46340501      0.28574555
      0.51589555      0.55178731
      0.20538691      0.26323149
s              7   1.000000
      0.38350848     -0.19615403
      0.04707223      0.94774418
      0.02222627      0.24889202
     35.01759552      0.00550317
      6.03031971      0.02512797
      0.48456192     -0.26659575
      0.18467854     -0.21904469
p              7   1.000000
      1.83062075     -0.01160727
      0.10124670      0.57039882
      0.03901771      0.59569684
      5.64400034     -0.02520860
      1.46340501     -0.12608142
      0.51589555     -0.24346881
      0.20538691     -0.11614739
 
          12   0
s              4   1.000000
     34.98521132     -0.01198412
      6.02474288     -0.05472052
      0.48411380      0.58055871
      0.18450775      0.47700799
p              4   1.000000
      5.63878078      0.05713170
      1.46205166      0.28574555
      0.51541845      0.55178731
      0.20519697      0.26323149
s              7   1.000000
      0.38350848     -0.19618424
      0.04707223      0.94789014
      0.02222627      0.24893033
     34.98521132      0.00550804
      6.02474288      0.02515018
      0.48411380     -0.26683142
      0.18450775     -0.21923833
p              7   1.000000
      1.83062075     -0.01160895
      0.10124670      0.57048134
      0.03901771      0.59578301
      5.63878078     -0.02523097
      1.46205166     -0.12619331
      0.51541845     -0.24368487
      0.20519697     -0.11625047
 
          13   0
s              4   1.000000
     35.19405343     -0.01198412
      6.06070722     -0.05472053
      0.48700369      0.58055871
      0.18560916      0.47700799
p              4   1.000000
      5.67244114      0.05713170
      1.47077929      0.28574555
      0.51849521      0.55178731
      0.20642188      0.26323149
s              7   1.000000
      0.38350848     -0.19599072
      0.04707223      0.94695515
      0.02222627      0.24868481
     35.19405343      0.00547681
      6.06070722      0.02500760
      0.48700369     -0.26531872
      0.18560916     -0.21799544
p              7   1.000000
      1.83062075     -0.01159819
      0.10124670      0.56995273
      0.03901771      0.59523095
      5.67244114     -0.02508738
      1.47077929     -0.12547513
      0.51849521     -0.24229803
      0.20642188     -0.11558887
 
          14   0
s              4   1.000000
     35.05766696     -0.01198412
      6.03722034     -0.05472052
      0.48511641      0.58055871
      0.18488987      0.47700800
p              4   1.000000
      5.65045890      0.05713170
      1.46507962      0.28574555
      0.51648590      0.55178731
      0.20562194      0.26323149
s              7   1.000000
      0.38350848     -0.19611675
      0.04707223      0.94756407
      0.02222627      0.24884470
     35.05766696      0.00549716
      6.03722034      0.02510053
      0.48511641     -0.26630469
      0.18488987     -0.21880555
p              7   1.000000
      1.83062075     -0.01160519
      0.10124670      0.57029698
      0.03901771      0.59559048
      5.65045890     -0.02518098
      1.46507962     -0.12594324
      0.51648590     -0.24320197
      0.20562194     -0.11602010
 
          15   0
s              4   1.000000
     35.22761749     -0.01198412
      6.06648723     -0.05472052
      0.48746813      0.58055871
      0.18578617      0.47700800
p              4   1.000000
      5.67785087      0.05713170
      1.47218195      0.28574555
      0.51898969      0.55178731
      0.20661874      0.26323149
s              7   1.000000
      0.38350848     -0.19595991
      0.04707223      0.94680625
      0.02222627      0.24864571
     35.22761749      0.00547183
      6.06648723      0.02498483
      0.48746813     -0.26507717
      0.18578617     -0.21779697
p              7   1.000000
      1.83062075     -0.01159648
      0.10124670      0.56986855
      0.03901771      0.59514304
      5.67785087     -0.02506445
      1.47218195     -0.12536045
      0.51898969     -0.24207657
      0.20661874     -0.11548322
 
          16   0
s              4   1.000000
     35.09406849     -0.01198412
      6.04348899     -0.05472052
      0.48562013      0.58055871
      0.18508185      0.47700799
p              4   1.000000
      5.65632596      0.05713170
      1.46660086      0.28574555
      0.51702219      0.55178731
      0.20583544      0.26323149
s              7   1.000000
      0.38350848     -0.19608299
      0.04707223      0.94740094
      0.02222627      0.24880188
     35.09406849      0.00549172
      6.04348899      0.02507566
      0.48562013     -0.26604083
      0.18508185     -0.21858875
p              7   1.000000
      1.83062075     -0.01160332
      0.10124670      0.57020476
      0.03901771      0.59549416
      5.65632596     -0.02515593
      1.46660086     -0.12581797
      0.51702219     -0.24296007
      0.20583544     -0.11590470
 
          17   0
s              4   1.000000
     35.02880668     -0.01198412
      6.03225036     -0.05472052
      0.48471706      0.58055871
      0.18473767      0.47700799
p              4   1.000000
      5.64580731      0.05713170
      1.46387353      0.28574555
      0.51606072      0.55178731
      0.20545267      0.26323149
s              7   1.000000
      0.38350848     -0.19614359
      0.04707223      0.94769374
      0.02222627      0.24887876
     35.02880668      0.00550149
      6.03225036      0.02512028
      0.48471706     -0.26651425
      0.18473767     -0.21897773
p              7   1.000000
      1.83062075     -0.01160669
      0.10124670      0.57037029
      0.03901771      0.59566706
      5.64580731     -0.02520087
      1.46387353     -0.12604273
      0.51606072     -0.24339410
      0.20545267     -0.11611175
 
          18   0
s              4   1.000000
     35.00230894     -0.01198412
      6.02768723     -0.05472052
      0.48435039      0.58055871
      0.18459792      0.47700799
p              4   1.000000
      5.64153651      0.05713170
      1.46276618      0.28574555
      0.51567034      0.55178731
      0.20529725      0.26323149
s              7   1.000000
      0.38350848     -0.19616828
      0.04707223      0.94781303
      0.02222627      0.24891010
     35.00230894      0.00550547
      6.02768723      0.02513845
      0.48435039     -0.26670694
      0.18459792     -0.21913605
p              7   1.000000
      1.83062075     -0.01160806
      0.10124670      0.57043774
      0.03901771      0.59573750
      5.64153651     -0.02521916
      1.46276618     -0.12613421
      0.51567034     -0.24357075
      0.20529725     -0.11619602
 
          19   0
s              4   1.000000
     35.19007628     -0.01198412
      6.06002232     -0.05472053
      0.48694865      0.58055871
      0.18558818      0.47700799
p              4   1.000000
      5.67180012      0.05713170
      1.47061308      0.28574555
      0.51843662      0.55178731
      0.20639855      0.26323149
s              7   1.000000
      0.38350848     -0.19599438
      0.04707223      0.94697282
      0.02222627      0.24868944
     35.19007628      0.00547740
      6.06002232      0.02501030
      0.48694865     -0.26534737
      0.18558818     -0.21801898
p              7   1.000000
      1.83062075     -0.01159839
      0.10124670      0.56996272
      0.03901771      0.59524139
      5.67180012     -0.02509010
      1.47061308     -0.12548873
      0.51843662     -0.24232429
      0.20639855     -0.11560140
 
          20   0
s              4   1.000000
     61.13889281     -0.01198412
     10.52862325     -0.05472052
      0.84601980      0.58055871
      0.32243909      0.47700800
p              4   1.000000
      7.20656211      0.05713170
      1.86855394      0.28574555
      0.65872309      0.55178731
      0.26224901      0.26323149
s              7   1.000000
      0.47894987     -0.18780180
      0.05878681      0.90738931
      0.02775758      0.23829421
     61.13889281      0.00397373
     10.52862325      0.01814442
      0.84601980     -0.19250364
      0.32243909     -0.15816794
p              7   1.000000
      2.28619608     -0.01156780
      0.12644335      0.56845953
      0.04872781      0.59367154
      7.20656211     -0.02467799
      1.86855394     -0.12342754
      0.65872309     -0.23834405
      0.26224901     -0.11370262
 
          21   0
s              4   1.000000
     35.22177068     -0.01198412
      6.06548036     -0.05472052
      0.48738723      0.58055871
      0.18575534      0.47700799
p              4   1.000000
      5.67690850      0.05713170
      1.47193760      0.28574555
      0.51890355      0.55178731
      0.20658445      0.26323149
s              7   1.000000
      0.38350848     -0.19596527
      0.04707223      0.94683218
      0.02222627      0.24865251
     35.22177068      0.00547269
      6.06548036      0.02498880
      0.48738723     -0.26511922
      0.18575534     -0.21783152
p              7   1.000000
      1.83062075     -0.01159677
      0.10124670      0.56988320
      0.03901771      0.59515833
      5.67690850     -0.02506844
      1.47193760     -0.12538041
      0.51890355     -0.24211512
      0.20658445     -0.11550161
 
          22   0
s              4   1.000000
     35.02355633     -0.01198412
      6.03134621     -0.05472053
      0.48464440      0.58055871
      0.18470998      0.47700799
p              4   1.000000
      5.64496108      0.05713170
      1.46365411      0.28574555
      0.51598337      0.55178731
      0.20542187      0.26323149
s              7   1.000000
      0.38350848     -0.19614848
      0.04707223      0.94771735
      0.02222627      0.24888497
     35.02355633      0.00550228
      6.03134621      0.02512388
      0.48464440     -0.26655241
      0.18470998     -0.21900908
p              7   1.000000
      1.83062075     -0.01160696
      0.10124670      0.57038365
      0.03901771      0.59568098
      5.64496108     -0.02520449
      1.46365411     -0.12606085
      0.51598337     -0.24342908
      0.20542187     -0.11612844
 
          23   0
s              4   1.000000
     34.91978073     -0.01198412
      6.01347519     -0.05472052
      0.48320839      0.58055871
      0.18416268      0.47700799
p              4   1.000000
      5.62823493      0.05713170
      1.45931727      0.28574555
      0.51445450      0.55178730
      0.20481320      0.26323149
s              7   1.000000
      0.38350848     -0.19624550
      0.04707223      0.94818614
      0.02222627      0.24900806
     34.91978073      0.00551789
      6.01347519      0.02519518
      0.48320839     -0.26730884
      0.18416268     -0.21963059
p              7   1.000000
      1.83062075     -0.01161235
      0.10124670      0.57064868
      0.03901771      0.59595778
      5.62823493     -0.02527629
      1.45931727     -0.12641996
      0.51445450     -0.24412255
      0.20481320     -0.11645926
 
          24   0
s              4   1.000000
     34.91413157     -0.01198412
      6.01250236     -0.05472053
      0.48313022      0.58055871
      0.18413288      0.47700799
p              4   1.000000
      5.62732442      0.05713170
      1.45908119      0.28574555
      0.51437127      0.55178731
      0.20478007      0.26323149
s              7   1.000000
      0.38350848     -0.19625081
      0.04707223      0.94821177
      0.02222627      0.24901482
     34.91413157      0.00551874
      6.01250236      0.02519907
      0.48313022     -0.26735014
      0.18413288     -0.21966452
p              7   1.000000
      1.83062075     -0.01161265
      0.10124670      0.57066318
      0.03901771      0.59597291
      5.62732442     -0.02528021
      1.45908119     -0.12643957
      0.51437127     -0.24416041
      0.20478007     -0.11647732
 
          25   0
s              4   1.000000
     34.97304290     -0.01198412
      6.02264738     -0.05472052
      0.48394541      0.58055871
      0.18444358      0.47700799
p              4   1.000000
      5.63681952      0.05713170
      1.46154313      0.28574555
      0.51523918      0.55178731
      0.20512560      0.26323149
s              7   1.000000
      0.38350848     -0.19619561
      0.04707223      0.94794508
      0.02222627      0.24894476
     34.97304290      0.00550987
      6.02264738      0.02515854
      0.48394541     -0.26692008
      0.18444358     -0.21931117
p              7   1.000000
      1.83062075     -0.01160958
      0.10124670      0.57051239
      0.03901771      0.59581546
      5.63681952     -0.02523939
      1.46154313     -0.12623540
      0.51523918     -0.24376615
      0.20512560     -0.11628924
 
          26   0
s              4   1.000000
     35.22281319     -0.01198412
      6.06565989     -0.05472052
      0.48740165      0.58055871
      0.18576083      0.47700799
p              4   1.000000
      5.67707653      0.05713170
      1.47198117      0.28574555
      0.51891891      0.55178731
      0.20659056      0.26323149
s              7   1.000000
      0.38350848     -0.19596431
      0.04707223      0.94682755
      0.02222627      0.24865129
     35.22281319      0.00547254
      6.06565989      0.02498809
      0.48740165     -0.26511172
      0.18576083     -0.21782536
p              7   1.000000
      1.83062075     -0.01159672
      0.10124670      0.56988059
      0.03901771      0.59515562
      5.67707653     -0.02506773
      1.47198117     -0.12537685
      0.51891891     -0.24210825
      0.20659056     -0.11549833
 
          27   0
s              4   1.000000
     78.07631014     -0.01198412
     13.44538666     -0.05472053
      1.08039419      0.58055871
      0.41176497      0.47700799
p              4   1.000000
      8.05144608      0.05713170
      2.08761974      0.28574555
      0.73595056      0.55178731
      0.29299460      0.26323149
s              7   1.000000
      0.57971233     -0.18685803
      0.07115450      0.90282934
      0.03359728      0.23709669
     78.07631014      0.00376728
     13.44538666      0.01720173
      1.08039419     -0.18250220
      0.41176497     -0.14995040
p              7   1.000000
      2.76717072     -0.01171751
      0.15304476      0.57581645
      0.05897927      0.60135474
      8.05144608     -0.02664395
      2.08761974     -0.13326037
      0.73595056     -0.25733167
      0.29299460     -0.12276071
 
          28   0
s              4   1.000000
     35.22270187     -0.01198412
      6.06564072     -0.05472052
      0.48740011      0.58055871
      0.18576025      0.47700799
p              4   1.000000
      5.67705859      0.05713170
      1.47197652      0.28574555
      0.51891727      0.55178731
      0.20658991      0.26323149
s              7   1.000000
      0.38350848     -0.19596442
      0.04707223      0.94682804
      0.02222627      0.24865141
     35.22270187      0.00547256
      6.06564072      0.02498816
      0.48740011     -0.26511252
      0.18576025     -0.21782602
p              7   1.000000
      1.83062075     -0.01159673
      0.10124670      0.56988087
      0.03901771      0.59515590
      5.67705859     -0.02506781
      1.47197652     -0.12537723
      0.51891727     -0.24210898
      0.20658991     -0.11549868
 
          29   0
s              4   1.000000
     34.97300459     -0.01198412
      6.02264078     -0.05472052
      0.48394488      0.58055871
      0.18444337      0.47700799
p              4   1.000000
      5.63681335      0.05713170
      1.46154153      0.28574555
      0.51523862      0.55178730
      0.20512537      0.26323149
s              7   1.000000
      0.38350848     -0.19619564
      0.04707223      0.94794525
      0.02222627      0.24894481
     34.97300459      0.00550987
      6.02264078      0.02515856
      0.48394488     -0.26692036
      0.18444337     -0.21931140
p              7   1.000000
      1.83062075     -0.01160958
      0.10124670      0.57051249
      0.03901771      0.59581554
      5.63681335     -0.02523942
      1.46154153     -0.12623553
      0.51523862     -0.24376641
      0.20512537     -0.11628936
 
          30   0
s              4   1.000000
     34.91425009     -0.01198412
      6.01252277     -0.05472052
      0.48313186      0.58055871
      0.18413351      0.47700799
p              4   1.000000
      5.62734352      0.05713170
      1.45908615      0.28574555
      0.51437302      0.55178731
      0.20478076      0.26323149
s              7   1.000000
      0.38350848     -0.19625069
      0.04707223      0.94821122
      0.02222627      0.24901467
     34.91425009      0.00551873
      6.01252277      0.02519899
      0.48313186     -0.26734927
      0.18413351     -0.21966381
p              7   1.000000
      1.83062075     -0.01161264
      0.10124670      0.57066287
      0.03901771      0.59597259
      5.62734352     -0.02528013
      1.45908615     -0.12643916
      0.51437302     -0.24415961
      0.20478076     -0.11647694
 
          31   0
s              4   1.000000
     34.91946034     -0.01198412
      6.01342002     -0.05472052
      0.48320396      0.58055871
      0.18416099      0.47700799
p              4   1.000000
      5.62818329      0.05713170
      1.45930388      0.28574555
      0.51444978      0.55178731
      0.20481132      0.26323149
s              7   1.000000
      0.38350848     -0.19624580
      0.04707223      0.94818759
      0.02222627      0.24900845
     34.91946034      0.00551794
      6.01342002      0.02519540
      0.48320396     -0.26731118
      0.18416099     -0.21963251
p              7   1.000000
      1.83062075     -0.01161237
      0.10124670      0.57064950
      0.03901771      0.59595863
      5.62818329     -0.02527651
      1.45930388     -0.12642107
      0.51444978     -0.24412469
      0.20481132     -0.11646029
 
          32   0
s              4   1.000000
     35.02397544     -0.01198412
      6.03141838     -0.05472053
      0.48465020      0.58055871
      0.18471219      0.47700800
p              4   1.000000
      5.64502863      0.05713170
      1.46367163      0.28574555
      0.51598954      0.55178730
      0.20542433      0.26323149
s              7   1.000000
      0.38350848     -0.19614809
      0.04707223      0.94771547
      0.02222627      0.24888446
     35.02397544      0.00550222
      6.03141838      0.02512359
      0.48465020     -0.26654937
      0.18471219     -0.21900658
p              7   1.000000
      1.83062075     -0.01160694
      0.10124670      0.57038259
      0.03901771      0.59567989
      5.64502863     -0.02520420
      1.46367163     -0.12605940
      0.51598954     -0.24342629
      0.20542433     -0.11612711
 
          33   0
s              4   1.000000
     35.22250556     -0.01198412
      6.06560691     -0.05472052
      0.48739740      0.58055871
      0.18575921      0.47700799
p              4   1.000000
      5.67702695      0.05713170
      1.47196832      0.28574555
      0.51891438      0.55178731
      0.20658876      0.26323149
s              7   1.000000
      0.38350848     -0.19596460
      0.04707223      0.94682891
      0.02222627      0.24865166
     35.22250556      0.00547258
      6.06560691      0.02498830
      0.48739740     -0.26511394
      0.18575921     -0.21782718
p              7   1.000000
      1.83062075     -0.01159674
      0.10124670      0.56988136
      0.03901771      0.59515643
      5.67702695     -0.02506794
      1.47196832     -0.12537790
      0.51891438     -0.24211027
      0.20658876     -0.11549930
 
          34   0
s              4   1.000000
     35.00728789     -0.01198412
      6.02854465     -0.05472053
      0.48441928      0.58055871
      0.18462418      0.47700799
p              4   1.000000
      5.64233900      0.05713170
      1.46297425      0.28574555
      0.51574369      0.55178731
      0.20532645      0.26323149
s              7   1.000000
      0.38350848     -0.19616364
      0.04707223      0.94779061
      0.02222627      0.24890420
     35.00728789      0.00550472
      6.02854465      0.02513503
      0.48441928     -0.26667072
      0.18462418     -0.21910628
p              7   1.000000
      1.83062075     -0.01160780
      0.10124670      0.57042505
      0.03901771      0.59572423
      5.64233900     -0.02521572
      1.46297425     -0.12611701
      0.51574369     -0.24353754
      0.20532645     -0.11618018
 
          35   0
s              4   1.000000
     34.99875864     -0.01198412
      6.02707584     -0.05472052
      0.48430126      0.58055871
      0.18457920      0.47700799
p              4   1.000000
      5.64096428      0.05713170
      1.46261781      0.28574555
      0.51561804      0.55178731
      0.20527643      0.26323149
s              7   1.000000
      0.38350848     -0.19617159
      0.04707223      0.94782904
      0.02222627      0.24891429
     34.99875864      0.00550600
      6.02707584      0.02514088
      0.48430126     -0.26673278
      0.18457920     -0.21915728
p              7   1.000000
      1.83062075     -0.01160824
      0.10124670      0.57044680
      0.03901771      0.59574692
      5.64096428     -0.02522161
      1.46261781     -0.12614648
      0.51561804     -0.24359444
      0.20527643     -0.11620733
 
          36   0
s              4   1.000000
     57.17649879     -0.01198412
      9.84626621     -0.05472052
      0.79118950      0.58055871
      0.30154190      0.47700799
p              4   1.000000
      6.73950689      0.05713170
      1.74745350      0.28574555
      0.61603143      0.55178731
      0.24525273      0.26323149
s              7   1.000000
      0.47894987     -0.18911299
      0.05878681      0.91372447
      0.02775758      0.23995792
     57.17649879      0.00424550
      9.84626621      0.01938531
      0.79118950     -0.20566893
      0.30154190     -0.16898502
p              7   1.000000
      2.28619608     -0.01169169
      0.12644335      0.57454776
      0.04872781      0.60002980
      6.73950689     -0.02631365
      1.74745350     -0.13160835
      0.61603143     -0.25414154
      0.24525273     -0.12123884
 
          37   0
s              4   1.000000
     35.21497875     -0.01198412
      6.06431073     -0.05472052
      0.48729324      0.58055871
      0.18571952      0.47700800
p              4   1.000000
      5.67581380      0.05713170
      1.47165377      0.28574555
      0.51880349      0.55178731
      0.20654461      0.26323149
s              7   1.000000
      0.38350848     -0.19597150
      0.04707223      0.94686228
      0.02222627      0.24866041
     35.21497875      0.00547370
      6.06431073      0.02499340
      0.48729324     -0.26516808
      0.18571952     -0.21787167
p              7   1.000000
      1.83062075     -0.01159712
      0.10124670      0.56990022
      0.03901771      0.59517613
      5.67581380     -0.02507308
      1.47165377     -0.12540361
      0.51880349     -0.24215992
      0.20654461     -0.11552298
 
          38   0
s              4   1.000000
     60.99655490     -0.01198412
     10.50411148     -0.05472052
      0.84405018      0.58055871
      0.32168841      0.47700799
p              4   1.000000
      7.18978445      0.05713170
      1.86420375      0.28574555
      0.65718951      0.55178731
      0.26163847      0.26323149
s              7   1.000000
      0.47894987     -0.18784489
      0.05878681      0.90759749
      0.02775758      0.23834889
     60.99655490      0.00398293
     10.50411148      0.01818640
      0.84405018     -0.19294904
      0.32168841     -0.15853390
p              7   1.000000
      2.28619608     -0.01157188
      0.12644335      0.56866010
      0.04872781      0.59388102
      7.18978445     -0.02473331
      1.86420375     -0.12370424
      0.65718951     -0.23887837
      0.26163847     -0.11395752
 
          39   0
s              4   1.000000
      8.30949053      0.05675242
      1.52053439      0.26014135
      0.42242110      0.53284611
      0.14019777      0.29162544
s              7   1.000000
      0.92936822     -0.06732773
      0.05643440      0.66944845
      0.02166600      0.51460930
      8.30949053     -0.02902126
      1.52053439     -0.13302745
      0.42242110     -0.27247939
      0.14019777     -0.14912734
p              4   1.000000
      0.64737396      0.05713170
      0.16785440      0.28574555
      0.05917387      0.55178731
      0.02355814      0.26323150
 
          40   0
s              4   1.000000
      8.30891139      0.05675242
      1.52042842      0.26014135
      0.42239166      0.53284611
      0.14018800      0.29162544
s              7   1.000000
      0.92936822     -0.06732847
      0.05643440      0.66945586
      0.02166600      0.51461499
      8.30891139     -0.02902281
      1.52042842     -0.13303455
      0.42239166     -0.27249394
      0.14018800     -0.14913530
p              4   1.000000
      0.64737396      0.05713170
      0.16785440      0.28574555
      0.05917387      0.55178731
      0.02355814      0.26323150
 
          41   0
s              4   1.000000
      8.30878102      0.05675242
      1.52040456      0.26014135
      0.42238504      0.53284611
      0.14018580      0.29162544
s              7   1.000000
      0.92936822     -0.06732864
      0.05643440      0.66945753
      0.02166600      0.51461628
      8.30878102     -0.02902316
      1.52040456     -0.13303615
      0.42238504     -0.27249721
      0.14018580     -0.14913709
p              4   1.000000
      0.64737396      0.05713170
      0.16785440      0.28574555
      0.05917387      0.55178731
      0.02355814      0.26323150
 
          42   0
s              4   1.000000
      8.30887383      0.05675242
      1.52042154      0.26014135
      0.42238975      0.53284611
      0.14018736      0.29162544
s              7   1.000000
      0.92936822     -0.06732852
      0.05643440      0.66945634
      0.02166600      0.51461537
      8.30887383     -0.02902291
      1.52042154     -0.13303501
      0.42238975     -0.27249488
      0.14018736     -0.14913582
p              4   1.000000
      0.64737396      0.05713170
      0.16785440      0.28574555
      0.05917387      0.55178731
      0.02355814      0.26323150
 
          43   0
s              4   1.000000
      8.30948975      0.05675242
      1.52053425      0.26014135
      0.42242106      0.53284611
      0.14019775      0.29162544
s              7   1.000000
      0.92936822     -0.06732773
      0.05643440      0.66944845
      0.02166600      0.51460930
      8.30948975     -0.02902126
      1.52053425     -0.13302746
      0.42242106     -0.27247941
      0.14019775     -0.14912735
p              4   1.000000
      0.64737396      0.05713170
      0.16785440      0.28574555
      0.05917387      0.55178731
      0.02355814      0.26323150
 
          44   0
s              4   1.000000
      8.31020662      0.05675242
      1.52066543      0.26014135
      0.42245751      0.53284611
      0.14020985      0.29162544
s              7   1.000000
      0.92936822     -0.06732680
      0.05643440      0.66943929
      0.02166600      0.51460225
      8.31020662     -0.02901934
      1.52066543     -0.13301867
      0.42245751     -0.27246141
      0.14020985     -0.14911750
p              4   1.000000
      0.64737396      0.05713170
      0.16785440      0.28574555
      0.05917387      0.55178731
      0.02355814      0.26323150
 
          45   0
s              4   1.000000
      8.30970027      0.05675242
      1.52057277      0.26014135
      0.42243177      0.53284611
      0.14020131      0.29162544
s              7   1.000000
      0.92936822     -0.06732746
      0.05643440      0.66944576
      0.02166600      0.51460724
      8.30970027     -0.02902070
      1.52057277     -0.13302488
      0.42243177     -0.27247412
      0.14020131     -0.14912445
p              4   1.000000
      0.64737396      0.05713170
      0.16785440      0.28574555
      0.05917387      0.55178731
      0.02355814      0.26323150
 
          46   0
s              4   1.000000
      8.31009536      0.05675242
      1.52064507      0.26014135
      0.42245185      0.53284611
      0.14020797      0.29162544
s              7   1.000000
      0.92936822     -0.06732695
      0.05643440      0.66944071
      0.02166600      0.51460334
      8.31009536     -0.02901964
      1.52064507     -0.13302003
      0.42245185     -0.27246420
      0.14020797     -0.14911903
p              4   1.000000
      0.64737396      0.05713170
      0.16785440      0.28574555
      0.05917387      0.55178731
      0.02355814      0.26323150
 
          47   0
s              4   1.000000
      8.30952828      0.05675242
      1.52054130      0.26014135
      0.42242302      0.53284611
      0.14019840      0.29162544
s              7   1.000000
      0.92936822     -0.06732768
      0.05643440      0.66944797
      0.02166600      0.51460893
      8.30952828     -0.02902116
      1.52054130     -0.13302698
      0.42242302     -0.27247845
      0.14019840     -0.14912682
p              4   1.000000
      0.64737396      0.05713170
      0.16785440      0.28574555
      0.05917387      0.55178731
      0.02355814      0.26323150
 
          48   0
s              4   1.000000
      8.31056023      0.05675242
      1.52073013      0.26014135
      0.42247548      0.53284611
      0.14021581      0.29162544
s              7   1.000000
      0.92936822     -0.06732635
      0.05643440      0.66943477
      0.02166600      0.51459879
      8.31056023     -0.02901840
      1.52073013     -0.13301433
      0.42247548     -0.27245253
      0.14021581     -0.14911264
p              4   1.000000
      0.64737396      0.05713170
      0.16785440      0.28574555
      0.05917387      0.55178731
      0.02355814      0.26323150
 
          49   0
s              4   1.000000
      8.30901696      0.05675242
      1.52044773      0.26014135
      0.42239703      0.53284611
      0.14018978      0.29162544
s              7   1.000000
      0.92936822     -0.06732834
      0.05643440      0.66945451
      0.02166600      0.51461395
      8.30901696     -0.02902253
      1.52044773     -0.13303325
      0.42239703     -0.27249129
      0.14018978     -0.14913385
p              4   1.000000
      0.64737396      0.05713170
      0.16785440      0.28574555
      0.05917387      0.55178731
      0.02355814      0.26323150
 
          50   0
s              4   1.000000
      8.30888737      0.05675242
      1.52042402      0.26014135
      0.42239044      0.53284611
      0.14018759      0.29162544
s              7   1.000000
      0.92936822     -0.06732850
      0.05643440      0.66945616
      0.02166600      0.51461524
      8.30888737     -0.02902287
      1.52042402     -0.13303484
      0.42239044     -0.27249454
      0.14018759     -0.14913563
p              4   1.000000
      0.64737396      0.05713170
      0.16785440      0.28574555
      0.05917387      0.55178731
      0.02355814      0.26323150
 
          51   0
s              4   1.000000
      8.30921067      0.05675242
      1.52048318      0.26014135
      0.42240688      0.53284611
      0.14019304      0.29162544
s              7   1.000000
      0.92936822     -0.06732809
      0.05643440      0.66945203
      0.02166600      0.51461206
      8.30921067     -0.02902201
      1.52048318     -0.13303088
      0.42240688     -0.27248642
      0.14019304     -0.14913119
p              4   1.000000
      0.64737396      0.05713170
      0.16785440      0.28574555
      0.05917387      0.55178731
      0.02355814      0.26323150
 
          52   0
s              4   1.000000
      8.30921175      0.05675242
      1.52048338      0.26014135
      0.42240693      0.53284611
      0.14019306      0.29162544
s              7   1.000000
      0.92936822     -0.06732808
      0.05643440      0.66945201
      0.02166600      0.51461204
      8.30921175     -0.02902200
      1.52048338     -0.13303087
      0.42240693     -0.27248639
      0.14019306     -0.14913117
p              4   1.000000
      0.64737396      0.05713170
      0.16785440      0.28574555
      0.05917387      0.55178731
      0.02355814      0.26323150
 
          53   0
s              4   1.000000
      8.30889038      0.05675242
      1.52042457      0.26014135
      0.42239059      0.53284611
      0.14018764      0.29162544
s              7   1.000000
      0.92936822     -0.06732850
      0.05643440      0.66945612
      0.02166600      0.51461519
      8.30889038     -0.02902286
      1.52042457     -0.13303481
      0.42239059     -0.27249447
      0.14018764     -0.14913559
p              4   1.000000
      0.64737396      0.05713170
      0.16785440      0.28574555
      0.05917387      0.55178731
      0.02355814      0.26323150
 
          54   0
s              4   1.000000
      8.30900950      0.05675242
      1.52044637      0.26014135
      0.42239665      0.53284611
      0.14018965      0.29162544
s              7   1.000000
      0.92936822     -0.06732834
      0.05643440      0.66945460
      0.02166600      0.51461402
      8.30900950     -0.02902255
      1.52044637     -0.13303335
      0.42239665     -0.27249147
      0.14018965     -0.14913395
p              4   1.000000
      0.64737396      0.05713170
      0.16785440      0.28574555
      0.05917387      0.55178731
      0.02355814      0.26323150
 
          55   0
s              4   1.000000
      8.31055322      0.05675242
      1.52072885      0.26014135
      0.42247513      0.53284611
      0.14021570      0.29162544
s              7   1.000000
      0.92936822     -0.06732636
      0.05643440      0.66943485
      0.02166600      0.51459884
      8.31055322     -0.02901842
      1.52072885     -0.13301442
      0.42247513     -0.27245271
      0.14021570     -0.14911273
p              4   1.000000
      0.64737396      0.05713170
      0.16785440      0.28574555
      0.05917387      0.55178731
      0.02355814      0.26323150
 
          56   0
s              4   1.000000
      8.30955200      0.05675242
      1.52054564      0.26014135
      0.42242423      0.53284611
      0.14019880      0.29162544
s              7   1.000000
      0.92936822     -0.06732765
      0.05643440      0.66944766
      0.02166600      0.51460868
      8.30955200     -0.02902109
      1.52054564     -0.13302669
      0.42242423     -0.27247785
      0.14019880     -0.14912649
p              4   1.000000
      0.64737396      0.05713170
      0.16785440      0.28574555
      0.05917387      0.55178731
      0.02355814      0.26323150
 
          57   0
s              4   1.000000
      8.30965265      0.05675242
      1.52056406      0.26014135
      0.42242935      0.53284611
      0.14020050      0.29162544
s              7   1.000000
      0.92936822     -0.06732752
      0.05643440      0.66944638
      0.02166600      0.51460771
      8.30965265     -0.02902083
      1.52056406     -0.13302546
      0.42242935     -0.27247532
      0.14020050     -0.14912511
p              4   1.000000
      0.64737396      0.05713170
      0.16785440      0.28574555
      0.05917387      0.55178731
      0.02355814      0.26323150
 
          58   0
s              4   1.000000
      8.30977386      0.05675242
      1.52058624      0.26014135
      0.42243551      0.53284611
      0.14020255      0.29162544
s              7   1.000000
      0.92936822     -0.06732736
      0.05643440      0.66944483
      0.02166600      0.51460652
      8.30977386     -0.02902050
      1.52058624     -0.13302397
      0.42243551     -0.27247228
      0.14020255     -0.14912345
p              4   1.000000
      0.64737396      0.05713170
      0.16785440      0.28574555
      0.05917387      0.55178731
      0.02355814      0.26323150
 
 [MO]
 Sym= Hole
 Ene= -0.9345785    
 Spin= Alpha
 Occup= 0
           1 -1.9129203E-03
           2  1.3422965E-03
           3  1.2988434E-03
           4 -2.0992134E-03
           5  1.5288768E-03
           6 -3.4196118E-03
           7  2.7763407E-04
           8  1.7631843E-05
           9 -1.7298938E-04
          10  6.8697374E-04
          11 -8.2683418E-04
          12 -1.8199027E-03
          13  7.6958284E-05
          14 -1.6959477E-04
          15 -6.4198446E-04
          16 -1.2610605E-03
          17  1.8162131E-03
          18 -1.7353904E-03
          19 -2.3682264E-03
          20 -8.6508098E-04
          21 -1.9718278E-03
          22  3.6458641E-03
          23  7.6603726E-05
          24  3.1864800E-04
          25 -2.5868486E-04
          26  7.2966079E-04
          27  6.5821838E-03
          28  1.5595671E-02
          29  1.8266692E-04
          30 -3.7855629E-04
          31 -1.7640280E-03
          32 -4.5896554E-03
          33  6.9201412E-04
          34 -2.3748471E-04
          35 -1.0274515E-02
          36 -2.3591900E-02
          37 -8.8384731E-05
          38 -5.8208439E-05
          39  1.3240379E-03
          40  3.3966769E-03
          41 -3.4622045E-04
          42  7.1627612E-04
          43  2.7309972E-04
          44 -1.1597879E-03
          45  8.4030602E-05
          46 -9.6012081E-05
          47 -1.0656039E-04
          48  2.5333048E-04
          49 -9.5111737E-04
          50 -2.5906321E-03
          51 -9.6106122E-04
          52  9.2339925E-03
          53  5.9769046E-04
          54  2.2456158E-04
          55  6.8440440E-06
          56 -1.2408631E-03
          57  4.7952292E-04
          58 -3.3951248E-04
          59  2.2050824E-04
          60  1.9545424E-04
          61 -4.9215450E-05
          62  1.5258841E-04
          63 -2.7534019E-05
          64  1.5424496E-04
          65 -1.6706325E-04
          66  2.3682052E-03
          67 -9.1187289E-04
          68 -9.1533139E-03
          69  9.1290662E-05
          70 -2.7134176E-04
          71  2.0589486E-04
          72  9.0478233E-04
          73 -7.5292330E-05
          74  1.8604065E-04
          75  1.3291308E-04
          76  5.5850635E-04
          77  2.0577332E-04
          78 -1.4469885E-04
          79  1.1447522E-04
          80 -7.4395684E-05
          81  7.5810787E-04
          82 -3.7467871E-03
          83 -1.8607214E-05
          84  8.7671587E-03
          85 -5.1039836E-04
          86  7.7820569E-04
          87  5.5319245E-04
          88 -4.3415974E-04
          89 -6.2801095E-04
          90  9.7827893E-04
          91 -5.0395448E-03
          92 -1.0424884E-02
          93  2.0262382E-04
          94 -8.9455702E-05
          95  7.6454412E-04
          96  1.1164718E-03
          97  9.6382806E-04
          98 -1.9405072E-03
          99  1.2951621E-02
         100  3.0447477E-02
         101 -3.6181451E-04
         102  5.3524174E-04
         103 -1.6781053E-03
         104 -5.0704596E-03
         105 -1.6767826E-03
         106  2.2987239E-03
         107  2.0230450E-02
         108  5.2146286E-02
         109  1.7212788E-03
         110 -2.7913222E-04
         111 -3.1755534E-03
         112 -9.6162651E-03
         113 -4.3174293E-04
         114 -1.2054640E-03
         115 -1.9868728E-02
         116 -4.6490695E-02
         117 -1.5159461E-04
         118 -3.2160820E-05
         119  1.0550465E-03
         120  3.5515360E-03
         121  3.2168496E-04
         122  3.4202733E-03
         123 -5.8607485E-02
         124 -9.1939650E-02
         125 -1.7088567E-04
         126  4.3558687E-04
         127  7.0875296E-03
         128  1.4233747E-02
         129  1.0642583E-02
         130 -1.6763397E-02
         131  1.9258209E-02
         132  2.8557463E-02
         133 -3.9798371E-03
         134  3.7016759E-03
         135  1.5531285E-03
         136 -1.8906823E-03
         137 -3.8813390E-02
         138  2.2784641E-02
         139  0.1137404    
         140  4.9988180E-02
         141  2.4718264E-02
         142 -1.5815973E-02
         143 -2.2474745E-02
         144 -4.0331120E-03
         145  2.7576647E-05
         146  5.3285155E-03
         147 -4.3306343E-02
         148 -2.2753676E-02
         149 -1.6438820E-04
         150 -3.1133492E-03
         151  1.3484113E-02
         152 -1.5788535E-02
         153 -4.3453649E-04
         154 -5.7412803E-02
         155  0.1788201    
         156 -0.4531117    
         157  1.1497497E-04
         158  8.1360117E-03
         159 -2.7186019E-02
         160  6.0944926E-02
         161  2.1533901E-03
         162  2.7623447E-02
         163 -8.9709394E-02
         164  0.2016453    
         165 -1.6819251E-03
         166 -4.9798000E-03
         167  1.3298638E-02
         168 -3.4010164E-02
         169 -1.5386186E-03
         170  1.1889118E-02
         171 -8.6389802E-02
         172  0.2013479    
         173  7.4997754E-04
         174 -5.7354965E-04
         175  6.5991124E-03
         176 -1.0800810E-02
         177  2.8748621E-04
         178 -1.2883962E-02
         179  7.1336605E-02
         180 -0.1737948    
         181  3.7720398E-05
         182  7.5235456E-04
         183 -8.2393251E-03
         184  2.0369427E-02
         185 -5.7505124E-04
         186 -2.3276413E-02
         187  9.3751498E-02
         188 -0.2360854    
         189 -2.1685300E-04
         190  2.2845247E-03
         191 -9.6086636E-03
         192  2.5564911E-02
         193  2.1155919E-03
         194  1.7531659E-02
         195 -5.6258548E-02
         196  0.1352577    
         197 -1.2250443E-03
         198 -1.8786342E-03
         199  4.7069555E-03
         200 -1.0594405E-02
         201 -3.6915301E-03
         202  2.9677043E-02
         203 -9.8547913E-02
         204  0.2698577    
         205  1.5653135E-03
         206 -6.2754015E-03
         207  1.6437396E-02
         208 -4.7918160E-02
         209 -3.1090192E-05
         210 -4.0515162E-02
         211  0.1137167    
         212 -0.3202695    
         213 -1.9574412E-05
         214  6.4138444E-03
         215 -1.8519023E-02
         216  5.0242372E-02
         217  3.9008691E-03
         218  3.5806198E-02
         219 -9.0154842E-02
         220  0.2492507    
         221 -1.9884650E-03
         222 -5.8651627E-03
         223  1.6386488E-02
         224 -4.8426218E-02
         225 -2.1869892E-03
         226  1.8866317E-02
         227 -5.7984702E-02
         228  0.1385167    
         229  1.2310351E-03
         230 -1.1517513E-03
         231  5.1086871E-03
         232 -1.0804065E-02
         233  6.6980568E-04
         234 -3.4711193E-02
         235  8.4712468E-02
         236 -0.2160362    
         237  1.2368358E-04
         238  4.2259521E-03
         239 -9.7214645E-03
         240  2.6321935E-02
         241 -1.1126943E-04
         242 -2.9727966E-02
         243  6.2527157E-02
         244 -0.1566225    
         245 -1.7558291E-04
         246  4.5562745E-03
         247 -8.0775144E-03
         248  2.0866552E-02
         249  1.1178644E-03
         250  4.1387029E-02
         251 -8.1422694E-02
         252  0.1960667    
         253 -6.9445174E-04
         254 -3.2477307E-03
         255  6.5641101E-03
         256 -1.1282340E-02
         257 -2.1373648E-03
         258  2.3626333E-02
         259 -8.0268629E-02
         260  0.1776476    
         261  1.2880635E-03
         262 -3.7213601E-03
         263  1.3453852E-02
         264 -3.4472581E-02
         265  3.9300725E-02
         266 -5.1054422E-02
         267  0.1002972    
         268  5.2295487E-02
         269 -2.4990488E-02
         270  2.1204792E-02
         271 -1.6825438E-02
         272 -6.4869435E-03
         273 -1.1457145E-02
         274  1.3246085E-02
         275  2.2621328E-02
         276  2.4882682E-02
         277  4.2837602E-03
         278 -4.7714943E-03
         279 -5.6613735E-06
         280 -2.4013317E-03
         281  2.7117785E-03
         282 -1.5304028E-03
         283  1.2972717E-02
         284  3.5158355E-02
         285 -1.7434646E-03
         286 -8.5910666E-04
         287 -2.3094960E-03
         288 -7.9284590E-03
         289 -7.3719263E-04
         290  1.0441982E-03
         291  7.4155601E-03
         292  1.4238719E-02
         293  2.3592156E-04
         294 -3.3714439E-04
         295 -5.7526067E-04
         296 -4.3407991E-04
         297  1.6115187E-04
         298  1.3264091E-03
         299 -1.9555882E-02
         300 -4.5000773E-02
         301 -1.0814961E-05
         302 -5.4682279E-04
         303  4.0638363E-03
         304  9.8508727E-03
         305  4.2946698E-04
         306  2.1457140E-04
         307 -6.9069013E-04
         308  1.8489026E-04
         309  3.9481497E-04
         310 -2.1341436E-04
         311  2.0343131E-04
         312  2.3300914E-05
         313  1.2122080E-04
         314  4.0199790E-05
         315 -3.6689125E-05
         316  4.4410826E-05
         317  3.0396611E-04
         318 -1.6974100E-05
         319 -1.1570513E-03
         320  7.0838787E-04
         321  8.1358383E-05
         322 -2.1033327E-05
         323 -4.8673606E-05
         324 -1.3867953E-04
         325 -4.7820940E-05
         326  2.4767563E-05
         327 -1.1562179E-03
         328  4.9830810E-04
         329  1.0553813E-03
         330 -3.0893285E-04
         331 -5.5065270E-06
         332 -1.9761073E-04
         333 -3.8892723E-04
         334 -7.0496614E-04
         335 -6.3305473E-05
         336  2.2971557E-04
         337 -3.9188541E-04
         338  2.3488002E-03
         339  6.4368867E-03
         340 -1.7014796E-02
         341  2.8869354E-03
         342  1.1721291E-04
         343  2.7029766E-03
         344  3.0145636E-03
         345  1.1731098E-02
         346  2.0750249E-03
         347 -9.7703906E-03
         348 -2.9900454E-03
         349  1.0037282E-02
         350 -6.9818919E-04
         351  1.6871565E-03
         352  5.1116729E-03
         353 -5.0488943E-03
         354  1.6651364E-02
         355  2.8264644E-03
         356 -5.4982444E-04
         357 -1.4637193E-03
         358  5.3104321E-03
         359 -1.3443552E-02
         360  1.2681537E-03
         361 -2.7244660E-04
         362 -1.6086390E-03
         363  6.8288073E-03
         364 -1.7746780E-02
         365  8.7214803E-04
         366 -7.1441079E-04
         367  1.8406719E-05
         368 -1.4297429E-03
         369  3.5541812E-03
         370 -5.6890381E-04
         371  7.5450772E-04
         372  9.8336197E-04
         373 -1.3060526E-03
         374  3.9541628E-03
         375 -1.3072668E-03
         376  3.1038758E-04
         377 -3.0769608E-03
         378  7.0989616E-03
         379 -1.8619446E-02
         380 -2.8000707E-03
         381  5.2630494E-04
         382 -2.2215245E-03
         383  5.5530504E-03
         384 -1.4327892E-02
         385  7.0424064E-04
         386 -1.7202180E-03
         387 -8.9519972E-04
         388 -6.3576554E-03
         389  1.7652526E-02
         390 -1.0584683E-02
         391 -2.1480508E-03
         392  1.0962840E-02
         393  2.7329748E-04
         394  8.8560609E-03
         395  1.7354719E-02
         396 -3.0846095E-03
         397 -1.5586144E-03
         398  2.0677857E-03
         399  2.2776686E-03
         400  1.2695146E-03
         401  1.9997964E-04
         402  2.0387715E-04
         403  1.1627717E-03
         404  3.2386961E-03
 Sym= Particle
 Ene= -0.9345785    
 Spin= Alpha
 Occup= 2
           1 -5.2793499E-04
           2 -1.8534806E-04
           3 -5.9505639E-04
           4  1.9014905E-03
           5 -2.1627173E-03
           6  4.0505123E-03
           7 -3.2283863E-04
           8  2.6401880E-04
           9 -6.8773731E-04
          10 -1.0582303E-03
          11 -1.2557399E-04
          12  1.1601553E-03
          13  1.7719996E-03
          14  2.3205021E-05
          15  3.6626190E-04
          16  2.5885328E-04
          17 -1.4345420E-03
          18  1.2156679E-03
          19  4.2784543E-04
          20 -1.1168062E-04
          21 -1.0821338E-04
          22 -3.4668096E-03
          23  1.3315642E-03
          24  5.7345058E-04
          25 -2.6105857E-04
          26 -6.6421053E-04
          27 -6.2722736E-03
          28 -1.5207003E-02
          29 -1.4402992E-04
          30  6.9527049E-04
          31  2.0626578E-03
          32  5.2214363E-03
          33 -2.4728320E-04
          34  2.8595925E-04
          35  1.0574911E-02
          36  2.6634745E-02
          37  1.2247285E-03
          38  1.9288469E-04
          39 -2.0749427E-03
          40 -5.1602400E-03
          41 -2.5171621E-05
          42 -2.8313163E-03
          43  1.1067287E-04
          44  8.2900692E-03
          45  7.7553792E-04
          46  1.2514793E-03
          47  4.5382811E-04
          48 -1.5431700E-03
          49 -5.4476030E-05
          50  5.2170497E-03
          51  1.0391658E-03
          52 -1.3690028E-02
          53  9.6691336E-04
          54 -5.8085640E-04
          55 -6.3380442E-04
          56  2.9264246E-03
          57 -7.3525985E-04
          58  7.5571070E-04
          59  5.8611372E-04
          60 -1.8990268E-03
          61  1.2479962E-03
          62  1.7758885E-04
          63 -7.2700129E-04
          64  3.3939365E-04
          65 -4.7670843E-04
          66 -4.7938549E-03
          67  1.7365401E-03
          68  1.5121028E-02
          69  9.2985987E-04
          70  1.3562097E-03
          71 -6.8320363E-04
          72 -2.4096961E-03
          73 -2.1817167E-04
          74  5.1171274E-04
          75 -5.4925244E-04
          76 -5.2379901E-03
          77  8.0074929E-04
          78  2.9470871E-04
          79  2.4256697E-04
          80  1.4041506E-03
          81 -1.4784499E-03
          82  4.8275404E-03
          83 -8.3015300E-04
          84 -1.0944568E-02
          85  1.6012334E-03
          86 -6.2164158E-04
          87  2.0482045E-04
          88  1.3883848E-03
          89 -1.3212109E-03
          90 -4.7697150E-04
          91  1.2380778E-03
          92 -3.2139756E-04
          93  2.3919204E-03
          94  9.7055652E-04
          95 -1.1982713E-03
          96 -4.5733753E-04
          97  2.3499862E-05
          98  8.0574115E-05
          99 -1.4335919E-02
         100 -3.3840474E-02
         101  1.9010889E-03
         102  7.2817644E-04
         103  3.8566634E-03
         104  9.1896551E-03
         105 -2.1704924E-03
         106  1.0870710E-03
         107 -1.2106755E-03
         108 -7.9012746E-03
         109  3.5337126E-03
         110  9.9697369E-05
         111  3.1468688E-05
         112  4.2873463E-03
         113  2.6991427E-05
         114  1.2849647E-05
         115  2.0710170E-02
         116  4.8130251E-02
         117  3.1247702E-03
         118 -6.9539784E-04
         119 -6.8001668E-03
         120 -1.7281840E-02
         121 -4.4390174E-05
         122  3.8520782E-04
         123 -6.2045112E-04
         124 -2.1872090E-03
         125  2.3156903E-03
         126 -1.8735799E-04
         127 -5.0074030E-03
         128 -7.4296864E-04
         129  3.7803024E-03
         130 -7.3372624E-03
         131 -2.1964051E-02
         132 -1.6036922E-02
         133  7.5552380E-03
         134  4.5409389E-03
         135  8.5854065E-03
         136  5.9848293E-03
         137 -2.3903999E-02
         138  1.8766129E-02
         139  2.4858417E-02
         140  3.1205595E-02
         141  3.9560921E-02
         142 -2.4926223E-02
         143 -8.1224237E-03
         144 -1.0044922E-02
         145 -1.2502956E-03
         146  1.5551781E-03
         147 -1.7102364E-03
         148 -1.0467780E-02
         149  3.1324108E-03
         150 -2.9352722E-03
         151  1.1570918E-03
         152 -2.4414847E-02
         153  2.0553723E-03
         154 -1.7418852E-02
         155  5.7553124E-02
         156 -0.1417920    
         157 -1.7386195E-03
         158  1.1015580E-02
         159 -4.2094652E-02
         160  8.6440861E-02
         161 -4.7274265E-03
         162  2.0036295E-02
         163 -7.7360325E-02
         164  0.1894411    
         165  3.3086780E-03
         166 -8.8349432E-03
         167  3.0201957E-02
         168 -8.0128774E-02
         169 -1.8999401E-04
         170 -2.7783837E-02
         171  0.1464643    
         172 -0.3455060    
         173 -9.5966412E-04
         174  8.1341863E-03
         175 -4.8846323E-02
         176  0.1218956    
         177 -5.4669570E-05
         178  1.8158019E-02
         179 -9.5005684E-02
         180  0.2268128    
         181 -9.3669625E-04
         182 -5.9591890E-03
         183  2.8347962E-02
         184 -6.1373048E-02
         185 -1.5147147E-03
         186  1.2827193E-02
         187 -4.2291448E-02
         188  0.1097360    
         189  4.0725636E-04
         190 -5.4814806E-03
         191  9.7151669E-03
         192 -2.4580589E-02
         193  1.3925899E-05
         194 -3.5075568E-02
         195  0.1318405    
         196 -0.3390334    
         197 -4.4127894E-04
         198  7.9517029E-03
         199 -3.9543178E-02
         200  0.1035245    
         201  6.8690942E-04
         202  4.0739842E-02
         203 -0.1088585    
         204  0.2959658    
         205 -1.3460809E-03
         206 -2.1213723E-02
         207  4.7521420E-02
         208 -0.1325128    
         209  1.2446581E-04
         210 -2.1178622E-02
         211  6.5585010E-02
         212 -0.1781930    
         213 -6.6446781E-04
         214  1.3180014E-02
         215 -4.3163877E-02
         216  0.1131967    
         217 -1.7800040E-03
         218  3.0198168E-02
         219 -9.8554708E-02
         220  0.2597734    
         221  3.6171689E-03
         222 -1.0841063E-02
         223  4.3608561E-02
         224 -0.1175168    
         225 -1.4891842E-03
         226 -4.2129334E-02
         227  0.1089322    
         228 -0.2832056    
         229  2.4610115E-03
         230  1.3605180E-02
         231 -3.2561466E-02
         232  8.6047083E-02
         233  1.9495742E-04
         234  1.2710619E-02
         235 -3.2462779E-02
         236  8.8704892E-02
         237  1.8286582E-03
         238 -1.6994579E-03
         239  6.4902441E-03
         240 -1.9788288E-02
         241 -1.4805625E-03
         242  3.3885226E-02
         243 -7.6553628E-02
         244  0.1920354    
         245  4.6906872E-03
         246 -8.7123439E-03
         247  2.1990119E-02
         248 -5.3191543E-02
         249 -2.3678381E-03
         250 -5.8169015E-02
         251  0.1187041    
         252 -0.2894855    
         253  6.5913312E-03
         254  2.2187484E-02
         255 -3.9990269E-02
         256  0.1026587    
         257  2.1943667E-03
         258  2.4882128E-02
         259 -7.1032807E-02
         260  0.1669699    
         261  1.5147373E-03
         262 -9.6154939E-03
         263  2.7720090E-02
         264 -7.0508406E-02
         265  1.9984445E-02
         266 -1.8520646E-02
         267  2.5365217E-02
         268  3.2099690E-02
         269 -3.0308966E-02
         270  2.2357663E-02
         271 -5.8850716E-03
         272 -1.0549966E-02
         273 -7.5404183E-03
         274  8.0408258E-03
         275 -1.7596226E-02
         276 -2.0365803E-02
         277  1.5530615E-03
         278 -3.7663258E-03
         279  6.3605676E-03
         280  1.1070048E-02
         281 -1.5444800E-03
         282  1.4931486E-03
         283 -1.2826469E-02
         284 -2.6906807E-02
         285  1.2157975E-03
         286 -2.8029780E-04
         287  4.4893972E-03
         288  1.0534321E-02
         289 -1.1087970E-03
         290  1.2453218E-04
         291 -3.1088158E-03
         292 -3.9173658E-03
         293  3.3755424E-03
         294  3.2768006E-04
         295  5.3826312E-04
         296 -2.6543639E-03
         297 -9.7741757E-04
         298 -4.7754808E-04
         299  1.2960251E-02
         300  2.9580738E-02
         301  2.2096354E-04
         302  1.0167785E-03
         303 -3.6388913E-03
         304 -7.9011191E-03
         305  1.7589900E-04
         306 -2.5502095E-05
         307 -7.6040582E-05
         308 -1.7625005E-03
         309 -1.9707680E-03
         310  1.0058449E-03
         311 -1.6736262E-04
         312  6.6282548E-05
         313 -1.4014846E-03
         314 -6.6014222E-04
         315  5.7741348E-04
         316 -2.9174512E-04
         317  1.0720566E-04
         318 -4.5610048E-04
         319  3.1632208E-03
         320 -1.0066340E-04
         321 -2.3799288E-04
         322  1.2538644E-03
         323  2.2276639E-04
         324 -7.0967415E-04
         325  4.6441710E-04
         326 -3.2229113E-04
         327  1.6415403E-03
         328  4.0973525E-04
         329 -1.4082864E-03
         330 -6.4358821E-05
         331  7.1146921E-04
         332 -5.2556104E-04
         333 -2.0592310E-03
         334  8.8151562E-04
         335  6.1862561E-04
         336  9.8080607E-04
         337 -9.7149496E-05
         338 -5.1431721E-03
         339 -3.2343571E-03
         340  5.2278471E-04
         341  1.3688073E-03
         342  1.7973835E-03
         343 -1.2845015E-03
         344 -1.1425324E-02
         345  6.6945595E-03
         346  2.1496620E-02
         347 -3.1074559E-02
         348  1.3815199E-02
         349  7.4027437E-03
         350 -2.6048094E-03
         351 -2.3081391E-03
         352 -6.0602669E-03
         353  4.1916389E-02
         354 -8.7080166E-02
         355 -1.6255352E-03
         356 -6.2008254E-04
         357  4.9170870E-03
         358 -2.2627873E-02
         359  5.8238264E-02
         360  1.7616018E-03
         361 -1.6601244E-03
         362  9.4124774E-04
         363 -1.1290875E-02
         364  3.0898338E-02
         365  2.3844931E-03
         366 -1.7120441E-03
         367 -1.3993973E-02
         368  4.0514242E-02
         369 -0.1052605    
         370 -6.2211871E-04
         371  4.4011025E-04
         372 -1.4055137E-02
         373  3.4633186E-02
         374 -9.1894649E-02
         375 -1.9576485E-04
         376  8.7579415E-04
         377  4.5338976E-03
         378 -1.0967569E-02
         379  2.4809843E-02
         380  2.9897043E-03
         381  8.1537198E-04
         382  1.1002822E-02
         383 -2.1104313E-02
         384  4.8303477E-02
         385  4.2015263E-03
         386  2.5502297E-03
         387 -1.1570477E-02
         388  3.4191675E-02
         389 -7.7913813E-02
         390 -3.4121696E-03
         391 -1.9532192E-02
         392  2.2875946E-02
         393  1.5089540E-02
         394  7.9750847E-03
         395  1.7540891E-03
         396 -3.1656132E-04
         397  1.9429872E-03
         398 -4.6358388E-03
         399 -4.5601046E-03
         400  7.2439847E-04
         401 -4.2527381E-04
         402  9.1644656E-04
         403  1.2196456E-03
         404 -3.0925975E-03
