 [Molden Format]
 [Atoms] Angs
F       1      9     -0.79007298     -0.90943687      3.78925130
C       2      6     -0.42628566     -0.52067584      2.56932979
C       3      6      0.70113725      0.17772276      2.34846231
F       4      9      1.59362624      0.53203904      3.26453304
C       5      6      0.99836266      0.56496948      0.91032328
C       6      6      0.65569442      2.03188528      0.65364275
C       7      6      0.74901414      2.57780199     -0.63046053
F       8      9      1.20493744      1.83680374     -1.64425459
C       9      6      0.41903914      3.89648204     -0.91816413
F      10      9      0.50686960      4.33105441     -2.17283079
C      11      6     -0.01286534      4.74339874      0.09658067
F      12      9     -0.33202387      6.00285638     -0.16276453
C      13      6     -0.10150808      4.23691628      1.38741383
F      14      9     -0.50391773      5.01608887      2.38418613
C      15      6      0.22068704      2.90559564      1.65159035
F      16      9      0.07039742      2.50741796      2.91103944
C      17      6      2.50787075      0.31997079      0.75467075
C      18      6      3.46242340      1.25297993      0.34011244
F      19      9      3.16454066      2.52022941      0.04883392
C      20      6      4.81993046      0.94330918      0.23858687
F      21      9      5.65746502      1.88313586     -0.18261856
C      22      6      5.29733592     -0.31371533      0.58457676
F      23      9      6.58240539     -0.61232001      0.47581118
C      24      6      4.38639867     -1.23704788      1.08399098
F      25      9      4.78456363     -2.44445982      1.47404108
C      26      6      3.04100442     -0.90417843      1.18293285
F      27      9      2.25464268     -1.83196880      1.75114279
C      28      6     -0.02467247     -0.41994546      0.08262194
C      29      6     -0.76948651      0.21668129     -1.08634119
C      30      6     -1.69937234      1.22577188     -0.80667671
F      31      9     -1.92638942      1.59322061      0.47020983
C      32      6     -2.45702114      1.87735485     -1.77018984
F      33      9     -3.29446235      2.84301495     -1.39596831
C      34      6     -2.34289738      1.50915250     -3.10587880
F      35      9     -3.05338603      2.11703900     -4.04425718
C      36      6     -1.48752824      0.46003463     -3.41673098
F      37      9     -1.38488225      0.03536351     -4.66972700
C      38      6     -0.73275087     -0.17572192     -2.42869814
F      39      9     -0.01187708     -1.20685985     -2.86480888
C      40      6      0.71451493     -1.67528000     -0.35938484
C      41      6      1.81662813     -1.66567101     -1.21730614
F      42      9      2.26915127     -0.51926646     -1.73104601
C      43      6      2.48106903     -2.82899842     -1.59350300
F      44      9      3.53951924     -2.74277202     -2.39440804
C      45      6      2.05287352     -4.06561598     -1.12325420
F      46      9      2.67855939     -5.17752821     -1.47970582
C      47      6      0.96021713     -4.10898126     -0.26289739
F      48      9      0.52607049     -5.26871905      0.21622137
C      49      6      0.32727634     -2.92836463      0.10861658
F      50      9     -0.67995924     -3.01974315      0.98699321
B      51      5     -1.13247786     -0.78789883      1.23770000
C      52      6     -2.65510188     -1.06948590      1.02706239
C      53      6     -3.59946656     -0.64487104      1.97026415
F      54      9     -3.20490050      0.04969486      3.02953814
C      55      6     -4.96270508     -0.88865319      1.82441881
F      56      9     -5.82202523     -0.46078020      2.74423596
C      57      6     -5.42816822     -1.58265454      0.71060628
F      58      9     -6.72351756     -1.82523795      0.56197631
C      59      6     -4.51829024     -2.01088258     -0.25405528
F      60      9     -4.94400000     -2.66026320     -1.33614220
C      61      6     -3.16664472     -1.74484953     -0.08473761
F      62      9     -2.32410060     -2.17163275     -1.03741134
 [GTO]
           1   0
s              4   1.000000
     47.11545392     -0.01198412
      8.11367103     -0.05472052
      0.65196809      0.58055871
      0.24848117      0.47700799
p              4   1.000000
     12.57395008      0.05713170
      3.26023750      0.28574555
      1.14933460      0.55178731
      0.45756991      0.26323149
s              7   1.000000
      0.68659740     -0.20805685
      0.08427369      1.00525426
      0.03979181      0.26399502
     47.11545392      0.00721322
      8.11367103      0.03293621
      0.65196809     -0.34943747
      0.24848117     -0.28711044
p              7   1.000000
      3.27737070     -0.01127545
      0.18126254      0.55409277
      0.06985363      0.57866757
     12.57395008     -0.02038895
      3.26023750     -0.10197582
      1.14933460     -0.19691982
      0.45756991     -0.09394109
 
           2   0
s              4   1.000000
     34.91280179     -0.01198412
      6.01227336     -0.05472052
      0.48311182      0.58055871
      0.18412587      0.47700799
p              4   1.000000
      5.62711009      0.05713170
      1.45902562      0.28574555
      0.51435168      0.55178731
      0.20477227      0.26323149
s              7   1.000000
      0.38350848     -0.19625205
      0.04707223      0.94821780
      0.02222627      0.24901640
     34.91280179      0.00551895
      6.01227336      0.02519999
      0.48311182     -0.26735986
      0.18412587     -0.21967251
p              7   1.000000
      1.83062075     -0.01161271
      0.10124670      0.57066659
      0.03901771      0.59597647
      5.62711009     -0.02528113
      1.45902562     -0.12644419
      0.51435168     -0.24416932
      0.20477227     -0.11648157
 
           3   0
s              4   1.000000
     35.31059918     -0.01198412
      6.08077736     -0.05472052
      0.48861641      0.58055871
      0.18622381      0.47700799
p              4   1.000000
      5.69122553      0.05713170
      1.47564980      0.28574555
      0.52021222      0.55178731
      0.20710545      0.26323149
s              7   1.000000
      0.38350848     -0.19588406
      0.04707223      0.94643977
      0.02222627      0.24854945
     35.31059918      0.00545954
      6.08077736      0.02492872
      0.48861641     -0.26448183
      0.18622381     -0.21730782
p              7   1.000000
      1.83062075     -0.01159226
      0.10124670      0.56966134
      0.03901771      0.59492668
      5.69122553     -0.02500794
      1.47564980     -0.12507778
      0.52021222     -0.24153074
      0.20710545     -0.11522283
 
           4   0
s              4   1.000000
     47.17359627     -0.01198412
      8.12368362     -0.05472053
      0.65277264      0.58055871
      0.24878781      0.47700799
p              4   1.000000
     12.58946683      0.05713170
      3.26426076      0.28574555
      1.15075293      0.55178731
      0.45813457      0.26323149
s              7   1.000000
      0.68659740     -0.20799255
      0.08427369      1.00494354
      0.03979181      0.26391343
     47.17359627      0.00720484
      8.12368362      0.03289791
      0.65277264     -0.34903116
      0.24878781     -0.28677660
p              7   1.000000
      3.27737070     -0.01127390
      0.18126254      0.55401690
      0.06985363      0.57858836
     12.58946683     -0.02036423
      3.26426076     -0.10185217
      1.15075293     -0.19668104
      0.45813457     -0.09382717
 
           5   0
s              4   1.000000
     37.33148408     -0.01198412
      6.42879046     -0.05472052
      0.51658074      0.58055871
      0.19688171      0.47700799
p              4   1.000000
      6.01694393      0.05713170
      1.56010371      0.28574555
      0.54998484      0.55178731
      0.21895844      0.26323149
s              7   1.000000
      0.38350848     -0.19417389
      0.04707223      0.93817688
      0.02222627      0.24637949
     37.33148408      0.00517606
      6.42879046      0.02363433
      0.51658074     -0.25074900
      0.19688171     -0.20602443
p              7   1.000000
      1.83062075     -0.01149721
      0.10124670      0.56499039
      0.03901771      0.59004854
      6.01694393     -0.02370391
      1.56010371     -0.11855566
      0.54998484     -0.22893623
      0.21895844     -0.10921459
 
           6   0
s              4   1.000000
     35.26087479     -0.01198412
      6.07221441     -0.05472052
      0.48792834      0.58055871
      0.18596157      0.47700799
p              4   1.000000
      5.68321115      0.05713170
      1.47357179      0.28574555
      0.51947965      0.55178731
      0.20681380      0.26323149
s              7   1.000000
      0.38350848     -0.19592945
      0.04707223      0.94665910
      0.02222627      0.24860705
     35.26087479      0.00546689
      6.07221441      0.02496231
      0.48792834     -0.26483826
      0.18596157     -0.21760067
p              7   1.000000
      1.83062075     -0.01159478
      0.10124670      0.56978535
      0.03901771      0.59505618
      5.68321115     -0.02504177
      1.47357179     -0.12524701
      0.51947965     -0.24185752
      0.20681380     -0.11537873
 
           7   0
s              4   1.000000
     35.17735197     -0.01198412
      6.05783109     -0.05472053
      0.48677258      0.58055871
      0.18552108      0.47700799
p              4   1.000000
      5.66974927      0.05713170
      1.47008132      0.28574555
      0.51824916      0.55178731
      0.20632392      0.26323149
s              7   1.000000
      0.38350848     -0.19600609
      0.04707223      0.94702939
      0.02222627      0.24870428
     35.17735197      0.00547930
      6.05783109      0.02501894
      0.48677258     -0.26543907
      0.18552108     -0.21809433
p              7   1.000000
      1.83062075     -0.01159904
      0.10124670      0.56999469
      0.03901771      0.59527480
      5.66974927     -0.02509881
      1.47008132     -0.12553227
      0.51824916     -0.24240837
      0.20632392     -0.11564151
 
           8   0
s              4   1.000000
     47.27055564     -0.01198412
      8.14038083     -0.05472052
      0.65411433      0.58055871
      0.24929916      0.47700800
p              4   1.000000
     12.61534289      0.05713170
      3.27097003      0.28574555
      1.15311816      0.55178731
      0.45907621      0.26323149
s              7   1.000000
      0.68659740     -0.20788577
      0.08427369      1.00442763
      0.03979181      0.26377794
     47.27055564      0.00719089
      8.14038083      0.03283425
      0.65411433     -0.34835574
      0.24929916     -0.28622165
p              7   1.000000
      3.27737070     -0.01127134
      0.18126254      0.55389095
      0.06985363      0.57845680
     12.61534289     -0.02032312
      3.27097003     -0.10164658
      1.15311816     -0.19628405
      0.45907621     -0.09363779
 
           9   0
s              4   1.000000
     35.04945281     -0.01198412
      6.03580579     -0.05472052
      0.48500275      0.58055871
      0.18484655      0.47700799
p              4   1.000000
      5.64913497      0.05713170
      1.46473634      0.28574555
      0.51636489      0.55178731
      0.20557376      0.26323149
s              7   1.000000
      0.38350848     -0.19612439
      0.04707223      0.94760095
      0.02222627      0.24885441
     35.04945281      0.00549839
      6.03580579      0.02510615
      0.48500275     -0.26636430
      0.18484655     -0.21885453
p              7   1.000000
      1.83062075     -0.01160562
      0.10124670      0.57031784
      0.03901771      0.59561225
      5.64913497     -0.02518663
      1.46473634     -0.12597154
      0.51636489     -0.24325663
      0.20557376     -0.11604617
 
          10   0
s              4   1.000000
     47.16620990     -0.01198412
      8.12241163     -0.05472053
      0.65267043      0.58055871
      0.24874886      0.47700799
p              4   1.000000
     12.58749559      0.05713170
      3.26374964      0.28574555
      1.15057275      0.55178731
      0.45806284      0.26323149
s              7   1.000000
      0.68659740     -0.20800070
      0.08427369      1.00498296
      0.03979181      0.26392378
     47.16620990      0.00720590
      8.12241163      0.03290277
      0.65267043     -0.34908272
      0.24874886     -0.28681896
p              7   1.000000
      3.27737070     -0.01127410
      0.18126254      0.55402652
      0.06985363      0.57859840
     12.58749559     -0.02036737
      3.26374964     -0.10186786
      1.15057275     -0.19671135
      0.45806284     -0.09384163
 
          11   0
s              4   1.000000
     35.02277997     -0.01198412
      6.03121251     -0.05472052
      0.48463366      0.58055871
      0.18470588      0.47700799
p              4   1.000000
      5.64483595      0.05713170
      1.46362167      0.28574555
      0.51597193      0.55178731
      0.20541732      0.26323149
s              7   1.000000
      0.38350848     -0.19614920
      0.04707223      0.94772085
      0.02222627      0.24888587
     35.02277997      0.00550239
      6.03121251      0.02512441
      0.48463366     -0.26655805
      0.18470588     -0.21901372
p              7   1.000000
      1.83062075     -0.01160700
      0.10124670      0.57038562
      0.03901771      0.59568304
      5.64483595     -0.02520503
      1.46362167     -0.12606353
      0.51597193     -0.24343425
      0.20541732     -0.11613091
 
          12   0
s              4   1.000000
     47.15538400     -0.01198412
      8.12054732     -0.05472052
      0.65252063      0.58055871
      0.24869176      0.47700799
p              4   1.000000
     12.58460643      0.05713170
      3.26300053      0.28574555
      1.15030866      0.55178731
      0.45795770      0.26323149
s              7   1.000000
      0.68659740     -0.20801267
      0.08427369      1.00504077
      0.03979181      0.26393896
     47.15538400      0.00720746
      8.12054732      0.03290990
      0.65252063     -0.34915832
      0.24869176     -0.28688108
p              7   1.000000
      3.27737070     -0.01127439
      0.18126254      0.55404064
      0.06985363      0.57861313
     12.58460643     -0.02037197
      3.26300053     -0.10189087
      1.15030866     -0.19675578
      0.45795770     -0.09386283
 
          13   0
s              4   1.000000
     35.05148210     -0.01198412
      6.03615526     -0.05472052
      0.48503083      0.58055871
      0.18485725      0.47700799
p              4   1.000000
      5.64946205      0.05713170
      1.46482115      0.28574555
      0.51639478      0.55178731
      0.20558566      0.26323149
s              7   1.000000
      0.38350848     -0.19612250
      0.04707223      0.94759184
      0.02222627      0.24885199
     35.05148210      0.00549809
      6.03615526      0.02510476
      0.48503083     -0.26634957
      0.18485725     -0.21884243
p              7   1.000000
      1.83062075     -0.01160551
      0.10124670      0.57031268
      0.03901771      0.59560687
      5.64946205     -0.02518524
      1.46482115     -0.12596455
      0.51639478     -0.24324312
      0.20558566     -0.11603973
 
          14   0
s              4   1.000000
     47.16862081     -0.01198412
      8.12282681     -0.05472052
      0.65270379      0.58055871
      0.24876157      0.47700800
p              4   1.000000
     12.58813901      0.05713170
      3.26391647      0.28574555
      1.15063156      0.55178731
      0.45808625      0.26323149
s              7   1.000000
      0.68659740     -0.20799804
      0.08427369      1.00497010
      0.03979181      0.26392041
     47.16862081      0.00720555
      8.12282681      0.03290118
      0.65270379     -0.34906589
      0.24876157     -0.28680514
p              7   1.000000
      3.27737070     -0.01127404
      0.18126254      0.55402338
      0.06985363      0.57859512
     12.58813901     -0.02036634
      3.26391647     -0.10186274
      1.15063156     -0.19670145
      0.45808625     -0.09383691
 
          15   0
s              4   1.000000
     35.09922071     -0.01198412
      6.04437624     -0.05472052
      0.48569142      0.58055871
      0.18510902      0.47700800
p              4   1.000000
      5.65715637      0.05713170
      1.46681617      0.28574555
      0.51709809      0.55178731
      0.20586566      0.26323149
s              7   1.000000
      0.38350848     -0.19607822
      0.04707223      0.94737789
      0.02222627      0.24879581
     35.09922071      0.00549095
      6.04437624      0.02507215
      0.48569142     -0.26600353
      0.18510902     -0.21855810
p              7   1.000000
      1.83062075     -0.01160305
      0.10124670      0.57019172
      0.03901771      0.59548056
      5.65715637     -0.02515239
      1.46681617     -0.12580026
      0.51709809     -0.24292587
      0.20586566     -0.11588839
 
          16   0
s              4   1.000000
     47.26263270     -0.01198412
      8.13901643     -0.05472052
      0.65400470      0.58055871
      0.24925738      0.47700800
p              4   1.000000
     12.61322845      0.05713170
      3.27042179      0.28574555
      1.15292489      0.55178731
      0.45899926      0.26323149
s              7   1.000000
      0.68659740     -0.20789447
      0.08427369      1.00446968
      0.03979181      0.26378898
     47.26263270      0.00719203
      8.13901643      0.03283944
      0.65400470     -0.34841083
      0.24925738     -0.28626691
p              7   1.000000
      3.27737070     -0.01127155
      0.18126254      0.55390122
      0.06985363      0.57846753
     12.61322845     -0.02032648
      3.27042179     -0.10166335
      1.15292489     -0.19631643
      0.45899926     -0.09365324
 
          17   0
s              4   1.000000
     35.25275997     -0.01198412
      6.07081697     -0.05472053
      0.48781605      0.58055871
      0.18591877      0.47700799
p              4   1.000000
      5.68190323      0.05713170
      1.47323266      0.28574555
      0.51936010      0.55178731
      0.20676621      0.26323149
s              7   1.000000
      0.38350848     -0.19593688
      0.04707223      0.94669497
      0.02222627      0.24861648
     35.25275997      0.00546810
      6.07081697      0.02496780
      0.48781605     -0.26489651
      0.18591877     -0.21764854
p              7   1.000000
      1.83062075     -0.01159519
      0.10124670      0.56980563
      0.03901771      0.59507734
      5.68190323     -0.02504730
      1.47323266     -0.12527467
      0.51936010     -0.24191094
      0.20676621     -0.11540421
 
          18   0
s              4   1.000000
     35.08981197     -0.01198412
      6.04275598     -0.05472053
      0.48556123      0.58055871
      0.18505940      0.47700799
p              4   1.000000
      5.65563991      0.05713170
      1.46642297      0.28574555
      0.51695948      0.55178731
      0.20581048      0.26323149
s              7   1.000000
      0.38350848     -0.19608693
      0.04707223      0.94741999
      0.02222627      0.24880687
     35.08981197      0.00549235
      6.04275598      0.02507857
      0.48556123     -0.26607166
      0.18505940     -0.21861408
p              7   1.000000
      1.83062075     -0.01160354
      0.10124670      0.57021553
      0.03901771      0.59550540
      5.65563991     -0.02515886
      1.46642297     -0.12583261
      0.51695948     -0.24298833
      0.20581048     -0.11591818
 
          19   0
s              4   1.000000
     47.27592906     -0.01198412
      8.14130618     -0.05472052
      0.65418869      0.58055871
      0.24932750      0.47700799
p              4   1.000000
     12.61677692      0.05713170
      3.27134186      0.28574555
      1.15324924      0.55178731
      0.45912839      0.26323149
s              7   1.000000
      0.68659740     -0.20787987
      0.08427369      1.00439912
      0.03979181      0.26377045
     47.27592906      0.00719012
      8.14130618      0.03283073
      0.65418869     -0.34831838
      0.24932750     -0.28619096
p              7   1.000000
      3.27737070     -0.01127120
      0.18126254      0.55388399
      0.06985363      0.57844954
     12.61677692     -0.02032085
      3.27134186     -0.10163521
      1.15324924     -0.19626209
      0.45912839     -0.09362731
 
          20   0
s              4   1.000000
     35.06437329     -0.01198412
      6.03837523     -0.05472052
      0.48520921      0.58055871
      0.18492524      0.47700800
p              4   1.000000
      5.65153980      0.05713170
      1.46535988      0.28574555
      0.51658470      0.55178731
      0.20566127      0.26323149
s              7   1.000000
      0.38350848     -0.19611053
      0.04707223      0.94753399
      0.02222627      0.24883681
     35.06437329      0.00549616
      6.03837523      0.02509595
      0.48520921     -0.26625604
      0.18492524     -0.21876558
p              7   1.000000
      1.83062075     -0.01160485
      0.10124670      0.57027998
      0.03901771      0.59557272
      5.65153980     -0.02517636
      1.46535988     -0.12592014
      0.51658470     -0.24315737
      0.20566127     -0.11599882
 
          21   0
s              4   1.000000
     47.17424910     -0.01198412
      8.12379605     -0.05472053
      0.65278167      0.58055871
      0.24879125      0.47700799
p              4   1.000000
     12.58964106      0.05713170
      3.26430593      0.28574555
      1.15076885      0.55178731
      0.45814091      0.26323149
s              7   1.000000
      0.68659740     -0.20799182
      0.08427369      1.00494006
      0.03979181      0.26391252
     47.17424910      0.00720474
      8.12379605      0.03289748
      0.65278167     -0.34902660
      0.24879125     -0.28677285
p              7   1.000000
      3.27737070     -0.01127389
      0.18126254      0.55401605
      0.06985363      0.57858746
     12.58964106     -0.02036395
      3.26430593     -0.10185078
      1.15076885     -0.19667836
      0.45814091     -0.09382590
 
          22   0
s              4   1.000000
     35.01661209     -0.01198412
      6.03015035     -0.05472052
      0.48454831      0.58055871
      0.18467336      0.47700799
p              4   1.000000
      5.64384183      0.05713170
      1.46336391      0.28574555
      0.51588106      0.55178731
      0.20538114      0.26323149
s              7   1.000000
      0.38350848     -0.19615495
      0.04707223      0.94774861
      0.02222627      0.24889319
     35.01661209      0.00550332
      6.03015035      0.02512864
      0.48454831     -0.26660290
      0.18467336     -0.21905056
p              7   1.000000
      1.83062075     -0.01160732
      0.10124670      0.57040132
      0.03901771      0.59569947
      5.64384183     -0.02520928
      1.46336391     -0.12608482
      0.51588106     -0.24347536
      0.20538114     -0.11615052
 
          23   0
s              4   1.000000
     47.15286562     -0.01198412
      8.12011363     -0.05472052
      0.65248578      0.58055871
      0.24867848      0.47700799
p              4   1.000000
     12.58393434      0.05713170
      3.26282626      0.28574555
      1.15024723      0.55178731
      0.45793324      0.26323149
s              7   1.000000
      0.68659740     -0.20801545
      0.08427369      1.00505421
      0.03979181      0.26394249
     47.15286562      0.00720782
      8.12011363      0.03291155
      0.65248578     -0.34917592
      0.24867848     -0.28689554
p              7   1.000000
      3.27737070     -0.01127445
      0.18126254      0.55404392
      0.06985363      0.57861657
     12.58393434     -0.02037304
      3.26282626     -0.10189622
      1.15024723     -0.19676612
      0.45793324     -0.09386776
 
          24   0
s              4   1.000000
     35.05145159     -0.01198412
      6.03615000     -0.05472052
      0.48503041      0.58055871
      0.18485709      0.47700800
p              4   1.000000
      5.64945713      0.05713170
      1.46481987      0.28574555
      0.51639433      0.55178731
      0.20558548      0.26323149
s              7   1.000000
      0.38350848     -0.19612253
      0.04707223      0.94759198
      0.02222627      0.24885204
     35.05145159      0.00549810
      6.03615000      0.02510478
      0.48503041     -0.26634980
      0.18485709     -0.21884261
p              7   1.000000
      1.83062075     -0.01160551
      0.10124670      0.57031277
      0.03901771      0.59560695
      5.64945713     -0.02518526
      1.46481987     -0.12596465
      0.51639433     -0.24324333
      0.20558548     -0.11603982
 
          25   0
s              4   1.000000
     47.16802932     -0.01198412
      8.12272495     -0.05472052
      0.65269561      0.58055871
      0.24875845      0.47700799
p              4   1.000000
     12.58798115      0.05713170
      3.26387554      0.28574555
      1.15061713      0.55178731
      0.45808051      0.26323149
s              7   1.000000
      0.68659740     -0.20799869
      0.08427369      1.00497325
      0.03979181      0.26392123
     47.16802932      0.00720564
      8.12272495      0.03290157
      0.65269561     -0.34907002
      0.24875845     -0.28680853
p              7   1.000000
      3.27737070     -0.01127405
      0.18126254      0.55402416
      0.06985363      0.57859592
     12.58798115     -0.02036659
      3.26387554     -0.10186399
      1.15061713     -0.19670388
      0.45808051     -0.09383807
 
          26   0
s              4   1.000000
     35.17355034     -0.01198412
      6.05717642     -0.05472053
      0.48671997      0.58055871
      0.18550103      0.47700799
p              4   1.000000
      5.66913653      0.05713170
      1.46992245      0.28574555
      0.51819315      0.55178731
      0.20630162      0.26323149
s              7   1.000000
      0.38350848     -0.19600959
      0.04707223      0.94704630
      0.02222627      0.24870874
     35.17355034      0.00547986
      6.05717642      0.02502153
      0.48671997     -0.26546648
      0.18550103     -0.21811685
p              7   1.000000
      1.83062075     -0.01159924
      0.10124670      0.57000425
      0.03901771      0.59528476
      5.66913653     -0.02510141
      1.46992245     -0.12554528
      0.51819315     -0.24243350
      0.20630162     -0.11565350
 
          27   0
s              4   1.000000
     47.28691600     -0.01198412
      8.14319822     -0.05472053
      0.65434072      0.58055871
      0.24938545      0.47700799
p              4   1.000000
     12.61970907      0.05713170
      3.27210212      0.28574555
      1.15351725      0.55178731
      0.45923509      0.26323149
s              7   1.000000
      0.68659740     -0.20786781
      0.08427369      1.00434085
      0.03979181      0.26375516
     47.28691600      0.00718855
      8.14319822      0.03282353
      0.65434072     -0.34824203
      0.24938545     -0.28612822
p              7   1.000000
      3.27737070     -0.01127091
      0.18126254      0.55386977
      0.06985363      0.57843469
     12.61970907     -0.02031620
      3.27210212     -0.10161197
      1.15351725     -0.19621721
      0.45923509     -0.09360590
 
          28   0
s              4   1.000000
     37.26796150     -0.01198412
      6.41785135     -0.05472052
      0.51570174      0.58055871
      0.19654670      0.47700800
p              4   1.000000
      6.00670561      0.05713170
      1.55744907      0.28574555
      0.54904899      0.55178731
      0.21858586      0.26323149
s              7   1.000000
      0.38350848     -0.19422390
      0.04707223      0.93841851
      0.02222627      0.24644294
     37.26796150      0.00518453
      6.41785135      0.02367302
      0.51570174     -0.25115947
      0.19654670     -0.20636169
p              7   1.000000
      1.83062075     -0.01149999
      0.10124670      0.56512696
      0.03901771      0.59019115
      6.00670561     -0.02374290
      1.55744907     -0.11875066
      0.54904899     -0.22931278
      0.21858586     -0.10939422
 
          29   0
s              4   1.000000
     35.21822720     -0.01198412
      6.06487014     -0.05472053
      0.48733819      0.58055871
      0.18573665      0.47700800
p              4   1.000000
      5.67633738      0.05713170
      1.47178952      0.28574555
      0.51885135      0.55178731
      0.20656366      0.26323149
s              7   1.000000
      0.38350848     -0.19596852
      0.04707223      0.94684788
      0.02222627      0.24865663
     35.21822720      0.00547322
      6.06487014      0.02499120
      0.48733819     -0.26514471
      0.18573665     -0.21785246
p              7   1.000000
      1.83062075     -0.01159695
      0.10124670      0.56989208
      0.03901771      0.59516764
      5.67633738     -0.02507086
      1.47178952     -0.12539251
      0.51885135     -0.24213849
      0.20656366     -0.11551276
 
          30   0
s              4   1.000000
     35.18892279     -0.01198412
      6.05982368     -0.05472052
      0.48693269      0.58055871
      0.18558210      0.47700799
p              4   1.000000
      5.67161421      0.05713170
      1.47056487      0.28574555
      0.51841962      0.55178731
      0.20639179      0.26323149
s              7   1.000000
      0.38350848     -0.19599544
      0.04707223      0.94697794
      0.02222627      0.24869078
     35.18892279      0.00547757
      6.05982368      0.02501108
      0.48693269     -0.26535568
      0.18558210     -0.21802581
p              7   1.000000
      1.83062075     -0.01159845
      0.10124670      0.56996561
      0.03901771      0.59524442
      5.67161421     -0.02509089
      1.47056487     -0.12549268
      0.51841962     -0.24233191
      0.20639179     -0.11560503
 
          31   0
s              4   1.000000
     47.29807721     -0.01198412
      8.14512027     -0.05472052
      0.65449517      0.58055871
      0.24944431      0.47700799
p              4   1.000000
     12.62268772      0.05713170
      3.27287444      0.28574555
      1.15378952      0.55178731
      0.45934349      0.26323149
s              7   1.000000
      0.68659740     -0.20785556
      0.08427369      1.00428169
      0.03979181      0.26373961
     47.29807721      0.00718695
      8.14512027      0.03281622
      0.65449517     -0.34816451
      0.24944431     -0.28606453
p              7   1.000000
      3.27737070     -0.01127062
      0.18126254      0.55385533
      0.06985363      0.57841961
     12.62268772     -0.02031148
      3.27287444     -0.10158837
      1.15378952     -0.19617164
      0.45934349     -0.09358416
 
          32   0
s              4   1.000000
     35.04757840     -0.01198412
      6.03548301     -0.05472053
      0.48497681      0.58055871
      0.18483667      0.47700799
p              4   1.000000
      5.64883287      0.05713170
      1.46465801      0.28574555
      0.51633727      0.55178731
      0.20556277      0.26323149
s              7   1.000000
      0.38350848     -0.19612613
      0.04707223      0.94760936
      0.02222627      0.24885660
     35.04757840      0.00549868
      6.03548301      0.02510743
      0.48497681     -0.26637791
      0.18483667     -0.21886571
p              7   1.000000
      1.83062075     -0.01160571
      0.10124670      0.57032260
      0.03901771      0.59561722
      5.64883287     -0.02518793
      1.46465801     -0.12597800
      0.51633727     -0.24326910
      0.20556277     -0.11605212
 
          33   0
s              4   1.000000
     47.16539928     -0.01198412
      8.12227203     -0.05472052
      0.65265921      0.58055871
      0.24874458      0.47700799
p              4   1.000000
     12.58727926      0.05713170
      3.26369355      0.28574555
      1.15055297      0.55178731
      0.45805496      0.26323149
s              7   1.000000
      0.68659740     -0.20800160
      0.08427369      1.00498728
      0.03979181      0.26392491
     47.16539928      0.00720602
      8.12227203      0.03290330
      0.65265921     -0.34908838
      0.24874458     -0.28682362
p              7   1.000000
      3.27737070     -0.01127412
      0.18126254      0.55402758
      0.06985363      0.57859951
     12.58727926     -0.02036771
      3.26369355     -0.10186958
      1.15055297     -0.19671467
      0.45805496     -0.09384322
 
          34   0
s              4   1.000000
     35.01853657     -0.01198412
      6.03048176     -0.05472052
      0.48457494      0.58055871
      0.18468350      0.47700799
p              4   1.000000
      5.64415202      0.05713170
      1.46344434      0.28574555
      0.51590941      0.55178731
      0.20539243      0.26323149
s              7   1.000000
      0.38350848     -0.19615315
      0.04707223      0.94773994
      0.02222627      0.24889089
     35.01853657      0.00550303
      6.03048176      0.02512732
      0.48457494     -0.26658890
      0.18468350     -0.21903907
p              7   1.000000
      1.83062075     -0.01160722
      0.10124670      0.57039642
      0.03901771      0.59569433
      5.64415202     -0.02520795
      1.46344434     -0.12607817
      0.51590941     -0.24346254
      0.20539243     -0.11614440
 
          35   0
s              4   1.000000
     47.15201595     -0.01198412
      8.11996731     -0.05472053
      0.65247402      0.58055871
      0.24867400      0.47700799
p              4   1.000000
     12.58370758      0.05713170
      3.26276747      0.28574555
      1.15022650      0.55178731
      0.45792499      0.26323149
s              7   1.000000
      0.68659740     -0.20801639
      0.08427369      1.00505875
      0.03979181      0.26394368
     47.15201595      0.00720795
      8.11996731      0.03291211
      0.65247402     -0.34918185
      0.24867400     -0.28690041
p              7   1.000000
      3.27737070     -0.01127448
      0.18126254      0.55404503
      0.06985363      0.57861772
     12.58370758     -0.02037340
      3.26276747     -0.10189803
      1.15022650     -0.19676961
      0.45792499     -0.09386942
 
          36   0
s              4   1.000000
     35.06522242     -0.01198412
      6.03852145     -0.05472053
      0.48522096      0.58055871
      0.18492972      0.47700799
p              4   1.000000
      5.65167666      0.05713170
      1.46539536      0.28574555
      0.51659721      0.55178731
      0.20566625      0.26323149
s              7   1.000000
      0.38350848     -0.19610974
      0.04707223      0.94753018
      0.02222627      0.24883581
     35.06522242      0.00549603
      6.03852145      0.02509537
      0.48522096     -0.26624988
      0.18492972     -0.21876051
p              7   1.000000
      1.83062075     -0.01160480
      0.10124670      0.57027782
      0.03901771      0.59557050
      5.65167666     -0.02517577
      1.46539536     -0.12591722
      0.51659721     -0.24315173
      0.20566625     -0.11599613
 
          37   0
s              4   1.000000
     47.17525489     -0.01198412
      8.12396925     -0.05472052
      0.65279559      0.58055871
      0.24879656      0.47700799
p              4   1.000000
     12.58990948      0.05713170
      3.26437553      0.28574555
      1.15079339      0.55178731
      0.45815068      0.26323149
s              7   1.000000
      0.68659740     -0.20799071
      0.08427369      1.00493470
      0.03979181      0.26391110
     47.17525489      0.00720460
      8.12396925      0.03289682
      0.65279559     -0.34901958
      0.24879656     -0.28676709
p              7   1.000000
      3.27737070     -0.01127386
      0.18126254      0.55401474
      0.06985363      0.57858609
     12.58990948     -0.02036352
      3.26437553     -0.10184864
      1.15079339     -0.19667424
      0.45815068     -0.09382393
 
          38   0
s              4   1.000000
     35.09895149     -0.01198412
      6.04432988     -0.05472052
      0.48568770      0.58055871
      0.18510760      0.47700799
p              4   1.000000
      5.65711298      0.05713170
      1.46680492      0.28574555
      0.51709412      0.55178731
      0.20586408      0.26323149
s              7   1.000000
      0.38350848     -0.19607847
      0.04707223      0.94737908
      0.02222627      0.24879613
     35.09895149      0.00549099
      6.04432988      0.02507233
      0.48568770     -0.26600548
      0.18510760     -0.21855970
p              7   1.000000
      1.83062075     -0.01160307
      0.10124670      0.57019240
      0.03901771      0.59548125
      5.65711298     -0.02515257
      1.46680492     -0.12580118
      0.51709412     -0.24292766
      0.20586408     -0.11588923
 
          39   0
s              4   1.000000
     47.27943950     -0.01198412
      8.14191070     -0.05472052
      0.65423727      0.58055871
      0.24934602      0.47700799
p              4   1.000000
     12.61771377      0.05713170
      3.27158477      0.28574555
      1.15333487      0.55178731
      0.45916249      0.26323149
s              7   1.000000
      0.68659740     -0.20787601
      0.08427369      1.00438050
      0.03979181      0.26376557
     47.27943950      0.00718962
      8.14191070      0.03282843
      0.65423727     -0.34829399
      0.24934602     -0.28617091
p              7   1.000000
      3.27737070     -0.01127111
      0.18126254      0.55387945
      0.06985363      0.57844479
     12.61771377     -0.02031937
      3.27158477     -0.10162778
      1.15333487     -0.19624775
      0.45916249     -0.09362047
 
          40   0
s              4   1.000000
     35.26115545     -0.01198412
      6.07226274     -0.05472052
      0.48793222      0.58055871
      0.18596305      0.47700799
p              4   1.000000
      5.68325639      0.05713170
      1.47358352      0.28574555
      0.51948379      0.55178731
      0.20681545      0.26323149
s              7   1.000000
      0.38350848     -0.19592919
      0.04707223      0.94665786
      0.02222627      0.24860673
     35.26115545      0.00546685
      6.07226274      0.02496212
      0.48793222     -0.26483624
      0.18596305     -0.21759902
p              7   1.000000
      1.83062075     -0.01159477
      0.10124670      0.56978465
      0.03901771      0.59505541
      5.68325639     -0.02504158
      1.47358352     -0.12524605
      0.51948379     -0.24185568
      0.20681545     -0.11537785
 
          41   0
s              4   1.000000
     35.16636401     -0.01198412
      6.05593887     -0.05472053
      0.48662053      0.58055871
      0.18546313      0.47700800
p              4   1.000000
      5.66797827      0.05713170
      1.46962213      0.28574555
      0.51808728      0.55178730
      0.20625947      0.26323149
s              7   1.000000
      0.38350848     -0.19601621
      0.04707223      0.94707827
      0.02222627      0.24871713
     35.16636401      0.00548093
      6.05593887      0.02502641
      0.48662053     -0.26551832
      0.18546313     -0.21815943
p              7   1.000000
      1.83062075     -0.01159960
      0.10124670      0.57002233
      0.03901771      0.59530365
      5.66797827     -0.02510633
      1.46962213     -0.12556989
      0.51808728     -0.24248102
      0.20625947     -0.11567616
 
          42   0
s              4   1.000000
     47.26065999     -0.01198412
      8.13867672     -0.05472052
      0.65397740      0.58055871
      0.24924698      0.47700799
p              4   1.000000
     12.61270199      0.05713170
      3.27028529      0.28574555
      1.15287676      0.55178731
      0.45898011      0.26323149
s              7   1.000000
      0.68659740     -0.20789664
      0.08427369      1.00448015
      0.03979181      0.26379174
     47.26065999      0.00719231
      8.13867672      0.03284073
      0.65397740     -0.34842455
      0.24924698     -0.28627818
p              7   1.000000
      3.27737070     -0.01127160
      0.18126254      0.55390377
      0.06985363      0.57847021
     12.61270199     -0.02032731
      3.27028529     -0.10166753
      1.15287676     -0.19632450
      0.45898011     -0.09365708
 
          43   0
s              4   1.000000
     35.04993006     -0.01198412
      6.03588798     -0.05472052
      0.48500935      0.58055871
      0.18484907      0.47700799
p              4   1.000000
      5.64921190      0.05713170
      1.46475629      0.28574555
      0.51637192      0.55178731
      0.20557656      0.26323149
s              7   1.000000
      0.38350848     -0.19612394
      0.04707223      0.94759881
      0.02222627      0.24885384
     35.04993006      0.00549832
      6.03588798      0.02510582
      0.48500935     -0.26636084
      0.18484907     -0.21885168
p              7   1.000000
      1.83062075     -0.01160559
      0.10124670      0.57031663
      0.03901771      0.59561099
      5.64921190     -0.02518631
      1.46475629     -0.12596990
      0.51637192     -0.24325345
      0.20557656     -0.11604466
 
          44   0
s              4   1.000000
     47.16735481     -0.01198412
      8.12260879     -0.05472053
      0.65268627      0.58055871
      0.24875489      0.47700799
p              4   1.000000
     12.58780114      0.05713170
      3.26382887      0.28574555
      1.15060067      0.55178731
      0.45807396      0.26323149
s              7   1.000000
      0.68659740     -0.20799944
      0.08427369      1.00497685
      0.03979181      0.26392217
     47.16735481      0.00720574
      8.12260879      0.03290202
      0.65268627     -0.34907473
      0.24875489     -0.28681239
p              7   1.000000
      3.27737070     -0.01127407
      0.18126254      0.55402503
      0.06985363      0.57859683
     12.58780114     -0.02036688
      3.26382887     -0.10186543
      1.15060067     -0.19670665
      0.45807396     -0.09383939
 
          45   0
s              4   1.000000
     35.02729021     -0.01198412
      6.03198921     -0.05472052
      0.48469607      0.58055871
      0.18472967      0.47700799
p              4   1.000000
      5.64556289      0.05713170
      1.46381016      0.28574555
      0.51603838      0.55178731
      0.20544377      0.26323149
s              7   1.000000
      0.38350848     -0.19614500
      0.04707223      0.94770055
      0.02222627      0.24888056
     35.02729021      0.00550172
      6.03198921      0.02512132
      0.48469607     -0.26652527
      0.18472967     -0.21898678
p              7   1.000000
      1.83062075     -0.01160676
      0.10124670      0.57037415
      0.03901771      0.59567107
      5.64556289     -0.02520191
      1.46381016     -0.12604796
      0.51603838     -0.24340420
      0.20544377     -0.11611657
 
          46   0
s              4   1.000000
     47.15581784     -0.01198412
      8.12062203     -0.05472052
      0.65252663      0.58055871
      0.24869405      0.47700799
p              4   1.000000
     12.58472221      0.05713170
      3.26303055      0.28574555
      1.15031924      0.55178731
      0.45796191      0.26323149
s              7   1.000000
      0.68659740     -0.20801219
      0.08427369      1.00503844
      0.03979181      0.26393836
     47.15581784      0.00720740
      8.12062203      0.03290961
      0.65252663     -0.34915529
      0.24869405     -0.28687859
p              7   1.000000
      3.27737070     -0.01127438
      0.18126254      0.55404007
      0.06985363      0.57861254
     12.58472221     -0.02037178
      3.26303055     -0.10188995
      1.15031924     -0.19675400
      0.45796191     -0.09386198
 
          47   0
s              4   1.000000
     35.03667924     -0.01198412
      6.03360608     -0.05472052
      0.48482599      0.58055871
      0.18477919      0.47700799
p              4   1.000000
      5.64707618      0.05713170
      1.46420253      0.28574555
      0.51617670      0.55178731
      0.20549884      0.26323149
s              7   1.000000
      0.38350848     -0.19613626
      0.04707223      0.94765833
      0.02222627      0.24886947
     35.03667924      0.00550031
      6.03360608      0.02511489
      0.48482599     -0.26645706
      0.18477919     -0.21893074
p              7   1.000000
      1.83062075     -0.01160628
      0.10124670      0.57035028
      0.03901771      0.59564615
      5.64707618     -0.02519544
      1.46420253     -0.12601558
      0.51617670     -0.24334166
      0.20549884     -0.11608674
 
          48   0
s              4   1.000000
     47.16317357     -0.01198412
      8.12188875     -0.05472052
      0.65262842      0.58055871
      0.24873284      0.47700800
p              4   1.000000
     12.58668527      0.05713170
      3.26353954      0.28574555
      1.15049868      0.55178731
      0.45803335      0.26323149
s              7   1.000000
      0.68659740     -0.20800406
      0.08427369      1.00499917
      0.03979181      0.26392804
     47.16317357      0.00720634
      8.12188875      0.03290477
      0.65262842     -0.34910392
      0.24873284     -0.28683638
p              7   1.000000
      3.27737070     -0.01127418
      0.18126254      0.55403048
      0.06985363      0.57860254
     12.58668527     -0.02036866
      3.26353954     -0.10187431
      1.15049868     -0.19672381
      0.45803335     -0.09384757
 
          49   0
s              4   1.000000
     35.13800232     -0.01198412
      6.05105475     -0.05472052
      0.48622807      0.58055871
      0.18531355      0.47700799
p              4   1.000000
      5.66340704      0.05713170
      1.46843688      0.28574555
      0.51766944      0.55178731
      0.20609312      0.26323149
s              7   1.000000
      0.38350848     -0.19604236
      0.04707223      0.94720464
      0.02222627      0.24875033
     35.13800232      0.00548516
      6.05105475      0.02504571
      0.48622807     -0.26572306
      0.18531355     -0.21832766
p              7   1.000000
      1.83062075     -0.01160106
      0.10124670      0.57009377
      0.03901771      0.59537825
      5.66340704     -0.02512576
      1.46843688     -0.12566710
      0.51766944     -0.24266873
      0.20609312     -0.11576572
 
          50   0
s              4   1.000000
     47.39040342     -0.01198412
      8.16101961     -0.05472052
      0.65577275      0.58055871
      0.24993123      0.47700799
p              4   1.000000
     12.64732730      0.05713170
      3.27926311      0.28574555
      1.15604172      0.55178731
      0.46024013      0.26323149
s              7   1.000000
      0.68659740     -0.20775458
      0.08427369      1.00379376
      0.03979181      0.26361148
     47.39040342      0.00717374
      8.16101961      0.03275591
      0.65577275     -0.34752459
      0.24993123     -0.28553874
p              7   1.000000
      3.27737070     -0.01126819
      0.18126254      0.55373624
      0.06985363      0.57829525
     12.64732730     -0.02027253
      3.27926311     -0.10139354
      1.15604172     -0.19579541
      0.46024013     -0.09340468
 
          51   0
s              4   1.000000
     23.92007841     -0.01198412
      4.11923543     -0.05472052
      0.33099814      0.58055871
      0.12615159      0.47700800
p              4   1.000000
      4.66211729      0.05713170
      1.20881740      0.28574555
      0.42614554      0.55178731
      0.16965588      0.26323149
s              7   1.000000
      0.29139959     -0.19995255
      0.03576669      0.96609726
      0.01688809      0.25371181
     23.92007841      0.00608978
      4.11923543      0.02780647
      0.33099814     -0.29501339
      0.12615159     -0.24239365
p              7   1.000000
      1.39095266     -0.01146586
      0.07692984      0.56344980
      0.02964666      0.58843961
      4.66211729     -0.02326025
      1.20881740     -0.11633668
      0.42614554     -0.22465129
      0.16965588     -0.10717045
 
          52   0
s              4   1.000000
     35.04594076     -0.01198412
      6.03520099     -0.05472053
      0.48495415      0.58055871
      0.18482803      0.47700799
p              4   1.000000
      5.64856892      0.05713170
      1.46458957      0.28574555
      0.51631315      0.55178731
      0.20555316      0.26323149
s              7   1.000000
      0.38350848     -0.19612765
      0.04707223      0.94761672
      0.02222627      0.24885855
     35.04594076      0.00549892
      6.03520099      0.02510855
      0.48495415     -0.26638980
      0.18482803     -0.21887547
p              7   1.000000
      1.83062075     -0.01160580
      0.10124670      0.57032676
      0.03901771      0.59562159
      5.64856892     -0.02518905
      1.46458957     -0.12598365
      0.51631315     -0.24328000
      0.20555316     -0.11605732
 
          53   0
s              4   1.000000
     35.07427299     -0.01198412
      6.04008004     -0.05472052
      0.48534620      0.58055871
      0.18497745      0.47700799
p              4   1.000000
      5.65313539      0.05713170
      1.46577359      0.28574555
      0.51673055      0.55178731
      0.20571934      0.26323149
s              7   1.000000
      0.38350848     -0.19610134
      0.04707223      0.94748960
      0.02222627      0.24882516
     35.07427299      0.00549468
      6.04008004      0.02508918
      0.48534620     -0.26618426
      0.18497745     -0.21870660
p              7   1.000000
      1.83062075     -0.01160434
      0.10124670      0.57025489
      0.03901771      0.59554651
      5.65313539     -0.02516954
      1.46577359     -0.12588606
      0.51673055     -0.24309156
      0.20571934     -0.11596742
 
          54   0
s              4   1.000000
     47.20391708     -0.01198412
      8.12890512     -0.05472052
      0.65319221      0.58055871
      0.24894772      0.47700800
p              4   1.000000
     12.59755871      0.05713170
      3.26635886      0.28574555
      1.15149258      0.55178731
      0.45842904      0.26323149
s              7   1.000000
      0.68659740     -0.20795909
      0.08427369      1.00478191
      0.03979181      0.26387099
     47.20391708      0.00720047
      8.12890512      0.03287797
      0.65319221     -0.34881965
      0.24894772     -0.28660281
p              7   1.000000
      3.27737070     -0.01127310
      0.18126254      0.55397744
      0.06985363      0.57854714
     12.59755871     -0.02035136
      3.26635886     -0.10178779
      1.15149258     -0.19655673
      0.45842904     -0.09376787
 
          55   0
s              4   1.000000
     35.02524623     -0.01198412
      6.03163722     -0.05472052
      0.48466779      0.58055871
      0.18471889      0.47700799
p              4   1.000000
      5.64523345      0.05713170
      1.46372474      0.28574555
      0.51600826      0.55178731
      0.20543178      0.26323149
s              7   1.000000
      0.38350848     -0.19614690
      0.04707223      0.94770976
      0.02222627      0.24888297
     35.02524623      0.00550202
      6.03163722      0.02512272
      0.48466779     -0.26654013
      0.18471889     -0.21899899
p              7   1.000000
      1.83062075     -0.01160687
      0.10124670      0.57037935
      0.03901771      0.59567649
      5.64523345     -0.02520332
      1.46372474     -0.12605502
      0.51600826     -0.24341782
      0.20543178     -0.11612307
 
          56   0
s              4   1.000000
     47.15941535     -0.01198412
      8.12124155     -0.05472052
      0.65257641      0.58055871
      0.24871302      0.47700799
p              4   1.000000
     12.58568230      0.05713170
      3.26327948      0.28574555
      1.15040700      0.55178731
      0.45799685      0.26323149
s              7   1.000000
      0.68659740     -0.20800821
      0.08427369      1.00501924
      0.03979181      0.26393330
     47.15941535      0.00720688
      8.12124155      0.03290724
      0.65257641     -0.34913017
      0.24871302     -0.28685795
p              7   1.000000
      3.27737070     -0.01127428
      0.18126254      0.55403538
      0.06985363      0.57860764
     12.58568230     -0.02037025
      3.26327948     -0.10188230
      1.15040700     -0.19673923
      0.45799685     -0.09385493
 
          57   0
s              4   1.000000
     35.02984541     -0.01198412
      6.03242924     -0.05472052
      0.48473143      0.58055871
      0.18474315      0.47700799
p              4   1.000000
      5.64597473      0.05713170
      1.46391694      0.28574555
      0.51607602      0.55178731
      0.20545876      0.26323149
s              7   1.000000
      0.38350848     -0.19614262
      0.04707223      0.94768907
      0.02222627      0.24887754
     35.02984541      0.00550133
      6.03242924      0.02511957
      0.48473143     -0.26650670
      0.18474315     -0.21897153
p              7   1.000000
      1.83062075     -0.01160663
      0.10124670      0.57036765
      0.03901771      0.59566427
      5.64597473     -0.02520015
      1.46391694     -0.12603915
      0.51607602     -0.24338718
      0.20545876     -0.11610845
 
          58   0
s              4   1.000000
     47.15646831     -0.01198412
      8.12073405     -0.05472052
      0.65253563      0.58055871
      0.24869748      0.47700800
p              4   1.000000
     12.58489580      0.05713170
      3.26307556      0.28574555
      1.15033511      0.55178731
      0.45796823      0.26323149
s              7   1.000000
      0.68659740     -0.20801147
      0.08427369      1.00503497
      0.03979181      0.26393745
     47.15646831      0.00720730
      8.12073405      0.03290918
      0.65253563     -0.34915075
      0.24869748     -0.28687486
p              7   1.000000
      3.27737070     -0.01127436
      0.18126254      0.55403922
      0.06985363      0.57861166
     12.58489580     -0.02037151
      3.26307556     -0.10188856
      1.15033511     -0.19675133
      0.45796823     -0.09386070
 
          59   0
s              4   1.000000
     35.02244690     -0.01198412
      6.03115516     -0.05472053
      0.48462905      0.58055871
      0.18470413      0.47700799
p              4   1.000000
      5.64478227      0.05713170
      1.46360775      0.28574555
      0.51596702      0.55178731
      0.20541536      0.26323149
s              7   1.000000
      0.38350848     -0.19614951
      0.04707223      0.94772235
      0.02222627      0.24888629
     35.02244690      0.00550244
      6.03115516      0.02512464
      0.48462905     -0.26656048
      0.18470413     -0.21901571
p              7   1.000000
      1.83062075     -0.01160701
      0.10124670      0.57038647
      0.03901771      0.59568393
      5.64478227     -0.02520526
      1.46360775     -0.12606468
      0.51596702     -0.24343647
      0.20541536     -0.11613197
 
          60   0
s              4   1.000000
     47.15696309     -0.01198412
      8.12081925     -0.05472052
      0.65254248      0.58055871
      0.24870009      0.47700799
p              4   1.000000
     12.58502785      0.05713170
      3.26310980      0.28574555
      1.15034718      0.55178731
      0.45797303      0.26323149
s              7   1.000000
      0.68659740     -0.20801092
      0.08427369      1.00503232
      0.03979181      0.26393675
     47.15696309      0.00720723
      8.12081925      0.03290886
      0.65254248     -0.34914729
      0.24870009     -0.28687202
p              7   1.000000
      3.27737070     -0.01127434
      0.18126254      0.55403858
      0.06985363      0.57861098
     12.58502785     -0.02037130
      3.26310980     -0.10188751
      1.15034718     -0.19674930
      0.45797303     -0.09385974
 
          61   0
s              4   1.000000
     35.08123393     -0.01198412
      6.04127877     -0.05472052
      0.48544253      0.58055871
      0.18501416      0.47700799
p              4   1.000000
      5.65425733      0.05713170
      1.46606449      0.28574555
      0.51683310      0.55178730
      0.20576016      0.26323149
s              7   1.000000
      0.38350848     -0.19609488
      0.04707223      0.94745840
      0.02222627      0.24881697
     35.08123393      0.00549364
      6.04127877      0.02508443
      0.48544253     -0.26613381
      0.18501416     -0.21866514
p              7   1.000000
      1.83062075     -0.01160398
      0.10124670      0.57023725
      0.03901771      0.59552810
      5.65425733     -0.02516475
      1.46606449     -0.12586211
      0.51683310     -0.24304531
      0.20576016     -0.11594536
 
          62   0
s              4   1.000000
     47.22453810     -0.01198412
      8.13245623     -0.05472052
      0.65347756      0.58055871
      0.24905647      0.47700799
p              4   1.000000
     12.60306195      0.05713170
      3.26778577      0.28574555
      1.15199560      0.55178731
      0.45862930      0.26323149
s              7   1.000000
      0.68659740     -0.20793637
      0.08427369      1.00467214
      0.03979181      0.26384215
     47.22453810      0.00719750
      8.13245623      0.03286443
      0.65347756     -0.34867596
      0.24905647     -0.28648475
p              7   1.000000
      3.27737070     -0.01127256
      0.18126254      0.55395064
      0.06985363      0.57851914
     12.60306195     -0.02034261
      3.26778577     -0.10174406
      1.15199560     -0.19647228
      0.45862930     -0.09372758
 
 [MO]
 Sym= Hole
 Ene= -0.9618262    
 Spin= Alpha
 Occup= 0
           1  1.2566818E-02
           2 -5.5574119E-02
           3  0.1032640    
           4 -4.8428392E-03
           5  2.6075491E-03
           6 -2.2605434E-03
           7  9.7073466E-03
           8 -8.7110354E-03
           9 -1.1146426E-02
          10  9.1813736E-02
          11 -0.1529347    
          12 -1.5722431E-02
          13 -1.6856298E-03
          14 -1.0245953E-03
          15 -5.5603413E-03
          16  1.3782127E-02
          17  2.8802773E-02
          18  8.0613263E-02
          19 -8.5559890E-02
          20 -6.4601496E-02
          21 -6.0347705E-03
          22 -4.1702529E-03
          23 -2.6794914E-03
          24  6.2719197E-03
          25 -1.0348576E-02
          26 -2.6871936E-02
          27  4.3693796E-02
          28  4.3171987E-02
          29  5.8628703E-03
          30  5.7855877E-04
          31  3.8668001E-03
          32 -6.5429443E-03
          33 -5.9014320E-02
          34  9.0430751E-02
          35  0.1301326    
          36  0.1394378    
          37  2.3073584E-02
          38  2.6333174E-03
          39  3.8564447E-03
          40 -4.5809874E-04
          41  2.8489664E-02
          42 -0.1200798    
          43 -0.1059637    
          44 -1.7986206E-02
          45 -1.2510387E-02
          46  1.6346717E-03
          47  1.4594612E-03
          48  3.8009736E-04
          49  3.4473784E-04
          50 -3.4511756E-02
          51 -4.1483212E-03
          52 -9.0608355E-03
          53 -4.9108168E-04
          54 -3.1061850E-03
          55  9.0758369E-04
          56  2.8233754E-03
          57 -2.5603937E-02
          58  4.3528650E-02
          59  2.3401838E-02
          60  2.3206798E-03
          61  3.3014352E-03
          62  1.7191578E-02
          63  1.6946921E-02
          64  2.4331072E-03
          65  6.5059848E-03
          66  0.1168208    
          67  2.4451749E-02
          68  2.0461718E-02
          69 -3.2783211E-03
          70 -8.1216515E-04
          71  3.1001058E-03
          72  6.8933908E-03
          73 -2.8758694E-04
          74 -5.4952387E-02
          75 -1.1166904E-02
          76 -1.1241932E-02
          77 -8.0682436E-04
          78 -8.9758830E-03
          79  6.0608436E-04
          80 -2.2203941E-03
          81 -2.9721751E-03
          82  0.1194868    
          83  3.5693977E-02
          84  2.1153117E-02
          85  8.0694025E-04
          86  1.3846275E-03
          87 -1.4729117E-03
          88  7.9890218E-04
          89  2.8662111E-03
          90 -6.0324583E-02
          91 -1.9583330E-02
          92 -1.0399414E-02
          93  2.9238712E-04
          94 -7.4500847E-03
          95 -2.7015272E-03
          96 -4.7984862E-04
          97  1.2502574E-02
          98 -6.7483843E-03
          99 -1.9705167E-02
         100  3.7664974E-03
         101 -4.0566665E-03
         102  1.6569076E-03
         103  9.3266339E-04
         104 -1.9767242E-03
         105 -4.5975149E-03
         106  2.7516952E-03
         107  1.2298102E-02
         108  1.3720613E-03
         109  3.3159475E-03
         110 -2.6680101E-04
         111 -2.2548095E-03
         112  9.8740566E-04
         113 -1.1230666E-02
         114 -0.1465266    
         115 -1.6950637E-02
         116 -9.6149044E-03
         117 -1.2188301E-03
         118  8.9725800E-04
         119  4.7488464E-03
         120  1.1273357E-03
         121  3.9371531E-03
         122  8.1332244E-02
         123 -6.0600303E-03
         124  2.0099171E-02
         125  2.5152210E-03
         126  6.9302535E-03
         127 -9.0966932E-03
         128 -4.8877130E-04
         129  2.3919316E-02
         130 -5.9558891E-02
         131 -7.0797347E-02
         132 -0.1933707    
         133 -1.2716678E-02
         134  2.0966404E-03
         135  7.9599238E-04
         136 -4.7577210E-03
         137 -4.4648540E-03
         138 -1.2663339E-02
         139 -3.3929188E-02
         140 -0.1614290    
         141 -3.2232578E-03
         142  3.2573820E-03
         143 -3.0551106E-04
         144 -3.2040763E-03
         145  9.1115981E-03
         146 -6.1629028E-03
         147  2.5151446E-02
         148  8.4280588E-02
         149 -1.3797359E-04
         150 -5.1310495E-03
         151  7.7960349E-04
         152  1.9085273E-02
         153  4.5490530E-03
         154  1.1440996E-03
         155  1.4648933E-02
         156  3.9788466E-02
         157 -1.3863955E-03
         158 -1.0765240E-03
         159 -6.7372766E-04
         160 -3.4851665E-04
         161 -3.1768149E-03
         162  2.2810267E-03
         163 -3.0951076E-03
         164 -1.7954288E-02
         165  2.5795596E-03
         166 -1.6813661E-03
         167  7.8566116E-04
         168 -2.0357221E-03
         169 -1.5210211E-03
         170  2.8730270E-02
         171  5.9310906E-02
         172  0.1640884    
         173 -8.5017079E-04
         174 -4.1877551E-04
         175  1.6880928E-03
         176  9.7370957E-04
         177  2.3175979E-03
         178 -1.4018910E-02
         179 -2.9165737E-02
         180 -7.9693161E-02
         181  2.3801721E-04
         182 -1.3493260E-03
         183 -3.0079589E-03
         184 -8.5060140E-03
         185  4.2684665E-03
         186  1.0522020E-02
         187  3.6558751E-02
         188  9.5306322E-02
         189 -3.9529689E-03
         190  1.7946322E-03
         191  5.8006970E-03
         192  4.8774079E-04
         193  9.2028306E-05
         194 -5.0266166E-03
         195 -2.0545460E-02
         196 -4.8156746E-02
         197 -5.4134056E-04
         198  1.8153909E-03
         199 -2.8737851E-03
         200 -7.2196773E-03
         201  6.8972941E-04
         202 -1.2007718E-02
         203 -3.9017145E-02
         204 -9.0407506E-02
         205 -5.1167700E-03
         206  1.6912535E-03
         207  7.5846579E-04
         208 -2.1331424E-03
         209 -1.9278631E-02
         210  3.2225013E-02
         211  1.9059906E-02
         212  5.9756469E-02
         213  2.3529257E-03
         214  1.6060619E-02
         215 -6.1870326E-04
         216  1.0537695E-02
         217 -1.0229217E-02
         218 -0.2037142    
         219 -0.1434587    
         220  3.2394346E-02
         221  1.1526697E-02
         222 -9.7083086E-03
         223 -1.9977360E-03
         224 -1.0450865E-03
         225  2.2280622E-02
         226  0.2622732    
         227  0.2033284    
         228 -2.9290646E-02
         229 -1.2074018E-02
         230 -1.2403955E-03
         231  7.4715819E-04
         232 -6.3788560E-03
         233 -8.9899460E-03
         234  0.1021626    
         235  0.1264222    
         236 -1.4603408E-02
         237  1.7993404E-03
         238  4.1549845E-04
         239 -1.9426200E-03
         240 -3.2378361E-03
         241 -1.1076116E-02
         242 -7.3000185E-02
         243 -7.3362984E-02
         244  4.7246604E-03
         245 -6.0988625E-04
         246 -1.1055748E-02
         247 -3.1944246E-03
         248 -6.6688797E-04
         249  6.9918344E-03
         250 -0.1050582    
         251 -0.1050887    
         252  2.4397284E-02
         253 -1.9182988E-03
         254  1.5665629E-03
         255 -4.2057885E-03
         256 -2.0803711E-03
         257 -2.4185965E-03
         258  4.9143318E-02
         259  5.6085568E-02
         260 -1.0964808E-02
         261  3.8799335E-04
         262  5.9227338E-03
         263  7.5880308E-03
         264 -2.9376145E-03
         265 -1.5994782E-03
         266 -0.2015918    
         267 -0.1795400    
         268  3.5009887E-02
         269  7.4346020E-04
         270  1.2900376E-03
         271 -1.5102070E-03
         272  8.6714781E-04
         273  1.2830663E-03
         274  9.7773232E-02
         275  8.7343767E-02
         276 -1.6724056E-02
         277  1.6260330E-04
         278  1.0955307E-02
         279  1.0261262E-02
         280 -2.3324261E-03
         281  1.0279862E-03
         282 -5.5200569E-02
         283 -4.8669189E-02
         284  1.1948876E-02
         285  1.5181553E-03
         286  1.3272101E-03
         287  4.7988188E-04
         288  2.8467409E-03
         289 -2.4154263E-03
         290  2.4638148E-02
         291  2.0255737E-02
         292 -8.5409647E-03
         293  1.2673688E-03
         294  4.9240454E-03
         295  1.7863513E-03
         296 -2.0318117E-03
         297  4.6036234E-03
         298  0.1833382    
         299  0.1469539    
         300 -4.2330991E-02
         301 -2.5094401E-03
         302  9.6730037E-05
         303  5.9382885E-04
         304 -2.3868088E-04
         305  2.7777792E-03
         306 -9.3560480E-02
         307 -8.3027676E-02
         308  2.8166678E-02
         309  4.1165170E-03
         310 -1.3681850E-02
         311 -8.8936854E-03
         312  1.3142048E-02
         313 -1.6727101E-04
         314  0.1123624    
         315  2.8674712E-02
         316  0.1245418    
         317 -4.6451357E-03
         318  7.5397352E-03
         319  2.0292753E-03
         320 -5.5212029E-03
         321  1.7258517E-02
         322 -3.4216318E-02
         323  8.8665343E-05
         324  6.1099487E-03
         325 -6.0582175E-03
         326  1.8839177E-03
         327  3.2178946E-03
         328  3.1996821E-03
         329 -1.5082649E-02
         330  1.0656948E-02
         331 -1.1173652E-02
         332 -1.7805681E-02
         333  1.8953391E-03
         334 -2.6969654E-03
         335 -1.0040290E-02
         336 -6.1255633E-03
         337 -5.4408549E-03
         338 -0.1023775    
         339 -2.1541655E-02
         340 -0.1421397    
         341 -6.9218816E-04
         342 -1.6310584E-03
         343 -2.7546659E-04
         344 -8.1177335E-04
         345  4.4659716E-03
         346  4.6916813E-02
         347  1.1544008E-02
         348  7.1234033E-02
         349 -2.1475758E-03
         350  7.7627320E-03
         351  1.2914474E-03
         352  7.8646960E-03
         353 -2.2524020E-03
         354 -7.9578690E-02
         355 -1.2793914E-02
         356 -0.1045937    
         357 -2.0323638E-03
         358  1.7933557E-03
         359  1.0887760E-03
         360 -2.7836550E-03
         361  1.5130057E-03
         362  3.9744966E-02
         363  6.7418939E-03
         364  5.3443827E-02
         365 -1.0000966E-03
         366  5.4399809E-03
         367  9.0070581E-04
         368  5.6293174E-03
         369  9.9295378E-03
         370  3.1757418E-02
         371  1.7376937E-02
         372  5.4020051E-02
         373 -7.0729526E-03
         374  4.3317033E-03
         375 -2.2598320E-04
         376 -1.8423410E-03
         377 -1.6693766E-03
         378 -1.7767649E-02
         379 -1.1536554E-02
         380 -2.9317325E-02
         381 -1.9827913E-03
         382  3.6645599E-03
         383 -4.3840948E-03
         384 -6.7234426E-03
         385 -2.2109961E-02
         386  0.1342453    
         387 -1.1191138E-02
         388  0.1646851    
         389  3.5472880E-03
         390  5.6020934E-03
         391  5.5473828E-04
         392 -3.6740273E-03
         393 -1.3496796E-02
         394 -7.5821415E-02
         395 -3.5999842E-02
         396 -0.1046015    
         397 -4.4761910E-03
         398 -1.1514581E-02
         399 -3.1062176E-02
         400 -9.3636932E-03
         401  8.9465395E-02
         402  8.9452267E-02
         403 -5.6611829E-02
         404 -0.1184926    
         405 -5.7201702E-03
         406  3.7260228E-03
         407 -9.4254006E-04
         408 -5.5020186E-03
         409  5.5882735E-03
         410  1.3313682E-03
         411  7.7172324E-02
         412 -2.2402491E-02
         413 -2.2598004E-03
         414 -7.2760531E-03
         415  2.0287649E-03
         416  1.6645624E-03
         417  1.2140613E-02
         418  7.7720950E-03
         419  5.1046945E-02
         420 -4.3204188E-02
         421  2.5869257E-04
         422  4.2209816E-03
         423 -2.0529595E-04
         424  9.9617057E-04
         425 -1.8588712E-03
         426  2.8428780E-03
         427 -3.1498261E-02
         428  2.5000621E-02
         429  6.3563930E-03
         430  1.0312093E-02
         431 -7.2871884E-03
         432 -3.2931208E-03
         433 -3.6456452E-03
         434 -3.8185650E-03
         435 -1.4178156E-03
         436  1.3849461E-04
         437  3.6677141E-03
         438  1.1006662E-03
         439  3.2055588E-04
         440  3.3556091E-04
         441  2.5846853E-03
         442  3.1842848E-03
         443 -1.0482826E-03
         444  9.6236676E-04
         445  3.4936867E-04
         446  1.2531825E-03
         447  1.1135986E-03
         448  1.7650138E-03
         449  6.0476414E-05
         450  6.0788183E-03
         451 -4.8341651E-02
         452  2.6694642E-02
         453  2.7217374E-03
         454  1.1165623E-03
         455  7.5833133E-04
         456  1.9873139E-04
         457 -3.5357013E-04
         458 -2.6867546E-03
         459  2.3766277E-02
         460 -1.3438586E-02
         461  6.5496785E-04
         462 -4.1638574E-04
         463  2.8561393E-03
         464 -1.5285393E-03
         465  6.7045521E-03
         466  1.2743637E-02
         467 -3.7668850E-02
         468  2.1907434E-02
         469  9.9880330E-04
         470  1.9456740E-03
         471 -4.3157185E-04
         472 -4.5457433E-04
         473 -4.1394909E-03
         474 -7.9399627E-03
         475  1.7436041E-02
         476 -1.2468073E-02
         477  3.0144013E-03
         478  2.7950443E-03
         479  1.9247156E-03
         480 -6.7248344E-05
         481 -1.1789159E-02
         482 -1.0804415E-02
         483  3.8399589E-03
         484 -2.6342023E-02
         485  3.1156889E-03
         486 -2.3359300E-03
         487 -2.0209395E-03
         488  4.7530362E-04
         489  1.6789332E-02
         490  2.6051123E-02
         491  6.0876473E-03
         492  3.8191730E-03
         493 -8.5223862E-04
         494  1.4894700E-02
         495  7.5197970E-03
         496 -4.2778244E-03
 Sym= Particle
 Ene= -0.9618262    
 Spin= Alpha
 Occup= 2
           1 -1.3284701E-02
           2 -3.2912944E-02
           3  3.1368494E-02
           4  3.2088585E-02
           5  1.3212955E-02
           6 -3.2882218E-03
           7  1.8482247E-03
           8 -6.8974658E-04
           9  3.3852152E-04
          10  7.0161432E-02
          11 -0.1226086    
          12  7.7538658E-03
          13  1.2684221E-04
          14 -1.7545518E-02
          15  2.1537481E-02
          16 -4.1658203E-03
          17  2.3455363E-02
          18 -0.2459473    
          19  0.3997390    
          20  8.0058530E-02
          21 -1.7727237E-02
          22  7.5006396E-02
          23 -0.1125210    
          24 -2.7877962E-02
          25 -1.0710274E-02
          26  8.6017460E-02
          27 -0.1228860    
          28 -1.4122844E-02
          29  1.2092094E-02
          30 -3.0389620E-02
          31  3.2288413E-02
          32  1.7181213E-03
          33  2.2145487E-02
          34 -2.2009090E-02
          35 -1.6589323E-02
          36 -2.2833964E-02
          37 -1.5227597E-02
          38  2.4913347E-03
          39  7.2652777E-03
          40  5.3477562E-03
          41 -4.6721771E-02
          42 -2.6267741E-02
          43  7.4021734E-02
          44 -1.4160552E-02
          45  3.6444712E-02
          46  5.4222988E-03
          47 -3.6871009E-02
          48  8.5613439E-03
          49  7.9284469E-03
          50  1.6937068E-02
          51  4.7416715E-03
          52  2.6112864E-02
          53 -2.7461583E-03
          54 -7.3663420E-03
          55 -2.5447139E-03
          56 -1.2122990E-02
          57  1.6690779E-03
          58 -8.4092291E-03
          59  1.1087500E-02
          60  6.4600110E-03
          61 -3.4803147E-03
          62  7.5965906E-03
          63  4.5350068E-03
          64  1.0092885E-03
          65 -9.2664538E-03
          66 -7.9669729E-03
          67  7.8364052E-03
          68  1.9394225E-03
          69  3.0571709E-03
          70  1.8916542E-03
          71  8.1031019E-04
          72 -2.9469796E-03
          73  4.6950290E-03
          74  2.3505059E-03
          75 -4.9956334E-03
          76  7.4024401E-03
          77 -2.4966116E-03
          78 -3.5093055E-04
          79  2.0001421E-03
          80  1.2548136E-03
          81  9.3795956E-05
          82 -1.4521257E-02
          83 -4.7303545E-03
          84 -2.5624514E-03
          85 -3.7546092E-04
          86  2.3140700E-03
          87  3.4515911E-03
          88  1.4546016E-03
          89  2.3435081E-04
          90  5.2551511E-03
          91  5.3396501E-04
          92  1.1223393E-03
          93  1.7693811E-03
          94 -3.4052823E-04
          95 -3.8624667E-03
          96  2.0882455E-03
          97 -3.9576916E-03
          98  1.1812892E-02
          99  7.6819574E-03
         100 -1.0159903E-03
         101 -1.3828752E-04
         102 -5.6420579E-03
         103  3.3461866E-03
         104  2.3604333E-03
         105  3.6818092E-03
         106 -1.2638043E-03
         107 -6.0931104E-03
         108 -2.5493545E-03
         109  2.1178718E-03
         110  6.6403956E-03
         111 -3.6743511E-03
         112  5.8126931E-05
         113  1.3623571E-04
         114  1.2163872E-02
         115  3.8705466E-04
         116 -1.1242297E-02
         117  1.5384118E-03
         118 -6.1792959E-03
         119 -3.5558671E-03
         120  4.9414472E-03
         121 -4.3499367E-03
         122 -8.5941413E-03
         123  3.2640174E-02
         124 -7.3955986E-03
         125  1.1620931E-03
         126 -1.2244642E-02
         127  2.0982334E-03
         128 -7.6986887E-03
         129  2.3573736E-02
         130 -3.5976861E-02
         131  9.3306087E-05
         132 -1.6924363E-02
         133 -1.5932128E-02
         134  1.1242472E-02
         135  1.5031567E-03
         136  5.1139789E-03
         137 -1.0419695E-02
         138  1.4395298E-02
         139  1.9503692E-02
         140  2.9624473E-02
         141  7.4364534E-03
         142 -6.5395720E-03
         143 -1.1527436E-02
         144 -6.0802852E-03
         145 -9.9616569E-05
         146 -6.2236390E-03
         147  7.5969100E-04
         148 -9.5112938E-03
         149 -2.6161922E-03
         150  1.4523270E-05
         151  1.2329371E-02
         152  2.2305432E-03
         153  3.8878268E-03
         154 -3.0147871E-03
         155  4.5626941E-03
         156  3.3184986E-03
         157 -8.8967575E-04
         158 -9.9975010E-04
         159 -2.6408210E-03
         160 -8.7088399E-04
         161 -2.5576854E-03
         162  3.4265015E-03
         163  1.4146905E-03
         164 -2.3958841E-03
         165 -4.8818128E-04
         166  5.5871118E-04
         167  6.2931341E-04
         168 -1.0667528E-03
         169 -7.9517231E-06
         170 -5.8526001E-03
         171 -1.3338049E-02
         172 -3.5815101E-02
         173  3.6994877E-04
         174  2.4408885E-04
         175  5.4426496E-03
         176  9.2864577E-03
         177 -8.4951048E-04
         178  2.8728803E-03
         179  3.9496575E-03
         180  1.1736804E-02
         181 -2.3653293E-03
         182  2.3427194E-03
         183 -1.7114597E-03
         184 -3.8159746E-03
         185 -1.7338373E-03
         186  2.4737811E-03
         187  1.5683713E-03
         188  7.0804330E-03
         189  2.2543739E-03
         190 -2.9415619E-03
         191  5.3896611E-03
         192  2.8744338E-03
         193 -6.0625107E-04
         194  4.5539744E-04
         195 -3.2624512E-03
         196 -3.6987255E-03
         197 -3.2535198E-03
         198  3.4509057E-03
         199 -5.9113642E-03
         200 -2.6423340E-03
         201 -7.4535445E-04
         202  5.0067436E-03
         203  7.5738207E-03
         204  3.6227036E-02
         205 -1.5718051E-03
         206  3.4809918E-03
         207  6.7207613E-03
         208 -5.7641100E-03
         209  8.0903796E-03
         210 -1.8377274E-02
         211 -1.1408016E-03
         212 -4.5037419E-03
         213 -1.0317220E-02
         214  1.2430846E-02
         215 -1.0232842E-02
         216  5.2710800E-03
         217  1.9143309E-02
         218  1.5063364E-02
         219  3.8358986E-03
         220  1.7158294E-02
         221 -1.2789855E-02
         222 -4.8150904E-03
         223 -2.5576341E-03
         224 -4.0105404E-03
         225  2.6555020E-02
         226  3.1451788E-02
         227 -1.2711064E-02
         228  2.5680011E-02
         229 -1.8491184E-02
         230 -9.7642643E-03
         231  7.4830647E-03
         232 -6.7537166E-03
         233  4.0227699E-04
         234 -1.1461371E-02
         235 -4.2434098E-04
         236  1.0069889E-02
         237  1.9170193E-03
         238 -1.6157001E-03
         239 -6.0698781E-03
         240 -7.1436809E-03
         241  1.2897760E-02
         242  1.2904665E-02
         243 -2.6971195E-02
         244  2.5417821E-02
         245 -1.1326891E-02
         246  5.1885624E-03
         247 -9.0945121E-03
         248  3.0626550E-03
         249 -1.8524437E-03
         250 -1.8569734E-02
         251 -1.4012161E-02
         252  2.1368575E-03
         253  7.3880781E-03
         254  6.0522906E-03
         255 -1.7388724E-03
         256  3.6907909E-03
         257 -3.8289018E-03
         258  4.7477651E-03
         259  6.7953658E-03
         260 -4.4734654E-04
         261 -6.9708296E-04
         262 -1.1986523E-03
         263  4.3226662E-03
         264  2.6765093E-03
         265  2.7987675E-04
         266  1.8119844E-02
         267  1.6786015E-02
         268 -2.9356433E-03
         269  2.9474306E-03
         270 -2.9159924E-03
         271 -5.7900716E-03
         272  1.5452752E-03
         273 -2.0001805E-03
         274 -6.5327324E-03
         275 -5.3342148E-03
         276  4.9871259E-04
         277 -1.3892156E-03
         278  5.9057912E-04
         279  1.4879858E-03
         280 -2.8402880E-03
         281  4.5438707E-03
         282  1.5009298E-02
         283  5.3606359E-03
         284 -3.5965012E-04
         285 -7.6317618E-04
         286 -4.4810972E-03
         287  1.7292163E-04
         288  6.0847186E-04
         289 -2.4296015E-03
         290 -3.9036858E-03
         291 -3.5906164E-03
         292 -3.3179773E-03
         293 -2.9039601E-04
         294  3.1726819E-03
         295 -7.3916727E-04
         296 -1.4582821E-03
         297 -1.0050458E-02
         298 -3.0528771E-02
         299 -3.0580034E-02
         300 -6.7053428E-03
         301  6.6771754E-03
         302  1.1169095E-02
         303  1.6832648E-02
         304  6.9248211E-03
         305  1.0090235E-03
         306  1.1590549E-02
         307  1.1484465E-03
         308  5.1421806E-04
         309 -4.2724377E-03
         310  3.4413973E-03
         311 -1.3619533E-02
         312 -2.2443801E-03
         313 -4.8498858E-02
         314  6.1757047E-02
         315 -8.2747504E-02
         316  6.0834358E-03
         317  3.6044661E-02
         318 -2.3614291E-02
         319  3.9723158E-02
         320 -2.0698975E-03
         321  1.1610028E-02
         322 -4.6775710E-02
         323 -1.3416888E-02
         324 -1.4735414E-02
         325 -1.0137783E-02
         326  2.3065982E-02
         327  6.5624029E-03
         328  8.9205167E-04
         329  5.5244099E-03
         330  5.2915108E-03
         331 -1.7496243E-02
         332  1.1261728E-02
         333 -5.1876493E-03
         334 -2.5012582E-03
         335 -8.1348689E-03
         336 -5.5515259E-03
         337 -1.1115089E-02
         338  3.9361147E-03
         339 -1.1728760E-02
         340  3.1932981E-03
         341  1.0084093E-03
         342  1.8533899E-03
         343  2.3759943E-03
         344 -4.7022118E-03
         345  7.7759377E-03
         346 -8.7388316E-03
         347  3.0735207E-03
         348  5.4076309E-03
         349 -2.6840270E-03
         350  6.8633060E-04
         351 -1.9335377E-03
         352  3.1682781E-03
         353  3.6703431E-04
         354  2.1915438E-02
         355  3.9542089E-03
         356  2.8726447E-02
         357 -4.4843289E-03
         358 -5.5273622E-03
         359 -5.6760223E-03
         360 -1.0304374E-02
         361  1.9540756E-03
         362 -7.4677737E-03
         363  3.1594859E-04
         364 -8.3731916E-03
         365  3.5042099E-03
         366 -1.9329429E-03
         367  4.8477417E-03
         368  5.9858584E-03
         369 -1.5511016E-03
         370 -1.3682750E-02
         371 -1.7438907E-03
         372 -2.1956025E-02
         373 -8.8405022E-03
         374  1.0129589E-02
         375 -1.1562919E-02
         376  2.6224195E-03
         377  8.6626057E-03
         378  4.9271449E-03
         379  6.9149849E-03
         380  5.8174296E-03
         381 -1.8950224E-04
         382 -1.6630905E-04
         383  4.8570093E-03
         384 -3.5917675E-03
         385 -8.8103563E-03
         386  8.2236640E-03
         387  3.1096528E-03
         388 -3.0794896E-02
         389  4.8585054E-03
         390  1.2045203E-03
         391  2.7712998E-03
         392  5.7436838E-03
         393 -3.3601247E-02
         394  4.5942634E-02
         395 -9.2799231E-02
         396 -3.3093624E-02
         397  2.7918426E-02
         398 -5.7077897E-03
         399 -1.9261902E-02
         400 -8.0839638E-03
         401  4.4218495E-02
         402  0.1555670    
         403 -0.6523094    
         404  3.4478339E-03
         405 -1.8499145E-02
         406 -2.2314368E-02
         407  0.1030285    
         408 -3.2947536E-03
         409  6.5088421E-03
         410  1.9020358E-02
         411 -0.1124475    
         412  6.0950253E-02
         413 -5.5371514E-03
         414 -4.9551693E-03
         415  2.7539426E-02
         416 -2.3464639E-02
         417  2.2408277E-02
         418  2.3455863E-04
         419  0.1771891    
         420 -0.1307899    
         421 -1.7682893E-02
         422 -9.6382415E-03
         423 -4.0223338E-02
         424  3.0008052E-02
         425  1.1210303E-03
         426  9.4972560E-03
         427 -6.0012963E-02
         428  4.0539578E-02
         429  8.2281203E-04
         430  2.3923395E-03
         431  6.6488264E-03
         432 -1.5773933E-02
         433 -1.0959291E-02
         434 -1.2454787E-02
         435  3.4856342E-02
         436 -2.5909238E-02
         437  7.5621605E-03
         438  7.9643698E-03
         439 -6.4845913E-04
         440  1.2874437E-03
         441  4.2821658E-03
         442  8.5918866E-03
         443 -1.5792899E-02
         444  5.1608793E-03
         445 -4.3655168E-03
         446 -2.8901836E-03
         447 -1.3865691E-03
         448  5.3386693E-03
         449  3.4751117E-04
         450  2.4875045E-02
         451 -0.1973138    
         452  0.1094131    
         453  8.6996565E-04
         454 -5.1842057E-03
         455  4.8945695E-02
         456 -2.6497243E-02
         457 -7.7771641E-05
         458 -8.0162035E-03
         459  6.5398909E-02
         460 -3.6077928E-02
         461  1.9230365E-05
         462  2.0928993E-03
         463 -1.9624025E-02
         464  9.3728406E-03
         465  1.1516194E-02
         466  1.0722854E-02
         467  1.1921304E-02
         468 -9.5599648E-03
         469 -6.4056693E-03
         470 -8.1004463E-03
         471  9.0413941E-03
         472 -4.3402161E-03
         473 -3.3492364E-03
         474 -4.7980165E-03
         475 -1.1309684E-02
         476 -5.8642612E-04
         477  3.9311983E-03
         478  3.5161774E-03
         479 -7.2149048E-03
         480  8.0582891E-03
         481 -2.6821692E-02
         482 -4.0822264E-02
         483  0.1890447    
         484 -0.1423083    
         485  1.7923273E-02
         486  1.2287503E-02
         487 -2.9725652E-02
         488  3.7158251E-02
         489  6.7576482E-03
         490  1.1497586E-02
         491 -6.5733783E-02
         492  3.8795713E-02
         493 -1.2115882E-02
         494 -4.5909137E-03
         495  6.5015578E-03
         496 -3.0317511E-02
