 [Molden Format]
 [Atoms] Angs
C       1      6     -1.80394133     -2.45422784     -1.10665544
C       2      6     -1.06979675     -1.75167877      0.06613026
C       3      6     -1.54809555     -2.24106952      1.45295476
C       4      6      0.39551856     -2.14769467     -0.01321596
C       5      6      0.72748494     -3.49562861     -0.04034786
C       6      6      2.04214949     -3.92409861     -0.07589655
C       7      6      3.05976002     -2.98629016     -0.08475825
C       8      6      2.75577470     -1.64087103     -0.06249903
C       9      6      1.42679252     -1.20828301     -0.02604877
N      10      7      1.13171684      0.14310786     -0.00694880
C      11      6      2.21462010      1.07072260      0.01254472
C      12      6      2.72319350      1.51229925      1.22770922
C      13      6      3.78592885      2.39899710      1.24804962
C      14      6      4.34221166      2.84535531      0.06046447
C      15      6      3.83488004      2.40508776     -1.15140241
C      16      6      2.77260157      1.51843427     -1.17906080
C      17      6     -0.17286978      0.60991736     -0.03444330
C      18      6     -0.35480708      2.01250040     -0.09274822
C      19      6     -1.59794369      2.55789160     -0.11673589
C      20      6     -2.74051250      1.73585115     -0.07863880
C      21      6     -4.02589106      2.31349239     -0.09306878
C      22      6     -5.14986110      1.53999722     -0.04797169
C      23      6     -5.01006529      0.14764552      0.01381686
C      24      6     -3.77450175     -0.43871800      0.02451977
C      25      6     -2.57833946      0.32184208     -0.02157127
C      26      6     -1.26743356     -0.24221106     -0.00832795
H      27      1     -2.39465676     -1.74821107     -1.68341993
H      28      1     -1.07902411     -2.89648241     -1.78775687
H      29      1     -2.45716416     -3.24823204     -0.75207120
H      30      1     -2.54762855     -1.89388618      1.69183336
H      31      1     -0.87246982     -1.85813413      2.21739163
H      32      1     -1.53134754     -3.32704513      1.50239751
H      33      1     -0.06086745     -4.23337679     -0.03488635
H      34      1      2.26837283     -4.97988132     -0.09405354
H      35      1      4.09344850     -3.29956347     -0.11038364
H      36      1      3.55416091     -0.91473292     -0.07233783
H      37      1      2.28258049      1.15693558      2.14782221
H      38      1      4.17985332      2.74118427      2.19363681
H      39      1      5.17139647      3.53684669      0.07914327
H      40      1      4.26702325      2.75221397     -2.07833804
H      41      1      2.36948747      1.16757575     -2.11799681
H      42      1      0.51331647      2.65252577     -0.11881333
H      43      1     -1.72376003      3.63024423     -0.16227365
H      44      1     -4.09983218      3.39145020     -0.13934430
H      45      1     -6.13365564      1.98629691     -0.05820786
H      46      1     -5.89483565     -0.47259253      0.05230611
H      47      1     -3.73565846     -1.51206880      0.06748762
 [GTO]
           1   0
s              4   1.000000
     37.00433874     -0.01198412
      6.37245333     -0.05472053
      0.51205382      0.58055871
      0.19515638      0.47700800
p              4   1.000000
      5.96421591      0.05713170
      1.54643213      0.28574555
      0.54516518      0.55178731
      0.21703965      0.26323149
s              7   1.000000
      0.38350848     -0.19443389
      0.04707223      0.93943311
      0.02222627      0.24670940
     37.00433874      0.00521998
      6.37245333      0.02383491
      0.51205382     -0.25287701
      0.19515638     -0.20777287
p              7   1.000000
      1.83062075     -0.01151166
      0.10124670      0.56570046
      0.03901771      0.59079010
      5.96421591     -0.02390603
      1.54643213     -0.11956655
      0.54516518     -0.23088829
      0.21703965     -0.11014583
 
           2   0
s              4   1.000000
     37.09578202     -0.01198412
      6.38820062     -0.05472052
      0.51331918      0.58055871
      0.19563864      0.47700799
p              4   1.000000
      5.97895439      0.05713170
      1.55025359      0.28574555
      0.54651236      0.55178730
      0.21757599      0.26323149
s              7   1.000000
      0.38350848     -0.19436060
      0.04707223      0.93907899
      0.02222627      0.24661639
     37.09578202      0.00520763
      6.38820062      0.02377851
      0.51331918     -0.25227866
      0.19563864     -0.20728126
p              7   1.000000
      1.83062075     -0.01150758
      0.10124670      0.56550030
      0.03901771      0.59058106
      5.97895439     -0.02384920
      1.55025359     -0.11928232
      0.54651236     -0.23033944
      0.21757599     -0.10988399
 
           3   0
s              4   1.000000
     37.03422690     -0.01198412
      6.37760032     -0.05472052
      0.51246740      0.58055871
      0.19531401      0.47700799
p              4   1.000000
      5.96903317      0.05713170
      1.54768117      0.28574555
      0.54560551      0.55178731
      0.21721495      0.26323149
s              7   1.000000
      0.38350848     -0.19440988
      0.04707223      0.93931711
      0.02222627      0.24667894
     37.03422690      0.00521594
      6.37760032      0.02381644
      0.51246740     -0.25268113
      0.19531401     -0.20761194
p              7   1.000000
      1.83062075     -0.01151032
      0.10124670      0.56563489
      0.03901771      0.59072161
      5.96903317     -0.02388742
      1.54768117     -0.11947350
      0.54560551     -0.23070862
      0.21721495     -0.11006012
 
           4   0
s              4   1.000000
     35.29462427     -0.01198412
      6.07802635     -0.05472052
      0.48839535      0.58055871
      0.18613956      0.47700799
p              4   1.000000
      5.68865076      0.05713170
      1.47498220      0.28574555
      0.51997687      0.55178730
      0.20701175      0.26323149
s              7   1.000000
      0.38350848     -0.19589862
      0.04707223      0.94651015
      0.02222627      0.24856793
     35.29462427      0.00546190
      6.07802635      0.02493950
      0.48839535     -0.26459624
      0.18613956     -0.21740182
p              7   1.000000
      1.83062075     -0.01159307
      0.10124670      0.56970113
      0.03901771      0.59496823
      5.68865076     -0.02501880
      1.47498220     -0.12513210
      0.51997687     -0.24163563
      0.20701175     -0.11527287
 
           5   0
s              4   1.000000
     35.03868997     -0.01198412
      6.03395235     -0.05472052
      0.48485382      0.58055871
      0.18478979      0.47700799
p              4   1.000000
      5.64740026      0.05713170
      1.46428656      0.28574555
      0.51620632      0.55178731
      0.20551063      0.26323149
s              7   1.000000
      0.38350848     -0.19613439
      0.04707223      0.94764931
      0.02222627      0.24886710
     35.03868997      0.00550001
      6.03395235      0.02511352
      0.48485382     -0.26644245
      0.18478979     -0.21891873
p              7   1.000000
      1.83062075     -0.01160617
      0.10124670      0.57034517
      0.03901771      0.59564081
      5.64740026     -0.02519405
      1.46428656     -0.12600864
      0.51620632     -0.24332827
      0.20551063     -0.11608035
 
           6   0
s              4   1.000000
     34.91145354     -0.01198412
      6.01204118     -0.05472052
      0.48309316      0.58055871
      0.18411876      0.47700799
p              4   1.000000
      5.62689279      0.05713170
      1.45896928      0.28574555
      0.51433182      0.55178731
      0.20476436      0.26323149
s              7   1.000000
      0.38350848     -0.19625332
      0.04707223      0.94822391
      0.02222627      0.24901798
     34.91145354      0.00551915
      6.01204118      0.02520092
      0.48309316     -0.26736972
      0.18411876     -0.21968061
p              7   1.000000
      1.83062075     -0.01161278
      0.10124670      0.57067004
      0.03901771      0.59598011
      5.62689279     -0.02528207
      1.45896928     -0.12644887
      0.51433182     -0.24417836
      0.20476436     -0.11648589
 
           7   0
s              4   1.000000
     34.91936960     -0.01198412
      6.01340439     -0.05472053
      0.48320270      0.58055871
      0.18416051      0.47700799
p              4   1.000000
      5.62816867      0.05713170
      1.45930009      0.28574555
      0.51444844      0.55178731
      0.20481079      0.26323149
s              7   1.000000
      0.38350848     -0.19624589
      0.04707223      0.94818801
      0.02222627      0.24900858
     34.91936960      0.00551795
      6.01340439      0.02519546
      0.48320270     -0.26731184
      0.18416051     -0.21963306
p              7   1.000000
      1.83062075     -0.01161237
      0.10124670      0.57064974
      0.03901771      0.59595887
      5.62816867     -0.02527658
      1.45930009     -0.12642139
      0.51444844     -0.24412530
      0.20481079     -0.11646058
 
           8   0
s              4   1.000000
     35.03758702     -0.01198412
      6.03376241     -0.05472053
      0.48483856      0.58055871
      0.18478397      0.47700799
p              4   1.000000
      5.64722249      0.05713170
      1.46424047      0.28574555
      0.51619008      0.55178731
      0.20550416      0.26323149
s              7   1.000000
      0.38350848     -0.19613542
      0.04707223      0.94765426
      0.02222627      0.24886840
     35.03758702      0.00550017
      6.03376241      0.02511427
      0.48483856     -0.26645046
      0.18478397     -0.21892532
p              7   1.000000
      1.83062075     -0.01160623
      0.10124670      0.57034797
      0.03901771      0.59564372
      5.64722249     -0.02519481
      1.46424047     -0.12601245
      0.51619008     -0.24333561
      0.20550416     -0.11608385
 
           9   0
s              4   1.000000
     35.26872286     -0.01198412
      6.07356591     -0.05472052
      0.48803694      0.58055871
      0.18600296      0.47700800
p              4   1.000000
      5.68447607      0.05713170
      1.47389976      0.28574555
      0.51959528      0.55178731
      0.20685983      0.26323149
s              7   1.000000
      0.38350848     -0.19592228
      0.04707223      0.94662443
      0.02222627      0.24859796
     35.26872286      0.00546573
      6.07356591      0.02495701
      0.48803694     -0.26478194
      0.18600296     -0.21755440
p              7   1.000000
      1.83062075     -0.01159438
      0.10124670      0.56976574
      0.03901771      0.59503571
      5.68447607     -0.02503643
      1.47389976     -0.12522027
      0.51959528     -0.24180589
      0.20685983     -0.11535409
 
          10   0
s              4   1.000000
     61.21425935     -0.01198412
     10.54160199     -0.05472052
      0.84706270      0.58055871
      0.32283656      0.47700799
p              4   1.000000
      7.21544571      0.05713170
      1.87085733      0.28574555
      0.65953510      0.55178731
      0.26257229      0.26323149
s              7   1.000000
      0.47894987     -0.18777910
      0.05878681      0.90727961
      0.02775758      0.23826541
     61.21425935      0.00396888
     10.54160199      0.01812226
      0.84706270     -0.19226858
      0.32283656     -0.15797480
p              7   1.000000
      2.28619608     -0.01156565
      0.12644335      0.56835383
      0.04872781      0.59356116
      7.21544571     -0.02464879
      1.87085733     -0.12328152
      0.65953510     -0.23806206
      0.26257229     -0.11356809
 
          11   0
s              4   1.000000
     35.24424635     -0.01198412
      6.06935086     -0.05472052
      0.48769824      0.58055871
      0.18587387      0.47700799
p              4   1.000000
      5.68053104      0.05713170
      1.47287688      0.28574555
      0.51923468      0.55178730
      0.20671627      0.26323149
s              7   1.000000
      0.38350848     -0.19594467
      0.04707223      0.94673264
      0.02222627      0.24862636
     35.24424635      0.00546936
      6.06935086      0.02497357
      0.48769824     -0.26495766
      0.18587387     -0.21769878
p              7   1.000000
      1.83062075     -0.01159563
      0.10124670      0.56982692
      0.03901771      0.59509959
      5.68053104     -0.02505311
      1.47287688     -0.12530370
      0.51923468     -0.24196700
      0.20671627     -0.11543095
 
          12   0
s              4   1.000000
     35.00432302     -0.01198412
      6.02803407     -0.05472053
      0.48437826      0.58055871
      0.18460854      0.47700799
p              4   1.000000
      5.64186113      0.05713170
      1.46285034      0.28574555
      0.51570001      0.55178731
      0.20530906      0.26323149
s              7   1.000000
      0.38350848     -0.19616640
      0.04707223      0.94780396
      0.02222627      0.24890771
     35.00432302      0.00550517
      6.02803407      0.02513706
      0.48437826     -0.26669229
      0.18460854     -0.21912401
p              7   1.000000
      1.83062075     -0.01160795
      0.10124670      0.57043261
      0.03901771      0.59573212
      5.64186113     -0.02521777
      1.46285034     -0.12612726
      0.51570001     -0.24355731
      0.20530906     -0.11618962
 
          13   0
s              4   1.000000
     34.92123293     -0.01198412
      6.01372527     -0.05472052
      0.48322848      0.58055871
      0.18417034      0.47700799
p              4   1.000000
      5.62846899      0.05713170
      1.45937796      0.28574555
      0.51447589      0.55178731
      0.20482172      0.26323149
s              7   1.000000
      0.38350848     -0.19624414
      0.04707223      0.94817955
      0.02222627      0.24900636
     34.92123293      0.00551767
      6.01372527      0.02519418
      0.48322848     -0.26729822
      0.18417034     -0.21962187
p              7   1.000000
      1.83062075     -0.01161227
      0.10124670      0.57064496
      0.03901771      0.59595390
      5.62846899     -0.02527528
      1.45937796     -0.12641492
      0.51447589     -0.24411282
      0.20482172     -0.11645462
 
          14   0
s              4   1.000000
     34.91991449     -0.01198412
      6.01349823     -0.05472052
      0.48321024      0.58055871
      0.18416338      0.47700800
p              4   1.000000
      5.62825649      0.05713170
      1.45932286      0.28574555
      0.51445647      0.55178731
      0.20481399      0.26323149
s              7   1.000000
      0.38350848     -0.19624538
      0.04707223      0.94818554
      0.02222627      0.24900792
     34.91991449      0.00551787
      6.01349823      0.02519509
      0.48321024     -0.26730786
      0.18416338     -0.21962979
p              7   1.000000
      1.83062075     -0.01161234
      0.10124670      0.57064835
      0.03901771      0.59595742
      5.62825649     -0.02527620
      1.45932286     -0.12641950
      0.51445647     -0.24412165
      0.20481399     -0.11645883
 
          15   0
s              4   1.000000
     34.92117498     -0.01198412
      6.01371529     -0.05472053
      0.48322768      0.58055871
      0.18417003      0.47700799
p              4   1.000000
      5.62845965      0.05713170
      1.45937554      0.28574555
      0.51447504      0.55178731
      0.20482138      0.26323149
s              7   1.000000
      0.38350848     -0.19624419
      0.04707223      0.94817982
      0.02222627      0.24900641
     34.92117498      0.00551768
      6.01371529      0.02519422
      0.48322768     -0.26729865
      0.18417003     -0.21962222
p              7   1.000000
      1.83062075     -0.01161228
      0.10124670      0.57064511
      0.03901771      0.59595406
      5.62845965     -0.02527532
      1.45937554     -0.12641513
      0.51447504     -0.24411320
      0.20482138     -0.11645480
 
          16   0
s              4   1.000000
     35.00346073     -0.01198412
      6.02788558     -0.05472053
      0.48436633      0.58055871
      0.18460400      0.47700799
p              4   1.000000
      5.64172215      0.05713170
      1.46281431      0.28574555
      0.51568731      0.55178731
      0.20530400      0.26323149
s              7   1.000000
      0.38350848     -0.19616720
      0.04707223      0.94780785
      0.02222627      0.24890874
     35.00346073      0.00550529
      6.02788558      0.02513766
      0.48436633     -0.26669856
      0.18460400     -0.21912916
p              7   1.000000
      1.83062075     -0.01160800
      0.10124670      0.57043481
      0.03901771      0.59573442
      5.64172215     -0.02521836
      1.46281431     -0.12613023
      0.51568731     -0.24356307
      0.20530400     -0.11619236
 
          17   0
s              4   1.000000
     35.24458029     -0.01198412
      6.06940836     -0.05472053
      0.48770286      0.58055871
      0.18587563      0.47700799
p              4   1.000000
      5.68058487      0.05713170
      1.47289083      0.28574555
      0.51923960      0.55178731
      0.20671823      0.26323149
s              7   1.000000
      0.38350848     -0.19594436
      0.04707223      0.94673116
      0.02222627      0.24862597
     35.24458029      0.00546931
      6.06940836      0.02497334
      0.48770286     -0.26495526
      0.18587563     -0.21769681
p              7   1.000000
      1.83062075     -0.01159561
      0.10124670      0.56982608
      0.03901771      0.59509870
      5.68058487     -0.02505288
      1.47289083     -0.12530256
      0.51923960     -0.24196480
      0.20671823     -0.11542990
 
          18   0
s              4   1.000000
     35.03122217     -0.01198412
      6.03266633     -0.05472052
      0.48475048      0.58055871
      0.18475041      0.47700800
p              4   1.000000
      5.64619663      0.05713170
      1.46397448      0.28574555
      0.51609631      0.55178731
      0.20546683      0.26323149
s              7   1.000000
      0.38350848     -0.19614134
      0.04707223      0.94768288
      0.02222627      0.24887590
     35.03122217      0.00550113
      6.03266633      0.02511863
      0.48475048     -0.26649670
      0.18475041     -0.21896331
p              7   1.000000
      1.83062075     -0.01160656
      0.10124670      0.57036415
      0.03901771      0.59566063
      5.64619663     -0.02519920
      1.46397448     -0.12603440
      0.51609631     -0.24337801
      0.20546683     -0.11610408
 
          19   0
s              4   1.000000
     34.98865094     -0.01198412
      6.02533521     -0.05472052
      0.48416139      0.58055871
      0.18452589      0.47700800
p              4   1.000000
      5.63933517      0.05713170
      1.46219540      0.28574555
      0.51546913      0.55178731
      0.20521714      0.26323149
s              7   1.000000
      0.38350848     -0.19618103
      0.04707223      0.94787462
      0.02222627      0.24892626
     34.98865094      0.00550752
      6.02533521      0.02514782
      0.48416139     -0.26680637
      0.18452589     -0.21921775
p              7   1.000000
      1.83062075     -0.01160877
      0.10124670      0.57047257
      0.03901771      0.59577387
      5.63933517     -0.02522860
      1.46219540     -0.12618142
      0.51546913     -0.24366190
      0.20521714     -0.11623951
 
          20   0
s              4   1.000000
     35.17062691     -0.01198412
      6.05667298     -0.05472052
      0.48667952      0.58055871
      0.18548561      0.47700800
p              4   1.000000
      5.66866535      0.05713170
      1.46980028      0.28574555
      0.51815008      0.55178731
      0.20628448      0.26323149
s              7   1.000000
      0.38350848     -0.19601228
      0.04707223      0.94705929
      0.02222627      0.24871215
     35.17062691      0.00548030
      6.05667298      0.02502351
      0.48667952     -0.26548757
      0.18548561     -0.21813417
p              7   1.000000
      1.83062075     -0.01159939
      0.10124670      0.57001161
      0.03901771      0.59529244
      5.66866535     -0.02510341
      1.46980028     -0.12555529
      0.51815008     -0.24245283
      0.20628448     -0.11566272
 
          21   0
s              4   1.000000
     35.00334949     -0.01198412
      6.02786642     -0.05472052
      0.48436479      0.58055871
      0.18460341      0.47700799
p              4   1.000000
      5.64170422      0.05713170
      1.46280966      0.28574555
      0.51568567      0.55178731
      0.20530335      0.26323149
s              7   1.000000
      0.38350848     -0.19616731
      0.04707223      0.94780835
      0.02222627      0.24890886
     35.00334949      0.00550531
      6.02786642      0.02513773
      0.48436479     -0.26669937
      0.18460341     -0.21912983
p              7   1.000000
      1.83062075     -0.01160800
      0.10124670      0.57043509
      0.03901771      0.59573471
      5.64170422     -0.02521844
      1.46280966     -0.12613062
      0.51568567     -0.24356381
      0.20530335     -0.11619271
 
          22   0
s              4   1.000000
     34.89503696     -0.01198412
      6.00921411     -0.05472053
      0.48286599      0.58055871
      0.18403218      0.47700799
p              4   1.000000
      5.62424683      0.05713170
      1.45828322      0.28574555
      0.51408996      0.55178731
      0.20466807      0.26323149
s              7   1.000000
      0.38350848     -0.19626875
      0.04707223      0.94829846
      0.02222627      0.24903758
     34.89503696      0.00552163
      6.00921411      0.02521224
      0.48286599     -0.26748982
      0.18403218     -0.21977929
p              7   1.000000
      1.83062075     -0.01161364
      0.10124670      0.57071219
      0.03901771      0.59602413
      5.62424683     -0.02529347
      1.45828322     -0.12650588
      0.51408996     -0.24428846
      0.20466807     -0.11653841
 
          23   0
s              4   1.000000
     34.91312987     -0.01198412
      6.01232986     -0.05472052
      0.48311636      0.58055871
      0.18412760      0.47700800
p              4   1.000000
      5.62716297      0.05713170
      1.45903933      0.28574555
      0.51435651      0.55178731
      0.20477419      0.26323149
s              7   1.000000
      0.38350848     -0.19625175
      0.04707223      0.94821631
      0.02222627      0.24901601
     34.91312987      0.00551890
      6.01232986      0.02519976
      0.48311636     -0.26735746
      0.18412760     -0.21967054
p              7   1.000000
      1.83062075     -0.01161270
      0.10124670      0.57066574
      0.03901771      0.59597562
      5.62716297     -0.02528091
      1.45903933     -0.12644305
      0.51435651     -0.24416712
      0.20477419     -0.11648052
 
          24   0
s              4   1.000000
     35.00699512     -0.01198412
      6.02849423     -0.05472053
      0.48441523      0.58055871
      0.18462264      0.47700799
p              4   1.000000
      5.64229181      0.05713170
      1.46296201      0.28574555
      0.51573938      0.55178731
      0.20532474      0.26323149
s              7   1.000000
      0.38350848     -0.19616391
      0.04707223      0.94779193
      0.02222627      0.24890454
     35.00699512      0.00550476
      6.02849423      0.02513523
      0.48441523     -0.26667285
      0.18462264     -0.21910804
p              7   1.000000
      1.83062075     -0.01160781
      0.10124670      0.57042580
      0.03901771      0.59572504
      5.64229181     -0.02521592
      1.46296201     -0.12611803
      0.51573938     -0.24353949
      0.20532474     -0.11618111
 
          25   0
s              4   1.000000
     35.18566525     -0.01198412
      6.05926271     -0.05472052
      0.48688761      0.58055871
      0.18556492      0.47700799
p              4   1.000000
      5.67108917      0.05713170
      1.47042874      0.28574555
      0.51837163      0.55178731
      0.20637268      0.26323149
s              7   1.000000
      0.38350848     -0.19599844
      0.04707223      0.94699243
      0.02222627      0.24869458
     35.18566525      0.00547806
      6.05926271      0.02501330
      0.48688761     -0.26537916
      0.18556492     -0.21804509
p              7   1.000000
      1.83062075     -0.01159862
      0.10124670      0.56997380
      0.03901771      0.59525296
      5.67108917     -0.02509312
      1.47042874     -0.12550382
      0.51837163     -0.24235343
      0.20637268     -0.11561530
 
          26   0
s              4   1.000000
     35.25755770     -0.01198412
      6.07164318     -0.05472052
      0.48788244      0.58055871
      0.18594407      0.47700799
p              4   1.000000
      5.68267651      0.05713170
      1.47343316      0.28574555
      0.51943079      0.55178731
      0.20679435      0.26323149
s              7   1.000000
      0.38350848     -0.19593248
      0.04707223      0.94667376
      0.02222627      0.24861090
     35.25755770      0.00546739
      6.07164318      0.02496456
      0.48788244     -0.26486207
      0.18594407     -0.21762023
p              7   1.000000
      1.83062075     -0.01159495
      0.10124670      0.56979364
      0.03901771      0.59506484
      5.68267651     -0.02504403
      1.47343316     -0.12525832
      0.51943079     -0.24187935
      0.20679435     -0.11538914
 
          27   0
s              4   1.000000
      8.30693454      0.05675242
      1.52006668      0.26014135
      0.42229117      0.53284611
      0.14015464      0.29162544
s              7   1.000000
      0.92936822     -0.06733101
      0.05643440      0.66948116
      0.02166600      0.51463445
      8.30693454     -0.02902810
      1.52006668     -0.13305880
      0.42229117     -0.27254360
      0.14015464     -0.14916248
p              4   1.000000
      0.64737396      0.05713170
      0.16785440      0.28574555
      0.05917387      0.55178731
      0.02355814      0.26323150
 
          28   0
s              4   1.000000
      8.30678183      0.05675242
      1.52003873      0.26014135
      0.42228340      0.53284611
      0.14015207      0.29162544
s              7   1.000000
      0.92936822     -0.06733121
      0.05643440      0.66948311
      0.02166600      0.51463594
      8.30678183     -0.02902851
      1.52003873     -0.13306067
      0.42228340     -0.27254744
      0.14015207     -0.14916458
p              4   1.000000
      0.64737396      0.05713170
      0.16785440      0.28574555
      0.05917387      0.55178731
      0.02355814      0.26323150
 
          29   0
s              4   1.000000
      8.30598864      0.05675242
      1.51989359      0.26014135
      0.42224308      0.53284611
      0.14013868      0.29162544
s              7   1.000000
      0.92936822     -0.06733223
      0.05643440      0.66949326
      0.02166600      0.51464374
      8.30598864     -0.02903063
      1.51989359     -0.13307040
      0.42224308     -0.27256737
      0.14013868     -0.14917549
p              4   1.000000
      0.64737396      0.05713170
      0.16785440      0.28574555
      0.05917387      0.55178731
      0.02355814      0.26323150
 
          30   0
s              4   1.000000
      8.30672224      0.05675242
      1.52002783      0.26014135
      0.42228037      0.53284611
      0.14015106      0.29162544
s              7   1.000000
      0.92936822     -0.06733129
      0.05643440      0.66948387
      0.02166600      0.51463653
      8.30672224     -0.02902867
      1.52002783     -0.13306140
      0.42228037     -0.27254894
      0.14015106     -0.14916540
p              4   1.000000
      0.64737396      0.05713170
      0.16785440      0.28574555
      0.05917387      0.55178731
      0.02355814      0.26323150
 
          31   0
s              4   1.000000
      8.30640796      0.05675242
      1.51997032      0.26014135
      0.42226440      0.53284611
      0.14014576      0.29162544
s              7   1.000000
      0.92936822     -0.06733169
      0.05643440      0.66948790
      0.02166600      0.51463962
      8.30640796     -0.02902951
      1.51997032     -0.13306526
      0.42226440     -0.27255684
      0.14014576     -0.14916973
p              4   1.000000
      0.64737396      0.05713170
      0.16785440      0.28574555
      0.05917387      0.55178731
      0.02355814      0.26323150
 
          32   0
s              4   1.000000
      8.30630440      0.05675242
      1.51995137      0.26014135
      0.42225913      0.53284611
      0.14014401      0.29162544
s              7   1.000000
      0.92936822     -0.06733183
      0.05643440      0.66948922
      0.02166600      0.51464063
      8.30630440     -0.02902978
      1.51995137     -0.13306653
      0.42225913     -0.27255944
      0.14014401     -0.14917115
p              4   1.000000
      0.64737396      0.05713170
      0.16785440      0.28574555
      0.05917387      0.55178731
      0.02355814      0.26323150
 
          33   0
s              4   1.000000
      8.30992323      0.05675242
      1.52061357      0.26014135
      0.42244310      0.53284611
      0.14020507      0.29162544
s              7   1.000000
      0.92936822     -0.06732717
      0.05643440      0.66944291
      0.02166600      0.51460505
      8.30992323     -0.02902010
      1.52061357     -0.13302214
      0.42244310     -0.27246853
      0.14020507     -0.14912139
p              4   1.000000
      0.64737396      0.05713170
      0.16785440      0.28574555
      0.05917387      0.55178731
      0.02355814      0.26323150
 
          34   0
s              4   1.000000
      8.30878113      0.05675242
      1.52040458      0.26014135
      0.42238504      0.53284611
      0.14018580      0.29162544
s              7   1.000000
      0.92936822     -0.06732864
      0.05643440      0.66945753
      0.02166600      0.51461628
      8.30878113     -0.02902316
      1.52040458     -0.13303615
      0.42238504     -0.27249721
      0.14018580     -0.14913709
p              4   1.000000
      0.64737396      0.05713170
      0.16785440      0.28574555
      0.05917387      0.55178731
      0.02355814      0.26323150
 
          35   0
s              4   1.000000
      8.30887916      0.05675242
      1.52042252      0.26014135
      0.42239002      0.53284611
      0.14018745      0.29162544
s              7   1.000000
      0.92936822     -0.06732851
      0.05643440      0.66945627
      0.02166600      0.51461532
      8.30887916     -0.02902289
      1.52042252     -0.13303494
      0.42239002     -0.27249475
      0.14018745     -0.14913574
p              4   1.000000
      0.64737396      0.05713170
      0.16785440      0.28574555
      0.05917387      0.55178731
      0.02355814      0.26323150
 
          36   0
s              4   1.000000
      8.31052966      0.05675242
      1.52072454      0.26014135
      0.42247393      0.53284611
      0.14021530      0.29162544
s              7   1.000000
      0.92936822     -0.06732639
      0.05643440      0.66943516
      0.02166600      0.51459909
      8.31052966     -0.02901848
      1.52072454     -0.13301471
      0.42247393     -0.27245330
      0.14021530     -0.14911306
p              4   1.000000
      0.64737396      0.05713170
      0.16785440      0.28574555
      0.05917387      0.55178731
      0.02355814      0.26323150
 
          37   0
s              4   1.000000
      8.30921121      0.05675242
      1.52048328      0.26014135
      0.42240690      0.53284611
      0.14019305      0.29162544
s              7   1.000000
      0.92936822     -0.06732809
      0.05643440      0.66945203
      0.02166600      0.51461204
      8.30921121     -0.02902201
      1.52048328     -0.13303087
      0.42240690     -0.27248641
      0.14019305     -0.14913118
p              4   1.000000
      0.64737396      0.05713170
      0.16785440      0.28574555
      0.05917387      0.55178731
      0.02355814      0.26323150
 
          38   0
s              4   1.000000
      8.30886056      0.05675242
      1.52041911      0.26014135
      0.42238908      0.53284611
      0.14018714      0.29162544
s              7   1.000000
      0.92936822     -0.06732854
      0.05643440      0.66945651
      0.02166600      0.51461549
      8.30886056     -0.02902294
      1.52041911     -0.13303517
      0.42238908     -0.27249522
      0.14018714     -0.14913600
p              4   1.000000
      0.64737396      0.05713170
      0.16785440      0.28574555
      0.05917387      0.55178731
      0.02355814      0.26323150
 
          39   0
s              4   1.000000
      8.30882407      0.05675242
      1.52041244      0.26014135
      0.42238722      0.53284611
      0.14018652      0.29162544
s              7   1.000000
      0.92936822     -0.06732858
      0.05643440      0.66945697
      0.02166600      0.51461586
      8.30882407     -0.02902304
      1.52041244     -0.13303562
      0.42238722     -0.27249613
      0.14018652     -0.14913650
p              4   1.000000
      0.64737396      0.05713170
      0.16785440      0.28574555
      0.05917387      0.55178731
      0.02355814      0.26323150
 
          40   0
s              4   1.000000
      8.30885869      0.05675242
      1.52041877      0.26014135
      0.42238898      0.53284611
      0.14018711      0.29162544
s              7   1.000000
      0.92936822     -0.06732854
      0.05643440      0.66945653
      0.02166600      0.51461551
      8.30885869     -0.02902295
      1.52041877     -0.13303520
      0.42238898     -0.27249526
      0.14018711     -0.14913602
p              4   1.000000
      0.64737396      0.05713170
      0.16785440      0.28574555
      0.05917387      0.55178731
      0.02355814      0.26323150
 
          41   0
s              4   1.000000
      8.30920707      0.05675242
      1.52048252      0.26014135
      0.42240669      0.53284611
      0.14019298      0.29162544
s              7   1.000000
      0.92936822     -0.06732809
      0.05643440      0.66945207
      0.02166600      0.51461209
      8.30920707     -0.02902202
      1.52048252     -0.13303092
      0.42240669     -0.27248651
      0.14019298     -0.14913123
p              4   1.000000
      0.64737396      0.05713170
      0.16785440      0.28574555
      0.05917387      0.55178731
      0.02355814      0.26323150
 
          42   0
s              4   1.000000
      8.31109575      0.05675242
      1.52082813      0.26014135
      0.42250271      0.53284611
      0.14022485      0.29162544
s              7   1.000000
      0.92936822     -0.06732566
      0.05643440      0.66942792
      0.02166600      0.51459353
      8.31109575     -0.02901697
      1.52082813     -0.13300777
      0.42250271     -0.27243908
      0.14022485     -0.14910528
p              4   1.000000
      0.64737396      0.05713170
      0.16785440      0.28574555
      0.05917387      0.55178731
      0.02355814      0.26323150
 
          43   0
s              4   1.000000
      8.30930099      0.05675242
      1.52049971      0.26014135
      0.42241147      0.53284611
      0.14019457      0.29162544
s              7   1.000000
      0.92936822     -0.06732797
      0.05643440      0.66945087
      0.02166600      0.51461117
      8.30930099     -0.02902177
      1.52049971     -0.13302977
      0.42241147     -0.27248415
      0.14019457     -0.14912995
p              4   1.000000
      0.64737396      0.05713170
      0.16785440      0.28574555
      0.05917387      0.55178731
      0.02355814      0.26323150
 
          44   0
s              4   1.000000
      8.30920067      0.05675242
      1.52048135      0.26014135
      0.42240637      0.53284611
      0.14019288      0.29162544
s              7   1.000000
      0.92936822     -0.06732810
      0.05643440      0.66945216
      0.02166600      0.51461216
      8.30920067     -0.02902203
      1.52048135     -0.13303100
      0.42240637     -0.27248667
      0.14019288     -0.14913132
p              4   1.000000
      0.64737396      0.05713170
      0.16785440      0.28574555
      0.05917387      0.55178731
      0.02355814      0.26323150
 
          45   0
s              4   1.000000
      8.30868917      0.05675242
      1.52038775      0.26014135
      0.42238037      0.53284611
      0.14018425      0.29162544
s              7   1.000000
      0.92936822     -0.06732876
      0.05643440      0.66945870
      0.02166600      0.51461718
      8.30868917     -0.02902340
      1.52038775     -0.13303727
      0.42238037     -0.27249952
      0.14018425     -0.14913835
p              4   1.000000
      0.64737396      0.05713170
      0.16785440      0.28574555
      0.05917387      0.55178731
      0.02355814      0.26323150
 
          46   0
s              4   1.000000
      8.30893206      0.05675242
      1.52043220      0.26014135
      0.42239271      0.53284611
      0.14018834      0.29162544
s              7   1.000000
      0.92936822     -0.06732844
      0.05643440      0.66945559
      0.02166600      0.51461479
      8.30893206     -0.02902275
      1.52043220     -0.13303430
      0.42239271     -0.27249342
      0.14018834     -0.14913502
p              4   1.000000
      0.64737396      0.05713170
      0.16785440      0.28574555
      0.05917387      0.55178731
      0.02355814      0.26323150
 
          47   0
s              4   1.000000
      8.31114612      0.05675242
      1.52083734      0.26014135
      0.42250527      0.53284611
      0.14022570      0.29162544
s              7   1.000000
      0.92936822     -0.06732560
      0.05643440      0.66942728
      0.02166600      0.51459303
      8.31114612     -0.02901683
      1.52083734     -0.13300715
      0.42250527     -0.27243782
      0.14022570     -0.14910459
p              4   1.000000
      0.64737396      0.05713170
      0.16785440      0.28574555
      0.05917387      0.55178731
      0.02355814      0.26323150
 
 [MO]
 Sym= Hole
 Ene= -0.9995405    
 Spin= Alpha
 Occup= 0
           1 -4.9701892E-02
           2 -5.0413631E-02
           3 -4.3493778E-02
           4 -6.5095022E-02
           5  2.7838103E-02
           6  7.2121974E-03
           7  6.2624328E-03
           8  9.3296990E-03
           9  1.5118431E-03
          10 -2.4355925E-03
          11 -2.1197041E-03
          12  4.2751838E-02
          13  8.2330656E-04
          14  8.2160195E-04
          15  8.1313873E-04
          16 -8.7112449E-03
          17  5.3669270E-02
          18  4.1967191E-02
          19  3.8488176E-02
          20 -9.2994414E-02
          21 -2.9942311E-02
          22 -6.7372308E-03
          23 -6.4396705E-03
          24  1.2731681E-02
          25 -4.0246784E-03
          26 -6.2889480E-03
          27  3.5447715E-04
          28 -0.2848623    
          29  3.8416979E-03
          30  1.0244040E-04
          31  1.8334286E-03
          32  2.7132174E-02
          33  9.0511685E-04
          34 -3.0471935E-04
          35 -2.5477400E-04
          36  1.2652045E-02
          37 -2.2116318E-04
          38 -4.9533315E-05
          39 -4.9478986E-04
          40 -2.7544084E-03
          41 -8.9715340E-04
          42  6.0337456E-03
          43 -4.0238569E-03
          44  0.2722709    
          45  2.1500725E-04
          46  4.5095650E-05
          47  8.2804509E-06
          48 -1.9327363E-02
          49 -1.0009204E-03
          50  8.1169960E-04
          51 -1.9727659E-03
          52  2.0650927E-02
          53  6.4680062E-05
          54  3.2418215E-04
          55  2.5179755E-04
          56 -1.1518495E-02
          57  2.8052111E-03
          58 -1.1738143E-02
          59  5.2684098E-03
          60 -0.3090392    
          61 -1.2165684E-03
          62  1.3248499E-03
          63 -4.7455973E-04
          64  1.5890006E-02
          65 -1.4797840E-03
          66  6.8744394E-06
          67 -1.5100583E-03
          68 -0.1183576    
          69  2.4805618E-03
          70 -1.1097682E-03
          71  1.2189989E-03
          72  2.8414262E-02
          73  6.4553842E-03
          74 -1.0841914E-02
          75 -5.8948612E-03
          76  0.6126260    
          77 -2.6700436E-03
          78  2.0204524E-03
          79  1.0541375E-03
          80 -6.4902760E-02
          81 -1.1661312E-03
          82  2.2845012E-03
          83  2.1559359E-03
          84 -6.6981532E-02
          85  1.0496455E-03
          86 -7.2297768E-04
          87 -6.7465001E-04
          88  1.6193181E-02
          89 -5.7729311E-02
          90  4.6468150E-02
          91  4.4399090E-02
          92  8.8619806E-02
          93  3.1398263E-02
          94 -1.2807576E-02
          95 -1.1295325E-02
          96 -5.3812326E-03
          97  1.8710120E-02
          98 -2.3179587E-02
          99 -1.8743258E-02
         100 -1.5400617E-02
         101 -5.8628940E-03
         102  1.8074530E-03
         103  1.4004355E-03
         104  1.8015230E-03
         105 -1.7814239E-04
         106  7.6576491E-04
         107 -1.5173393E-03
         108  2.0503273E-02
         109  5.5018740E-05
         110  1.5182751E-05
         111  1.5793156E-04
         112 -1.6791077E-03
         113 -1.8717844E-02
         114  2.4225967E-02
         115  1.9012295E-02
         116 -1.4574254E-02
         117  5.8643543E-03
         118 -1.4380681E-03
         119 -8.7424193E-04
         120  1.7068638E-03
         121  5.7533823E-02
         122 -5.2701756E-02
         123 -4.1701443E-02
         124  8.7611556E-02
         125 -3.0501721E-02
         126  1.2841290E-02
         127  1.0685705E-02
         128 -4.8524328E-03
         129 -1.4716341E-03
         130 -1.5383494E-03
         131 -6.0184003E-04
         132 -0.1065533    
         133  2.4966085E-03
         134  6.0849049E-04
         135 -1.0059972E-03
         136  2.8900862E-02
         137  2.6658338E-03
         138  1.5303076E-03
         139 -1.3833620E-02
         140 -0.2073601    
         141 -9.9794019E-04
         142 -3.6707718E-04
         143  1.4895750E-03
         144  1.1563495E-02
         145 -1.2948924E-03
         146 -1.7317468E-03
         147  2.3372860E-03
         148  3.3717286E-02
         149  2.6228977E-04
         150  9.2007562E-05
         151 -3.4877503E-05
         152 -1.1755423E-02
         153 -8.2282722E-04
         154  7.6246978E-04
         155  8.3014853E-03
         156  0.1957578    
         157  3.1687020E-04
         158 -3.8421145E-04
         159 -2.1564208E-04
         160 -1.5547129E-02
         161  7.8060293E-05
         162  2.0291418E-04
         163 -4.0208109E-04
         164 -5.4703238E-03
         165 -1.5108874E-04
         166 -2.2173957E-04
         167  4.0079126E-04
         168  8.4039150E-03
         169  6.6850967E-05
         170 -1.4978303E-03
         171 -7.1232254E-03
         172 -0.1543064    
         173 -1.7142505E-04
         174  3.8597933E-05
         175  5.4711360E-04
         176  1.3335434E-02
         177 -2.6025029E-04
         178 -2.2162803E-04
         179  3.7404147E-04
         180  5.8354228E-03
         181  7.2152186E-05
         182  1.4394063E-04
         183 -2.2156270E-04
         184  8.1306894E-04
         185  4.5939413E-04
         186  2.1755104E-03
         187  5.3020800E-03
         188  0.1405420    
         189 -7.0349680E-04
         190 -1.2081331E-03
         191 -2.8960843E-04
         192 -8.1994003E-03
         193  6.9740386E-04
         194  4.4549574E-04
         195 -2.1291875E-04
         196 -1.7997790E-03
         197 -3.6303962E-05
         198 -6.9685013E-04
         199 -1.3856203E-04
         200 -4.8750453E-03
         201 -4.1048513E-03
         202 -4.6761306E-03
         203 -1.0681898E-02
         204 -0.3642533    
         205  3.9412142E-03
         206  2.1462417E-03
         207  1.7152661E-04
         208  3.0993838E-02
         209  1.7496675E-02
         210  2.1875466E-03
         211  4.6314261E-04
         212  8.5497098E-03
         213 -1.0604329E-02
         214  1.3368611E-02
         215  4.9962369E-03
         216  1.1569779E-02
         217 -8.6505798E-04
         218 -1.0608057E-02
         219  2.7812552E-02
         220 -1.1100310E-03
         221 -8.6862501E-03
         222 -9.9068889E-03
         223  2.3827000E-05
         224 -2.7577840E-02
         225  1.6449849E-04
         226  6.8364502E-03
         227 -2.7094169E-03
         228 -8.0694119E-03
         229 -5.0903303E-03
         230 -7.4203475E-03
         231 -1.0963294E-02
         232 -7.5200563E-03
         233 -1.0320251E-02
         234 -2.9684301E-02
         235 -6.3016656E-04
         236 -2.5610611E-04
         237  1.2014206E-02
         238 -4.8279460E-03
         239  2.2630868E-04
         240 -8.3565671E-04
         241  1.0438379E-04
         242 -1.4944985E-03
         243  3.4778595E-03
         244  1.7813467E-04
         245 -2.2669902E-04
         246  4.6145753E-04
         247 -5.5116747E-04
         248  2.5584653E-02
         249  1.5010741E-03
         250 -4.7015803E-04
         251  2.3368117E-04
         252  1.3400530E-04
         253  6.4482950E-03
         254 -3.6751639E-04
         255 -6.3319609E-04
         256  5.0584538E-05
         257 -3.2271675E-04
         258 -1.9552365E-02
         259  2.9227579E-02
         260  9.6211750E-03
         261 -1.9750569E-02
         262 -1.6788835E-02
         263 -9.3730567E-03
         264 -3.8161453E-02
         265  7.1768212E-04
         266  3.2265277E-03
         267  2.4023838E-03
         268  9.7509637E-04
         269 -3.9506631E-05
         270  6.1680847E-05
         271 -5.2819523E-05
         272 -2.4804511E-04
         273  3.9799740E-03
         274  3.9158840E-02
         275 -6.9355220E-04
         276 -3.3439142E-03
         277 -2.4537412E-03
         278  8.4728381E-04
         279 -2.9422726E-02
         280 -8.5043143E-03
         281  1.8842841E-02
         282  1.5564390E-02
         283 -9.0758754E-03
         284  2.2625341E-04
         285 -6.0161442E-04
         286 -3.0300862E-04
         287  5.0254166E-04
         288 -1.2938809E-02
         289  1.7984239E-03
         290 -4.7188377E-04
         291  2.1931574E-04
         292  4.4670579E-04
         293  9.1435676E-03
         294  3.7397692E-06
         295 -2.5869487E-04
         296 -1.2985700E-04
         297  7.4228185E-05
         298 -2.2548113E-03
         299 -1.6806039E-04
         300 -2.0251518E-04
         301 -3.1142632E-04
         302 -7.4866530E-04
         303 -1.8145699E-02
         304 -1.0204603E-04
         305  1.1466122E-05
         306  2.0335118E-04
         307 -3.4487446E-05
         308  3.8412958E-04
         309  6.0381251E-04
         310 -7.7867677E-04
         311 -7.6994952E-04
         312  7.4968161E-04
         313  1.3253859E-02
 Sym= Particle
 Ene= -0.9995405    
 Spin= Alpha
 Occup= 2
           1 -1.6141537E-05
           2  5.6106073E-04
           3  9.6251129E-04
           4  6.8126025E-04
           5  6.5693673E-04
           6  3.0255013E-03
           7 -3.5567514E-03
           8 -5.3383340E-04
           9 -5.3875527E-04
          10  1.0671749E-02
          11 -1.2235958E-02
          12  1.0670932E-04
          13  1.3377611E-03
          14 -9.2628109E-04
          15  1.4602273E-03
          16 -7.3489150E-06
          17 -5.5237551E-04
          18  3.1638192E-05
          19  1.1759112E-03
          20 -6.0317054E-04
          21  1.1697582E-03
          22  3.3138320E-03
          23 -3.6620055E-03
          24  3.1870548E-04
          25  1.8096717E-02
          26  1.9737931E-02
          27  1.8427525E-02
          28  2.8335850E-03
          29 -1.1307595E-02
          30 -2.8710356E-03
          31 -1.3240708E-02
          32 -1.6482950E-03
          33 -9.5854905E-03
          34  5.8122040E-03
          35 -1.0196806E-02
          36  2.3017996E-03
          37  6.3886507E-03
          38  4.3697520E-03
          39  8.8737626E-04
          40 -7.1129279E-04
          41 -2.7602927E-03
          42 -2.0416505E-03
          43 -2.1052470E-03
          44 -4.3294751E-03
          45  4.9094139E-03
          46  6.8683992E-03
          47  5.6272307E-03
          48  5.8530853E-04
          49  5.0126710E-03
          50 -6.0687610E-04
          51  4.2579863E-03
          52  8.1947766E-04
          53 -5.7261079E-03
          54  6.7938017E-03
          55  7.3108624E-04
          56 -7.6836743E-04
          57 -4.2629391E-03
          58 -1.3682612E-02
          59 -5.4361629E-03
          60  3.1178552E-03
          61 -4.0681820E-04
          62  1.2726150E-02
          63  1.1959347E-02
          64 -2.1310450E-05
          65 -4.9307961E-02
          66  1.5121811E-02
          67 -7.4977547E-02
          68 -9.1399970E-03
          69  3.8858239E-02
          70  1.4024106E-02
          71  3.8780127E-02
          72  3.1790619E-03
          73  2.5269459E-05
          74  1.0238523E-02
          75 -4.7403802E-03
          76 -2.4286001E-04
          77 -6.5179956E-05
          78  1.7207121E-02
          79 -2.4301354E-02
          80 -1.4919895E-04
          81 -2.8872911E-03
          82  0.4038718    
          83 -0.4777335    
          84  6.8553938E-03
          85  2.3703161E-03
          86 -0.1591968    
          87  0.1898921    
          88 -2.7021898E-03
          89  4.3213737E-04
          90 -0.2102123    
          91  0.2513376    
          92 -5.3276331E-03
          93  3.3659843E-04
          94  6.9730811E-02
          95 -8.2975209E-02
          96  2.3068227E-03
          97 -6.0305063E-04
          98 -0.1389295    
          99  0.1672877    
         100 -2.9592493E-03
         101  1.1552380E-03
         102  3.4628969E-02
         103 -4.2488467E-02
         104  7.9467549E-04
         105 -3.1765693E-04
         106  0.3164725    
         107 -0.3796054    
         108  5.3316345E-03
         109  8.8929507E-04
         110 -7.9115048E-02
         111  9.4368465E-02
         112 -1.2591658E-03
         113 -4.5567530E-04
         114 -0.1321689    
         115  0.1588469    
         116 -1.9579993E-03
         117  8.6618238E-04
         118  3.3405531E-02
         119 -4.0645119E-02
         120  4.0677321E-04
         121  3.4572970E-04
         122 -0.2161660    
         123  0.2582805    
         124 -2.5452396E-03
         125  2.9102099E-04
         126  7.2405189E-02
         127 -8.6251773E-02
         128  4.3432807E-04
         129  4.8795719E-02
         130  7.1820430E-02
         131 -2.6734212E-02
         132  5.3955945E-03
         133 -3.7133005E-02
         134 -4.0325247E-02
         135 -8.4006339E-03
         136 -1.7037602E-03
         137  5.7346048E-03
         138  1.1519260E-02
         139  1.6314035E-02
         140  1.6617578E-03
         141  1.0177464E-03
         142 -1.6055213E-02
         143 -1.1856923E-02
         144 -1.0743751E-03
         145 -6.2706382E-03
         146 -5.5898079E-03
         147  2.3644918E-03
         148 -1.3344766E-03
         149  8.0653522E-03
         150 -2.3510950E-03
         151 -6.5791518E-03
         152  1.2448179E-03
         153  3.3326363E-03
         154  3.4149159E-03
         155  2.6319786E-03
         156 -1.1000466E-03
         157 -3.4982620E-03
         158 -8.6462209E-03
         159 -6.1972830E-03
         160  8.4713404E-04
         161 -1.0816961E-03
         162 -9.6195593E-04
         163  1.4293282E-03
         164  3.7150225E-03
         165 -3.2395995E-03
         166 -7.0937667E-03
         167 -1.4823402E-03
         168 -1.0327642E-03
         169  1.0706184E-03
         170  1.1249549E-03
         171 -1.0371165E-05
         172 -2.1841507E-03
         173 -3.5380505E-03
         174 -2.4772536E-03
         175 -8.6556037E-04
         176  5.1851966E-04
         177  2.3164928E-03
         178  2.4934483E-03
         179 -1.6135901E-03
         180 -2.6730634E-03
         181 -3.7983931E-03
         182 -1.8881253E-03
         183 -1.2955205E-03
         184  7.0348964E-04
         185 -4.3152003E-03
         186 -5.3059286E-03
         187 -4.1620345E-03
         188  4.7588591E-03
         189  4.6960512E-04
         190 -1.8258642E-03
         191 -1.8476943E-03
         192 -1.2644961E-03
         193  9.3016708E-03
         194  1.0326648E-02
         195 -6.4790440E-03
         196 -1.5061392E-03
         197 -4.5065149E-03
         198 -4.3322216E-03
         199 -3.0320012E-03
         200  8.1357692E-04
         201 -1.8149961E-02
         202 -1.8391464E-02
         203 -1.4904805E-02
         204 -1.8109732E-03
         205  1.3618005E-02
         206  1.2263780E-02
         207  2.1195563E-04
         208  9.9606661E-04
         209  2.5117856E-03
         210 -2.9434816E-03
         211  6.0914760E-04
         212 -2.6769491E-03
         213 -2.3351556E-03
         214 -1.9379664E-03
         215  2.4122917E-03
         216  3.4183250E-03
         217 -1.2717349E-03
         218  2.0327421E-03
         219 -3.8877199E-04
         220  6.0939213E-04
         221  2.4835628E-03
         222 -1.6303101E-03
         223  5.3793349E-04
         224  2.9596528E-03
         225 -2.7650434E-03
         226 -6.6591828E-04
         227 -2.2595411E-03
         228  2.1987252E-03
         229 -4.0976133E-04
         230  7.3218864E-04
         231  2.1709560E-03
         232 -2.0506857E-03
         233 -4.6366735E-04
         234 -1.9693172E-03
         235  3.0845322E-03
         236  3.8303176E-03
         237 -8.2097400E-04
         238 -2.2350592E-03
         239  1.1239656E-02
         240  1.8489050E-03
         241  2.9915702E-03
         242 -2.3097876E-03
         243  3.7902565E-04
         244  2.7274599E-03
         245  7.2299931E-03
         246  1.9099521E-03
         247  4.5272280E-03
         248 -1.2525661E-03
         249  7.4100336E-03
         250  3.4371249E-03
         251 -4.5545013E-03
         252  2.3781843E-03
         253  1.7136705E-04
         254  1.0876629E-02
         255 -9.4098970E-03
         256 -2.1559598E-02
         257  1.1972542E-02
         258  5.9774672E-03
         259  1.0980297E-03
         260 -3.4584219E-04
         261 -5.6320805E-02
         262  6.6998638E-02
         263 -4.3524482E-04
         264  6.1387493E-04
         265  5.0210969E-05
         266 -2.8914003E-02
         267  3.4603510E-02
         268 -4.7357276E-04
         269  1.5388273E-04
         270  1.4619010E-04
         271  7.4781455E-02
         272 -8.9369670E-02
         273  1.2313594E-03
         274  5.6014198E-04
         275  1.7747717E-04
         276 -2.6986515E-02
         277  3.2208875E-02
         278 -7.2488509E-04
         279  1.0605516E-03
         280 -7.3964155E-05
         281 -5.6908634E-02
         282  6.7308523E-02
         283 -1.6176716E-03
         284 -1.0390768E-02
         285  1.0267566E-02
         286 -1.1216772E-02
         287  2.6557771E-02
         288 -5.4561635E-03
         289 -8.6086383E-03
         290 -1.8464795E-03
         291 -2.1204650E-03
         292  4.8664706E-03
         293 -3.3178942E-05
         294 -7.2628661E-04
         295 -5.6807795E-03
         296 -5.4200776E-03
         297  1.5054774E-03
         298  5.4723251E-04
         299 -1.1077659E-03
         300 -2.6847529E-03
         301 -1.1351261E-03
         302 -1.4696749E-04
         303 -7.5654643E-05
         304 -2.6713109E-03
         305 -1.4375709E-03
         306  6.1542343E-04
         307 -1.3107193E-03
         308 -7.7495037E-04
         309 -1.8396326E-04
         310 -1.9995838E-03
         311 -1.1040833E-03
         312 -3.3642412E-03
         313  1.2360349E-03
