 [Molden Format]
 [Atoms] Angs
N       1      7     -7.45889149      2.92424862      2.09142019
C       2      6     -6.38815010      2.82909209      1.68448714
C       3      6     -5.07582197      2.71344290      1.18867345
C       4      6     -4.15742987      1.86802679      1.81944327
C       5      6     -2.87562976      1.75672274      1.33349896
C       6      6     -2.47214047      2.48117720      0.20433125
N       7      7     -1.18118737      2.36079947     -0.28227120
C       8      6     -0.54207825      3.44618728     -0.91201236
C       9      6      0.22316900      3.23436790     -2.05670171
C      10      6      0.86942640      4.29436978     -2.66458129
C      11      6      0.75730280      5.57352941     -2.14426110
C      12      6     -0.00799706      5.78800111     -1.00928889
C      13      6     -0.65263480      4.73301689     -0.39066038
C      14      6     -0.47816398      1.15428038     -0.15818941
C      15      6     -1.11745226     -0.05991530     -0.39565846
C      16      6     -0.41033218     -1.25130712     -0.28203759
N      17      7     -1.05182142     -2.47176697     -0.52525285
C      18      6     -0.57967604     -3.48773904     -1.33747641
C      19      6      0.55736264     -3.53320355     -2.13215596
C      20      6      0.77943450     -4.67452433     -2.87961934
C      21      6     -0.10823822     -5.74790168     -2.85109323
C      22      6     -1.25503190     -5.69829463     -2.08368427
C      23      6     -1.50018476     -4.56066881     -1.32529368
C      24      6     -2.57718473     -4.16692248     -0.45976883
C      25      6     -3.74759105     -4.79213705     -0.04918293
C      26      6     -4.58461648     -4.12420990      0.82267182
C      27      6     -4.25771169     -2.85571786      1.29687873
C      28      6     -3.09700003     -2.21583836      0.90493954
C      29      6     -2.26434127     -2.87005478      0.00811234
C      30      6      0.94137523     -1.23248856      0.04808373
C      31      6      1.58272370     -0.01797670      0.27031510
N      32      7      2.94272048      0.00526201      0.59938560
C      33      6      3.90194200      0.80399285      0.00323668
C      34      6      3.77541729      1.71564114     -1.03530749
C      35      6      4.91536250      2.36913930     -1.46407393
C      36      6      6.15821406      2.12035661     -0.88575749
C      37      6      6.29455288      1.19739922      0.13231030
C      38      6      5.16259006      0.52881915      0.58079304
C      39      6      4.94382012     -0.48026027      1.58005587
C      40      6      5.78109998     -1.13071920      2.47746375
C      41      6      5.23237116     -2.05566033      3.34361451
C      42      6      3.86494402     -2.32226881      3.33267480
C      43      6      3.01237879     -1.68787325      2.44872527
C      44      6      3.56170221     -0.77708755      1.55723493
C      45      6      0.87222903      1.17304410      0.17906508
C      46      6     -3.39520754      3.33151227     -0.41736765
C      47      6     -4.67832536      3.44606097      0.06543667
H      48      1     -4.45893016      1.31449657      2.69665340
H      49      1     -2.16243678      1.12050296      1.83592906
H      50      1      0.30044273      2.23786616     -2.46734669
H      51      1      1.45765441      4.12078393     -3.55361558
H      52      1      1.26244713      6.39937158     -2.62174227
H      53      1     -0.09752470      6.78182198     -0.59625645
H      54      1     -1.24021428      4.89894288      0.50051432
H      55      1     -2.15498288     -0.07480762     -0.69150072
H      56      1      1.24500488     -2.70257711     -2.18022995
H      57      1      1.65995538     -4.73327011     -3.50278245
H      58      1      0.10249429     -6.62420754     -3.44637428
H      59      1     -1.95306421     -6.52192983     -2.07480621
H      60      1     -3.99288442     -5.78165342     -0.40475461
H      61      1     -5.50218218     -4.59041053      1.15035802
H      62      1     -4.92539777     -2.36252984      1.98835571
H      63      1     -2.84944223     -1.24065213      1.29333031
H      64      1      1.49092959     -2.15648941      0.12836628
H      65      1      2.82190267      1.90831003     -1.50182055
H      66      1      4.84120814      3.08682004     -2.26792337
H      67      1      7.02570030      2.65287794     -1.24719163
H      68      1      7.25994338      0.99342599      0.57085038
H      69      1      6.83808515     -0.91105971      2.49733372
H      70      1      5.86621021     -2.57470046      4.04752923
H      71      1      3.46054427     -3.03856820      4.03304725
H      72      1      1.95223086     -1.89054454      2.46492400
H      73      1      1.36248647      2.11154416      0.38538907
H      74      1     -3.09662822      3.89282644     -1.28971432
H      75      1     -5.38884113      4.09516382     -0.42493506
 [GTO]
           1   0
s              4   1.000000
     53.06140381     -0.01198412
      9.13761280     -0.05472053
      0.73424618      0.58055871
      0.27983939      0.47700799
p              4   1.000000
      6.25445252      0.05713170
      1.62168614      0.28574555
      0.57169455      0.55178731
      0.22760145      0.26323149
s              7   1.000000
      0.47894987     -0.19076511
      0.05878681      0.92170690
      0.02775758      0.24205423
     53.06140381      0.00456737
      9.13761280      0.02085501
      0.73424618     -0.22126173
      0.27983939     -0.18179662
p              7   1.000000
      2.28619608     -0.01184703
      0.12644335      0.58218096
      0.04872781      0.60800153
      6.25445252     -0.02825303
      1.62168614     -0.14130819
      0.57169455     -0.27287237
      0.22760145     -0.13017443
 
           2   0
s              4   1.000000
     32.72180553     -0.01198412
      5.63496567     -0.05472052
      0.45279354      0.58055871
      0.17257082      0.47700800
p              4   1.000000
      5.27397381      0.05713170
      1.36746265      0.28574555
      0.48207290      0.55178731
      0.19192153      0.26323149
s              7   1.000000
      0.38350848     -0.19849547
      0.04707223      0.95905716
      0.02222627      0.25186298
     32.72180553      0.00587038
      5.63496567      0.02680467
      0.45279354     -0.28438482
      0.17257082     -0.23366083
p              7   1.000000
      1.83062075     -0.01173743
      0.10124670      0.57679552
      0.03901771      0.60237725
      5.27397381     -0.02689657
      1.36746265     -0.13452384
      0.48207290     -0.25977149
      0.19192153     -0.12392463
 
           3   0
s              4   1.000000
     34.96675423     -0.01198412
      6.02156442     -0.05472053
      0.48385839      0.58055871
      0.18441041      0.47700800
p              4   1.000000
      5.63580594      0.05713170
      1.46128032      0.28574555
      0.51514653      0.55178731
      0.20508871      0.26323149
s              7   1.000000
      0.38350848     -0.19620149
      0.04707223      0.94797349
      0.02222627      0.24895222
     34.96675423      0.00551081
      6.02156442      0.02516286
      0.48385839     -0.26696592
      0.18441041     -0.21934884
p              7   1.000000
      1.83062075     -0.01160990
      0.10124670      0.57052846
      0.03901771      0.59583225
      5.63580594     -0.02524374
      1.46128032     -0.12625717
      0.51514653     -0.24380818
      0.20508871     -0.11630929
 
           4   0
s              4   1.000000
     35.01181646     -0.01198412
      6.02932450     -0.05472053
      0.48448195      0.58055871
      0.18464806      0.47700799
p              4   1.000000
      5.64306889      0.05713170
      1.46316350      0.28574555
      0.51581041      0.55178731
      0.20535301      0.26323149
s              7   1.000000
      0.38350848     -0.19615941
      0.04707223      0.94777020
      0.02222627      0.24889884
     35.01181646      0.00550404
      6.02932450      0.02513193
      0.48448195     -0.26663777
      0.18464806     -0.21907922
p              7   1.000000
      1.83062075     -0.01160756
      0.10124670      0.57041353
      0.03901771      0.59571221
      5.64306889     -0.02521259
      1.46316350     -0.12610137
      0.51581041     -0.24350734
      0.20535301     -0.11616578
 
           5   0
s              4   1.000000
     35.02147435     -0.01198412
      6.03098767     -0.05472053
      0.48461559      0.58055871
      0.18469900      0.47700799
p              4   1.000000
      5.64462551      0.05713170
      1.46356711      0.28574555
      0.51595270      0.55178730
      0.20540966      0.26323149
s              7   1.000000
      0.38350848     -0.19615042
      0.04707223      0.94772673
      0.02222627      0.24888743
     35.02147435      0.00550259
      6.03098767      0.02512531
      0.48461559     -0.26656755
      0.18469900     -0.21902152
p              7   1.000000
      1.83062075     -0.01160706
      0.10124670      0.57038895
      0.03901771      0.59568652
      5.64462551     -0.02520593
      1.46356711     -0.12606803
      0.51595270     -0.24344295
      0.20540966     -0.11613506
 
           6   0
s              4   1.000000
     35.18646894     -0.01198412
      6.05940111     -0.05472052
      0.48689873      0.58055871
      0.18556916      0.47700800
p              4   1.000000
      5.67121870      0.05713170
      1.47046232      0.28574555
      0.51838347      0.55178731
      0.20637739      0.26323149
s              7   1.000000
      0.38350848     -0.19599770
      0.04707223      0.94698884
      0.02222627      0.24869365
     35.18646894      0.00547794
      6.05940111      0.02501275
      0.48689873     -0.26537336
      0.18556916     -0.21804033
p              7   1.000000
      1.83062075     -0.01159858
      0.10124670      0.56997178
      0.03901771      0.59525085
      5.67121870     -0.02509257
      1.47046232     -0.12550107
      0.51838347     -0.24234812
      0.20637739     -0.11561277
 
           7   0
s              4   1.000000
     61.17537742     -0.01198412
     10.53490620     -0.05472052
      0.84652466      0.58055871
      0.32263150      0.47700799
p              4   1.000000
      7.21086262      0.05713170
      1.86966900      0.28574555
      0.65911618      0.55178731
      0.26240551      0.26323149
s              7   1.000000
      0.47894987     -0.18779080
      0.05878681      0.90733617
      0.02775758      0.23828024
     61.17537742      0.00397138
     10.53490620      0.01813369
      0.84652466     -0.19238978
      0.32263150     -0.15807439
p              7   1.000000
      2.28619608     -0.01156676
      0.12644335      0.56840832
      0.04872781      0.59361807
      7.21086262     -0.02466385
      1.86966900     -0.12335681
      0.65911618     -0.23820746
      0.26240551     -0.11363745
 
           8   0
s              4   1.000000
     35.21050643     -0.01198412
      6.06354056     -0.05472052
      0.48723136      0.58055871
      0.18569593      0.47700800
p              4   1.000000
      5.67509297      0.05713170
      1.47146687      0.28574555
      0.51873760      0.55178731
      0.20651838      0.26323149
s              7   1.000000
      0.38350848     -0.19597561
      0.04707223      0.94688212
      0.02222627      0.24866562
     35.21050643      0.00547437
      6.06354056      0.02499643
      0.48723136     -0.26520026
      0.18569593     -0.21789811
p              7   1.000000
      1.83062075     -0.01159735
      0.10124670      0.56991143
      0.03901771      0.59518782
      5.67509297     -0.02507614
      1.47146687     -0.12541889
      0.51873760     -0.24218942
      0.20651838     -0.11553706
 
           9   0
s              4   1.000000
     35.02140652     -0.01198412
      6.03097599     -0.05472053
      0.48461465      0.58055871
      0.18469864      0.47700799
p              4   1.000000
      5.64461458      0.05713170
      1.46356427      0.28574555
      0.51595170      0.55178731
      0.20540926      0.26323149
s              7   1.000000
      0.38350848     -0.19615048
      0.04707223      0.94772703
      0.02222627      0.24888751
     35.02140652      0.00550260
      6.03097599      0.02512535
      0.48461465     -0.26656804
      0.18469864     -0.21902192
p              7   1.000000
      1.83062075     -0.01160707
      0.10124670      0.57038912
      0.03901771      0.59568673
      5.64461458     -0.02520597
      1.46356427     -0.12606827
      0.51595170     -0.24344341
      0.20540926     -0.11613528
 
          10   0
s              4   1.000000
     34.92239921     -0.01198412
      6.01392612     -0.05472052
      0.48324462      0.58055871
      0.18417649      0.47700799
p              4   1.000000
      5.62865697      0.05713170
      1.45942670      0.28574555
      0.51449307      0.55178731
      0.20482856      0.26323149
s              7   1.000000
      0.38350848     -0.19624304
      0.04707223      0.94817426
      0.02222627      0.24900497
     34.92239921      0.00551750
      6.01392612      0.02519337
      0.48324462     -0.26728970
      0.18417649     -0.21961486
p              7   1.000000
      1.83062075     -0.01161221
      0.10124670      0.57064197
      0.03901771      0.59595078
      5.62865697     -0.02527447
      1.45942670     -0.12641088
      0.51449307     -0.24410500
      0.20482856     -0.11645089
 
          11   0
s              4   1.000000
     34.91749195     -0.01198412
      6.01308104     -0.05472052
      0.48317672      0.58055871
      0.18415061      0.47700799
p              4   1.000000
      5.62786604      0.05713170
      1.45922163      0.28574555
      0.51442078      0.55178731
      0.20479978      0.26323149
s              7   1.000000
      0.38350848     -0.19624765
      0.04707223      0.94819652
      0.02222627      0.24901079
     34.91749195      0.00551824
      6.01308104      0.02519675
      0.48317672     -0.26732557
      0.18415061     -0.21964434
p              7   1.000000
      1.83062075     -0.01161247
      0.10124670      0.57065455
      0.03901771      0.59596393
      5.62786604     -0.02527788
      1.45922163     -0.12642791
      0.51442078     -0.24413788
      0.20479978     -0.11646658
 
          12   0
s              4   1.000000
     34.92216654     -0.01198412
      6.01388605     -0.05472052
      0.48324140      0.58055871
      0.18417526      0.47700799
p              4   1.000000
      5.62861947      0.05713170
      1.45941698      0.28574555
      0.51448965      0.55178731
      0.20482719      0.26323149
s              7   1.000000
      0.38350848     -0.19624326
      0.04707223      0.94817532
      0.02222627      0.24900524
     34.92216654      0.00551753
      6.01388605      0.02519353
      0.48324140     -0.26729140
      0.18417526     -0.21961626
p              7   1.000000
      1.83062075     -0.01161223
      0.10124670      0.57064256
      0.03901771      0.59595139
      5.62861947     -0.02527464
      1.45941698     -0.12641168
      0.51448965     -0.24410656
      0.20482719     -0.11645164
 
          13   0
s              4   1.000000
     35.01414157     -0.01198412
      6.02972491     -0.05472053
      0.48451412      0.58055871
      0.18466032      0.47700800
p              4   1.000000
      5.64344365      0.05713170
      1.46326067      0.28574555
      0.51584467      0.55178731
      0.20536665      0.26323149
s              7   1.000000
      0.38350848     -0.19615725
      0.04707223      0.94775973
      0.02222627      0.24889609
     35.01414157      0.00550369
      6.02972491      0.02513033
      0.48451412     -0.26662086
      0.18466032     -0.21906533
p              7   1.000000
      1.83062075     -0.01160744
      0.10124670      0.57040761
      0.03901771      0.59570602
      5.64344365     -0.02521099
      1.46326067     -0.12609335
      0.51584467     -0.24349183
      0.20536665     -0.11615838
 
          14   0
s              4   1.000000
     35.21139382     -0.01198412
      6.06369338     -0.05472052
      0.48724364      0.58055871
      0.18570061      0.47700799
p              4   1.000000
      5.67523600      0.05713170
      1.47150395      0.28574555
      0.51875068      0.55178731
      0.20652358      0.26323149
s              7   1.000000
      0.38350848     -0.19597479
      0.04707223      0.94687819
      0.02222627      0.24866457
     35.21139382      0.00547423
      6.06369338      0.02499583
      0.48724364     -0.26519387
      0.18570061     -0.21789286
p              7   1.000000
      1.83062075     -0.01159730
      0.10124670      0.56990921
      0.03901771      0.59518552
      5.67523600     -0.02507553
      1.47150395     -0.12541585
      0.51875068     -0.24218357
      0.20652358     -0.11553427
 
          15   0
s              4   1.000000
     35.10997039     -0.01198412
      6.04622742     -0.05472053
      0.48584017      0.58055871
      0.18516572      0.47700799
p              4   1.000000
      5.65888896      0.05713170
      1.46726541      0.28574555
      0.51725646      0.55178731
      0.20592871      0.26323149
s              7   1.000000
      0.38350848     -0.19606827
      0.04707223      0.94732981
      0.02222627      0.24878318
     35.10997039      0.00548934
      6.04622742      0.02506481
      0.48584017     -0.26592573
      0.18516572     -0.21849418
p              7   1.000000
      1.83062075     -0.01160250
      0.10124670      0.57016454
      0.03901771      0.59545216
      5.65888896     -0.02514500
      1.46726541     -0.12576332
      0.51725646     -0.24285454
      0.20592871     -0.11585436
 
          16   0
s              4   1.000000
     35.12766043     -0.01198412
      6.04927380     -0.05472052
      0.48608496      0.58055871
      0.18525901      0.47700799
p              4   1.000000
      5.66174018      0.05713170
      1.46800468      0.28574555
      0.51751708      0.55178731
      0.20603247      0.26323149
s              7   1.000000
      0.38350848     -0.19605191
      0.04707223      0.94725079
      0.02222627      0.24876244
     35.12766043      0.00548670
      6.04927380      0.02505275
      0.48608496     -0.26579780
      0.18525901     -0.21838907
p              7   1.000000
      1.83062075     -0.01160159
      0.10124670      0.57011986
      0.03901771      0.59540552
      5.66174018     -0.02513286
      1.46800468     -0.12570258
      0.51751708     -0.24273725
      0.20603247     -0.11579840
 
          17   0
s              4   1.000000
     61.42527442     -0.01198412
     10.57794053     -0.05472052
      0.84998266      0.58055871
      0.32394943      0.47700799
p              4   1.000000
      7.24031847      0.05713170
      1.87730646      0.28574555
      0.66180862      0.55178731
      0.26347742      0.26323149
s              7   1.000000
      0.47894987     -0.18771594
      0.05878681      0.90697446
      0.02775758      0.23818527
     61.42527442      0.00395536
     10.57794053      0.01806050
      0.84998266     -0.19161329
      0.32394943     -0.15743640
p              7   1.000000
      2.28619608     -0.01155967
      0.12644335      0.56805974
      0.04872781      0.59325399
      7.24031847     -0.02456740
      1.87730646     -0.12287444
      0.66180862     -0.23727598
      0.26347742     -0.11319309
 
          18   0
s              4   1.000000
     35.61599750     -0.01198412
      6.13336948     -0.05472052
      0.49284241      0.58055871
      0.18783444      0.47700799
p              4   1.000000
      5.74044845      0.05713170
      1.48841256      0.28574555
      0.52471149      0.55178731
      0.20889668      0.26323149
s              7   1.000000
      0.38350848     -0.19560894
      0.04707223      0.94511051
      0.02222627      0.24820036
     35.61599750      0.00541477
      6.13336948      0.02472431
      0.49284241     -0.26231317
      0.18783444     -0.21552597
p              7   1.000000
      1.83062075     -0.01157697
      0.10124670      0.56890986
      0.03901771      0.59414183
      5.74044845     -0.02480205
      1.48841256     -0.12404806
      0.52471149     -0.23954229
      0.20889668     -0.11427424
 
          19   0
s              4   1.000000
     34.94248018     -0.01198412
      6.01738422     -0.05472053
      0.48352250      0.58055871
      0.18428239      0.47700800
p              4   1.000000
      5.63189354      0.05713170
      1.46026590      0.28574555
      0.51478892      0.55178730
      0.20494634      0.26323149
s              7   1.000000
      0.38350848     -0.19622421
      0.04707223      0.94808328
      0.02222627      0.24898106
     34.94248018      0.00551447
      6.01738422      0.02517955
      0.48352250     -0.26714302
      0.18428239     -0.21949435
p              7   1.000000
      1.83062075     -0.01161117
      0.10124670      0.57059053
      0.03901771      0.59589706
      5.63189354     -0.02526055
      1.46026590     -0.12634124
      0.51478892     -0.24397053
      0.20494634     -0.11638674
 
          20   0
s              4   1.000000
     34.93438761     -0.01198412
      6.01599062     -0.05472053
      0.48341051      0.58055871
      0.18423971      0.47700799
p              4   1.000000
      5.63058921      0.05713170
      1.45992770      0.28574555
      0.51466969      0.55178731
      0.20489887      0.26323149
s              7   1.000000
      0.38350848     -0.19623180
      0.04707223      0.94811994
      0.02222627      0.24899068
     34.93438761      0.00551569
      6.01599062      0.02518512
      0.48341051     -0.26720211
      0.18423971     -0.21954290
p              7   1.000000
      1.83062075     -0.01161159
      0.10124670      0.57061125
      0.03901771      0.59591870
      5.63058921     -0.02526616
      1.45992770     -0.12636930
      0.51466969     -0.24402470
      0.20489887     -0.11641258
 
          21   0
s              4   1.000000
     34.92064333     -0.01198412
      6.01362374     -0.05472053
      0.48322033      0.58055871
      0.18416723      0.47700799
p              4   1.000000
      5.62837396      0.05713170
      1.45935332      0.28574555
      0.51446721      0.55178731
      0.20481826      0.26323149
s              7   1.000000
      0.38350848     -0.19624469
      0.04707223      0.94818223
      0.02222627      0.24900704
     34.92064333      0.00551776
      6.01362374      0.02519458
      0.48322033     -0.26730253
      0.18416723     -0.21962541
p              7   1.000000
      1.83062075     -0.01161231
      0.10124670      0.57064647
      0.03901771      0.59595548
      5.62837396     -0.02527569
      1.45935332     -0.12641697
      0.51446721     -0.24411677
      0.20481826     -0.11645650
 
          22   0
s              4   1.000000
     34.93729708     -0.01198412
      6.01649165     -0.05472052
      0.48345078      0.58055871
      0.18425506      0.47700799
p              4   1.000000
      5.63105815      0.05713170
      1.46004929      0.28574555
      0.51471256      0.55178731
      0.20491594      0.26323149
s              7   1.000000
      0.38350848     -0.19622907
      0.04707223      0.94810675
      0.02222627      0.24898722
     34.93729708      0.00551525
      6.01649165      0.02518312
      0.48345078     -0.26718086
      0.18425506     -0.21952544
p              7   1.000000
      1.83062075     -0.01161144
      0.10124670      0.57060381
      0.03901771      0.59591093
      5.63105815     -0.02526414
      1.46004929     -0.12635921
      0.51471256     -0.24400523
      0.20491594     -0.11640329
 
          23   0
s              4   1.000000
     35.41589898     -0.01198412
      6.09891086     -0.05472052
      0.49007351      0.58055871
      0.18677915      0.47700799
p              4   1.000000
      5.70819735      0.05713170
      1.48005034      0.28574555
      0.52176354      0.55178731
      0.20772306      0.26323149
s              7   1.000000
      0.38350848     -0.19578848
      0.04707223      0.94597800
      0.02222627      0.24842819
     35.41589898      0.00544402
      6.09891086      0.02485787
      0.49007351     -0.26373014
      0.18677915     -0.21669020
p              7   1.000000
      1.83062075     -0.01158695
      0.10124670      0.56940029
      0.03901771      0.59465401
      5.70819735     -0.02493658
      1.48005034     -0.12472087
      0.52176354     -0.24084153
      0.20772306     -0.11489404
 
          24   0
s              4   1.000000
     35.41539629     -0.01198412
      6.09882429     -0.05472052
      0.49006656      0.58055871
      0.18677649      0.47700799
p              4   1.000000
      5.70811633      0.05713170
      1.48002933      0.28574555
      0.52175614      0.55178731
      0.20772011      0.26323149
s              7   1.000000
      0.38350848     -0.19578894
      0.04707223      0.94598019
      0.02222627      0.24842875
     35.41539629      0.00544409
      6.09882429      0.02485820
      0.49006656     -0.26373371
      0.18677649     -0.21669314
p              7   1.000000
      1.83062075     -0.01158697
      0.10124670      0.56940153
      0.03901771      0.59465530
      5.70811633     -0.02493692
      1.48002933     -0.12472257
      0.52175614     -0.24084481
      0.20772011     -0.11489561
 
          25   0
s              4   1.000000
     34.93732095     -0.01198412
      6.01649576     -0.05472052
      0.48345111      0.58055871
      0.18425518      0.47700799
p              4   1.000000
      5.63106200      0.05713170
      1.46005029      0.28574555
      0.51471291      0.55178731
      0.20491608      0.26323149
s              7   1.000000
      0.38350848     -0.19622905
      0.04707223      0.94810665
      0.02222627      0.24898720
     34.93732095      0.00551525
      6.01649576      0.02518310
      0.48345111     -0.26718069
      0.18425518     -0.21952530
p              7   1.000000
      1.83062075     -0.01161144
      0.10124670      0.57060375
      0.03901771      0.59591085
      5.63106200     -0.02526413
      1.46005029     -0.12635913
      0.51471291     -0.24400507
      0.20491608     -0.11640322
 
          26   0
s              4   1.000000
     34.92106230     -0.01198412
      6.01369589     -0.05472052
      0.48322612      0.58055871
      0.18416944      0.47700799
p              4   1.000000
      5.62844149      0.05713170
      1.45937083      0.28574555
      0.51447338      0.55178731
      0.20482072      0.26323149
s              7   1.000000
      0.38350848     -0.19624430
      0.04707223      0.94818033
      0.02222627      0.24900655
     34.92106230      0.00551770
      6.01369589      0.02519429
      0.48322612     -0.26729947
      0.18416944     -0.21962289
p              7   1.000000
      1.83062075     -0.01161228
      0.10124670      0.57064540
      0.03901771      0.59595434
      5.62844149     -0.02527540
      1.45937083     -0.12641552
      0.51447338     -0.24411396
      0.20482072     -0.11645517
 
          27   0
s              4   1.000000
     34.93460868     -0.01198412
      6.01602869     -0.05472053
      0.48341357      0.58055871
      0.18424088      0.47700799
p              4   1.000000
      5.63062484      0.05713170
      1.45993694      0.28574555
      0.51467295      0.55178731
      0.20490017      0.26323149
s              7   1.000000
      0.38350848     -0.19623159
      0.04707223      0.94811894
      0.02222627      0.24899042
     34.93460868      0.00551566
      6.01602869      0.02518497
      0.48341357     -0.26720050
      0.18424088     -0.21954157
p              7   1.000000
      1.83062075     -0.01161158
      0.10124670      0.57061069
      0.03901771      0.59591809
      5.63062484     -0.02526601
      1.45993694     -0.12636853
      0.51467295     -0.24402322
      0.20490017     -0.11641188
 
          28   0
s              4   1.000000
     34.94470403     -0.01198412
      6.01776719     -0.05472053
      0.48355327      0.58055871
      0.18429412      0.47700800
p              4   1.000000
      5.63225197      0.05713170
      1.46035883      0.28574555
      0.51482168      0.55178731
      0.20495938      0.26323149
s              7   1.000000
      0.38350848     -0.19622213
      0.04707223      0.94807322
      0.02222627      0.24897842
     34.94470403      0.00551413
      6.01776719      0.02517802
      0.48355327     -0.26712679
      0.18429412     -0.21948101
p              7   1.000000
      1.83062075     -0.01161105
      0.10124670      0.57058484
      0.03901771      0.59589111
      5.63225197     -0.02525901
      1.46035883     -0.12633354
      0.51482168     -0.24395565
      0.20495938     -0.11637964
 
          29   0
s              4   1.000000
     35.61688226     -0.01198412
      6.13352184     -0.05472052
      0.49285465      0.58055871
      0.18783911      0.47700799
p              4   1.000000
      5.74059105      0.05713170
      1.48844954      0.28574555
      0.52472452      0.55178731
      0.20890187      0.26323149
s              7   1.000000
      0.38350848     -0.19560815
      0.04707223      0.94510671
      0.02222627      0.24819936
     35.61688226      0.00541464
      6.13352184      0.02472372
      0.49285465     -0.26230694
      0.18783911     -0.21552085
p              7   1.000000
      1.83062075     -0.01157692
      0.10124670      0.56890771
      0.03901771      0.59413961
      5.74059105     -0.02480146
      1.48844954     -0.12404510
      0.52472452     -0.23953658
      0.20890187     -0.11427151
 
          30   0
s              4   1.000000
     35.10565932     -0.01198412
      6.04548502     -0.05472052
      0.48578052      0.58055871
      0.18514298      0.47700799
p              4   1.000000
      5.65819412      0.05713170
      1.46708525      0.28574555
      0.51719295      0.55178731
      0.20590343      0.26323149
s              7   1.000000
      0.38350848     -0.19607226
      0.04707223      0.94734908
      0.02222627      0.24878825
     35.10565932      0.00548999
      6.04548502      0.02506775
      0.48578052     -0.26595693
      0.18514298     -0.21851981
p              7   1.000000
      1.83062075     -0.01160272
      0.10124670      0.57017545
      0.03901771      0.59546357
      5.65819412     -0.02514796
      1.46708525     -0.12577813
      0.51719295     -0.24288314
      0.20590343     -0.11586800
 
          31   0
s              4   1.000000
     35.12925198     -0.01198412
      6.04954787     -0.05472052
      0.48610698      0.58055871
      0.18526740      0.47700799
p              4   1.000000
      5.66199670      0.05713170
      1.46807120      0.28574555
      0.51754053      0.55178731
      0.20604180      0.26323149
s              7   1.000000
      0.38350848     -0.19605044
      0.04707223      0.94724369
      0.02222627      0.24876056
     35.12925198      0.00548646
      6.04954787      0.02505167
      0.48610698     -0.26578629
      0.18526740     -0.21837961
p              7   1.000000
      1.83062075     -0.01160151
      0.10124670      0.57011585
      0.03901771      0.59540131
      5.66199670     -0.02513177
      1.46807120     -0.12569712
      0.51754053     -0.24272671
      0.20604180     -0.11579337
 
          32   0
s              4   1.000000
     61.42957140     -0.01198412
     10.57868050     -0.05472052
      0.85004212      0.58055871
      0.32397209      0.47700799
p              4   1.000000
      7.24082497      0.05713170
      1.87743779      0.28574555
      0.66185492      0.55178731
      0.26349585      0.26323149
s              7   1.000000
      0.47894987     -0.18771466
      0.05878681      0.90696828
      0.02775758      0.23818364
     61.42957140      0.00395508
     10.57868050      0.01805925
      0.85004212     -0.19159999
      0.32397209     -0.15742547
p              7   1.000000
      2.28619608     -0.01155955
      0.12644335      0.56805377
      0.04872781      0.59324777
      7.24082497     -0.02456575
      1.87743779     -0.12286617
      0.66185492     -0.23726002
      0.26349585     -0.11318548
 
          33   0
s              4   1.000000
     35.61942593     -0.01198412
      6.13395988     -0.05472052
      0.49288985      0.58055871
      0.18785252      0.47700799
p              4   1.000000
      5.74100103      0.05713170
      1.48855584      0.28574555
      0.52476200      0.55178731
      0.20891679      0.26323149
s              7   1.000000
      0.38350848     -0.19560589
      0.04707223      0.94509577
      0.02222627      0.24819651
     35.61942593      0.00541427
      6.13395988      0.02472204
      0.49288985     -0.26228902
      0.18785252     -0.21550613
p              7   1.000000
      1.83062075     -0.01157680
      0.10124670      0.56890153
      0.03901771      0.59413314
      5.74100103     -0.02479976
      1.48855584     -0.12403659
      0.52476200     -0.23952015
      0.20891679     -0.11426367
 
          34   0
s              4   1.000000
     34.94428451     -0.01198412
      6.01769494     -0.05472052
      0.48354747      0.58055871
      0.18429191      0.47700799
p              4   1.000000
      5.63218436      0.05713170
      1.46034130      0.28574555
      0.51481550      0.55178731
      0.20495692      0.26323149
s              7   1.000000
      0.38350848     -0.19622252
      0.04707223      0.94807512
      0.02222627      0.24897891
     34.94428451      0.00551420
      6.01769494      0.02517831
      0.48354747     -0.26712985
      0.18429191     -0.21948352
p              7   1.000000
      1.83062075     -0.01161107
      0.10124670      0.57058591
      0.03901771      0.59589224
      5.63218436     -0.02525930
      1.46034130     -0.12633499
      0.51481550     -0.24395846
      0.20495692     -0.11638098
 
          35   0
s              4   1.000000
     34.93528159     -0.01198412
      6.01614457     -0.05472052
      0.48342289      0.58055871
      0.18424443      0.47700799
p              4   1.000000
      5.63073330      0.05713170
      1.45996506      0.28574555
      0.51468286      0.55178731
      0.20490412      0.26323149
s              7   1.000000
      0.38350848     -0.19623096
      0.04707223      0.94811588
      0.02222627      0.24898964
     34.93528159      0.00551555
      6.01614457      0.02518450
      0.48342289     -0.26719558
      0.18424443     -0.21953753
p              7   1.000000
      1.83062075     -0.01161154
      0.10124670      0.57060897
      0.03901771      0.59591631
      5.63073330     -0.02526554
      1.45996506     -0.12636620
      0.51468286     -0.24401872
      0.20490412     -0.11640973
 
          36   0
s              4   1.000000
     34.92105931     -0.01198412
      6.01369537     -0.05472053
      0.48322608      0.58055871
      0.18416942      0.47700800
p              4   1.000000
      5.62844101      0.05713170
      1.45937071      0.28574555
      0.51447333      0.55178731
      0.20482070      0.26323149
s              7   1.000000
      0.38350848     -0.19624430
      0.04707223      0.94818035
      0.02222627      0.24900655
     34.92105931      0.00551770
      6.01369537      0.02519430
      0.48322608     -0.26729949
      0.18416942     -0.21962291
p              7   1.000000
      1.83062075     -0.01161228
      0.10124670      0.57064541
      0.03901771      0.59595438
      5.62844101     -0.02527540
      1.45937071     -0.12641553
      0.51447333     -0.24411398
      0.20482070     -0.11645517
 
          37   0
s              4   1.000000
     34.93708216     -0.01198412
      6.01645464     -0.05472052
      0.48344780      0.58055871
      0.18425392      0.47700800
p              4   1.000000
      5.63102351      0.05713170
      1.46004031      0.28574555
      0.51470939      0.55178731
      0.20491468      0.26323149
s              7   1.000000
      0.38350848     -0.19622927
      0.04707223      0.94810773
      0.02222627      0.24898749
     34.93708216      0.00551528
      6.01645464      0.02518326
      0.48344780     -0.26718243
      0.18425392     -0.21952673
p              7   1.000000
      1.83062075     -0.01161145
      0.10124670      0.57060435
      0.03901771      0.59591150
      5.63102351     -0.02526429
      1.46004031     -0.12635995
      0.51470939     -0.24400666
      0.20491468     -0.11640398
 
          38   0
s              4   1.000000
     35.41531787     -0.01198412
      6.09881079     -0.05472053
      0.49006547      0.58055871
      0.18677608      0.47700799
p              4   1.000000
      5.70810369      0.05713170
      1.48002605      0.28574555
      0.52175498      0.55178731
      0.20771965      0.26323149
s              7   1.000000
      0.38350848     -0.19578901
      0.04707223      0.94598054
      0.02222627      0.24842885
     35.41531787      0.00544410
      6.09881079      0.02485826
      0.49006547     -0.26373427
      0.18677608     -0.21669360
p              7   1.000000
      1.83062075     -0.01158698
      0.10124670      0.56940173
      0.03901771      0.59465550
      5.70810369     -0.02493697
      1.48002605     -0.12472284
      0.52175498     -0.24084532
      0.20771965     -0.11489585
 
          39   0
s              4   1.000000
     35.41557011     -0.01198412
      6.09885423     -0.05472052
      0.49006896      0.58055871
      0.18677741      0.47700799
p              4   1.000000
      5.70814434      0.05713170
      1.48003659      0.28574555
      0.52175870      0.55178731
      0.20772113      0.26323149
s              7   1.000000
      0.38350848     -0.19578878
      0.04707223      0.94597943
      0.02222627      0.24842855
     35.41557011      0.00544407
      6.09885423      0.02485809
      0.49006896     -0.26373248
      0.18677741     -0.21669212
p              7   1.000000
      1.83062075     -0.01158696
      0.10124670      0.56940110
      0.03901771      0.59465486
      5.70814434     -0.02493680
      1.48003659     -0.12472198
      0.52175870     -0.24084367
      0.20772113     -0.11489506
 
          40   0
s              4   1.000000
     34.93697977     -0.01198412
      6.01643701     -0.05472053
      0.48344638      0.58055871
      0.18425338      0.47700799
p              4   1.000000
      5.63100701      0.05713170
      1.46003603      0.28574555
      0.51470788      0.55178731
      0.20491408      0.26323149
s              7   1.000000
      0.38350848     -0.19622937
      0.04707223      0.94810819
      0.02222627      0.24898761
     34.93697977      0.00551530
      6.01643701      0.02518333
      0.48344638     -0.26718318
      0.18425338     -0.21952735
p              7   1.000000
      1.83062075     -0.01161145
      0.10124670      0.57060462
      0.03901771      0.59591178
      5.63100701     -0.02526436
      1.46003603     -0.12636031
      0.51470788     -0.24400735
      0.20491408     -0.11640431
 
          41   0
s              4   1.000000
     34.92074245     -0.01198412
      6.01364081     -0.05472052
      0.48322170      0.58055871
      0.18416775      0.47700799
p              4   1.000000
      5.62838994      0.05713170
      1.45935747      0.28574555
      0.51446867      0.55178731
      0.20481884      0.26323149
s              7   1.000000
      0.38350848     -0.19624460
      0.04707223      0.94818178
      0.02222627      0.24900692
     34.92074245      0.00551775
      6.01364081      0.02519452
      0.48322170     -0.26730181
      0.18416775     -0.21962481
p              7   1.000000
      1.83062075     -0.01161230
      0.10124670      0.57064622
      0.03901771      0.59595523
      5.62838994     -0.02527562
      1.45935747     -0.12641663
      0.51446867     -0.24411610
      0.20481884     -0.11645619
 
          42   0
s              4   1.000000
     34.93435234     -0.01198412
      6.01598454     -0.05472052
      0.48341003      0.58055871
      0.18423953      0.47700799
p              4   1.000000
      5.63058353      0.05713170
      1.45992623      0.28574555
      0.51466917      0.55178731
      0.20489867      0.26323149
s              7   1.000000
      0.38350848     -0.19623183
      0.04707223      0.94812009
      0.02222627      0.24899073
     34.93435234      0.00551569
      6.01598454      0.02518514
      0.48341003     -0.26720237
      0.18423953     -0.21954311
p              7   1.000000
      1.83062075     -0.01161159
      0.10124670      0.57061135
      0.03901771      0.59591878
      5.63058353     -0.02526619
      1.45992623     -0.12636942
      0.51466917     -0.24402494
      0.20489867     -0.11641270
 
          43   0
s              4   1.000000
     34.94217711     -0.01198412
      6.01733203     -0.05472052
      0.48351830      0.58055871
      0.18428079      0.47700799
p              4   1.000000
      5.63184469      0.05713170
      1.46025323      0.28574555
      0.51478445      0.55178731
      0.20494456      0.26323149
s              7   1.000000
      0.38350848     -0.19622450
      0.04707223      0.94808466
      0.02222627      0.24898142
     34.94217711      0.00551452
      6.01733203      0.02517976
      0.48351830     -0.26714523
      0.18428079     -0.21949617
p              7   1.000000
      1.83062075     -0.01161118
      0.10124670      0.57059132
      0.03901771      0.59589787
      5.63184469     -0.02526076
      1.46025323     -0.12634229
      0.51478445     -0.24397256
      0.20494456     -0.11638771
 
          44   0
s              4   1.000000
     35.61608191     -0.01198412
      6.13338402     -0.05472052
      0.49284358      0.58055871
      0.18783489      0.47700799
p              4   1.000000
      5.74046206      0.05713170
      1.48841609      0.28574555
      0.52471273      0.55178731
      0.20889718      0.26323149
s              7   1.000000
      0.38350848     -0.19560886
      0.04707223      0.94511015
      0.02222627      0.24820028
     35.61608191      0.00541476
      6.13338402      0.02472426
      0.49284358     -0.26231257
      0.18783489     -0.21552548
p              7   1.000000
      1.83062075     -0.01157696
      0.10124670      0.56890966
      0.03901771      0.59414163
      5.74046206     -0.02480200
      1.48841609     -0.12404778
      0.52471273     -0.23954175
      0.20889718     -0.11427398
 
          45   0
s              4   1.000000
     35.11653537     -0.01198412
      6.04735797     -0.05472052
      0.48593102      0.58055871
      0.18520034      0.47700799
p              4   1.000000
      5.65994708      0.05713170
      1.46753976      0.28574555
      0.51735318      0.55178731
      0.20596722      0.26323149
s              7   1.000000
      0.38350848     -0.19606219
      0.04707223      0.94730047
      0.02222627      0.24877548
     35.11653537      0.00548836
      6.04735797      0.02506034
      0.48593102     -0.26587824
      0.18520034     -0.21845516
p              7   1.000000
      1.83062075     -0.01160216
      0.10124670      0.57014796
      0.03901771      0.59543485
      5.65994708     -0.02514049
      1.46753976     -0.12574077
      0.51735318     -0.24281100
      0.20596722     -0.11583358
 
          46   0
s              4   1.000000
     35.01570099     -0.01198412
      6.02999345     -0.05472052
      0.48453570      0.58055871
      0.18466855      0.47700799
p              4   1.000000
      5.64369499      0.05713170
      1.46332584      0.28574555
      0.51586764      0.55178731
      0.20537580      0.26323149
s              7   1.000000
      0.38350848     -0.19615579
      0.04707223      0.94775272
      0.02222627      0.24889426
     35.01570099      0.00550346
      6.02999345      0.02512926
      0.48453570     -0.26660952
      0.18466855     -0.21905601
p              7   1.000000
      1.83062075     -0.01160736
      0.10124670      0.57040364
      0.03901771      0.59570186
      5.64369499     -0.02520991
      1.46332584     -0.12608796
      0.51586764     -0.24348144
      0.20537580     -0.11615342
 
          47   0
s              4   1.000000
     35.01118712     -0.01198412
      6.02921613     -0.05472052
      0.48447324      0.58055871
      0.18464474      0.47700799
p              4   1.000000
      5.64296746      0.05713170
      1.46313720      0.28574555
      0.51580114      0.55178731
      0.20534932      0.26323149
s              7   1.000000
      0.38350848     -0.19616000
      0.04707223      0.94777304
      0.02222627      0.24889960
     35.01118712      0.00550413
      6.02921613      0.02513236
      0.48447324     -0.26664235
      0.18464474     -0.21908298
p              7   1.000000
      1.83062075     -0.01160760
      0.10124670      0.57041513
      0.03901771      0.59571387
      5.64296746     -0.02521303
      1.46313720     -0.12610355
      0.51580114     -0.24351153
      0.20534932     -0.11616778
 
          48   0
s              4   1.000000
      8.30920275      0.05675242
      1.52048173      0.26014135
      0.42240647      0.53284611
      0.14019291      0.29162544
s              7   1.000000
      0.92936822     -0.06732810
      0.05643440      0.66945212
      0.02166600      0.51461214
      8.30920275     -0.02902203
      1.52048173     -0.13303098
      0.42240647     -0.27248662
      0.14019291     -0.14913129
p              4   1.000000
      0.64737396      0.05713170
      0.16785440      0.28574555
      0.05917387      0.55178731
      0.02355814      0.26323150
 
          49   0
s              4   1.000000
      8.31003018      0.05675242
      1.52063314      0.26014135
      0.42244854      0.53284611
      0.14020687      0.29162544
s              7   1.000000
      0.92936822     -0.06732703
      0.05643440      0.66944154
      0.02166600      0.51460399
      8.31003018     -0.02901982
      1.52063314     -0.13302083
      0.42244854     -0.27246584
      0.14020687     -0.14911992
p              4   1.000000
      0.64737396      0.05713170
      0.16785440      0.28574555
      0.05917387      0.55178731
      0.02355814      0.26323150
 
          50   0
s              4   1.000000
      8.30967593      0.05675242
      1.52056832      0.26014135
      0.42243053      0.53284611
      0.14020089      0.29162544
s              7   1.000000
      0.92936822     -0.06732749
      0.05643440      0.66944608
      0.02166600      0.51460746
      8.30967593     -0.02902076
      1.52056832     -0.13302517
      0.42243053     -0.27247474
      0.14020089     -0.14912479
p              4   1.000000
      0.64737396      0.05713170
      0.16785440      0.28574555
      0.05917387      0.55178731
      0.02355814      0.26323150
 
          51   0
s              4   1.000000
      8.30896323      0.05675242
      1.52043790      0.26014135
      0.42239430      0.53284611
      0.14018887      0.29162544
s              7   1.000000
      0.92936822     -0.06732840
      0.05643440      0.66945519
      0.02166600      0.51461450
      8.30896323     -0.02902267
      1.52043790     -0.13303391
      0.42239430     -0.27249264
      0.14018887     -0.14913459
p              4   1.000000
      0.64737396      0.05713170
      0.16785440      0.28574555
      0.05917387      0.55178731
      0.02355814      0.26323150
 
          52   0
s              4   1.000000
      8.30883132      0.05675242
      1.52041376      0.26014135
      0.42238759      0.53284611
      0.14018664      0.29162544
s              7   1.000000
      0.92936822     -0.06732857
      0.05643440      0.66945689
      0.02166600      0.51461579
      8.30883132     -0.02902302
      1.52041376     -0.13303553
      0.42238759     -0.27249595
      0.14018664     -0.14913640
p              4   1.000000
      0.64737396      0.05713170
      0.16785440      0.28574555
      0.05917387      0.55178731
      0.02355814      0.26323150
 
          53   0
s              4   1.000000
      8.30893886      0.05675242
      1.52043344      0.26014135
      0.42239306      0.53284611
      0.14018846      0.29162544
s              7   1.000000
      0.92936822     -0.06732844
      0.05643440      0.66945550
      0.02166600      0.51461472
      8.30893886     -0.02902273
      1.52043344     -0.13303421
      0.42239306     -0.27249325
      0.14018846     -0.14913492
p              4   1.000000
      0.64737396      0.05713170
      0.16785440      0.28574555
      0.05917387      0.55178731
      0.02355814      0.26323150
 
          54   0
s              4   1.000000
      8.30958024      0.05675242
      1.52055081      0.26014135
      0.42242566      0.53284611
      0.14019928      0.29162544
s              7   1.000000
      0.92936822     -0.06732761
      0.05643440      0.66944730
      0.02166600      0.51460841
      8.30958024     -0.02902102
      1.52055081     -0.13302635
      0.42242566     -0.27247714
      0.14019928     -0.14912611
p              4   1.000000
      0.64737396      0.05713170
      0.16785440      0.28574555
      0.05917387      0.55178731
      0.02355814      0.26323150
 
          55   0
s              4   1.000000
      8.31031266      0.05675242
      1.52068483      0.26014135
      0.42246290      0.53284611
      0.14021164      0.29162544
s              7   1.000000
      0.92936822     -0.06732667
      0.05643440      0.66943793
      0.02166600      0.51460123
      8.31031266     -0.02901906
      1.52068483     -0.13301737
      0.42246290     -0.27245875
      0.14021164     -0.14911604
p              4   1.000000
      0.64737396      0.05713170
      0.16785440      0.28574555
      0.05917387      0.55178731
      0.02355814      0.26323150
 
          56   0
s              4   1.000000
      8.30934748      0.05675242
      1.52050821      0.26014135
      0.42241383      0.53284611
      0.14019535      0.29162544
s              7   1.000000
      0.92936822     -0.06732791
      0.05643440      0.66945028
      0.02166600      0.51461069
      8.30934748     -0.02902164
      1.52050821     -0.13302920
      0.42241383     -0.27248299
      0.14019535     -0.14912931
p              4   1.000000
      0.64737396      0.05713170
      0.16785440      0.28574555
      0.05917387      0.55178731
      0.02355814      0.26323150
 
          57   0
s              4   1.000000
      8.30898326      0.05675242
      1.52044157      0.26014135
      0.42239532      0.53284611
      0.14018921      0.29162544
s              7   1.000000
      0.92936822     -0.06732838
      0.05643440      0.66945493
      0.02166600      0.51461430
      8.30898326     -0.02902262
      1.52044157     -0.13303367
      0.42239532     -0.27249213
      0.14018921     -0.14913431
p              4   1.000000
      0.64737396      0.05713170
      0.16785440      0.28574555
      0.05917387      0.55178731
      0.02355814      0.26323150
 
          58   0
s              4   1.000000
      8.30890048      0.05675242
      1.52042642      0.26014135
      0.42239111      0.53284611
      0.14018781      0.29162544
s              7   1.000000
      0.92936822     -0.06732849
      0.05643440      0.66945600
      0.02166600      0.51461509
      8.30890048     -0.02902284
      1.52042642     -0.13303468
      0.42239111     -0.27249421
      0.14018781     -0.14913545
p              4   1.000000
      0.64737396      0.05713170
      0.16785440      0.28574555
      0.05917387      0.55178731
      0.02355814      0.26323150
 
          59   0
s              4   1.000000
      8.30891598      0.05675242
      1.52042926      0.26014135
      0.42239190      0.53284611
      0.14018807      0.29162544
s              7   1.000000
      0.92936822     -0.06732846
      0.05643440      0.66945579
      0.02166600      0.51461494
      8.30891598     -0.02902280
      1.52042926     -0.13303449
      0.42239190     -0.27249382
      0.14018807     -0.14913524
p              4   1.000000
      0.64737396      0.05713170
      0.16785440      0.28574555
      0.05917387      0.55178731
      0.02355814      0.26323150
 
          60   0
s              4   1.000000
      8.30891574      0.05675242
      1.52042921      0.26014135
      0.42239188      0.53284611
      0.14018807      0.29162544
s              7   1.000000
      0.92936822     -0.06732846
      0.05643440      0.66945579
      0.02166600      0.51461494
      8.30891574     -0.02902280
      1.52042921     -0.13303450
      0.42239188     -0.27249383
      0.14018807     -0.14913524
p              4   1.000000
      0.64737396      0.05713170
      0.16785440      0.28574555
      0.05917387      0.55178731
      0.02355814      0.26323150
 
          61   0
s              4   1.000000
      8.30890704      0.05675242
      1.52042762      0.26014135
      0.42239144      0.53284611
      0.14018792      0.29162544
s              7   1.000000
      0.92936822     -0.06732848
      0.05643440      0.66945592
      0.02166600      0.51461504
      8.30890704     -0.02902282
      1.52042762     -0.13303460
      0.42239144     -0.27249405
      0.14018792     -0.14913536
p              4   1.000000
      0.64737396      0.05713170
      0.16785440      0.28574555
      0.05917387      0.55178731
      0.02355814      0.26323150
 
          62   0
s              4   1.000000
      8.30900676      0.05675242
      1.52044587      0.26014135
      0.42239651      0.53284611
      0.14018960      0.29162544
s              7   1.000000
      0.92936822     -0.06732835
      0.05643440      0.66945463
      0.02166600      0.51461405
      8.30900676     -0.02902255
      1.52044587     -0.13303338
      0.42239651     -0.27249154
      0.14018960     -0.14913399
p              4   1.000000
      0.64737396      0.05713170
      0.16785440      0.28574555
      0.05917387      0.55178731
      0.02355814      0.26323150
 
          63   0
s              4   1.000000
      8.30963247      0.05675242
      1.52056036      0.26014135
      0.42242832      0.53284611
      0.14020016      0.29162544
s              7   1.000000
      0.92936822     -0.06732754
      0.05643440      0.66944663
      0.02166600      0.51460791
      8.30963247     -0.02902088
      1.52056036     -0.13302571
      0.42242832     -0.27247583
      0.14020016     -0.14912539
p              4   1.000000
      0.64737396      0.05713170
      0.16785440      0.28574555
      0.05917387      0.55178731
      0.02355814      0.26323150
 
          64   0
s              4   1.000000
      8.31028273      0.05675242
      1.52067935      0.26014135
      0.42246138      0.53284611
      0.14021113      0.29162544
s              7   1.000000
      0.92936822     -0.06732671
      0.05643440      0.66943832
      0.02166600      0.51460150
      8.31028273     -0.02901914
      1.52067935     -0.13301773
      0.42246138     -0.27245950
      0.14021113     -0.14911645
p              4   1.000000
      0.64737396      0.05713170
      0.16785440      0.28574555
      0.05917387      0.55178731
      0.02355814      0.26323150
 
          65   0
s              4   1.000000
      8.30963913      0.05675242
      1.52056158      0.26014135
      0.42242866      0.53284611
      0.14020027      0.29162544
s              7   1.000000
      0.92936822     -0.06732754
      0.05643440      0.66944655
      0.02166600      0.51460784
      8.30963913     -0.02902086
      1.52056158     -0.13302563
      0.42242866     -0.27247566
      0.14020027     -0.14912530
p              4   1.000000
      0.64737396      0.05713170
      0.16785440      0.28574555
      0.05917387      0.55178731
      0.02355814      0.26323150
 
          66   0
s              4   1.000000
      8.30902951      0.05675242
      1.52045003      0.26014135
      0.42239767      0.53284611
      0.14018999      0.29162544
s              7   1.000000
      0.92936822     -0.06732832
      0.05643440      0.66945434
      0.02166600      0.51461383
      8.30902951     -0.02902249
      1.52045003     -0.13303310
      0.42239767     -0.27249097
      0.14018999     -0.14913367
p              4   1.000000
      0.64737396      0.05713170
      0.16785440      0.28574555
      0.05917387      0.55178731
      0.02355814      0.26323150
 
          67   0
s              4   1.000000
      8.30890517      0.05675242
      1.52042728      0.26014135
      0.42239135      0.53284611
      0.14018789      0.29162544
s              7   1.000000
      0.92936822     -0.06732848
      0.05643440      0.66945594
      0.02166600      0.51461504
      8.30890517     -0.02902283
      1.52042728     -0.13303463
      0.42239135     -0.27249409
      0.14018789     -0.14913538
p              4   1.000000
      0.64737396      0.05713170
      0.16785440      0.28574555
      0.05917387      0.55178731
      0.02355814      0.26323150
 
          68   0
s              4   1.000000
      8.30890463      0.05675242
      1.52042718      0.26014135
      0.42239132      0.53284611
      0.14018788      0.29162544
s              7   1.000000
      0.92936822     -0.06732848
      0.05643440      0.66945594
      0.02166600      0.51461507
      8.30890463     -0.02902283
      1.52042718     -0.13303463
      0.42239132     -0.27249411
      0.14018788     -0.14913539
p              4   1.000000
      0.64737396      0.05713170
      0.16785440      0.28574555
      0.05917387      0.55178731
      0.02355814      0.26323150
 
          69   0
s              4   1.000000
      8.30890608      0.05675242
      1.52042744      0.26014135
      0.42239139      0.53284611
      0.14018791      0.29162544
s              7   1.000000
      0.92936822     -0.06732848
      0.05643440      0.66945593
      0.02166600      0.51461504
      8.30890608     -0.02902282
      1.52042744     -0.13303461
      0.42239139     -0.27249407
      0.14018791     -0.14913537
p              4   1.000000
      0.64737396      0.05713170
      0.16785440      0.28574555
      0.05917387      0.55178731
      0.02355814      0.26323150
 
          70   0
s              4   1.000000
      8.30890300      0.05675242
      1.52042688      0.26014135
      0.42239124      0.53284611
      0.14018785      0.29162544
s              7   1.000000
      0.92936822     -0.06732848
      0.05643440      0.66945596
      0.02166600      0.51461507
      8.30890300     -0.02902283
      1.52042688     -0.13303465
      0.42239124     -0.27249415
      0.14018785     -0.14913541
p              4   1.000000
      0.64737396      0.05713170
      0.16785440      0.28574555
      0.05917387      0.55178731
      0.02355814      0.26323150
 
          71   0
s              4   1.000000
      8.30897812      0.05675242
      1.52044062      0.26014135
      0.42239506      0.53284611
      0.14018912      0.29162544
s              7   1.000000
      0.92936822     -0.06732838
      0.05643440      0.66945501
      0.02166600      0.51461435
      8.30897812     -0.02902263
      1.52044062     -0.13303373
      0.42239506     -0.27249226
      0.14018912     -0.14913438
p              4   1.000000
      0.64737396      0.05713170
      0.16785440      0.28574555
      0.05917387      0.55178731
      0.02355814      0.26323150
 
          72   0
s              4   1.000000
      8.30932016      0.05675242
      1.52050321      0.26014135
      0.42241244      0.53284611
      0.14019489      0.29162544
s              7   1.000000
      0.92936822     -0.06732794
      0.05643440      0.66945063
      0.02166600      0.51461097
      8.30932016     -0.02902171
      1.52050321     -0.13302954
      0.42241244     -0.27248367
      0.14019489     -0.14912968
p              4   1.000000
      0.64737396      0.05713170
      0.16785440      0.28574555
      0.05917387      0.55178731
      0.02355814      0.26323150
 
          73   0
s              4   1.000000
      8.31039062      0.05675242
      1.52069909      0.26014135
      0.42246686      0.53284611
      0.14021295      0.29162544
s              7   1.000000
      0.92936822     -0.06732657
      0.05643440      0.66943694
      0.02166600      0.51460046
      8.31039062     -0.02901885
      1.52069909     -0.13301641
      0.42246686     -0.27245679
      0.14021295     -0.14911497
p              4   1.000000
      0.64737396      0.05713170
      0.16785440      0.28574555
      0.05917387      0.55178731
      0.02355814      0.26323150
 
          74   0
s              4   1.000000
      8.30991685      0.05675242
      1.52061240      0.26014135
      0.42244278      0.53284611
      0.14020496      0.29162544
s              7   1.000000
      0.92936822     -0.06732718
      0.05643440      0.66944300
      0.02166600      0.51460510
      8.30991685     -0.02902012
      1.52061240     -0.13302222
      0.42244278     -0.27246869
      0.14020496     -0.14912148
p              4   1.000000
      0.64737396      0.05713170
      0.16785440      0.28574555
      0.05917387      0.55178731
      0.02355814      0.26323150
 
          75   0
s              4   1.000000
      8.30917464      0.05675242
      1.52047659      0.26014135
      0.42240504      0.53284611
      0.14019244      0.29162544
s              7   1.000000
      0.92936822     -0.06732813
      0.05643440      0.66945249
      0.02166600      0.51461241
      8.30917464     -0.02902210
      1.52047659     -0.13303132
      0.42240504     -0.27248733
      0.14019244     -0.14913168
p              4   1.000000
      0.64737396      0.05713170
      0.16785440      0.28574555
      0.05917387      0.55178731
      0.02355814      0.26323150
 
 [MO]
 Sym= Hole
 Ene= -0.6119938    
 Spin= Alpha
 Occup= 0
           1  2.9560583E-04
           2  2.2498493E-03
           3  6.2029161E-03
           4  6.0640085E-03
           5  2.5028377E-04
           6  1.4816105E-04
           7 -1.5070844E-04
           8 -2.2877687E-04
           9  4.2465230E-04
          10  1.3543767E-04
          11 -7.3894003E-04
          12 -8.9198654E-04
          13  5.3591844E-05
          14 -1.4037773E-04
          15 -1.8731457E-04
          16  1.7724792E-04
          17 -5.1374198E-04
          18 -5.8312188E-03
          19 -1.1366263E-02
          20 -1.1002320E-02
          21  4.3623662E-04
          22  5.1336543E-04
          23  2.3077668E-05
          24  5.8103568E-04
          25  8.4917055E-04
          26  2.7625235E-03
          27  1.2411710E-03
          28  1.5796847E-03
          29 -5.8340887E-04
          30 -4.7892977E-06
          31  5.1782961E-04
          32 -4.2590810E-04
          33 -6.7528861E-04
          34  2.3523103E-03
          35  1.7177671E-02
          36  5.1249056E-03
          37 -5.3149200E-04
          38 -6.9124735E-04
          39  1.6060012E-04
          40  3.6865904E-04
          41  9.8150189E-04
          42  7.4804565E-03
          43  9.4274525E-03
          44  8.9699412E-03
          45 -1.7581459E-03
          46 -2.9674759E-03
          47 -1.8969692E-04
          48 -9.3521574E-04
          49 -1.0789790E-02
          50 -1.7409496E-02
          51  1.8181598E-03
          52 -3.1763747E-02
          53  3.3438201E-03
          54  1.7387822E-03
          55  1.8369661E-03
          56  2.2463626E-03
          57  2.3938075E-03
          58  2.1499651E-04
          59 -3.9579812E-03
          60  8.0778440E-03
          61 -5.5031810E-04
          62 -4.2582501E-04
          63 -6.2772899E-04
          64 -1.3190478E-03
          65 -3.8184093E-03
          66  1.3078149E-02
          67  3.4482632E-04
          68  3.8373664E-03
          69  2.4081278E-03
          70 -1.0795337E-03
          71 -1.4031231E-03
          72  7.6674961E-04
          73  1.7982065E-03
          74 -6.7355321E-03
          75 -1.0087700E-03
          76 -2.3953435E-03
          77 -4.4452700E-05
          78 -9.8260833E-05
          79  9.2508511E-05
          80 -7.1642105E-05
          81 -6.7772262E-04
          82 -1.0624420E-02
          83  1.9447478E-03
          84 -7.6291999E-03
          85  2.6644952E-05
          86 -3.6294241E-05
          87  4.1459317E-04
          88  3.1725358E-04
          89  5.2629842E-04
          90  3.9971760E-04
          91  1.1011308E-05
          92  1.2012603E-03
          93 -1.8240293E-04
          94  9.3145056E-05
          95  2.2160940E-04
          96  5.2016057E-05
          97  3.5552590E-04
          98  1.1141052E-02
          99 -3.9954176E-03
         100  5.9225392E-03
         101 -4.6702364E-04
         102 -7.4650598E-04
         103 -8.6133201E-05
         104  4.1097144E-05
         105  1.3688848E-02
         106 -5.4641287E-03
         107 -1.1064372E-02
         108 -1.7590991E-04
         109 -4.9820752E-03
         110 -1.0517163E-03
         111  1.0957799E-03
         112  4.4768667E-03
         113 -3.8206577E-02
         114 -8.1810333E-02
         115  4.7578696E-02
         116  0.1681872    
         117  2.0528564E-02
         118  2.5870597E-03
         119 -1.5136788E-02
         120 -1.3215792E-02
         121  4.2837666E-04
         122  1.6841510E-02
         123 -2.0623628E-02
         124  6.0564030E-02
         125 -8.9915004E-04
         126 -9.4666108E-03
         127  8.9563299E-03
         128 -2.1680083E-02
         129  2.8786817E-04
         130 -0.2428260    
         131  0.2060907    
         132 -0.3977933    
         133 -2.8140709E-04
         134  2.2325929E-02
         135 -1.7096033E-02
         136  2.6545824E-02
         137  1.9051664E-03
         138  4.2494472E-02
         139 -3.5143215E-02
         140  7.1859457E-02
         141 -2.0344395E-03
         142 -8.0247037E-03
         143  7.1093142E-03
         144 -1.7203974E-02
         145  2.1888511E-03
         146  0.1663071    
         147 -0.1171442    
         148  0.2307835    
         149 -1.0986391E-03
         150 -6.7250077E-03
         151  5.4873754E-03
         152 -7.4825753E-03
         153 -4.3999517E-04
         154  1.4933536E-02
         155 -1.3310623E-02
         156  2.4084872E-02
         157  6.1719661E-04
         158  1.4909449E-03
         159  5.2873722E-05
         160  3.1142884E-03
         161  9.3440706E-04
         162 -0.1589057    
         163  0.1283400    
         164 -0.2441004    
         165 -6.6630375E-05
         166  4.7742645E-03
         167 -3.5195593E-03
         168  7.4851401E-03
         169 -4.5955920E-04
         170 -8.9651771E-02
         171  7.4388936E-02
         172 -0.1412843    
         173  7.5480777E-05
         174  5.8450368E-03
         175 -4.3782992E-03
         176  8.3850669E-03
         177  3.2842851E-03
         178  0.1193268    
         179 -9.8877698E-02
         180  0.1924648    
         181 -1.1247569E-03
         182 -3.7517203E-03
         183  5.0175735E-03
         184 -8.6477045E-03
         185 -2.0686190E-03
         186  0.1254841    
         187 -0.1036638    
         188  0.2048490    
         189  6.6021562E-04
         190 -4.5750323E-03
         191  2.6127433E-03
         192 -9.2780646E-03
         193  1.0805329E-05
         194 -8.3755843E-02
         195  6.8895504E-02
         196 -0.1340019    
         197 -1.7097222E-05
         198  5.4649268E-03
         199 -4.7437735E-03
         200  8.4902225E-03
         201 -7.0236932E-04
         202 -0.1585491    
         203  0.1321727    
         204 -0.2529267    
         205  1.1463546E-04
         206  4.4429367E-03
         207 -4.2014946E-03
         208  7.2620111E-03
         209  5.2582315E-04
         210  7.7656293E-03
         211 -4.3391613E-03
         212  1.1125800E-02
         213 -8.7926828E-04
         214  2.5840959E-04
         215 -2.0479290E-03
         216  2.7458000E-03
         217 -2.3151811E-03
         218  0.1489949    
         219 -0.1354160    
         220  0.2284213    
         221  1.1455636E-03
         222 -7.4613844E-03
         223  4.3898853E-03
         224 -8.0812704E-03
         225 -2.3452886E-03
         226  4.7907259E-02
         227 -4.2760238E-02
         228  8.1935138E-02
         229  1.7406178E-03
         230 -7.8497808E-03
         231  7.3797544E-03
         232 -1.7309379E-02
         233  3.9260004E-02
         234 -9.8392129E-02
         235 -1.0880523E-02
         236  0.1175540    
         237 -2.2431368E-02
         238  1.4981796E-02
         239  1.0494078E-02
         240 -8.3559267E-03
         241 -1.3534944E-02
         242  1.2334561E-02
         243  1.2405666E-02
         244 -1.7544709E-02
         245  2.1320712E-03
         246 -3.0786591E-03
         247 -1.4162628E-03
         248  5.7384432E-03
         249  1.0699580E-02
         250 -1.4225526E-02
         251  6.8779713E-03
         252  5.2107866E-03
         253 -4.1891914E-03
         254  3.2601922E-04
         255 -1.9981163E-03
         256 -3.1128255E-04
         257 -3.9266204E-03
         258  6.5962663E-03
         259  4.1338284E-03
         260 -3.2810678E-03
         261  1.8060863E-03
         262 -9.7847509E-04
         263 -1.7273410E-04
         264  1.1740797E-03
         265 -2.5204595E-03
         266  5.5442336E-03
         267 -5.9086615E-03
         268 -2.3640699E-03
         269  1.9040143E-03
         270 -1.2063908E-05
         271  4.2035923E-04
         272  1.3880488E-04
         273  3.9954533E-04
         274 -3.3473792E-05
         275 -2.7722097E-03
         276 -1.8114368E-03
         277 -3.0996368E-04
         278  8.7467476E-04
         279  3.1264508E-04
         280 -5.2488392E-04
         281 -6.8348000E-04
         282 -4.4182802E-04
         283  4.1354448E-03
         284  3.7808367E-03
         285  3.2725974E-04
         286 -5.5959921E-05
         287 -2.2902794E-04
         288 -3.5053529E-04
         289 -1.0422283E-03
         290  4.2190205E-04
         291  3.8897162E-03
         292  2.7925402E-03
         293  4.5206689E-04
         294 -1.6909954E-04
         295 -5.0323713E-04
         296  3.8593062E-05
         297  1.7465593E-03
         298 -2.0083662E-03
         299 -2.2761235E-03
         300 -3.4535881E-03
         301 -1.2050644E-03
         302  1.0750953E-03
         303  2.7256060E-04
         304  1.2289996E-03
         305  1.4593588E-03
         306  3.3037144E-05
         307 -2.9416401E-03
         308 -4.1783322E-03
         309 -1.1100015E-03
         310  4.2558656E-04
         311  7.1672362E-04
         312  1.0205474E-03
         313 -4.7751225E-04
         314 -1.6650255E-04
         315  2.3442267E-03
         316  2.6767892E-03
         317  1.8844343E-04
         318 -2.7092479E-05
         319  7.2985567E-05
         320 -8.2376275E-05
         321 -6.1530292E-05
         322 -8.6989603E-04
         323  4.7029257E-03
         324  4.6031601E-03
         325  9.5226380E-05
         326  2.7043779E-07
         327 -1.3643234E-04
         328  1.7500369E-04
         329  5.6660367E-04
         330 -1.9123300E-04
         331 -5.9980631E-04
         332 -1.1487105E-03
         333  2.9362438E-05
         334 -2.1704911E-04
         335 -3.0555687E-04
         336  2.8389983E-04
         337 -1.8165384E-03
         338  2.6633153E-03
         339 -5.2693747E-03
         340 -3.7233054E-03
         341  2.3021812E-03
         342 -2.5489172E-03
         343 -3.8120727E-04
         344 -8.5092004E-04
         345  6.2035053E-04
         346  2.2878805E-04
         347 -1.0659811E-03
         348 -2.7750345E-04
         349 -1.9149181E-04
         350 -7.4638857E-04
         351 -5.3971639E-04
         352  1.0183479E-03
         353  2.2829655E-03
         354  2.2271212E-02
         355  1.5990457E-02
         356 -0.1382663    
         357 -2.3375922E-03
         358  2.5989444E-03
         359 -4.3906234E-03
         360  1.0899570E-02
         361 -2.5674773E-03
         362  1.0134303E-03
         363  1.4602350E-02
         364  6.9813998E-03
         365  1.1185830E-03
         366  9.1852911E-04
         367 -1.4010476E-03
         368 -4.0647044E-04
         369  8.6734520E-04
         370 -4.5379551E-04
         371 -5.4502343E-03
         372 -4.4414457E-03
         373 -1.8421368E-06
         374  4.5802604E-04
         375 -2.6678274E-05
         376  2.2273144E-04
         377  1.5731679E-03
         378 -2.7547980E-04
         379 -5.5235105E-05
         380  5.8786076E-04
         381 -4.6554132E-04
         382 -4.2417264E-03
         383  9.5917832E-04
         384  1.9315346E-04
         385 -1.2435453E-03
         386 -1.2951077E-05
         387 -2.7270436E-03
         388 -1.4269905E-04
         389  1.6546105E-03
         390  2.1607685E-03
         391  3.4571500E-03
         392 -1.4202705E-03
         393  6.8174442E-05
         394 -4.6282931E-04
         395  4.0028233E-04
         396 -8.1410428E-04
         397  2.1710146E-04
         398 -4.2225100E-04
         399 -3.0199607E-04
         400  1.3871951E-04
         401 -3.7813626E-04
         402  9.0006628E-04
         403  2.3173245E-04
         404  1.3561203E-04
         405 -4.3597963E-04
         406  1.9564475E-04
         407 -2.6900037E-03
         408  4.2641396E-04
         409  3.1249711E-04
         410  1.8321327E-04
         411  4.8505960E-04
         412  1.4501336E-02
         413  3.3216563E-03
         414 -1.7199657E-03
         415 -1.5135825E-02
         416  5.1462171E-03
         417  1.7740102E-03
         418 -9.5416629E-04
         419  5.0678048E-03
         420 -8.8765342E-03
         421  1.1042209E-02
         422 -4.5069093E-03
         423  9.8111713E-04
         424  2.4421988E-03
         425 -1.6125725E-03
         426  3.5036593E-03
         427 -5.8608275E-04
         428  6.9126188E-05
         429 -6.2572402E-03
         430  5.0621759E-03
         431 -1.0073173E-02
         432 -1.4564301E-03
         433  3.8949473E-04
         434 -1.5985195E-03
         435  1.6421586E-03
         436 -2.5577396E-03
         437  1.3757846E-03
         438 -4.7030294E-04
         439 -1.5249470E-03
         440  1.0390970E-03
         441 -2.7008387E-03
         442  1.0458113E-03
         443 -1.7023158E-05
         444 -6.0623852E-03
         445  5.2610831E-03
         446 -9.9949753E-03
         447  3.6194348E-03
         448 -1.1984016E-03
         449  1.7516083E-03
         450 -2.0100100E-03
         451  3.5206140E-03
         452 -1.6730492E-03
         453  5.8678043E-04
         454  8.5535031E-03
         455 -3.4616929E-03
         456  1.2752085E-02
         457 -1.4750281E-02
         458 -4.5861290E-03
         459  9.9970317E-03
         460  8.8407323E-03
         461  6.4180554E-03
         462  6.4263016E-04
         463  8.1847032E-04
         464 -3.0974012E-03
         465 -3.7605362E-04
         466  1.0421906E-04
         467  1.1940865E-03
         468 -5.0572393E-04
         469  1.2854053E-04
         470 -1.0616036E-04
         471 -5.2493560E-04
         472  4.7277237E-04
         473  7.5635158E-05
         474 -1.1564354E-04
         475  3.3100761E-04
         476  3.0279622E-04
         477  1.2617579E-03
         478 -9.9264747E-05
         479  8.9556961E-05
         480 -3.7276895E-05
         481 -6.1419491E-06
         482  2.4621739E-04
         483  2.2717331E-04
         484 -3.7436702E-04
         485 -2.3597869E-04
         486 -7.1851915E-05
         487  3.8583123E-04
         488  2.7534339E-04
         489 -3.4446138E-04
         490  3.8605742E-04
         491  2.0332733E-04
         492  2.9946247E-04
         493  6.4260856E-04
         494 -5.5900984E-04
         495 -6.7458452E-05
         496 -8.3203596E-04
         497  6.3320855E-04
         498  2.6802346E-03
         499 -5.2641784E-03
         500 -1.6074271E-03
         501 -3.0299292E-03
         502 -1.9313180E-03
         503 -1.0036707E-03
         504  1.4826570E-03
         505  1.7876256E-03
         506 -1.1048892E-02
         507  5.5136735E-04
         508  6.7292893E-04
         509  6.2124123E-04
         510 -5.3954910E-04
         511  1.1590007E-04
         512 -1.8867219E-03
         513  5.2794139E-04
         514 -1.8789859E-04
         515 -3.7673206E-04
         516 -3.6353915E-04
 Sym= Particle
 Ene= -0.6119938    
 Spin= Alpha
 Occup= 2
           1  8.6687751E-06
           2  1.5600008E-03
           3  4.1924845E-03
           4  3.8008809E-03
           5  9.3623501E-05
           6  2.8732457E-04
           7  4.4009817E-04
           8 -5.5164495E-04
           9  4.4071648E-04
          10 -6.2850094E-04
          11 -2.0703571E-03
          12 -2.3073563E-03
          13  8.2865311E-04
          14  1.2594606E-03
          15  4.0645595E-04
          16  3.7606110E-04
          17 -5.1478483E-04
          18 -3.3004708E-03
          19 -7.0394389E-03
          20 -6.2280167E-03
          21  1.1812132E-03
          22  1.9463728E-03
          23  1.7122302E-03
          24  1.3754213E-03
          25  5.3375057E-04
          26  4.2615477E-03
          27  7.9756174E-03
          28  5.1885298E-03
          29  6.2426814E-04
          30  1.6839171E-04
          31 -7.9272216E-04
          32 -9.8893023E-04
          33 -1.1774618E-03
          34 -1.5720417E-03
          35  5.5097551E-03
          36 -1.3348401E-03
          37  9.7639876E-04
          38  2.7268094E-03
          39 -2.9852837E-03
          40 -1.3460907E-04
          41 -2.0118649E-03
          42 -4.8464090E-03
          43 -4.1116294E-03
          44 -2.5394631E-03
          45  4.0370700E-04
          46  1.7517187E-04
          47 -7.9052435E-04
          48  1.5478041E-03
          49 -3.8608438E-03
          50 -6.4113657E-03
          51 -6.4517825E-04
          52 -1.1354236E-02
          53  1.3126604E-03
          54 -4.8076233E-04
          55  4.8595021E-04
          56  5.0677634E-03
          57  3.8074283E-03
          58 -1.1134068E-02
          59 -4.1401363E-03
          60 -1.2315977E-03
          61 -4.0653050E-03
          62  3.1936017E-03
          63  1.8694963E-03
          64 -8.4073941E-04
          65 -1.0614807E-03
          66  8.7120058E-03
          67 -2.0635584E-03
          68  3.5884231E-03
          69  8.2361547E-04
          70 -1.9876957E-03
          71 -7.8271294E-04
          72  1.1182756E-03
          73  6.6185952E-04
          74 -3.6662463E-03
          75  2.0084952E-04
          76 -2.3528966E-03
          77 -1.3337443E-04
          78 -4.7757872E-04
          79 -2.5082051E-04
          80  6.1857339E-04
          81  1.2813328E-04
          82 -5.4163253E-03
          83  1.2087320E-03
          84 -3.9015275E-03
          85 -4.4978605E-04
          86  2.8466515E-04
          87  2.9540682E-04
          88  6.3472294E-04
          89  5.7418953E-04
          90  5.1576309E-03
          91 -1.4712823E-03
          92  4.3003969E-03
          93 -6.3081703E-04
          94 -1.2256693E-03
          95 -2.4310302E-04
          96  1.2849850E-04
          97  3.4100719E-04
          98  2.6048196E-03
          99 -6.9808370E-06
         100  3.0756339E-03
         101 -1.4508725E-03
         102 -1.7408271E-03
         103 -5.4897755E-05
         104 -1.2014424E-03
         105  2.9497407E-03
         106 -1.4141138E-02
         107 -1.9373685E-03
         108  4.5263529E-02
         109 -5.3172563E-03
         110  2.5978175E-03
         111  1.0005115E-03
         112 -1.0921322E-02
         113 -5.6170784E-03
         114 -3.9915878E-02
         115  5.0559132E-03
         116  9.2795327E-02
         117 -2.3223563E-04
         118  1.5487780E-02
         119 -3.3438702E-03
         120 -2.6389660E-02
         121 -6.9582957E-04
         122  3.2854259E-02
         123  8.6697936E-03
         124 -0.1322754    
         125 -1.4636127E-03
         126 -1.2739101E-02
         127 -4.6494426E-03
         128  5.3266093E-02
         129  5.6905195E-04
         130 -6.2571801E-02
         131  5.3223792E-02
         132 -0.1008306    
         133 -9.7031804E-04
         134  2.1934172E-02
         135 -1.7636843E-02
         136  2.8290164E-02
         137 -5.0889072E-03
         138  9.1014870E-02
         139 -8.3646134E-02
         140  0.1284715    
         141  3.3714501E-03
         142 -3.6015831E-02
         143  3.5992589E-02
         144 -5.2857928E-02
         145  1.5994237E-03
         146  0.1388548    
         147 -0.1003797    
         148  0.1974835    
         149 -1.8190265E-03
         150 -3.8785364E-02
         151  2.5943998E-02
         152 -5.1792473E-02
         153 -1.2581152E-03
         154 -0.1858093    
         155  0.1423778    
         156 -0.2784615    
         157  2.9285191E-04
         158  4.7127910E-02
         159 -3.5758834E-02
         160  7.0273191E-02
         161 -1.3455872E-04
         162  1.2956412E-02
         163 -7.3730964E-03
         164  1.5927751E-02
         165  4.7921628E-04
         166 -2.5886036E-03
         167  1.1319330E-04
         168 -1.3558728E-03
         169 -1.2344392E-03
         170  0.1676324    
         171 -0.1392156    
         172  0.2598618    
         173  1.0591657E-03
         174 -4.3836366E-02
         175  3.5879131E-02
         176 -6.8818837E-02
         177 -5.7070405E-04
         178 -0.1425566    
         179  0.1291083    
         180 -0.2406112    
         181  8.3956349E-04
         182  3.2930020E-02
         183 -3.0990550E-02
         184  5.7040676E-02
         185  5.6840817E-04
         186 -0.1465960    
         187  0.1159785    
         188 -0.2430944    
         189 -1.4004508E-03
         190  3.3928376E-02
         191 -2.5839020E-02
         192  5.8047481E-02
         193  1.5142289E-03
         194  0.1734638    
         195 -0.1410766    
         196  0.2739288    
         197 -9.7460242E-04
         198 -4.5189939E-02
         199  3.7667446E-02
         200 -7.2543509E-02
         201 -8.0413236E-05
         202  4.3398752E-03
         203 -5.0560161E-03
         204  5.1219678E-03
         205  1.3481354E-04
         206  4.8577390E-04
         207  7.7850377E-04
         208  1.3398273E-03
         209  1.3370257E-03
         210 -0.1760063    
         211  0.1538831    
         212 -0.2817964    
         213 -5.4683851E-04
         214  4.4770174E-02
         215 -3.9747767E-02
         216  7.1386851E-02
         217 -1.3324183E-03
         218  0.1365150    
         219 -0.1212085    
         220  0.2109410    
         221  6.1719376E-04
         222 -3.7415285E-02
         223  3.3393573E-02
         224 -5.6557883E-02
         225  6.1871237E-03
         226  9.0509281E-02
         227 -5.7113934E-02
         228  0.1178835    
         229 -6.0482780E-03
         230 -3.8133398E-02
         231  2.1217002E-02
         232 -4.9507916E-02
         233  7.4536619E-03
         234 -4.1595526E-02
         235 -4.5196986E-04
         236  9.2555016E-02
         237 -4.7407052E-03
         238  1.6066831E-02
         239 -2.5759365E-03
         240 -2.7238086E-02
         241 -2.6147112E-03
         242 -1.0879735E-02
         243 -1.2486660E-03
         244  4.4436209E-02
         245 -1.1019830E-03
         246  1.9478271E-03
         247 -1.7604881E-03
         248 -1.0439216E-02
         249  3.3682182E-03
         250 -1.7351672E-03
         251 -4.0892586E-03
         252 -5.5896034E-03
         253 -3.0868144E-03
         254  8.9045276E-04
         255  1.7077350E-03
         256  3.6400722E-03
         257  2.1858772E-03
         258 -1.3551655E-03
         259 -9.8924451E-03
         260 -6.6361991E-03
         261 -2.7536410E-03
         262  1.7436086E-03
         263  3.8943514E-03
         264  1.0907181E-03
         265 -2.6139086E-03
         266  3.6180783E-03
         267  8.3191087E-04
         268  1.9018145E-03
         269  2.0356553E-03
         270 -2.2105405E-03
         271 -3.4652228E-04
         272 -2.0037974E-04
         273  1.1159159E-03
         274 -2.9669211E-03
         275  5.3462656E-03
         276  6.0458588E-03
         277 -5.6226196E-04
         278  1.3356578E-03
         279 -1.6764482E-03
         280 -1.7830995E-03
         281 -3.3649275E-04
         282  1.5385924E-03
         283 -5.0907470E-03
         284 -4.1059633E-03
         285  3.7606916E-04
         286 -5.7989894E-04
         287  8.9080143E-04
         288  5.9058820E-04
         289  1.7634784E-04
         290  5.7867117E-04
         291 -3.7653828E-03
         292 -3.2579256E-03
         293  1.5474555E-04
         294 -6.8856607E-04
         295  8.9840888E-04
         296  1.0440924E-03
         297  2.8884737E-04
         298 -1.0289205E-03
         299  7.1635046E-03
         300  8.6314473E-03
         301 -8.4455067E-04
         302  7.1292027E-04
         303 -1.4820051E-03
         304 -2.0429620E-03
         305  5.2085554E-04
         306 -3.2352142E-03
         307  7.6025277E-03
         308  7.8561716E-03
         309 -4.4581646E-04
         310  1.4135636E-03
         311 -1.3412773E-03
         312 -1.6189326E-03
         313 -5.0611031E-04
         314  1.5183056E-03
         315 -5.1562069E-03
         316 -4.0573366E-03
         317  3.8619671E-04
         318 -4.3979532E-04
         319  1.3592195E-03
         320  1.2838840E-03
         321 -5.4866739E-04
         322  1.3919171E-03
         323 -4.3654363E-03
         324 -4.1704406E-03
         325  6.7899417E-04
         326 -5.0525443E-04
         327  9.0457493E-04
         328  9.8341168E-04
         329  3.9756703E-04
         330 -1.7639305E-03
         331  7.5802924E-03
         332  6.0331044E-03
         333  3.3395962E-04
         334  8.2692393E-04
         335 -1.5810988E-03
         336 -5.6401186E-04
         337 -2.2997467E-03
         338  4.3545002E-03
         339  1.9294895E-03
         340  5.3992035E-04
         341  4.0505440E-03
         342 -3.7639891E-03
         343 -1.5821768E-04
         344 -1.5792438E-03
         345 -2.6548004E-03
         346  4.7054333E-03
         347 -9.3472097E-03
         348 -2.1090787E-03
         349  2.3671375E-03
         350 -3.0166982E-03
         351  1.3330608E-03
         352  9.8612241E-04
         353  2.5853531E-03
         354  2.7125502E-02
         355  1.1679394E-02
         356 -0.1215885    
         357 -4.7828937E-03
         358 -5.7225781E-03
         359 -4.5543890E-03
         360  2.8160529E-02
         361 -1.5224327E-04
         362  3.1468815E-03
         363  8.7106423E-03
         364  6.4917086E-03
         365 -1.7300689E-04
         366 -2.5472711E-04
         367 -2.3175003E-03
         368 -1.7207490E-03
         369  1.0469759E-04
         370 -3.1700416E-04
         371 -7.5604761E-04
         372 -1.0470959E-03
         373  2.3178259E-04
         374  8.5082487E-04
         375 -3.1132440E-04
         376  7.5194549E-07
         377  1.6028816E-03
         378  5.3619570E-04
         379  9.5253251E-04
         380  1.9609511E-03
         381  7.5370935E-04
         382  1.0131489E-03
         383  1.9109857E-03
         384  1.2680016E-03
         385 -5.6156763E-03
         386 -4.3885247E-03
         387 -2.5384950E-03
         388 -1.2903418E-05
         389  5.5027911E-03
         390  2.9785486E-03
         391  3.4012706E-03
         392 -1.4513833E-03
         393  1.2670575E-04
         394 -1.1614187E-03
         395  7.6650875E-04
         396 -1.1952684E-03
         397  2.1185801E-05
         398 -4.2320575E-04
         399 -7.0562639E-04
         400  5.2973162E-04
         401 -8.7086472E-04
         402 -7.6245901E-04
         403  2.8291401E-05
         404  1.4804594E-03
         405 -5.7716854E-04
         406  1.3418801E-03
         407 -1.6434980E-03
         408  4.1346601E-04
         409 -3.2725209E-05
         410  4.0479747E-04
         411 -9.4218610E-04
         412 -2.3071657E-04
         413 -5.6617511E-03
         414  6.6459603E-03
         415  6.4442400E-03
         416  1.2051657E-02
         417  8.5367932E-04
         418 -3.4381615E-03
         419  2.0905124E-02
         420 -2.4824185E-02
         421  3.3457719E-02
         422 -6.8120164E-04
         423  6.5598387E-04
         424 -3.9448362E-02
         425  3.0927144E-02
         426 -5.9673101E-02
         427 -9.0150366E-05
         428  7.3471764E-04
         429  3.2020898E-03
         430 -3.5166950E-03
         431  6.1711138E-03
         432  3.8952662E-03
         433 -7.1106746E-04
         434  3.5467423E-02
         435 -3.0783731E-02
         436  5.5039231E-02
         437 -3.2666528E-03
         438  1.0636726E-03
         439  3.7289720E-02
         440 -2.9547490E-02
         441  5.8037087E-02
         442  6.9824321E-04
         443 -3.4142667E-04
         444  1.5845582E-03
         445 -1.3058747E-03
         446  3.6222637E-03
         447  7.4600987E-04
         448 -6.2006124E-04
         449 -3.8360052E-02
         450  3.2255743E-02
         451 -6.0334764E-02
         452 -6.7125482E-04
         453  1.8985188E-03
         454  2.7510313E-02
         455 -1.7143805E-02
         456  3.9752681E-02
         457 -1.7065968E-03
         458  3.9237239E-03
         459 -4.0775780E-03
         460 -1.1588096E-02
         461  7.6195356E-03
         462  7.4376010E-05
         463  2.1643220E-03
         464 -5.7945270E-03
         465 -3.6687840E-04
         466  2.5496676E-03
         467  5.6313752E-04
         468 -5.1893346E-04
         469  5.3452328E-04
         470  6.8954128E-04
         471  7.3497492E-04
         472  6.1998621E-04
         473  1.0414890E-04
         474 -2.3489563E-06
         475 -5.3504354E-04
         476 -6.9359696E-04
         477 -5.3895777E-04
         478  4.8504182E-04
         479 -2.4145037E-04
         480 -7.1453734E-04
         481 -4.9650739E-04
         482  8.2042324E-04
         483  2.1023658E-04
         484 -1.6861445E-04
         485 -9.1270386E-04
         486 -8.0877700E-04
         487  5.5759924E-04
         488  4.1531693E-04
         489 -3.4630508E-04
         490 -5.0288235E-04
         491 -8.1873662E-04
         492  1.4441855E-03
         493 -2.4092247E-04
         494 -1.0900370E-04
         495  1.7275091E-03
         496  1.0599660E-03
         497  2.2894351E-03
         498  2.3521271E-03
         499 -4.9112854E-03
         500  2.1767719E-03
         501 -5.5560805E-03
         502 -1.7475069E-03
         503 -2.2710892E-03
         504  4.8054312E-03
         505  1.0325405E-03
         506 -2.4222357E-02
         507  1.0139887E-03
         508  2.3121697E-04
         509  8.6898287E-04
         510  5.8073649E-04
         511  1.0966832E-03
         512  1.1083385E-04
         513  8.7165646E-04
         514  3.7852745E-04
         515 -1.4349370E-03
         516 -4.9683853E-04
 Sym= Hole
 Ene= -0.1737166    
 Spin= Alpha
 Occup= 0
           1 -3.2385517E-04
           2 -3.8696561E-02
           3 -9.3331233E-02
           4 -8.0432922E-02
           5  9.3546596E-06
           6  1.4768316E-03
           7  2.5802599E-03
           8  3.2728240E-03
           9  3.0741695E-04
          10  1.0471664E-02
          11  2.5941385E-02
          12  2.0860272E-02
          13 -1.4313102E-04
          14 -4.4284126E-04
          15 -8.5174956E-04
          16 -3.8521586E-04
          17 -5.6837691E-04
          18  7.5494938E-02
          19  0.1781228    
          20  0.1604676    
          21 -6.7488589E-05
          22 -6.7363339E-03
          23 -1.2563736E-02
          24 -1.4337922E-02
          25  7.7918461E-03
          26  8.9330487E-03
          27  3.5061102E-04
          28 -1.4920597E-02
          29 -2.4719045E-03
          30 -5.8275915E-04
          31 -2.6093423E-03
          32 -1.4265024E-03
          33 -2.7556842E-02
          34 -9.1823183E-02
          35 -0.2348926    
          36 -9.5350012E-02
          37  1.3424758E-02
          38  1.1505627E-02
          39  1.5707586E-02
          40  4.4078445E-03
          41 -1.2572790E-03
          42 -3.4175847E-02
          43 -3.0191127E-02
          44 -7.6053254E-02
          45  5.5943127E-04
          46  8.5331760E-03
          47  1.1240016E-02
          48  1.8750241E-02
          49  7.7007670E-04
          50  0.2156964    
          51  0.1717545    
          52  0.5258555    
          53 -1.1299728E-05
          54 -1.9957252E-02
          55 -1.9930007E-02
          56 -5.0530311E-02
          57 -1.8539175E-03
          58 -8.2082838E-02
          59 -3.4771513E-03
          60 -0.1068262    
          61  1.4647568E-03
          62  1.3285492E-02
          63  3.7257452E-03
          64  1.9671571E-02
          65  3.5605550E-02
          66 -0.2271293    
          67  4.7097456E-02
          68 -6.4961068E-02
          69 -1.8021882E-02
          70  1.7210638E-02
          71  2.7964176E-03
          72 -1.8392629E-03
          73 -1.1432390E-02
          74  4.0471856E-02
          75  2.1265922E-03
          76  5.0579961E-03
          77  3.5666209E-03
          78 -5.2892324E-03
          79  6.5139279E-04
          80 -3.5420507E-03
          81  2.5103538E-04
          82  0.1772008    
          83 -2.7739108E-02
          84  0.1432434    
          85  1.3360968E-04
          86 -9.0710083E-03
          87  4.4007719E-04
          88 -9.2620719E-03
          89  9.8340362E-03
          90  1.3303931E-02
          91 -2.2168145E-02
          92  1.0533592E-02
          93 -3.2232828E-03
          94 -5.5919834E-03
          95  2.9700149E-03
          96 -4.3925652E-03
          97 -3.5285141E-02
          98 -0.1996890    
          99  0.1085656    
         100 -0.1088616    
         101  1.8009255E-02
         102  6.0982574E-03
         103 -1.3083611E-02
         104  7.9616876E-03
         105  1.8219780E-03
         106 -1.2937136E-02
         107 -5.3826575E-03
         108 -0.1008256    
         109 -1.6327659E-03
         110  6.1953561E-03
         111  6.2479316E-03
         112  2.5273936E-02
         113  3.4330349E-02
         114  9.3064867E-02
         115  7.2947450E-02
         116 -0.2215194    
         117 -1.6707126E-02
         118 -3.4416483E-03
         119 -1.7452599E-02
         120  1.2809891E-02
         121 -1.0025308E-02
         122  4.0190159E-03
         123 -1.0389825E-02
         124  9.3618007E-03
         125  3.9087436E-03
         126 -4.1439058E-04
         127  2.8556187E-03
         128 -8.4639620E-03
         129  9.1733309E-03
         130 -3.7389821E-03
         131  1.6643075E-02
         132 -9.9133411E-03
         133 -2.5284961E-03
         134  1.5078524E-04
         135  3.2947646E-04
         136  1.6317482E-03
         137 -2.6775280E-03
         138  1.2152533E-03
         139 -5.2983412E-03
         140 -3.3043820E-04
         141  5.5379246E-04
         142 -9.0717670E-04
         143  2.1238446E-05
         144  2.8803738E-04
         145  4.1709193E-03
         146  7.7615562E-03
         147  4.0511345E-03
         148  4.4931341E-03
         149 -3.2206362E-03
         150 -4.7865685E-04
         151 -1.1179795E-03
         152 -1.5602740E-03
         153 -1.7735449E-03
         154 -2.7406379E-03
         155 -7.5180089E-04
         156 -5.6587895E-03
         157  5.1380746E-04
         158  4.4058746E-05
         159  8.5155404E-04
         160  6.3153985E-04
         161  6.7076582E-04
         162 -7.9056378E-03
         163  8.2263006E-03
         164 -1.3226121E-02
         165 -4.9160188E-04
         166  4.3311218E-05
         167 -7.0397521E-04
         168  7.1143807E-04
         169 -4.0878239E-04
         170 -1.5428214E-03
         171  8.1751449E-04
         172 -3.8092518E-03
         173  1.4682239E-04
         174  1.8135333E-04
         175 -3.0103987E-04
         176  7.0095668E-04
         177  1.9207447E-03
         178  1.0291139E-02
         179 -5.2016294E-03
         180  1.4842781E-02
         181 -6.3272513E-04
         182 -2.1777584E-04
         183 -3.0354835E-04
         184 -7.9385022E-04
         185  4.0696622E-04
         186  8.9912452E-03
         187 -4.2749355E-03
         188  1.2927812E-02
         189 -3.3778357E-04
         190 -1.7007277E-04
         191 -2.8738045E-04
         192 -5.2214687E-04
         193 -4.0975257E-04
         194 -2.9746112E-03
         195  1.0301096E-03
         196 -7.5244164E-04
         197 -7.2029274E-05
         198 -3.9079657E-04
         199 -7.9232542E-04
         200  7.3798542E-04
         201  4.1115418E-04
         202 -5.8117649E-03
         203  6.2450473E-03
         204 -1.1635704E-02
         205 -2.5313947E-04
         206  2.2776077E-04
         207 -1.2021565E-03
         208  2.2049317E-04
         209 -1.5938504E-03
         210 -4.2761108E-03
         211  1.0601631E-03
         212 -3.9561787E-03
         213  7.8065979E-04
         214  1.2022784E-04
         215  6.5953913E-04
         216  2.6724872E-04
         217  1.5226004E-03
         218  3.0828728E-03
         219  4.7053379E-04
         220  3.9828182E-03
         221  3.3544539E-04
         222 -1.2108536E-03
         223  1.4077739E-03
         224 -5.3140149E-04
         225 -9.2471141E-04
         226 -4.5258291E-03
         227 -1.1029034E-03
         228 -2.5271485E-04
         229  1.9354145E-03
         230  2.1284248E-03
         231  6.9372437E-04
         232 -5.0183194E-04
         233 -3.3424329E-03
         234 -5.0611131E-02
         235 -1.4858177E-02
         236  0.2268577    
         237  1.9540978E-03
         238  2.0267246E-03
         239 -6.4874114E-04
         240 -1.8078061E-02
         241  1.3000735E-02
         242 -1.4971239E-02
         243  1.4822042E-02
         244  2.7143685E-02
         245 -4.1359165E-03
         246  2.1974540E-03
         247 -3.8002664E-03
         248 -1.0208228E-02
         249 -1.1298763E-02
         250  2.4080476E-02
         251 -4.5039035E-02
         252 -3.9205644E-02
         253  3.1875111E-03
         254 -4.1816919E-04
         255  3.4700709E-03
         256  3.8105696E-03
         257  2.1214033E-03
         258 -4.7214502E-03
         259 -3.7175114E-03
         260  2.7050136E-03
         261 -2.6213296E-03
         262  2.4250352E-03
         263  2.6880956E-04
         264 -1.8666920E-03
         265 -1.3405746E-03
         266 -4.4181882E-03
         267  2.7744936E-02
         268  2.4325764E-02
         269 -3.5179156E-04
         270  6.2284159E-04
         271 -2.7311577E-03
         272 -1.0547229E-03
         273  1.6506349E-03
         274 -3.5956413E-03
         275  5.2680052E-03
         276  6.4089014E-03
         277 -4.4750128E-04
         278  4.4543206E-04
         279 -3.4902070E-04
         280  8.5358648E-04
         281 -4.8832590E-04
         282  5.9671155E-03
         283 -2.5316151E-02
         284 -2.3429871E-02
         285  2.5389949E-04
         286 -9.1131078E-04
         287  1.3551671E-03
         288  1.0898662E-03
         289  8.8701857E-04
         290  2.5027809E-03
         291 -1.5477170E-02
         292 -1.2819555E-02
         293  7.7701196E-05
         294 -8.3935243E-04
         295  1.2718657E-03
         296  1.1547926E-03
         297 -1.0378490E-03
         298 -2.2195603E-03
         299  1.9763187E-02
         300  1.9359361E-02
         301  4.4501247E-04
         302 -6.9890730E-04
         303 -7.5931154E-04
         304 -1.5622205E-03
         305 -2.5097663E-03
         306 -3.0784258E-03
         307  2.3599338E-02
         308  2.3794975E-02
         309  9.1355375E-04
         310 -1.8807205E-04
         311 -9.5391646E-04
         312 -1.5591868E-03
         313  6.1423791E-04
         314  2.1661357E-03
         315 -1.3556924E-02
         316 -1.3638833E-02
         317 -9.6080330E-05
         318 -3.3215535E-04
         319  9.9759956E-04
         320  1.5793047E-03
         321 -8.7822601E-04
         322  8.0910204E-03
         323 -2.7879832E-02
         324 -2.6592419E-02
         325  5.0038774E-04
         326 -4.3613990E-04
         327  1.4024302E-03
         328  1.2451806E-03
         329  1.6631444E-03
         330 -4.1155177E-03
         331  5.5265822E-03
         332  1.3791397E-03
         333 -4.7077061E-04
         334  3.6326662E-04
         335  2.3524358E-04
         336  9.7763084E-04
         337 -3.9720950E-03
         338  3.1595225E-03
         339  2.8976133E-02
         340  2.6055984E-02
         341  3.0505145E-03
         342 -7.8126031E-04
         343 -1.2973079E-03
         344 -1.5073720E-03
         345  1.7761862E-03
         346 -4.0463838E-03
         347  7.5349058E-03
         348  2.8986479E-03
         349 -1.1623358E-04
         350  5.2340863E-05
         351 -1.5507655E-03
         352 -1.3047792E-03
         353 -3.2046985E-02
         354  0.1228442    
         355  7.3029753E-03
         356 -0.1767660    
         357  1.5456222E-02
         358 -1.8952822E-02
         359  7.6103983E-03
         360  8.3688470E-03
         361  2.7910352E-02
         362 -3.3091716E-02
         363 -0.2437585    
         364 -0.1217546    
         365 -1.3975492E-02
         366 -3.7352759E-03
         367  1.6012462E-02
         368  1.0133873E-02
         369 -7.5379563E-03
         370 -1.7311972E-02
         371 -4.5040165E-04
         372 -8.3938371E-03
         373  2.3539078E-03
         374 -4.7474782E-04
         375 -3.1182058E-03
         376 -1.9111772E-03
         377 -2.5093265E-02
         378  2.3343400E-04
         379 -2.0640802E-03
         380  2.9548695E-03
         381  3.2945883E-03
         382  2.2147907E-02
         383  1.3634618E-03
         384  2.9724177E-03
         385 -4.7693830E-03
         386 -1.5591195E-02
         387 -2.2024911E-02
         388 -3.8408306E-03
         389  2.7299214E-03
         390  5.0689136E-03
         391 -1.5573004E-02
         392  2.7354734E-02
         393 -3.4653803E-04
         394  3.3057242E-04
         395 -2.7871507E-03
         396  3.4782351E-03
         397 -1.9023796E-03
         398 -5.7691475E-05
         399  1.2942149E-02
         400 -1.6839404E-03
         401  1.1016653E-02
         402 -2.6995936E-02
         403  3.0561181E-04
         404  2.8322472E-03
         405  2.8083720E-03
         406  3.7507850E-04
         407  2.3920339E-02
         408  2.4042481E-03
         409 -7.4835019E-03
         410 -1.2532962E-02
         411 -4.0989248E-03
         412 -1.7053498E-02
         413 -9.0325030E-04
         414  2.3373128E-03
         415 -1.4210349E-02
         416 -8.7195588E-03
         417  3.1213635E-03
         418 -2.7962150E-03
         419  5.8368337E-04
         420 -4.7409176E-03
         421 -2.8338789E-03
         422 -1.1423725E-03
         423  3.4560525E-04
         424  6.7561161E-04
         425 -6.2634709E-04
         426  9.0023252E-04
         427 -1.5879599E-03
         428 -1.8466884E-04
         429 -4.8279163E-04
         430  1.2466784E-04
         431 -6.5114145E-04
         432  7.3256978E-04
         433 -3.0511449E-04
         434 -3.4061680E-04
         435  2.5228306E-04
         436 -2.3953842E-04
         437  5.8326463E-04
         438 -3.6969085E-04
         439  1.4961058E-04
         440  2.7483143E-04
         441 -3.4981567E-04
         442 -1.5126960E-03
         443 -2.7452628E-04
         444 -3.0203298E-04
         445  3.7529238E-04
         446 -3.0074586E-04
         447 -2.7351789E-05
         448  1.0728601E-04
         449  7.6947093E-04
         450 -1.0654772E-04
         451  1.1778830E-03
         452  3.2997807E-03
         453 -4.5929968E-04
         454 -3.3736359E-03
         455  1.4088349E-03
         456  1.2539524E-03
         457  2.6547927E-03
         458  7.6148973E-04
         459 -6.9533673E-04
         460  1.1233727E-03
         461  1.5857186E-02
         462 -3.1727224E-03
         463  7.6537346E-04
         464 -6.5547921E-04
         465 -1.9916052E-03
         466  2.6261800E-03
         467 -5.2605139E-04
         468 -1.9373246E-04
         469  3.1945834E-04
         470  5.2347325E-04
         471  1.0381627E-03
         472  3.5746631E-04
         473 -1.7415184E-04
         474  5.0245260E-04
         475 -1.6016740E-03
         476 -1.6628929E-03
         477 -6.2618952E-04
         478  4.8462371E-04
         479  1.7500808E-04
         480 -2.7332036E-04
         481 -1.6133759E-04
         482 -1.0608486E-03
         483  1.6122643E-04
         484  1.5093255E-04
         485 -3.6319660E-04
         486 -4.0580443E-04
         487  1.5375479E-03
         488  7.0029884E-05
         489  5.1837054E-05
         490 -1.9639295E-03
         491 -1.7077907E-03
         492  1.2213318E-03
         493 -5.4587272E-04
         494  1.4004373E-04
         495  7.7679119E-04
         496  7.9606345E-04
         497 -3.2678465E-03
         498  2.8210562E-03
         499 -3.7439382E-03
         500  3.3368787E-03
         501 -2.8858634E-03
         502  1.3381294E-02
         503  2.0384633E-03
         504 -1.3040368E-02
         505  8.3817933E-03
         506 -1.0910156E-02
         507 -2.4061756E-02
         508 -2.2264593E-03
         509 -1.2852285E-02
         510 -3.3303981E-03
         511 -1.0078344E-02
         512  2.5108976E-02
         513 -5.4773892E-04
         514  4.2301747E-03
         515  1.8936766E-03
         516  1.0860591E-03
 Sym= Particle
 Ene= -0.1737166    
 Spin= Alpha
 Occup= 2
           1  9.4861625E-04
           2  6.0924441E-02
           3  0.1566781    
           4  0.1215750    
           5 -2.3982304E-03
           6 -1.0490324E-02
           7 -2.6241584E-02
           8 -1.7427381E-02
           9 -1.1481484E-03
          10 -3.8915016E-02
          11 -0.1002312    
          12 -7.6278619E-02
          13 -4.6434747E-03
          14  5.4691522E-03
          15  2.1682585E-02
          16  1.8512297E-02
          17  2.6625290E-03
          18 -9.4431646E-02
          19 -0.2485634    
          20 -0.1933319    
          21 -5.3683696E-03
          22  2.1594176E-02
          23  5.7596069E-02
          24  4.9245112E-02
          25  3.8250503E-03
          26  6.4679734E-02
          27  0.1555032    
          28  0.1242127    
          29 -6.0416725E-03
          30 -1.6944004E-02
          31 -4.8837606E-02
          32 -3.7707075E-02
          33 -7.7405358E-03
          34  4.2902630E-02
          35  0.1036809    
          36  0.1058952    
          37  1.1205991E-03
          38 -1.3615935E-02
          39 -3.3612199E-02
          40 -3.7282437E-02
          41  2.6679721E-02
          42 -8.3218649E-02
          43 -0.3125300    
          44 -0.2545848    
          45 -2.4792816E-02
          46  2.6463363E-02
          47  0.1024940    
          48  0.1001047    
          49  3.5899733E-03
          50  3.0462563E-02
          51  1.1890971E-02
          52  5.2215308E-02
          53 -2.5414792E-03
          54  6.1296816E-03
          55 -2.5153026E-02
          56 -1.4387936E-02
          57  1.4168769E-02
          58  0.3294460    
          59 -8.6774454E-02
          60  0.2481312    
          61 -1.2507595E-02
          62 -0.1173920    
          63  2.8736155E-02
          64 -9.6477076E-02
          65  3.3460081E-05
          66 -0.1715819    
          67  3.2761265E-02
          68 -0.1240337    
          69 -3.1920716E-03
          70  5.6727093E-02
          71 -1.1163390E-02
          72  3.7810713E-02
          73  9.4867888E-04
          74 -0.1374802    
          75  2.5825536E-02
          76 -9.7542219E-02
          77 -2.6206141E-03
          78  3.6884744E-02
          79 -1.0084514E-02
          80  2.4646750E-02
          81  9.6493139E-04
          82  0.2815057    
          83 -5.6365378E-02
          84  0.2015406    
          85 -2.0833809E-03
          86 -6.2441699E-02
          87  1.0639194E-02
          88 -4.9638391E-02
          89  7.1330037E-04
          90 -8.9165784E-02
          91  1.5886871E-02
          92 -6.1939828E-02
          93  1.0259590E-03
          94  2.2283992E-02
          95 -5.2929092E-03
          96  9.5462510E-03
          97 -5.4376479E-03
          98 -0.2202872    
          99  5.0936475E-02
         100 -0.1541135    
         101  6.6375872E-03
         102  6.9040053E-02
         103 -1.7037116E-02
         104  4.1178595E-02
         105 -4.4118222E-02
         106  4.8260517E-02
         107 -6.0160212E-02
         108 -4.0742841E-02
         109  3.8693074E-02
         110 -1.7368937E-02
         111  3.1221317E-02
         112  1.9742198E-02
         113  1.1235028E-02
         114  2.3254506E-02
         115  2.2198323E-02
         116 -3.6727693E-02
         117 -6.6680550E-03
         118 -1.1038154E-02
         119 -7.5037456E-03
         120 -1.0295768E-03
         121 -5.1668701E-03
         122 -1.2510310E-02
         123 -7.7066319E-03
         124  7.5399838E-02
         125  2.8889391E-03
         126  2.9484734E-03
         127  6.5411418E-03
         128 -2.8740317E-02
         129  4.4926563E-03
         130 -1.6540365E-03
         131  1.0435773E-02
         132 -1.0123147E-02
         133  6.4458349E-04
         134 -1.6397110E-03
         135  5.3625870E-03
         136  8.0343680E-03
         137  1.7904269E-03
         138 -8.3503677E-03
         139  9.3523534E-03
         140 -9.5983874E-03
         141  5.8164127E-04
         142  1.3507307E-03
         143 -8.6532382E-04
         144  4.0156767E-03
         145 -1.2447455E-04
         146  1.7692517E-02
         147 -1.1331241E-02
         148  2.1941606E-02
         149  6.4014213E-04
         150 -5.7506501E-03
         151  3.0565916E-03
         152 -4.8069651E-03
         153  2.1363077E-04
         154 -6.5385583E-03
         155  5.7325340E-03
         156 -1.0762908E-02
         157  2.1719896E-04
         158  2.2242316E-03
         159 -1.8124696E-03
         160  4.3655648E-03
         161  6.9022339E-05
         162 -6.6375528E-03
         163  5.8162515E-03
         164 -1.1335289E-02
         165  4.0087904E-04
         166  8.4920501E-04
         167 -9.8298816E-04
         168  2.5729798E-03
         169  2.9554026E-04
         170  1.1002020E-02
         171 -8.7160263E-03
         172  1.7456813E-02
         173  7.9169380E-04
         174 -3.1937649E-03
         175  2.6803338E-03
         176 -3.9869477E-03
         177 -3.0071771E-04
         178 -2.7128104E-03
         179  2.5250067E-03
         180 -4.1819261E-03
         181  1.3876396E-03
         182  5.8962492E-04
         183 -6.1818690E-04
         184  1.7356829E-03
         185  1.9090897E-03
         186  6.2130432E-04
         187  2.8186177E-03
         188  1.7178714E-03
         189  6.0289697E-04
         190 -1.2803326E-03
         191  6.5718067E-04
         192 -9.5720310E-04
         193 -5.7160901E-04
         194  7.6944749E-03
         195 -7.7128690E-03
         196  1.5058171E-02
         197  7.4097677E-04
         198 -2.9096734E-03
         199  1.8974679E-03
         200 -3.3622803E-03
         201  1.2092623E-03
         202 -8.0660479E-03
         203  6.8884599E-03
         204 -1.1396156E-02
         205 -6.5191276E-04
         206  1.6277364E-03
         207  5.3547905E-04
         208  3.2884150E-03
         209 -5.1163667E-04
         210 -8.2353931E-03
         211  2.8022185E-03
         212 -2.2046859E-03
         213 -2.3404281E-03
         214  9.8585873E-04
         215  2.8424764E-03
         216  1.2829929E-03
         217  6.7642247E-03
         218  1.2359948E-02
         219  3.0635784E-03
         220  1.9061366E-02
         221 -7.5259418E-03
         222 -1.5755864E-03
         223 -1.4013742E-03
         224 -6.5561156E-03
         225 -6.2010861E-03
         226 -1.2822801E-02
         227  1.6928678E-04
         228 -8.4999297E-03
         229  6.9700265E-03
         230  6.0451347E-03
         231  8.4696803E-03
         232  7.8490120E-04
         233 -2.3212798E-03
         234  4.1215057E-03
         235 -8.5256342E-04
         236 -1.8919412E-02
         237  3.5696561E-03
         238 -4.4658608E-03
         239  5.9087444E-03
         240  6.7642508E-03
         241 -1.1187297E-03
         242  1.0829321E-02
         243  7.7688746E-04
         244 -5.0010379E-02
         245  1.3947061E-03
         246 -7.3143742E-03
         247  3.1133653E-03
         248  2.0967193E-02
         249  2.0728393E-03
         250 -3.9625838E-03
         251 -5.7590120E-03
         252 -5.0765998E-03
         253  2.3358720E-03
         254 -5.8874730E-03
         255  5.2256882E-03
         256 -2.6453626E-03
         257 -4.9499595E-03
         258  1.0887521E-03
         259  2.1522202E-02
         260  1.9380067E-02
         261  6.0900459E-03
         262 -7.9844873E-03
         263 -7.0129684E-03
         264 -6.1414982E-03
         265  7.8516230E-03
         266 -1.5251474E-02
         267  1.4782875E-02
         268  4.4021215E-03
         269 -8.6664064E-03
         270  5.2025663E-03
         271 -6.2383632E-03
         272  1.8892385E-03
         273 -9.9419861E-04
         274  9.2499573E-03
         275 -2.1997746E-02
         276 -2.6207464E-02
         277 -1.8475989E-03
         278 -4.2798170E-03
         279  5.7026283E-03
         280  5.2698958E-03
         281  9.3943003E-04
         282 -2.6574908E-03
         283  8.3092246E-03
         284  6.2200911E-03
         285 -2.6614865E-04
         286 -3.9173997E-04
         287 -1.5710376E-03
         288 -1.8631481E-03
         289 -1.0988137E-04
         290 -3.4428297E-03
         291  2.0167928E-02
         292  1.7678330E-02
         293  1.7782043E-04
         294  1.3232988E-03
         295 -4.7314563E-03
         296 -4.8931320E-03
         297  1.2346191E-03
         298  2.5145111E-03
         299 -2.2703484E-02
         300 -2.4387149E-02
         301  9.8123145E-04
         302 -1.3114751E-03
         303  5.8370749E-03
         304  6.0953866E-03
         305 -3.1523380E-04
         306  6.2739756E-03
         307 -2.3384670E-02
         308 -2.2646949E-02
         309  1.1073921E-03
         310 -2.4226918E-03
         311  4.7964263E-03
         312  4.9011419E-03
         313  1.1431862E-04
         314 -5.9893015E-03
         315  2.5520988E-02
         316  2.3184733E-02
         317  7.5367291E-04
         318  1.6559418E-03
         319 -6.9668782E-03
         320 -7.0444061E-03
         321  2.3034320E-04
         322 -7.0990424E-04
         323  2.7987764E-03
         324  2.7674434E-03
         325  4.2702709E-04
         326  1.2755126E-04
         327 -1.4691270E-04
         328 -5.1394815E-04
         329 -1.7818192E-04
         330  5.1609618E-03
         331 -2.7510144E-02
         332 -2.5186043E-02
         333  1.1636280E-03
         334 -1.0998427E-03
         335  6.7354850E-03
         336  5.5858544E-03
         337 -7.1975996E-04
         338 -3.6380505E-03
         339  1.7582949E-02
         340  1.7398028E-02
         341  2.2761086E-03
         342 -2.4593759E-05
         343 -4.8987553E-03
         344 -7.1477885E-03
         345  1.7717323E-03
         346 -4.7030016E-03
         347  1.4449954E-02
         348  1.0084195E-02
         349  8.2573853E-04
         350 -2.3009760E-04
         351 -3.5059578E-03
         352 -5.4912954E-03
         353  2.6140295E-05
         354 -2.8295878E-02
         355 -1.3608126E-02
         356  6.8546139E-02
         357  4.0022326E-03
         358  1.0657408E-02
         359  1.7935129E-02
         360 -2.1604307E-02
         361  1.1636420E-03
         362  5.2788965E-02
         363  0.1359327    
         364  0.1043889    
         365  2.9400098E-05
         366 -1.8370371E-02
         367 -4.0953573E-02
         368 -2.0917801E-02
         369 -1.0887476E-03
         370  5.0274398E-02
         371  0.1337376    
         372  0.1054231    
         373  1.4939861E-03
         374 -1.4575087E-02
         375 -4.2152829E-02
         376 -2.8003331E-02
         377 -7.0979577E-03
         378 -1.1782134E-03
         379  1.2483478E-02
         380  2.3321705E-02
         381  1.8153280E-02
         382 -4.7954442E-03
         383  2.7558275E-03
         384  6.9903657E-03
         385  2.9296516E-02
         386  2.4918271E-02
         387 -1.6653109E-03
         388  9.1475435E-04
         389 -3.8194563E-02
         390  6.8007708E-03
         391 -3.1680986E-02
         392 -5.4457004E-04
         393 -1.2782377E-03
         394 -2.8733425E-02
         395  3.1748614E-03
         396 -1.9388419E-02
         397 -6.9497159E-04
         398 -2.6358597E-03
         399  6.9427662E-02
         400 -1.3679458E-02
         401  4.8027609E-02
         402 -3.9505418E-03
         403 -2.4152468E-03
         404 -1.6816622E-02
         405  5.5923988E-03
         406 -1.4452578E-02
         407 -3.9958064E-03
         408  2.6493105E-03
         409 -5.9163850E-02
         410  1.9291228E-02
         411 -4.0629167E-02
         412  1.5528086E-02
         413 -6.0555954E-03
         414  3.3651844E-03
         415  1.0798339E-02
         416 -1.4745168E-02
         417 -1.9537837E-03
         418  3.3928792E-03
         419  3.5380975E-03
         420 -1.6482659E-03
         421  7.4987351E-03
         422 -1.1724981E-03
         423  5.8265642E-04
         424 -2.0999240E-03
         425  1.8677514E-03
         426 -2.1356309E-03
         427 -4.0768195E-04
         428  5.1488980E-05
         429 -2.0757867E-03
         430  1.7476230E-03
         431 -2.4181374E-03
         432 -7.9234375E-04
         433  1.0619743E-03
         434  2.4723338E-03
         435 -1.2082782E-03
         436  4.8373370E-03
         437  1.0340769E-03
         438  8.1314699E-04
         439  2.2971805E-03
         440 -1.2530637E-03
         441  4.1790409E-03
         442 -2.1492545E-03
         443  1.9560806E-03
         444  3.8298560E-04
         445  2.4251919E-03
         446 -2.9886165E-03
         447 -1.5722394E-03
         448  1.2040683E-03
         449 -6.5253465E-04
         450 -8.6956297E-04
         451 -1.6803192E-03
         452 -4.2158435E-03
         453 -3.7963712E-03
         454  8.8913329E-03
         455 -2.2546498E-02
         456 -2.5892006E-03
         457  2.8016395E-03
         458  4.2430856E-03
         459 -1.6999498E-03
         460  3.9582201E-03
         461 -4.4632074E-03
         462 -5.9938184E-03
         463 -5.7578729E-03
         464  1.8221907E-02
         465 -1.2479798E-02
         466  1.4176859E-02
         467 -1.8749489E-03
         468  8.6635928E-06
         469  3.0527306E-03
         470 -5.6772018E-03
         471 -4.3833437E-03
         472 -1.8026233E-03
         473  6.9779390E-04
         474 -1.1425796E-03
         475  3.7089403E-04
         476  2.1596842E-03
         477  7.1887474E-04
         478  3.1849192E-04
         479 -1.4878673E-03
         480  4.2654099E-03
         481  3.2558595E-03
         482 -4.5869165E-04
         483  5.6968129E-04
         484 -1.6593914E-03
         485  5.1745558E-03
         486  4.1732565E-03
         487 -4.4748400E-04
         488  6.6780136E-04
         489 -9.4488886E-04
         490  1.4722820E-03
         491  1.1393538E-03
         492 -2.8844242E-04
         493  7.2854146E-04
         494  1.1157834E-03
         495 -5.6181876E-03
         496 -5.3832475E-03
         497  1.3843547E-04
         498  2.7770735E-03
         499 -3.2775737E-03
         500  2.7559537E-03
         501  1.4337455E-03
         502  1.7930515E-02
         503 -2.0301733E-03
         504 -1.7910330E-02
         505  1.0929854E-02
         506  1.6603418E-02
         507 -9.9960817E-03
         508  3.6630982E-03
         509  5.8995713E-03
         510  5.6048337E-02
         511  3.5783876E-02
         512 -2.9279557E-03
         513 -3.2081609E-03
         514  4.0748673E-03
         515  2.1170078E-02
         516  1.5232963E-02
 Sym= Hole
 Ene= -0.1246266    
 Spin= Alpha
 Occup= 0
           1 -1.6690246E-04
           2  3.0751922E-04
           3  3.8262829E-04
           4  1.1430657E-04
           5  2.1015576E-04
           6  1.3508440E-04
           7 -1.7802206E-04
           8 -7.1177543E-05
           9  4.4036777E-05
          10 -1.4592071E-04
          11  3.4461536E-05
          12 -1.2296636E-04
          13 -1.4820276E-04
          14 -1.3569057E-05
          15 -5.0440863E-06
          16 -1.9995083E-05
          17 -1.0738922E-05
          18 -2.5194252E-04
          19 -5.3986005E-04
          20 -6.6605833E-04
          21 -3.2007619E-04
          22  9.5488404E-06
          23 -6.4087515E-05
          24  5.0293715E-05
          25  1.0984325E-04
          26  5.6997516E-05
          27  1.1914765E-04
          28  4.4694002E-04
          29 -6.0024840E-04
          30 -2.0134453E-04
          31 -2.9495469E-04
          32 -1.0496727E-04
          33  8.2089093E-05
          34  5.0590432E-04
          35  1.1908021E-03
          36  5.7026098E-04
          37 -4.4248681E-04
          38 -2.3000073E-04
          39 -1.5332988E-04
          40 -5.7517536E-05
          41  6.4798653E-05
          42  2.7887945E-04
          43  3.1927720E-04
          44  5.1605282E-04
          45 -3.0898093E-04
          46  2.1539956E-05
          47  6.2672167E-05
          48  4.0060135E-05
          49 -2.1459883E-04
          50 -7.8782655E-04
          51 -3.0720467E-04
          52 -1.7262477E-03
          53  1.6342320E-04
          54 -1.1002259E-04
          55 -1.9214112E-04
          56  1.3016928E-04
          57  4.9147260E-05
          58 -2.0209172E-05
          59  1.4673503E-05
          60  3.7478242E-04
          61  8.3707833E-05
          62 -1.6299357E-04
          63 -1.2096420E-04
          64 -1.4941818E-05
          65 -1.8222502E-04
          66  6.6448911E-04
          67 -3.9069975E-05
          68  5.2209587E-05
          69  1.9219164E-04
          70 -1.1786307E-04
          71 -1.2431275E-04
          72  4.0284274E-05
          73  5.1620296E-05
          74 -2.1334125E-04
          75  6.4344918E-06
          76  1.1980926E-04
          77  4.9554641E-05
          78 -2.7341301E-05
          79 -2.3528082E-06
          80  3.9503568E-05
          81 -2.6435444E-05
          82 -2.5362204E-04
          83 -1.6778853E-05
          84 -3.7843108E-04
          85  4.4965676E-05
          86  3.2912914E-05
          87 -2.5160603E-05
          88 -3.6571562E-06
          89 -4.4450230E-06
          90  2.2703418E-05
          91  3.6683196E-05
          92  2.2195368E-04
          93  5.4325985E-05
          94 -2.9507006E-05
          95 -4.0490158E-05
          96  6.9698261E-05
          97  7.5010837E-05
          98  6.0076837E-04
          99 -2.9848624E-04
         100  1.6955890E-04
         101  3.2734872E-05
         102 -8.9177243E-05
         103 -6.1031693E-05
         104 -2.6454933E-05
         105  5.6247017E-04
         106 -3.4512585E-04
         107 -6.9176377E-04
         108 -4.1902516E-04
         109 -3.1541759E-04
         110  9.6042873E-05
         111  1.8393320E-04
         112  3.0824482E-05
         113 -8.1696158E-04
         114 -1.0910686E-03
         115  7.4003148E-04
         116  4.1550668E-03
         117  4.9727160E-04
         118 -7.8611844E-04
         119  1.5926220E-04
         120 -8.5225649E-05
         121 -1.4349921E-03
         122  4.4532557E-04
         123  3.1948925E-04
         124  2.1823272E-03
         125  1.1426576E-03
         126 -2.8023831E-04
         127  6.5120847E-05
         128 -4.6641333E-04
         129 -1.5156145E-03
         130 -4.4795666E-03
         131  5.1566940E-03
         132 -7.2511239E-03
         133  9.2072686E-04
         134 -9.6669264E-06
         135 -1.0945149E-03
         136  3.1854759E-04
         137  4.5359298E-03
         138  0.1254725    
         139 -9.6884213E-02
         140  0.1901315    
         141 -1.3618475E-03
         142 -2.3421885E-03
         143  1.0561453E-03
         144 -2.5482166E-03
         145 -3.6695515E-04
         146 -8.3432265E-02
         147  6.2621742E-02
         148 -0.1220312    
         149  5.4949942E-05
         150 -2.9882271E-04
         151 -1.2061320E-04
         152 -3.4219542E-04
         153  6.9127884E-04
         154 -0.1936642    
         155  0.1505559    
         156 -0.2863772    
         157 -2.0221347E-04
         158 -7.1384094E-04
         159  4.1999487E-04
         160 -6.3146901E-04
         161  7.0803217E-04
         162 -5.0371911E-02
         163  3.9823674E-02
         164 -7.4784316E-02
         165 -1.6209856E-04
         166  1.1130624E-03
         167 -1.9039161E-04
         168  7.8690448E-04
         169 -1.0609771E-03
         170  0.1585047    
         171 -0.1324046    
         172  0.2451610    
         173  8.3019363E-04
         174  2.8357140E-03
         175 -1.9099712E-03
         176  4.0171016E-03
         177  5.0528359E-04
         178  0.1616428    
         179 -0.1424666    
         180  0.2696102    
         181  2.7453515E-04
         182  1.9143639E-03
         183 -6.5994187E-04
         184  2.9933045E-03
         185  5.1193178E-04
         186 -0.1594379    
         187  0.1290870    
         188 -0.2626181    
         189  1.7299181E-04
         190 -1.4496678E-03
         191  2.0710924E-03
         192 -2.9644105E-03
         193 -1.0959024E-03
         194 -0.1613456    
         195  0.1306793    
         196 -0.2545941    
         197  7.7019964E-04
         198 -2.1655473E-03
         199  2.2406103E-03
         200 -3.6826944E-03
         201  4.0354341E-04
         202  4.0529642E-02
         203 -3.4016792E-02
         204  6.3146144E-02
         205 -6.3580679E-05
         206 -4.6598181E-04
         207  7.2918192E-04
         208 -4.3500066E-04
         209  6.1555486E-04
         210  0.1832183    
         211 -0.1559124    
         212  0.2871022    
         213 -1.9171383E-04
         214  6.0438132E-04
         215 -4.2024895E-04
         216  5.7792931E-04
         217 -5.9445784E-04
         218  8.2852446E-02
         219 -7.2547421E-02
         220  0.1299880    
         221  1.4296094E-04
         222 -3.0638499E-04
         223 -1.9390907E-04
         224 -2.4456746E-04
         225  4.5908093E-03
         226 -0.1178370    
         227  0.1014868    
         228 -0.1879865    
         229 -1.5422464E-03
         230  1.4774047E-03
         231 -1.7974227E-03
         232  1.8926028E-03
         233  8.6356403E-04
         234 -2.3835129E-03
         235  5.5897015E-04
         236  2.6296102E-03
         237 -4.4738743E-04
         238  1.0202375E-03
         239 -1.4225346E-04
         240 -2.4921581E-04
         241 -4.5652570E-05
         242  9.4276736E-05
         243 -6.0907035E-04
         244 -4.6890968E-04
         245 -2.2664206E-04
         246 -7.9317244E-05
         247  2.3388900E-04
         248  2.5971179E-04
         249  2.6695736E-04
         250 -4.9382797E-04
         251  9.0888381E-04
         252  6.7601865E-04
         253 -7.4133408E-05
         254 -1.8643738E-04
         255 -2.4489255E-04
         256 -1.4220928E-04
         257 -7.0531503E-05
         258  6.6367182E-05
         259 -9.1289445E-07
         260 -6.5298344E-05
         261  1.8431800E-05
         262 -1.3670525E-04
         263 -4.4002973E-06
         264  1.1035463E-04
         265 -8.4584084E-05
         266  2.5724497E-04
         267 -6.5948174E-04
         268 -5.7998294E-04
         269  9.3121438E-05
         270 -3.6787951E-05
         271 -1.8858649E-05
         272  3.5929384E-05
         273  1.8502216E-05
         274  5.6024812E-05
         275 -2.9199308E-04
         276 -2.0958166E-04
         277  1.9315143E-05
         278  4.0970190E-05
         279 -2.4812971E-06
         280  5.9231520E-06
         281 -1.0492846E-05
         282 -1.6793644E-04
         283  6.3123030E-04
         284  5.7486800E-04
         285  3.5743560E-05
         286 -1.8244076E-05
         287 -2.6253709E-05
         288 -9.1705642E-06
         289  4.9680316E-06
         290 -1.6763693E-04
         291  6.0441747E-04
         292  6.0135365E-04
         293  3.7205744E-05
         294 -3.6921549E-05
         295 -4.3764401E-05
         296  8.6975069E-06
         297  2.9415629E-05
         298  5.9791506E-05
         299 -2.3853048E-04
         300 -2.8903768E-04
         301 -4.1868592E-05
         302  2.8451692E-05
         303  3.7459915E-05
         304  6.0896466E-05
         305  5.7819361E-05
         306  9.8038785E-05
         307 -8.5628539E-04
         308 -8.0489350E-04
         309 -6.5271059E-05
         310 -1.9163876E-05
         311  2.6269756E-05
         312  4.4118628E-05
         313 -2.8464940E-05
         314  1.0718681E-04
         315 -3.5494767E-04
         316 -3.1757922E-04
         317  3.6154136E-06
         318  8.3761288E-06
         319 -2.7913042E-05
         320 -4.9945244E-05
         321  2.4243203E-05
         322 -1.2518452E-04
         323  3.0031425E-04
         324  3.0713857E-04
         325  7.9939364E-06
         326 -1.2387593E-05
         327 -4.7034500E-05
         328 -3.7706108E-05
         329 -1.0518812E-05
         330  1.2182429E-05
         331  3.2593153E-04
         332  3.1479137E-04
         333 -7.5345943E-06
         334 -4.2443066E-06
         335 -1.4321038E-05
         336  1.6001077E-05
         337  9.6333943E-06
         338 -8.6368593E-05
         339  1.5959215E-05
         340  2.4214778E-05
         341 -5.6676986E-06
         342 -8.8798020E-05
         343  1.0319652E-04
         344 -1.5515991E-05
         345 -2.1374128E-05
         346  1.2130409E-04
         347 -2.4080182E-05
         348  7.9487989E-05
         349 -1.1095186E-04
         350 -9.8581171E-05
         351  1.0756499E-04
         352  6.1368977E-05
         353 -1.8601387E-04
         354  4.6742472E-04
         355  8.9928444E-04
         356 -3.0988513E-03
         357  1.2481082E-04
         358 -1.3758084E-05
         359 -1.8259892E-04
         360  1.7980457E-04
         361 -9.2112401E-05
         362 -7.8785393E-05
         363  6.4608781E-04
         364  2.7202046E-04
         365 -5.2394251E-05
         366 -9.8922152E-05
         367 -4.3068223E-05
         368  7.2268864E-05
         369  8.1283470E-05
         370  3.3187760E-05
         371 -3.6263856E-04
         372 -1.8008419E-04
         373 -1.1663742E-04
         374  1.7347518E-05
         375 -4.9524322E-05
         376  8.0850732E-05
         377  2.8046570E-04
         378  1.2140909E-04
         379  1.6006701E-05
         380  1.7994162E-04
         381  1.6360509E-04
         382 -9.5496231E-05
         383  8.5270236E-05
         384  2.5080287E-04
         385  1.2504496E-04
         386  3.6544725E-04
         387  2.9558194E-05
         388  1.7268732E-04
         389  8.9768382E-06
         390 -1.0424996E-04
         391  1.3793839E-04
         392 -2.4185663E-04
         393  2.6853208E-05
         394 -3.0843144E-05
         395 -1.4496753E-05
         396 -1.3917428E-05
         397  6.2858060E-05
         398  4.3303953E-05
         399 -4.9719132E-05
         400 -1.6013480E-05
         401  2.7951560E-06
         402  1.7150927E-04
         403  7.2350544E-05
         404  9.3602021E-06
         405 -6.7933870E-05
         406 -1.3048665E-05
         407 -2.4275025E-04
         408  1.1451486E-04
         409 -7.8023630E-05
         410 -8.3598243E-05
         411  2.3147488E-05
         412 -4.5237711E-04
         413  5.9931551E-04
         414 -6.4650708E-04
         415 -1.6664610E-03
         416  3.9833252E-04
         417 -1.1059480E-03
         418  2.8074655E-04
         419  1.5009167E-03
         420 -1.7104482E-03
         421  2.8128175E-03
         422 -6.8089779E-04
         423 -2.1321302E-04
         424 -1.1645909E-03
         425  8.2080904E-04
         426 -1.6959662E-03
         427 -9.8472694E-04
         428 -2.0624377E-04
         429 -2.1613119E-03
         430  1.7846732E-03
         431 -3.4956855E-03
         432 -1.5473991E-03
         433  2.2062896E-04
         434 -1.5536885E-03
         435  1.1731120E-03
         436 -2.5342295E-03
         437 -8.6205686E-04
         438  5.2711530E-05
         439  1.3668020E-03
         440 -1.4283773E-03
         441  2.4343394E-03
         442 -9.0498023E-04
         443 -1.4006803E-04
         444  1.8625774E-03
         445 -1.6443862E-03
         446  3.2461360E-03
         447 -3.6418223E-04
         448 -2.7128984E-04
         449  1.2757011E-03
         450 -1.1781141E-03
         451  2.1137197E-03
         452 -1.0432322E-03
         453  2.7123795E-04
         454 -1.1835201E-03
         455  8.8083348E-04
         456 -1.9669791E-03
         457 -1.1817229E-03
         458  3.5673479E-04
         459 -7.0244307E-04
         460 -1.0468726E-03
         461 -5.5422622E-04
         462  3.1168165E-05
         463  1.6262059E-04
         464 -1.1513754E-04
         465 -9.9795980E-05
         466 -3.0658739E-05
         467  9.3415756E-06
         468  2.2591559E-05
         469 -4.7432450E-06
         470 -3.2153450E-05
         471 -1.7515156E-05
         472  8.4273470E-06
         473  2.3496745E-05
         474 -1.6569256E-05
         475  6.2654766E-07
         476  2.6190030E-05
         477  1.6092999E-05
         478  3.1076372E-05
         479 -2.3191755E-05
         480 -5.4719972E-06
         481 -6.3619623E-06
         482  4.6605081E-05
         483  3.9657658E-05
         484 -4.6808811E-05
         485  2.2325994E-05
         486  2.0853538E-05
         487 -4.8270822E-06
         488  4.7245092E-05
         489 -2.2999409E-05
         490  5.7940710E-05
         491  8.8968218E-06
         492 -2.0904508E-05
         493  1.3681904E-05
         494  7.7572287E-07
         495 -1.1653639E-06
         496 -1.0883175E-05
         497  1.4278862E-04
         498 -7.0789698E-05
         499  1.4827569E-04
         500  2.1084404E-04
         501  1.4556052E-05
         502  5.9972605E-04
         503  1.7417697E-04
         504 -3.1746509E-05
         505 -1.4558989E-04
         506 -2.2165799E-04
         507  9.3431547E-05
         508  1.4985725E-04
         509 -3.9169368E-05
         510 -1.8565654E-05
         511  1.1119749E-04
         512 -1.5297104E-04
         513  1.6363355E-04
         514  2.4502879E-05
         515  1.8430195E-05
         516  6.0156806E-05
 Sym= Particle
 Ene= -0.1246266    
 Spin= Alpha
 Occup= 2
           1 -5.5565685E-04
           2  6.8597979E-04
           3  1.1382658E-03
           4  5.9826236E-04
           5 -1.0956578E-04
           6 -9.6486160E-04
           7  2.5078011E-04
           8  4.4794820E-04
           9 -1.4512551E-04
          10 -3.8742024E-04
          11 -8.0611382E-04
          12 -8.3500351E-04
          13  3.4652461E-04
          14  1.5055691E-05
          15  4.4416796E-04
          16  8.1356935E-04
          17 -3.4896922E-04
          18 -2.0961782E-04
          19 -2.6943138E-05
          20 -3.9197752E-04
          21  8.6153788E-04
          22  2.4727883E-04
          23 -2.3057675E-05
          24  1.3749287E-04
          25 -4.4551046E-04
          26  3.7210056E-04
          27  2.4519085E-03
          28  1.4842219E-03
          29  2.3750775E-03
          30 -1.1329958E-05
          31 -3.1733974E-03
          32 -5.4137496E-04
          33  2.2380316E-05
          34  9.4759552E-04
          35  1.9571518E-04
          36  5.3062051E-04
          37  1.3869879E-03
          38 -2.6092282E-04
          39 -2.0933147E-03
          40  1.0173217E-03
          41 -3.7917969E-04
          42  6.4411008E-04
          43  4.1757530E-04
          44 -5.9772923E-04
          45 -1.2787426E-04
          46  1.5888989E-04
          47  1.8949382E-03
          48  7.6896325E-04
          49 -2.2584244E-04
          50  6.9015950E-04
          51  4.1159618E-04
          52  2.1698086E-03
          53 -8.4656558E-04
          54  1.5475104E-03
          55  2.1098959E-03
          56 -1.8691801E-03
          57  3.2393949E-04
          58 -2.8832040E-03
          59  2.6531515E-04
          60 -1.7559514E-03
          61 -1.1230003E-03
          62  2.0200238E-03
          63  5.3749874E-04
          64  2.2314729E-04
          65  2.5863724E-04
          66  1.3157589E-03
          67 -6.2906294E-04
          68  1.0403892E-03
          69 -5.6037284E-04
          70 -4.8911403E-04
          71 -8.9087104E-04
          72 -1.2006110E-03
          73  2.5221374E-04
          74  8.7582745E-04
          75 -1.8897826E-04
          76  3.8868617E-04
          77 -4.4746956E-04
          78 -6.3145306E-04
          79 -1.8872398E-04
          80 -5.9956044E-05
          81  1.0023354E-04
          82 -2.2203315E-03
          83  4.5582015E-04
          84 -1.5221910E-03
          85 -2.9728995E-04
          86  6.7771802E-04
          87 -1.2129352E-04
          88  3.4641515E-04
          89  1.5163567E-04
          90  1.7061579E-03
          91 -4.4018129E-04
          92  1.2376719E-03
          93 -3.7265822E-04
          94 -3.4342933E-04
          95  1.8866609E-04
          96 -4.5405905E-04
          97  6.2006998E-06
          98  5.3248415E-04
          99  5.0680075E-05
         100  3.7338288E-04
         101 -3.3300347E-04
         102  1.5467615E-04
         103 -9.9366946E-05
         104  2.5993095E-05
         105 -2.6542536E-04
         106  7.8946922E-04
         107  1.4593628E-03
         108 -2.4485511E-03
         109 -1.4011906E-03
         110  1.5320355E-03
         111 -1.4204392E-03
         112 -3.0926871E-04
         113 -8.7328244E-04
         114  1.3234678E-03
         115  5.7619601E-04
         116  1.8260395E-03
         117 -8.9518103E-04
         118  6.2860469E-03
         119 -2.8124172E-03
         120  9.7720930E-04
         121  2.6474956E-03
         122  3.6460732E-04
         123 -1.0519467E-03
         124 -2.2860765E-03
         125 -7.5258617E-03
         126 -7.1139395E-04
         127 -1.4801927E-04
         128  1.3182946E-03
         129  7.1452586E-03
         130 -2.1212050E-03
         131 -2.3406115E-03
         132 -2.8561198E-03
         133 -6.6320696E-03
         134  1.1362002E-03
         135  3.6540760E-03
         136  1.4394305E-03
         137 -9.7061787E-03
         138 -0.1976968    
         139  0.1566728    
         140 -0.3032177    
         141  2.6322687E-03
         142  7.9304688E-02
         143 -6.2954746E-02
         144  0.1214705    
         145  6.2379134E-03
         146  0.1369521    
         147 -0.1047353    
         148  0.2092934    
         149 -6.5577817E-03
         150 -4.2934328E-02
         151  3.3750456E-02
         152 -6.6765301E-02
         153  1.0773578E-03
         154  5.1674355E-02
         155 -4.2413212E-02
         156  7.5652264E-02
         157 -2.4119271E-03
         158 -1.7871276E-02
         159  1.5340229E-02
         160 -2.6207073E-02
         161 -1.2270343E-03
         162 -0.1927530    
         163  0.1528852    
         164 -0.2977957    
         165  4.7717880E-05
         166  5.4428920E-02
         167 -4.2788513E-02
         168  8.5695893E-02
         169  2.3104423E-03
         170  0.1338413    
         171 -0.1115579    
         172  0.2080038    
         173 -2.6360380E-03
         174 -3.9587867E-02
         175  3.3138715E-02
         176 -5.9014350E-02
         177  3.4731349E-03
         178  8.7069802E-02
         179 -6.6931754E-02
         180  0.1341742    
         181 -4.6371985E-03
         182 -4.0847778E-02
         183  2.9979905E-02
         184 -6.0858466E-02
         185  2.1775535E-03
         186 -8.9757249E-02
         187  7.7762790E-02
         188 -0.1432687    
         189 -3.5907659E-03
         190  3.9982632E-02
         191 -3.4807511E-02
         192  6.1974954E-02
         193  2.1116904E-03
         194 -0.1240947    
         195  0.1018931    
         196 -0.1979199    
         197 -2.2969409E-03
         198  3.7053436E-02
         199 -2.9347917E-02
         200  5.6621484E-02
         201 -1.1567334E-03
         202  0.1845237    
         203 -0.1577645    
         204  0.2982374    
         205  3.2367589E-04
         206 -5.1655337E-02
         207  4.5040283E-02
         208 -8.5200243E-02
         209  1.0435283E-03
         210 -5.8249854E-02
         211  4.7417819E-02
         212 -8.9064054E-02
         213 -2.3271323E-03
         214  2.0148983E-02
         215 -1.6411945E-02
         216  3.0296283E-02
         217  5.0800308E-03
         218 -0.1221845    
         219  0.1079690    
         220 -0.1988623    
         221 -5.8377287E-03
         222  4.0080644E-02
         223 -3.4900699E-02
         224  6.3937187E-02
         225 -8.2001481E-03
         226  0.1930794    
         227 -0.1643744    
         228  0.3078397    
         229  1.6989829E-03
         230 -7.7408038E-02
         231  6.6080168E-02
         232 -0.1237866    
         233 -1.3533646E-03
         234 -2.1693739E-03
         235  2.4418216E-03
         236  1.9094202E-03
         237  4.9829809E-04
         238 -3.9021508E-03
         239  3.1058523E-03
         240 -1.6128412E-03
         241 -4.5041286E-04
         242 -6.5375376E-04
         243  5.3542462E-04
         244  4.2116838E-03
         245 -5.1267218E-04
         246 -1.3214797E-03
         247 -3.9332805E-04
         248 -5.6897139E-04
         249  1.1312769E-04
         250  1.3197441E-05
         251 -6.7073066E-04
         252 -7.7648013E-04
         253 -6.9455762E-04
         254  8.1693148E-04
         255  2.1387211E-03
         256  1.6392852E-03
         257  3.4764572E-04
         258 -1.4877478E-03
         259  3.3837713E-03
         260  3.6840516E-03
         261 -6.9010915E-04
         262  1.3927495E-03
         263 -7.0450234E-04
         264 -1.6823156E-03
         265  2.7345811E-04
         266  2.5246904E-04
         267 -2.4566520E-03
         268 -2.2613555E-03
         269 -5.7574629E-04
         270 -2.8771762E-08
         271  9.5772708E-04
         272  2.0521863E-04
         273 -2.3597026E-04
         274  2.5448849E-04
         275 -1.7105724E-03
         276 -9.9222641E-04
         277  3.9997691E-04
         278 -4.9351057E-04
         279  8.9895690E-04
         280  1.7904208E-04
         281  4.1421848E-05
         282 -1.3514422E-03
         283  4.8689474E-03
         284  4.7528152E-03
         285  9.6727737E-05
         286  3.8574837E-04
         287 -1.5795211E-03
         288 -1.6160505E-03
         289 -2.0362267E-04
         290  2.8533087E-04
         291 -4.0735342E-03
         292 -3.9379653E-03
         293  3.9101185E-04
         294  2.3697501E-04
         295  1.3130507E-03
         296  1.3791454E-03
         297  1.2589867E-04
         298  2.3325691E-04
         299 -1.4313365E-03
         300 -1.3322876E-03
         301 -9.1814858E-05
         302 -5.8078869E-05
         303  1.0759812E-03
         304  8.6335570E-04
         305  1.2916623E-04
         306 -1.2589670E-03
         307  3.6247745E-03
         308  3.4741899E-03
         309 -6.7914829E-05
         310  6.5078936E-04
         311 -1.1134977E-03
         312 -9.3894056E-04
         313  3.7249763E-05
         314 -2.0100648E-04
         315  8.0679783E-05
         316  4.9261347E-05
         317  9.8741584E-05
         318  4.3107222E-05
         319 -1.1356798E-04
         320  1.1089077E-04
         321 -1.3262466E-04
         322  4.9474655E-04
         323 -3.3585771E-03
         324 -3.4760183E-03
         325  3.1028263E-04
         326  8.3016632E-05
         327  7.1400608E-04
         328  1.2013187E-03
         329  3.3838845E-05
         330 -5.2281504E-04
         331  3.2664260E-03
         332  2.7259297E-03
         333  1.5522210E-05
         334 -1.4432575E-04
         335 -8.0909301E-04
         336 -5.4382754E-04
         337  6.2421408E-05
         338 -1.9713237E-04
         339  3.5244873E-04
         340  1.1908996E-05
         341 -1.5700125E-04
         342 -1.6850122E-03
         343  5.3469127E-04
         344  1.8212742E-03
         345 -8.2225306E-06
         346  8.1795303E-04
         347 -3.0453971E-03
         348 -2.4458487E-03
         349 -1.2725477E-04
         350  2.2991208E-04
         351  1.2342684E-03
         352  1.9091328E-03
         353 -1.4357996E-04
         354  9.6112402E-04
         355  6.6664082E-04
         356 -2.1767684E-03
         357 -1.1143711E-03
         358 -5.5924238E-04
         359 -3.5380080E-04
         360  1.0891030E-04
         361  4.3557375E-04
         362  4.8265426E-04
         363 -8.1532584E-05
         364  1.0409275E-05
         365 -9.8990684E-04
         366  3.2130966E-04
         367  1.6634146E-03
         368 -2.9335646E-05
         369 -6.2738669E-05
         370  5.5395223E-05
         371  5.4106244E-05
         372  1.5094090E-04
         373 -2.7052133E-04
         374  1.3955828E-04
         375  9.7575667E-04
         376 -5.3151348E-04
         377 -1.0046131E-03
         378  9.0166618E-04
         379 -5.4038205E-04
         380 -8.2978792E-04
         381 -1.2497460E-03
         382 -8.5205573E-04
         383 -5.5106345E-04
         384 -8.0292302E-05
         385  2.9312426E-04
         386  9.8651712E-05
         387  2.6929058E-04
         388  4.0002473E-04
         389 -5.1171304E-05
         390 -1.2372888E-03
         391 -8.1502390E-04
         392 -1.9765885E-04
         393  4.0650010E-04
         394 -1.8026872E-04
         395 -1.0697734E-04
         396  4.9766264E-04
         397  1.5729715E-04
         398 -1.5588712E-05
         399 -7.4869429E-04
         400  4.2616721E-06
         401 -5.6172605E-04
         402  1.7921919E-04
         403 -2.3194138E-04
         404  3.8028348E-04
         405 -1.1585400E-04
         406  8.4007763E-05
         407  3.6559824E-05
         408 -5.6855621E-05
         409  4.2869983E-04
         410 -1.3174434E-04
         411  3.8333135E-04
         412 -9.4538607E-04
         413  2.9153589E-03
         414 -2.3421792E-03
         415  5.7658567E-03
         416  6.5778899E-03
         417 -2.6431005E-03
         418  5.3052668E-04
         419  2.8635234E-02
         420 -2.6374996E-02
         421  4.6556495E-02
         422 -1.9903844E-03
         423  1.3695027E-03
         424  9.9539934E-03
         425 -9.5397197E-03
         426  2.0074610E-02
         427 -3.3543399E-04
         428  8.9562323E-04
         429 -4.7072511E-02
         430  3.7983023E-02
         431 -7.1206741E-02
         432 -2.4492156E-03
         433  2.1907026E-03
         434  2.6387246E-02
         435 -1.6436806E-02
         436  3.8355127E-02
         437 -1.7326118E-03
         438  1.7279616E-03
         439 -2.0944737E-02
         440  2.1350328E-02
         441 -3.4476887E-02
         442 -9.1523783E-05
         443  1.2018041E-03
         444  4.5613244E-02
         445 -3.8027134E-02
         446  7.2255194E-02
         447 -1.5774787E-03
         448  8.9642365E-04
         449 -1.1789785E-02
         450  8.9505939E-03
         451 -2.2118472E-02
         452 -1.8697539E-03
         453 -3.3255410E-04
         454 -2.7518071E-02
         455  2.0583684E-02
         456 -4.5611706E-02
         457 -6.5543172E-05
         458  3.9364663E-03
         459  9.6802777E-03
         460  1.9282642E-03
         461 -5.4193973E-03
         462 -1.3813526E-04
         463  2.1413420E-04
         464  3.8968169E-04
         465 -3.2842002E-04
         466 -9.7680953E-04
         467  3.3952366E-04
         468  1.6441345E-04
         469 -5.9198203E-05
         470 -1.6348052E-04
         471 -1.0836368E-03
         472  3.0135192E-04
         473 -2.2895150E-04
         474 -1.9360770E-04
         475  1.1701803E-03
         476  1.0494767E-03
         477  4.9831154E-04
         478 -1.7934333E-04
         479  8.8119652E-04
         480 -8.6665776E-04
         481 -4.9209682E-04
         482  1.4452293E-04
         483  3.4868459E-05
         484 -6.8801950E-05
         485 -1.2598552E-04
         486 -2.0647340E-04
         487  4.0137462E-04
         488 -5.4225689E-05
         489  4.6147060E-04
         490 -1.2455583E-03
         491 -5.6733791E-04
         492  1.0189648E-04
         493  2.9479737E-05
         494 -3.3034358E-04
         495  9.4491953E-04
         496  2.9277231E-04
         497  9.2104741E-04
         498 -5.5465422E-04
         499 -2.6509457E-03
         500  1.0213549E-03
         501  2.0769124E-03
         502  1.2363840E-04
         503 -5.8473065E-04
         504  5.6627294E-04
         505  1.0663000E-03
         506 -4.1955459E-04
         507 -6.2551373E-04
         508 -4.4384494E-04
         509  3.6398889E-04
         510 -9.9678611E-05
         511  4.7528971E-04
         512 -1.6260156E-04
         513 -6.5613363E-04
         514  1.8755834E-05
         515  1.5406105E-04
         516 -4.5799353E-04
