 [Molden Format]
 [Atoms] Angs
C       1      6     -4.09017936     -4.35107661     -0.00194119
C       2      6     -2.95712929     -5.18809039     -0.00389170
C       3      6     -1.69622956     -4.66309287     -0.00517201
C       4      6     -1.52258428     -3.26265396     -0.00459802
N       5      7     -0.28723078     -2.74230800     -0.00503880
C       6      6     -0.16957158     -1.43266894     -0.00458807
C       7      6     -1.31985128     -0.58293711     -0.00431826
N       8      7     -2.53706981     -1.08030549     -0.00342166
C       9      6     -2.67135821     -2.41402980     -0.00319969
C      10      6     -3.95892518     -2.99156885     -0.00165281
C      11      6     -1.15628605      0.86313109     -0.00443378
N      12      7     -2.23164735      1.61982373     -0.00353184
C      13      6     -2.06462441      2.94984967     -0.00253737
C      14      6     -3.19064624      3.80040277     -0.00084883
C      15      6     -3.01490251      5.15487943      0.00121916
C      16      6     -1.72351770      5.71764937      0.00146063
C      17      6     -0.61174778      4.92426196     -0.00059887
C      18      6     -0.75531766      3.52042729     -0.00262952
N      19      7      0.33259344      2.73728123     -0.00416040
C      20      6      0.15474022      1.43445550     -0.00497875
C      21      6      1.32528154      0.56975415     -0.00533605
N      22      7      2.51828951      1.12269222     -0.00605916
C      23      6      3.58660475      0.31303608     -0.00419718
C      24      6      4.88623024      0.86291330     -0.00452375
C      25      6      5.97135523      0.03347331     -0.00075713
C      26      6      5.81302561     -1.36629093      0.00324158
C      27      6      4.57005057     -1.93240717      0.00299138
C      28      6      3.42607882     -1.10614405     -0.00094473
N      29      7      2.20390457     -1.65672302     -0.00159018
C      30      6      1.16454522     -0.85128206     -0.00400212
H      31      1     -5.07239010     -4.80049685     -0.00077000
H      32      1     -3.09803951     -6.25900729     -0.00428322
H      33      1     -0.81391760     -5.28351116     -0.00647999
H      34      1     -4.81122529     -2.33052552     -0.00028100
H      35      1     -4.16907813      3.34645941     -0.00099034
H      36      1     -3.87191230      5.81233604      0.00283606
H      37      1     -1.62163942      6.79297984      0.00330673
H      38      1      0.38685452      5.33192237     -0.00052977
H      39      1      4.98232131      1.93722938     -0.00744018
H      40      1      6.96924794      0.44691180     -0.00060175
H      41      1      6.69335935     -1.99216457      0.00664672
H      42      1      4.42376127     -3.00104481      0.00585311
 [GTO]
           1   0
s              4   1.000000
     34.90727633     -0.01198412
      6.01132183     -0.05472053
      0.48303536      0.58055871
      0.18409673      0.47700799
p              4   1.000000
      5.62621952      0.05713170
      1.45879471      0.28574555
      0.51427028      0.55178731
      0.20473986      0.26323149
s              7   1.000000
      0.38350848     -0.19625724
      0.04707223      0.94824288
      0.02222627      0.24902298
     34.90727633      0.00551978
      6.01132183      0.02520380
      0.48303536     -0.26740027
      0.18409673     -0.21970571
p              7   1.000000
      1.83062075     -0.01161300
      0.10124670      0.57068077
      0.03901771      0.59599128
      5.62621952     -0.02528497
      1.45879471     -0.12646337
      0.51427028     -0.24420636
      0.20473986     -0.11649925
 
           2   0
s              4   1.000000
     34.90728348     -0.01198412
      6.01132306     -0.05472052
      0.48303546      0.58055871
      0.18409677      0.47700799
p              4   1.000000
      5.62622067      0.05713170
      1.45879501      0.28574555
      0.51427038      0.55178731
      0.20473990      0.26323149
s              7   1.000000
      0.38350848     -0.19625724
      0.04707223      0.94824284
      0.02222627      0.24902296
     34.90728348      0.00551978
      6.01132306      0.02520379
      0.48303546     -0.26740022
      0.18409677     -0.21970567
p              7   1.000000
      1.83062075     -0.01161300
      0.10124670      0.57068074
      0.03901771      0.59599128
      5.62622067     -0.02528496
      1.45879501     -0.12646334
      0.51427038     -0.24420632
      0.20473990     -0.11649923
 
           3   0
s              4   1.000000
     34.97703267     -0.01198412
      6.02333445     -0.05472053
      0.48400062      0.58055871
      0.18446462      0.47700799
p              4   1.000000
      5.63746258      0.05713170
      1.46170986      0.28574555
      0.51529796      0.55178731
      0.20514900      0.26323149
s              7   1.000000
      0.38350848     -0.19619188
      0.04707223      0.94792706
      0.02222627      0.24894003
     34.97703267      0.00550927
      6.02333445      0.02515579
      0.48400062     -0.26689100
      0.18446462     -0.21928728
p              7   1.000000
      1.83062075     -0.01160937
      0.10124670      0.57050221
      0.03901771      0.59580482
      5.63746258     -0.02523663
      1.46170986     -0.12622160
      0.51529796     -0.24373949
      0.20514900     -0.11627652
 
           4   0
s              4   1.000000
     35.29063815     -0.01198412
      6.07733991     -0.05472053
      0.48834019      0.58055871
      0.18611854      0.47700799
p              4   1.000000
      5.68800829      0.05713170
      1.47481561      0.28574555
      0.51991814      0.55178731
      0.20698837      0.26323149
s              7   1.000000
      0.38350848     -0.19590226
      0.04707223      0.94652771
      0.02222627      0.24857256
     35.29063815      0.00546249
      6.07733991      0.02494219
      0.48834019     -0.26462480
      0.18611854     -0.21742529
p              7   1.000000
      1.83062075     -0.01159327
      0.10124670      0.56971107
      0.03901771      0.59497859
      5.68800829     -0.02502151
      1.47481561     -0.12514566
      0.51991814     -0.24166182
      0.20698837     -0.11528536
 
           5   0
s              4   1.000000
     57.31601580     -0.01198412
      9.87029219     -0.05472053
      0.79312009      0.58055871
      0.30227770      0.47700799
p              4   1.000000
      6.75595204      0.05713170
      1.75171748      0.28574555
      0.61753462      0.55178731
      0.24585117      0.26323149
s              7   1.000000
      0.47894987     -0.18906258
      0.05878681      0.91348090
      0.02775758      0.23989396
     57.31601580      0.00423534
      9.87029219      0.01933892
      0.79312009     -0.20517675
      0.30227770     -0.16858062
p              7   1.000000
      2.28619608     -0.01168694
      0.12644335      0.57431424
      0.04872781      0.59978590
      6.75595204     -0.02625248
      1.75171748     -0.13130240
      0.61753462     -0.25355074
      0.24585117     -0.12095700
 
           6   0
s              4   1.000000
     35.31401056     -0.01198412
      6.08136483     -0.05472052
      0.48866361      0.58055871
      0.18624180      0.47700799
p              4   1.000000
      5.69177537      0.05713170
      1.47579236      0.28574555
      0.52026248      0.55178731
      0.20712546      0.26323149
s              7   1.000000
      0.38350848     -0.19588095
      0.04707223      0.94642475
      0.02222627      0.24854550
     35.31401056      0.00545903
      6.08136483      0.02492642
      0.48866361     -0.26445741
      0.18624180     -0.21728776
p              7   1.000000
      1.83062075     -0.01159209
      0.10124670      0.56965286
      0.03901771      0.59491778
      5.69177537     -0.02500562
      1.47579236     -0.12506619
      0.52026248     -0.24150835
      0.20712546     -0.11521215
 
           7   0
s              4   1.000000
     35.31403433     -0.01198412
      6.08136892     -0.05472053
      0.48866394      0.58055871
      0.18624192      0.47700799
p              4   1.000000
      5.69177920      0.05713170
      1.47579335      0.28574555
      0.52026283      0.55178731
      0.20712560      0.26323149
s              7   1.000000
      0.38350848     -0.19588093
      0.04707223      0.94642465
      0.02222627      0.24854548
     35.31403433      0.00545903
      6.08136892      0.02492640
      0.48866394     -0.26445724
      0.18624192     -0.21728762
p              7   1.000000
      1.83062075     -0.01159208
      0.10124670      0.56965279
      0.03901771      0.59491774
      5.69177920     -0.02500560
      1.47579335     -0.12506611
      0.52026283     -0.24150819
      0.20712560     -0.11521208
 
           8   0
s              4   1.000000
     57.31606259     -0.01198412
      9.87030025     -0.05472053
      0.79312074      0.58055871
      0.30227794      0.47700800
p              4   1.000000
      6.75595755      0.05713170
      1.75171891      0.28574555
      0.61753512      0.55178731
      0.24585137      0.26323149
s              7   1.000000
      0.47894987     -0.18906256
      0.05878681      0.91348083
      0.02775758      0.23989394
     57.31606259      0.00423533
      9.87030025      0.01933891
      0.79312074     -0.20517658
      0.30227794     -0.16858048
p              7   1.000000
      2.28619608     -0.01168694
      0.12644335      0.57431417
      0.04872781      0.59978584
      6.75595755     -0.02625246
      1.75171891     -0.13130229
      0.61753512     -0.25355054
      0.24585137     -0.12095691
 
           9   0
s              4   1.000000
     35.29065812     -0.01198412
      6.07734335     -0.05472053
      0.48834047      0.58055871
      0.18611864      0.47700799
p              4   1.000000
      5.68801151      0.05713170
      1.47481645      0.28574555
      0.51991844      0.55178731
      0.20698849      0.26323149
s              7   1.000000
      0.38350848     -0.19590224
      0.04707223      0.94652763
      0.02222627      0.24857254
     35.29065812      0.00546248
      6.07734335      0.02494218
      0.48834047     -0.26462466
      0.18611864     -0.21742517
p              7   1.000000
      1.83062075     -0.01159327
      0.10124670      0.56971102
      0.03901771      0.59497854
      5.68801151     -0.02502150
      1.47481645     -0.12514560
      0.51991844     -0.24166168
      0.20698849     -0.11528530
 
          10   0
s              4   1.000000
     34.97704081     -0.01198412
      6.02333585     -0.05472052
      0.48400074      0.58055871
      0.18446466      0.47700799
p              4   1.000000
      5.63746389      0.05713170
      1.46171020      0.28574555
      0.51529808      0.55178731
      0.20514905      0.26323149
s              7   1.000000
      0.38350848     -0.19619187
      0.04707223      0.94792702
      0.02222627      0.24894003
     34.97704081      0.00550927
      6.02333585      0.02515579
      0.48400074     -0.26689095
      0.18446466     -0.21928723
p              7   1.000000
      1.83062075     -0.01160937
      0.10124670      0.57050218
      0.03901771      0.59580478
      5.63746389     -0.02523662
      1.46171020     -0.12622157
      0.51529808     -0.24373944
      0.20514905     -0.11627650
 
          11   0
s              4   1.000000
     35.31403055     -0.01198412
      6.08136827     -0.05472052
      0.48866389      0.58055871
      0.18624190      0.47700799
p              4   1.000000
      5.69177859      0.05713170
      1.47579320      0.28574555
      0.52026277      0.55178731
      0.20712557      0.26323149
s              7   1.000000
      0.38350848     -0.19588093
      0.04707223      0.94642467
      0.02222627      0.24854548
     35.31403055      0.00545903
      6.08136827      0.02492640
      0.48866389     -0.26445727
      0.18624190     -0.21728764
p              7   1.000000
      1.83062075     -0.01159208
      0.10124670      0.56965281
      0.03901771      0.59491774
      5.69177859     -0.02500560
      1.47579320     -0.12506612
      0.52026277     -0.24150822
      0.20712557     -0.11521209
 
          12   0
s              4   1.000000
     57.31605422     -0.01198412
      9.87029881     -0.05472052
      0.79312062      0.58055871
      0.30227790      0.47700799
p              4   1.000000
      6.75595657      0.05713170
      1.75171865      0.28574555
      0.61753503      0.55178731
      0.24585134      0.26323149
s              7   1.000000
      0.47894987     -0.18906256
      0.05878681      0.91348084
      0.02775758      0.23989394
     57.31605422      0.00423533
      9.87029881      0.01933891
      0.79312062     -0.20517661
      0.30227790     -0.16858051
p              7   1.000000
      2.28619608     -0.01168694
      0.12644335      0.57431418
      0.04872781      0.59978584
      6.75595657     -0.02625246
      1.75171865     -0.13130231
      0.61753503     -0.25355058
      0.24585134     -0.12095693
 
          13   0
s              4   1.000000
     35.29065764     -0.01198412
      6.07734326     -0.05472052
      0.48834046      0.58055871
      0.18611864      0.47700799
p              4   1.000000
      5.68801143      0.05713170
      1.47481643      0.28574555
      0.51991843      0.55178731
      0.20698849      0.26323149
s              7   1.000000
      0.38350848     -0.19590224
      0.04707223      0.94652763
      0.02222627      0.24857254
     35.29065764      0.00546248
      6.07734326      0.02494218
      0.48834046     -0.26462466
      0.18611864     -0.21742517
p              7   1.000000
      1.83062075     -0.01159327
      0.10124670      0.56971102
      0.03901771      0.59497854
      5.68801143     -0.02502150
      1.47481643     -0.12514560
      0.51991843     -0.24166169
      0.20698849     -0.11528530
 
          14   0
s              4   1.000000
     34.97704515     -0.01198412
      6.02333660     -0.05472053
      0.48400080      0.58055871
      0.18446468      0.47700799
p              4   1.000000
      5.63746459      0.05713170
      1.46171039      0.28574555
      0.51529814      0.55178731
      0.20514907      0.26323149
s              7   1.000000
      0.38350848     -0.19619187
      0.04707223      0.94792700
      0.02222627      0.24894003
     34.97704515      0.00550927
      6.02333660      0.02515579
      0.48400080     -0.26689091
      0.18446468     -0.21928721
p              7   1.000000
      1.83062075     -0.01160937
      0.10124670      0.57050217
      0.03901771      0.59580478
      5.63746459     -0.02523662
      1.46171039     -0.12622155
      0.51529814     -0.24373941
      0.20514907     -0.11627648
 
          15   0
s              4   1.000000
     34.90728116     -0.01198412
      6.01132266     -0.05472052
      0.48303543      0.58055871
      0.18409676      0.47700799
p              4   1.000000
      5.62622030      0.05713170
      1.45879491      0.28574555
      0.51427035      0.55178731
      0.20473989      0.26323149
s              7   1.000000
      0.38350848     -0.19625724
      0.04707223      0.94824285
      0.02222627      0.24902298
     34.90728116      0.00551978
      6.01132266      0.02520379
      0.48303543     -0.26740023
      0.18409676     -0.21970568
p              7   1.000000
      1.83062075     -0.01161300
      0.10124670      0.57068075
      0.03901771      0.59599128
      5.62622030     -0.02528497
      1.45879491     -0.12646335
      0.51427035     -0.24420633
      0.20473989     -0.11649923
 
          16   0
s              4   1.000000
     34.90728567     -0.01198412
      6.01132344     -0.05472052
      0.48303549      0.58055871
      0.18409678      0.47700799
p              4   1.000000
      5.62622103      0.05713170
      1.45879510      0.28574555
      0.51427042      0.55178731
      0.20473991      0.26323149
s              7   1.000000
      0.38350848     -0.19625723
      0.04707223      0.94824284
      0.02222627      0.24902296
     34.90728567      0.00551978
      6.01132344      0.02520379
      0.48303549     -0.26740020
      0.18409678     -0.21970565
p              7   1.000000
      1.83062075     -0.01161300
      0.10124670      0.57068074
      0.03901771      0.59599128
      5.62622103     -0.02528496
      1.45879510     -0.12646334
      0.51427042     -0.24420630
      0.20473991     -0.11649922
 
          17   0
s              4   1.000000
     34.97703868     -0.01198412
      6.02333548     -0.05472052
      0.48400071      0.58055871
      0.18446465      0.47700800
p              4   1.000000
      5.63746355      0.05713170
      1.46171012      0.28574555
      0.51529805      0.55178730
      0.20514903      0.26323149
s              7   1.000000
      0.38350848     -0.19619187
      0.04707223      0.94792703
      0.02222627      0.24894003
     34.97703868      0.00550927
      6.02333548      0.02515579
      0.48400071     -0.26689096
      0.18446465     -0.21928725
p              7   1.000000
      1.83062075     -0.01160937
      0.10124670      0.57050220
      0.03901771      0.59580482
      5.63746355     -0.02523663
      1.46171012     -0.12622158
      0.51529805     -0.24373945
      0.20514903     -0.11627650
 
          18   0
s              4   1.000000
     35.29064269     -0.01198412
      6.07734069     -0.05472052
      0.48834026      0.58055871
      0.18611856      0.47700799
p              4   1.000000
      5.68800902      0.05713170
      1.47481580      0.28574555
      0.51991821      0.55178731
      0.20698840      0.26323149
s              7   1.000000
      0.38350848     -0.19590225
      0.04707223      0.94652770
      0.02222627      0.24857254
     35.29064269      0.00546249
      6.07734069      0.02494219
      0.48834026     -0.26462477
      0.18611856     -0.21742526
p              7   1.000000
      1.83062075     -0.01159327
      0.10124670      0.56971106
      0.03901771      0.59497859
      5.68800902     -0.02502151
      1.47481580     -0.12514565
      0.51991821     -0.24166179
      0.20698840     -0.11528535
 
          19   0
s              4   1.000000
     57.31602261     -0.01198412
      9.87029336     -0.05472052
      0.79312019      0.58055871
      0.30227773      0.47700799
p              4   1.000000
      6.75595284      0.05713170
      1.75171769      0.28574555
      0.61753469      0.55178731
      0.24585120      0.26323149
s              7   1.000000
      0.47894987     -0.18906257
      0.05878681      0.91348089
      0.02775758      0.23989396
     57.31602261      0.00423534
      9.87029336      0.01933892
      0.79312019     -0.20517672
      0.30227773     -0.16858060
p              7   1.000000
      2.28619608     -0.01168694
      0.12644335      0.57431423
      0.04872781      0.59978590
      6.75595284     -0.02625248
      1.75171769     -0.13130238
      0.61753469     -0.25355071
      0.24585120     -0.12095699
 
          20   0
s              4   1.000000
     35.31401389     -0.01198412
      6.08136540     -0.05472052
      0.48866366      0.58055871
      0.18624182      0.47700799
p              4   1.000000
      5.69177590      0.05713170
      1.47579250      0.28574555
      0.52026252      0.55178731
      0.20712548      0.26323149
s              7   1.000000
      0.38350848     -0.19588095
      0.04707223      0.94642473
      0.02222627      0.24854550
     35.31401389      0.00545903
      6.08136540      0.02492641
      0.48866366     -0.26445739
      0.18624182     -0.21728774
p              7   1.000000
      1.83062075     -0.01159209
      0.10124670      0.56965286
      0.03901771      0.59491778
      5.69177590     -0.02500562
      1.47579250     -0.12506618
      0.52026252     -0.24150833
      0.20712548     -0.11521214
 
          21   0
s              4   1.000000
     35.31401825     -0.01198412
      6.08136615     -0.05472052
      0.48866372      0.58055871
      0.18624184      0.47700799
p              4   1.000000
      5.69177661      0.05713170
      1.47579268      0.28574555
      0.52026259      0.55178731
      0.20712550      0.26323149
s              7   1.000000
      0.38350848     -0.19588094
      0.04707223      0.94642472
      0.02222627      0.24854550
     35.31401825      0.00545903
      6.08136615      0.02492641
      0.48866372     -0.26445736
      0.18624184     -0.21728771
p              7   1.000000
      1.83062075     -0.01159209
      0.10124670      0.56965284
      0.03901771      0.59491778
      5.69177661     -0.02500561
      1.47579268     -0.12506616
      0.52026259     -0.24150830
      0.20712550     -0.11521213
 
          22   0
s              4   1.000000
     57.31604540     -0.01198412
      9.87029729     -0.05472052
      0.79312050      0.58055871
      0.30227785      0.47700799
p              4   1.000000
      6.75595553      0.05713170
      1.75171838      0.28574555
      0.61753494      0.55178731
      0.24585130      0.26323149
s              7   1.000000
      0.47894987     -0.18906257
      0.05878681      0.91348085
      0.02775758      0.23989394
     57.31604540      0.00423534
      9.87029729      0.01933891
      0.79312050     -0.20517664
      0.30227785     -0.16858054
p              7   1.000000
      2.28619608     -0.01168694
      0.12644335      0.57431419
      0.04872781      0.59978587
      6.75595553     -0.02625247
      1.75171838     -0.13130233
      0.61753494     -0.25355061
      0.24585130     -0.12095694
 
          23   0
s              4   1.000000
     35.29064593     -0.01198412
      6.07734125     -0.05472053
      0.48834030      0.58055871
      0.18611858      0.47700799
p              4   1.000000
      5.68800955      0.05713170
      1.47481594      0.28574555
      0.51991826      0.55178731
      0.20698842      0.26323149
s              7   1.000000
      0.38350848     -0.19590225
      0.04707223      0.94652768
      0.02222627      0.24857254
     35.29064593      0.00546249
      6.07734125      0.02494219
      0.48834030     -0.26462475
      0.18611858     -0.21742524
p              7   1.000000
      1.83062075     -0.01159327
      0.10124670      0.56971106
      0.03901771      0.59497859
      5.68800955     -0.02502150
      1.47481594     -0.12514564
      0.51991826     -0.24166176
      0.20698842     -0.11528534
 
          24   0
s              4   1.000000
     34.97703002     -0.01198412
      6.02333399     -0.05472052
      0.48400059      0.58055871
      0.18446460      0.47700799
p              4   1.000000
      5.63746215      0.05713170
      1.46170975      0.28574555
      0.51529792      0.55178731
      0.20514898      0.26323149
s              7   1.000000
      0.38350848     -0.19619188
      0.04707223      0.94792707
      0.02222627      0.24894003
     34.97703002      0.00550927
      6.02333399      0.02515580
      0.48400059     -0.26689102
      0.18446460     -0.21928730
p              7   1.000000
      1.83062075     -0.01160937
      0.10124670      0.57050222
      0.03901771      0.59580482
      5.63746215     -0.02523663
      1.46170975     -0.12622161
      0.51529792     -0.24373951
      0.20514898     -0.11627653
 
          25   0
s              4   1.000000
     34.90727794     -0.01198412
      6.01132211     -0.05472052
      0.48303538      0.58055871
      0.18409674      0.47700799
p              4   1.000000
      5.62621978      0.05713170
      1.45879478      0.28574555
      0.51427030      0.55178731
      0.20473987      0.26323149
s              7   1.000000
      0.38350848     -0.19625724
      0.04707223      0.94824287
      0.02222627      0.24902298
     34.90727794      0.00551978
      6.01132211      0.02520379
      0.48303538     -0.26740026
      0.18409674     -0.21970570
p              7   1.000000
      1.83062075     -0.01161300
      0.10124670      0.57068075
      0.03901771      0.59599128
      5.62621978     -0.02528497
      1.45879478     -0.12646336
      0.51427030     -0.24420635
      0.20473987     -0.11649924
 
          26   0
s              4   1.000000
     34.90727704     -0.01198412
      6.01132195     -0.05472052
      0.48303537      0.58055871
      0.18409674      0.47700800
p              4   1.000000
      5.62621963      0.05713170
      1.45879474      0.28574555
      0.51427029      0.55178731
      0.20473986      0.26323149
s              7   1.000000
      0.38350848     -0.19625724
      0.04707223      0.94824287
      0.02222627      0.24902298
     34.90727704      0.00551978
      6.01132195      0.02520379
      0.48303537     -0.26740026
      0.18409674     -0.21970571
p              7   1.000000
      1.83062075     -0.01161300
      0.10124670      0.57068077
      0.03901771      0.59599128
      5.62621963     -0.02528497
      1.45879474     -0.12646337
      0.51427029     -0.24420636
      0.20473986     -0.11649924
 
          27   0
s              4   1.000000
     34.97702753     -0.01198412
      6.02333356     -0.05472052
      0.48400055      0.58055871
      0.18446459      0.47700799
p              4   1.000000
      5.63746175      0.05713170
      1.46170965      0.28574555
      0.51529788      0.55178731
      0.20514897      0.26323149
s              7   1.000000
      0.38350848     -0.19619188
      0.04707223      0.94792709
      0.02222627      0.24894003
     34.97702753      0.00550927
      6.02333356      0.02515580
      0.48400055     -0.26689104
      0.18446459     -0.21928731
p              7   1.000000
      1.83062075     -0.01160937
      0.10124670      0.57050222
      0.03901771      0.59580482
      5.63746175     -0.02523663
      1.46170965     -0.12622162
      0.51529788     -0.24373953
      0.20514897     -0.11627654
 
          28   0
s              4   1.000000
     35.29063990     -0.01198412
      6.07734021     -0.05472052
      0.48834022      0.58055871
      0.18611854      0.47700799
p              4   1.000000
      5.68800857      0.05713170
      1.47481569      0.28574555
      0.51991817      0.55178731
      0.20698838      0.26323149
s              7   1.000000
      0.38350848     -0.19590226
      0.04707223      0.94652771
      0.02222627      0.24857254
     35.29063990      0.00546249
      6.07734021      0.02494219
      0.48834022     -0.26462479
      0.18611854     -0.21742528
p              7   1.000000
      1.83062075     -0.01159327
      0.10124670      0.56971107
      0.03901771      0.59497859
      5.68800857     -0.02502151
      1.47481569     -0.12514566
      0.51991817     -0.24166180
      0.20698838     -0.11528536
 
          29   0
s              4   1.000000
     57.31603007     -0.01198412
      9.87029465     -0.05472052
      0.79312029      0.58055871
      0.30227777      0.47700799
p              4   1.000000
      6.75595372      0.05713170
      1.75171792      0.28574555
      0.61753477      0.55178731
      0.24585123      0.26323149
s              7   1.000000
      0.47894987     -0.18906257
      0.05878681      0.91348087
      0.02775758      0.23989396
     57.31603007      0.00423534
      9.87029465      0.01933892
      0.79312029     -0.20517670
      0.30227777     -0.16858058
p              7   1.000000
      2.28619608     -0.01168694
      0.12644335      0.57431421
      0.04872781      0.59978587
      6.75595372     -0.02625247
      1.75171792     -0.13130236
      0.61753477     -0.25355068
      0.24585123     -0.12095697
 
          30   0
s              4   1.000000
     35.31400926     -0.01198412
      6.08136461     -0.05472052
      0.48866359      0.58055871
      0.18624179      0.47700800
p              4   1.000000
      5.69177516      0.05713170
      1.47579231      0.28574555
      0.52026246      0.55178731
      0.20712545      0.26323149
s              7   1.000000
      0.38350848     -0.19588095
      0.04707223      0.94642476
      0.02222627      0.24854550
     35.31400926      0.00545903
      6.08136461      0.02492642
      0.48866359     -0.26445742
      0.18624179     -0.21728777
p              7   1.000000
      1.83062075     -0.01159209
      0.10124670      0.56965287
      0.03901771      0.59491778
      5.69177516     -0.02500562
      1.47579231     -0.12506619
      0.52026246     -0.24150836
      0.20712545     -0.11521215
 
          31   0
s              4   1.000000
      8.30889429      0.05675242
      1.52042528      0.26014135
      0.42239079      0.53284611
      0.14018771      0.29162544
s              7   1.000000
      0.92936822     -0.06732849
      0.05643440      0.66945607
      0.02166600      0.51461517
      8.30889429     -0.02902285
      1.52042528     -0.13303476
      0.42239079     -0.27249437
      0.14018771     -0.14913554
p              4   1.000000
      0.64737396      0.05713170
      0.16785440      0.28574555
      0.05917387      0.55178731
      0.02355814      0.26323150
 
          32   0
s              4   1.000000
      8.30889435      0.05675242
      1.52042530      0.26014135
      0.42239080      0.53284611
      0.14018771      0.29162544
s              7   1.000000
      0.92936822     -0.06732849
      0.05643440      0.66945607
      0.02166600      0.51461517
      8.30889435     -0.02902285
      1.52042530     -0.13303476
      0.42239080     -0.27249437
      0.14018771     -0.14913554
p              4   1.000000
      0.64737396      0.05713170
      0.16785440      0.28574555
      0.05917387      0.55178731
      0.02355814      0.26323150
 
          33   0
s              4   1.000000
      8.30912925      0.05675242
      1.52046828      0.26014135
      0.42240274      0.53284611
      0.14019167      0.29162544
s              7   1.000000
      0.92936822     -0.06732819
      0.05643440      0.66945307
      0.02166600      0.51461286
      8.30912925     -0.02902223
      1.52046828     -0.13303188
      0.42240274     -0.27248847
      0.14019167     -0.14913231
p              4   1.000000
      0.64737396      0.05713170
      0.16785440      0.28574555
      0.05917387      0.55178731
      0.02355814      0.26323150
 
          34   0
s              4   1.000000
      8.30912927      0.05675242
      1.52046828      0.26014135
      0.42240274      0.53284611
      0.14019167      0.29162544
s              7   1.000000
      0.92936822     -0.06732819
      0.05643440      0.66945307
      0.02166600      0.51461286
      8.30912927     -0.02902223
      1.52046828     -0.13303188
      0.42240274     -0.27248847
      0.14019167     -0.14913231
p              4   1.000000
      0.64737396      0.05713170
      0.16785440      0.28574555
      0.05917387      0.55178731
      0.02355814      0.26323150
 
          35   0
s              4   1.000000
      8.30912935      0.05675242
      1.52046830      0.26014135
      0.42240274      0.53284611
      0.14019167      0.29162544
s              7   1.000000
      0.92936822     -0.06732819
      0.05643440      0.66945307
      0.02166600      0.51461286
      8.30912935     -0.02902223
      1.52046830     -0.13303188
      0.42240274     -0.27248847
      0.14019167     -0.14913230
p              4   1.000000
      0.64737396      0.05713170
      0.16785440      0.28574555
      0.05917387      0.55178731
      0.02355814      0.26323150
 
          36   0
s              4   1.000000
      8.30889434      0.05675242
      1.52042529      0.26014135
      0.42239080      0.53284611
      0.14018771      0.29162544
s              7   1.000000
      0.92936822     -0.06732849
      0.05643440      0.66945607
      0.02166600      0.51461517
      8.30889434     -0.02902285
      1.52042529     -0.13303476
      0.42239080     -0.27249437
      0.14018771     -0.14913554
p              4   1.000000
      0.64737396      0.05713170
      0.16785440      0.28574555
      0.05917387      0.55178731
      0.02355814      0.26323150
 
          37   0
s              4   1.000000
      8.30889438      0.05675242
      1.52042530      0.26014135
      0.42239080      0.53284611
      0.14018771      0.29162544
s              7   1.000000
      0.92936822     -0.06732849
      0.05643440      0.66945607
      0.02166600      0.51461517
      8.30889438     -0.02902285
      1.52042530     -0.13303476
      0.42239080     -0.27249437
      0.14018771     -0.14913553
p              4   1.000000
      0.64737396      0.05713170
      0.16785440      0.28574555
      0.05917387      0.55178731
      0.02355814      0.26323150
 
          38   0
s              4   1.000000
      8.30912931      0.05675242
      1.52046829      0.26014135
      0.42240274      0.53284611
      0.14019167      0.29162544
s              7   1.000000
      0.92936822     -0.06732819
      0.05643440      0.66945307
      0.02166600      0.51461286
      8.30912931     -0.02902223
      1.52046829     -0.13303188
      0.42240274     -0.27248847
      0.14019167     -0.14913231
p              4   1.000000
      0.64737396      0.05713170
      0.16785440      0.28574555
      0.05917387      0.55178731
      0.02355814      0.26323150
 
          39   0
s              4   1.000000
      8.30912918      0.05675242
      1.52046827      0.26014135
      0.42240273      0.53284611
      0.14019167      0.29162544
s              7   1.000000
      0.92936822     -0.06732819
      0.05643440      0.66945307
      0.02166600      0.51461286
      8.30912918     -0.02902223
      1.52046827     -0.13303188
      0.42240273     -0.27248847
      0.14019167     -0.14913231
p              4   1.000000
      0.64737396      0.05713170
      0.16785440      0.28574555
      0.05917387      0.55178731
      0.02355814      0.26323150
 
          40   0
s              4   1.000000
      8.30889415      0.05675242
      1.52042526      0.26014135
      0.42239079      0.53284611
      0.14018770      0.29162544
s              7   1.000000
      0.92936822     -0.06732849
      0.05643440      0.66945607
      0.02166600      0.51461517
      8.30889415     -0.02902285
      1.52042526     -0.13303476
      0.42239079     -0.27249437
      0.14018770     -0.14913554
p              4   1.000000
      0.64737396      0.05713170
      0.16785440      0.28574555
      0.05917387      0.55178731
      0.02355814      0.26323150
 
          41   0
s              4   1.000000
      8.30889436      0.05675242
      1.52042530      0.26014135
      0.42239080      0.53284611
      0.14018771      0.29162544
s              7   1.000000
      0.92936822     -0.06732849
      0.05643440      0.66945607
      0.02166600      0.51461517
      8.30889436     -0.02902285
      1.52042530     -0.13303476
      0.42239080     -0.27249437
      0.14018771     -0.14913554
p              4   1.000000
      0.64737396      0.05713170
      0.16785440      0.28574555
      0.05917387      0.55178731
      0.02355814      0.26323150
 
          42   0
s              4   1.000000
      8.30912925      0.05675242
      1.52046828      0.26014135
      0.42240274      0.53284611
      0.14019167      0.29162544
s              7   1.000000
      0.92936822     -0.06732819
      0.05643440      0.66945307
      0.02166600      0.51461286
      8.30912925     -0.02902223
      1.52046828     -0.13303188
      0.42240274     -0.27248847
      0.14019167     -0.14913231
p              4   1.000000
      0.64737396      0.05713170
      0.16785440      0.28574555
      0.05917387      0.55178731
      0.02355814      0.26323150
 
 [MO]
 Sym= Hole
 Ene= -0.4210727    
 Spin= Alpha
 Occup= 0
           1  3.1952852E-06
           2  7.3345866E-05
           3 -1.1885506E-04
           4 -2.4494719E-02
           5  2.8783697E-06
           6 -4.7914284E-05
           7 -4.1677675E-05
           8  9.6568390E-04
           9  3.2168831E-05
          10 -4.0592137E-04
          11  2.5495465E-04
          12 -0.2521705    
          13 -2.7206891E-06
          14 -2.4584593E-05
          15 -5.2119925E-05
          16 -2.3016105E-03
          17 -2.8210855E-04
          18 -1.8571182E-04
          19 -5.0190848E-04
          20 -0.1496237    
          21  1.8522650E-04
          22  7.1643932E-05
          23  4.2403713E-05
          24  1.1798833E-03
          25  4.1802894E-05
          26 -6.2719668E-04
          27  3.9255666E-04
          28  0.1741145    
          29  1.4819283E-04
          30  1.7494538E-04
          31  1.1355155E-04
          32  4.1477499E-03
          33  8.6371106E-04
          34  1.5913728E-03
          35 -1.5410567E-03
          36  0.1014284    
          37 -3.5183155E-04
          38  3.6448371E-06
          39 -7.5037547E-06
          40 -2.8422337E-03
          41  3.8021841E-04
          42 -1.5460466E-04
          43  1.1233289E-03
          44 -0.1382424    
          45 -3.7976020E-05
          46 -1.7188737E-04
          47 -1.6813960E-04
          48  5.1030479E-03
          49 -1.8526445E-05
          50  7.5038488E-04
          51 -7.6519634E-04
          52 -0.2183173    
          53  2.1594443E-04
          54 -1.7971630E-04
          55 -7.8227080E-05
          56 -4.6444898E-03
          57  9.8533346E-04
          58 -1.4842469E-03
          59  1.1430939E-03
          60 -0.1965881    
          61 -3.4988837E-04
          62  1.8168030E-05
          63  5.1820734E-06
          64 -2.0431993E-03
          65  4.1986528E-05
          66  8.8299665E-04
          67 -8.2500139E-04
          68  0.1892516    
          69  1.7161579E-04
          70  6.0627168E-05
          71  1.7792535E-04
          72 -6.9446405E-03
          73 -2.2842696E-04
          74 -1.2630524E-04
          75 -1.3512225E-04
          76  0.2100761    
          77  1.7062512E-04
          78  1.8152579E-05
          79  6.2303036E-05
          80  8.0784358E-04
          81 -3.3344945E-04
          82  3.8399186E-04
          83  7.4792770E-04
          84  0.2536441    
          85  2.5360010E-04
          86 -1.0190625E-04
          87 -6.0755247E-05
          88  1.5442298E-03
          89  3.5086539E-04
          90 -3.0851115E-05
          91 -4.9940858E-04
          92  0.1212898    
          93 -8.8740162E-05
          94  2.8731221E-05
          95 -9.0124258E-06
          96  3.2328845E-03
          97 -2.7325130E-05
          98  4.3723994E-05
          99  5.8419525E-04
         100 -0.2465919    
         101  7.2248826E-05
         102  1.5047642E-05
         103 -3.2961914E-05
         104  3.9925361E-03
         105 -4.5009688E-06
         106 -7.0925904E-05
         107  1.2579790E-04
         108 -0.1111390    
         109  2.9720397E-05
         110 -4.3290129E-06
         111  5.2690752E-06
         112 -1.2746860E-03
         113 -1.7162334E-05
         114  1.0701658E-04
         115 -1.6544874E-04
         116  0.1407213    
         117  4.7678191E-06
         118 -1.2101242E-05
         119  1.3462660E-05
         120  2.4923767E-04
         121  3.1609878E-05
         122  1.6636332E-04
         123 -4.7595528E-04
         124  0.2302595    
         125 -5.7479815E-06
         126 -6.6681019E-07
         127  9.2772061E-06
         128  1.5370578E-03
         129 -1.1184099E-04
         130  1.4145528E-05
         131  1.9176821E-04
         132  3.0520089E-02
         133  6.4759442E-05
         134  2.3863709E-05
         135 -2.9118646E-05
         136 -1.4057549E-03
         137  2.1022050E-05
         138 -2.4155760E-04
         139  1.9729845E-04
         140 -0.2398137    
         141  2.6165733E-05
         142  7.0004731E-05
         143 -3.6670415E-05
         144 -2.5397481E-04
         145  1.7346113E-04
         146  5.6081975E-04
         147  5.5530248E-04
         148  6.1058332E-03
         149 -1.1258734E-04
         150  1.6298583E-05
         151  1.8191081E-06
         152  3.3810444E-03
         153  3.6591766E-04
         154  3.7351038E-04
         155 -7.4266846E-04
         156  0.2234413    
         157 -1.8894720E-04
         158 -1.3198494E-04
         159  8.2795559E-05
         160 -2.1687041E-03
         161 -1.1219543E-04
         162  2.7514872E-04
         163  9.6724153E-04
         164 -0.1153407    
         165 -1.1355254E-04
         166 -1.7959389E-04
         167 -1.1995781E-05
         168 -6.6479431E-03
         169 -9.9673215E-04
         170 -1.9255996E-04
         171 -2.3187574E-03
         172 -0.2226835    
         173  3.6720224E-04
         174  6.3160078E-06
         175  2.1883914E-05
         176 -3.8879836E-04
         177  2.1353342E-06
         178 -1.6664961E-04
         179  1.0699359E-03
         180  7.2402515E-02
         181 -1.8041716E-04
         182  1.8470427E-04
         183 -1.2138649E-04
         184 -8.1405528E-03
         185  2.2838842E-04
         186 -6.5722468E-04
         187  5.1949965E-04
         188  0.2606747    
         189 -1.8467871E-04
         190  7.4531235E-05
         191 -3.0663068E-05
         192  9.5212126E-05
         193 -2.8100647E-05
         194 -1.4241356E-04
         195  4.7036525E-04
         196  0.1114500    
         197  3.4149593E-06
         198 -6.7735273E-05
         199 -3.8415801E-06
         200  2.0537090E-03
         201 -1.6968264E-05
         202  3.5311969E-04
         203 -7.5369241E-04
         204 -0.2056596    
         205 -1.7478012E-06
         206 -5.2969132E-05
         207  1.3346919E-05
         208 -2.4999329E-03
         209  2.5996644E-04
         210 -9.0383501E-06
         211 -3.5479967E-04
         212 -0.2405027    
         213 -1.8247799E-04
         214  8.1941595E-05
         215  2.0658217E-05
         216  5.9895974E-04
         217 -4.6729980E-05
         218 -2.7873192E-04
         219 -6.8415032E-04
         220  5.0529338E-02
         221 -1.5888104E-04
         222  1.9534754E-04
         223  7.5111166E-05
         224  7.1949419E-03
         225 -7.9580233E-04
         226 -2.8451291E-04
         227  2.3056681E-03
         228  0.1904101    
         229  3.2863254E-04
         230  1.1250250E-05
         231 -7.5524931E-06
         232 -1.3365542E-03
         233 -4.4123468E-04
         234  5.4816494E-04
         235 -1.0051784E-03
         236 -5.1162792E-03
         237  6.7188848E-05
         238 -2.3658498E-04
         239 -2.2636563E-05
         240  6.8122162E-03
         241 -7.2204661E-05
         242 -1.2491504E-05
         243  2.0405200E-06
         244 -1.7380407E-06
         245  9.6365105E-04
         246 -1.7059005E-04
         247 -1.0612303E-05
         248 -6.4825144E-06
         249 -3.6198130E-06
         250  1.9734296E-04
         251  3.9093231E-04
         252  1.8052930E-05
         253  7.0263668E-05
         254  9.9631790E-05
         255  1.0772110E-03
         256  3.8720679E-04
         257 -4.6057353E-06
         258  6.5757529E-05
         259  6.8655449E-05
         260 -2.3659812E-03
         261  8.3399274E-05
         262 -1.9677254E-05
         263  1.5605963E-05
         264 -8.3689167E-07
         265  1.5516778E-03
         266  3.9860108E-05
         267 -4.8403031E-06
         268  2.5068932E-06
         269 -2.5785102E-06
         270 -9.3269075E-04
         271 -9.5586802E-05
         272 -1.1432859E-06
         273 -3.9354677E-06
         274  5.3206959E-06
         275 -6.4761512E-04
         276  7.2584910E-05
         277  1.8730649E-05
         278  2.5429788E-05
         279 -4.1887233E-05
         280  1.2268955E-04
         281 -3.3074737E-04
         282 -1.0640543E-05
         283  1.0981089E-04
         284 -5.0370936E-06
         285 -2.6270030E-03
         286  7.9547324E-05
         287  9.8639239E-06
         288  3.9686911E-06
         289  5.4949787E-06
         290  7.3239685E-04
         291  1.3440468E-04
         292  2.8564737E-06
         293 -5.9246395E-07
         294 -8.0052559E-06
         295 -3.1919288E-04
         296 -3.5937337E-04
         297 -1.6108548E-05
         298  1.1041507E-04
         299 -4.5012021E-06
         300  2.2420555E-03
 Sym= Particle
 Ene= -0.4210727    
 Spin= Alpha
 Occup= 2
           1  3.5633502E-06
           2  3.1175115E-04
           3 -9.7180848E-05
           4  0.2188689    
           5  6.4692149E-06
           6 -6.0034374E-05
           7  2.3139151E-05
           8 -4.4016767E-02
           9 -5.5190608E-06
          10  4.2388815E-06
          11 -3.4288116E-06
          12  6.5868133E-04
          13  1.7475506E-05
          14  9.2726777E-06
          15  1.7569500E-05
          16 -2.1092412E-03
          17 -1.2423297E-05
          18 -2.1771887E-04
          19  7.3115247E-05
          20 -0.1859718    
          21  1.3106598E-05
          22  3.8372662E-05
          23 -1.4680692E-05
          24  3.6444403E-02
          25  3.3311397E-05
          26  1.0648575E-04
          27 -9.8461032E-07
          28  7.2924457E-02
          29 -2.3207820E-05
          30 -4.3696138E-05
          31 -1.5406218E-05
          32 -1.2971841E-02
          33 -7.2720031E-05
          34  9.7342181E-06
          35 -1.3546929E-04
          36  0.2759793    
          37  4.1526142E-05
          38  1.0739648E-05
          39  5.2079828E-05
          40 -4.9056880E-02
          41  1.6805412E-05
          42  5.3453248E-05
          43  9.8932716E-05
          44 -0.3048928    
          45 -1.1628369E-05
          46  3.4713379E-05
          47 -4.2901560E-05
          48  8.7787308E-02
          49  5.7456469E-05
          50  9.3620067E-05
          51 -4.3704204E-05
          52  0.1012872    
          53 -7.5484910E-05
          54 -1.7756649E-05
          55  2.1122012E-05
          56 -3.0259233E-02
          57 -1.7196230E-06
          58  1.4962711E-04
          59 -8.4279782E-06
          60  0.1193690    
          61 -9.9025719E-06
          62 -3.1101714E-05
          63  7.4520347E-07
          64 -2.8440269E-02
          65 -3.5734316E-05
          66 -2.8698071E-04
          67  4.0045966E-06
          68 -0.2127005    
          69  2.2121916E-05
          70  6.5836008E-05
          71 -7.1951640E-06
          72  5.2054223E-02
          73  3.4109505E-06
          74 -1.0806652E-04
          75  3.9979095E-05
          76 -9.4469845E-02
          77  7.5818502E-06
          78  1.1768961E-05
          79 -1.6653833E-06
          80  9.7864214E-03
          81 -1.5097778E-07
          82  7.3444666E-05
          83  2.6289857E-05
          84  6.5541960E-02
          85 -2.6554213E-05
          86 -4.9498824E-05
          87  2.0604582E-05
          88 -1.8143337E-02
          89  1.7527549E-05
          90 -1.0147590E-04
          91  1.4483529E-04
          92 -0.2424142    
          93 -5.7058998E-07
          94  2.7840400E-05
          95 -3.1741587E-05
          96  4.9415816E-02
          97 -3.7023241E-05
          98  5.8217171E-05
          99 -1.1448957E-04
         100  0.1483984    
         101  2.9423902E-05
         102 -3.9709057E-06
         103  8.6031250E-06
         104 -3.8958319E-02
         105  6.7267902E-06
         106  1.1623623E-04
         107 -2.9008623E-04
         108  0.1747035    
         109 -7.5906200E-06
         110 -2.6923319E-05
         111  5.5870598E-05
         112 -2.6616288E-02
         113 -8.9225303E-08
         114 -9.7450582E-05
         115  3.2860588E-04
         116 -0.1901193    
         117 -3.4968998E-06
         118  1.4697134E-05
         119 -5.6566903E-05
         120  3.9366916E-02
         121 -5.5982978E-06
         122 -6.2352068E-05
         123  1.9924954E-04
         124 -0.1095201    
         125  1.1030648E-06
         126  5.2588252E-06
         127 -4.1483610E-05
         128  2.3602916E-02
         129 -7.5666171E-06
         130  1.3564251E-04
         131 -3.4463941E-04
         132  0.2076306    
         133  2.3733078E-06
         134 -3.1618896E-05
         135  6.5552427E-05
         136 -3.6170598E-02
         137  2.0824615E-05
         138  2.5901869E-05
         139 -6.1216888E-05
         140  4.3787900E-02
         141 -3.6200297E-06
         142  9.9637673E-06
         143 -4.3440218E-06
         144 -1.5039901E-02
         145 -2.8489450E-05
         146 -2.1879864E-04
         147  2.8585421E-04
         148 -0.2990571    
         149  2.3078532E-05
         150  5.1675990E-05
         151 -3.7732814E-05
         152  5.6846313E-02
         153 -8.0181544E-06
         154  1.6957815E-04
         155 -1.5778614E-04
         156  0.2133456    
         157  1.4881979E-05
         158 -6.3239626E-05
         159  1.0666145E-04
         160 -6.0886305E-02
         161 -7.3044743E-05
         162  3.2466356E-05
         163  2.7423684E-04
         164  0.2393590    
         165  6.9368754E-05
         166  4.5970235E-05
         167 -1.3307783E-04
         168 -6.9636151E-02
         169  5.1843588E-05
         170 -1.7345166E-05
         171  1.2089254E-04
         172 -3.3621069E-02
         173 -2.4143714E-05
         174  3.7992413E-05
         175 -5.4125179E-05
         176 -3.4858566E-04
         177  5.2658695E-05
         178  1.1959545E-04
         179 -5.6205085E-04
         180 -0.2212798    
         181 -1.3430244E-05
         182 -5.2333198E-05
         183  1.6318087E-04
         184  5.1915340E-02
         185 -5.2533110E-06
         186  2.4911446E-05
         187  3.4436129E-05
         188  1.1318004E-02
         189  3.1239886E-06
         190 -1.2811671E-05
         191 -2.1372456E-05
         192 -9.8379347E-03
         193  4.3409041E-06
         194 -2.6900359E-04
         195  5.8484531E-04
         196  0.1893950    
         197 -1.4136362E-05
         198  7.0411377E-05
         199 -1.2292719E-04
         200 -3.7240040E-02
         201  1.7940194E-05
         202  1.6735116E-04
         203 -3.3573300E-04
         204 -0.1093503    
         205 -2.3514916E-05
         206 -1.1605825E-05
         207  5.6818470E-05
         208  2.0410798E-02
         209  3.9792414E-07
         210  1.7723729E-04
         211 -3.1693513E-04
         212 -0.1131096    
         213 -3.5235357E-06
         214 -3.5674348E-05
         215  5.3672396E-05
         216  2.6373215E-02
         217 -1.2899102E-05
         218 -2.3615414E-04
         219  4.3933990E-04
         220  0.1688856    
         221  2.8681243E-05
         222  2.8318289E-05
         223 -9.5222291E-05
         224 -3.7002154E-02
         225  4.5343812E-05
         226 -2.8226772E-04
         227  1.6482791E-04
         228  0.1796415    
         229 -8.3487321E-06
         230  2.5748277E-05
         231 -5.8501246E-06
         232 -2.8403804E-02
         233  1.2089038E-05
         234  3.5323444E-04
         235 -3.6375376E-04
         236 -0.3145797    
         237  1.1667676E-05
         238 -8.1641985E-05
         239  9.8414341E-05
         240  9.1127738E-02
         241 -2.0585426E-07
         242 -5.2712858E-07
         243  4.9903516E-05
         244 -1.9012279E-05
         245  3.7687421E-02
         246 -2.5392474E-06
         247  3.3275342E-06
         248 -3.3516355E-06
         249  1.6019503E-06
         250 -2.1410061E-03
         251  7.6879605E-06
         252 -2.6012028E-06
         253 -2.6936410E-05
         254 -6.7978963E-06
         255 -1.5586618E-02
         256  1.8514853E-05
         257 -5.1086004E-06
         258 -2.9789084E-05
         259  1.6353222E-05
         260 -1.4209129E-02
         261  2.1228287E-05
         262 -9.9728031E-06
         263 -2.3140806E-06
         264 -3.2809425E-05
         265  2.0022618E-02
         266  5.5792516E-06
         267 -1.2014564E-06
         268 -1.3568281E-05
         269  4.9391278E-05
         270 -3.1564329E-02
         271  2.7456142E-06
         272  3.1901329E-06
         273 -8.3173672E-06
         274  2.5383048E-05
         275 -1.6850550E-02
         276  1.1407938E-05
         277 -5.0153781E-06
         278  1.0911915E-05
         279 -2.3829454E-05
         280  2.0374693E-02
         281 -3.6277146E-05
         282  1.8282941E-05
         283 -2.5353962E-05
         284 -2.9110864E-05
         285 -4.4293166E-03
         286 -1.1638622E-05
         287  1.7411517E-06
         288 -4.7461330E-05
         289  9.7999175E-05
         290  3.3691563E-02
         291 -8.8633315E-06
         292 -2.9920332E-06
         293  2.3382656E-05
         294 -5.1529278E-05
         295 -2.0835454E-02
         296 -2.8329290E-05
         297  1.3500346E-05
         298 -2.0136669E-05
         299 -1.5424645E-05
         300 -6.1587770E-03
 Sym= Hole
 Ene= -0.4210190    
 Spin= Alpha
 Occup= 0
           1 -4.1882809E-05
           2 -4.6018657E-04
           3  1.2294303E-04
           4 -0.2516420    
           5  5.4933771E-06
           6  3.7165286E-05
           7  3.2983065E-05
           8 -2.3300555E-03
           9 -2.5360182E-06
          10  9.9739678E-05
          11 -5.0305633E-05
          12 -1.6926588E-02
          13 -5.3034109E-06
          14  2.3135657E-05
          15  4.8774597E-05
          16  1.0413682E-03
          17  1.8508891E-04
          18  2.1320462E-04
          19  2.3971946E-04
          20  0.2146181    
          21 -1.5307295E-04
          22 -4.0842129E-05
          23 -3.0455118E-05
          24  7.9071888E-04
          25 -1.3849548E-05
          26  9.7978825E-04
          27 -4.0629820E-04
          28  0.1841629    
          29 -1.5586337E-04
          30 -1.3642477E-04
          31 -9.2696639E-05
          32 -7.0045660E-03
          33 -8.8771310E-04
          34 -1.4241441E-03
          35  8.9386670E-04
          36 -0.1985648    
          37  3.0436378E-04
          38  2.7706024E-05
          39 -1.4844395E-05
          40 -2.0904911E-03
          41  1.1792724E-04
          42  9.6894719E-04
          43 -4.1062236E-04
          44 -0.2130214    
          45 -2.4282876E-04
          46 -1.5031169E-06
          47  1.3376943E-04
          48 -4.7295527E-03
          49 -5.6587643E-04
          50 -1.1333503E-03
          51 -3.7789569E-04
          52 -0.1319620    
          53  1.8420586E-04
          54  6.4497210E-05
          55  2.4597350E-04
          56  5.1860171E-03
          57 -6.4535375E-04
          58  1.7899580E-03
          59 -7.9479045E-04
          60  0.1063814    
          61  2.9270290E-04
          62 -2.9087105E-06
          63 -1.1861078E-05
          64 -2.7246112E-03
          65 -6.8062778E-05
          66 -3.6553730E-04
          67  4.4079972E-04
          68  0.1676314    
          69 -1.1794364E-04
          70 -3.0481038E-05
          71 -1.9479250E-04
          72  4.2994292E-03
          73  2.5877715E-04
          74  2.5797443E-04
          75  2.1662530E-04
          76 -0.1564255    
          77 -1.7086897E-04
          78 -2.8143293E-05
          79 -8.6390588E-05
          80  1.1573766E-03
          81  3.2982853E-04
          82  1.4283913E-03
          83 -1.3993503E-04
          84 -1.3191409E-02
          85  6.8568072E-05
          86 -1.3295583E-04
          87  2.6798001E-04
          88  6.7859981E-03
          89  1.3216316E-03
          90 -2.6592237E-03
          91 -1.1155086E-03
          92  0.1871791    
          93 -5.1368983E-04
          94  1.9179297E-06
          95  7.5023974E-07
          96 -1.4173057E-03
          97  6.7227957E-05
          98  1.2203993E-03
          99  6.5866375E-04
         100  5.8709301E-02
         101  2.1446956E-04
         102  2.0486033E-05
         103 -2.9857460E-04
         104  7.0964652E-03
         105 -3.8636164E-04
         106 -7.9100329E-04
         107  7.3303684E-04
         108 -0.2369626    
         109  2.6587950E-04
         110  8.9539399E-06
         111 -1.1769708E-04
         112  6.2507059E-04
         113  3.8685590E-05
         114  7.8167082E-05
         115  4.1015129E-04
         116 -0.2099874    
         117 -2.6322550E-06
         118 -5.3440213E-05
         119  7.1618197E-05
         120 -2.5156902E-03
         121  1.1576213E-05
         122 -1.4222511E-04
         123 -2.6235977E-04
         124  0.1046291    
         125  4.8491379E-06
         126 -1.3948068E-05
         127  8.0163562E-05
         128  2.0013428E-03
         129 -3.6196667E-04
         130  3.6841835E-04
         131  2.2844131E-04
         132  0.2602174    
         133  2.4884212E-04
         134  6.8757137E-05
         135 -6.5781540E-05
         136  1.2128039E-04
         137  8.9796245E-05
         138 -1.3597640E-03
         139 -4.3083177E-04
         140  8.0122046E-02
         141  2.2119135E-04
         142  1.6724416E-04
         143 -2.0236813E-04
         144 -8.1649655E-03
         145  1.2790960E-03
         146  2.2773535E-03
         147  1.2707469E-03
         148 -0.2234799    
         149 -4.7736446E-04
         150 -5.6291651E-06
         151 -1.2386695E-05
         152 -4.0777022E-04
         153  1.8052509E-04
         154 -1.2396299E-03
         155 -8.0200215E-04
         156 -0.1231287    
         157  1.8812592E-04
         158 -4.5108161E-05
         159  2.7117060E-04
         160 -6.6155093E-03
         161 -5.4427708E-04
         162  9.7706122E-04
         163  7.3213887E-05
         164  0.2262486    
         165  2.6835059E-04
         166 -1.0847860E-04
         167  1.4323456E-04
         168 -2.0552790E-03
         169 -5.1445320E-05
         170 -5.3937250E-04
         171 -7.2805170E-04
         172  1.1497607E-02
         173  6.8186593E-05
         174 -7.1579657E-06
         175 -1.7328422E-05
         176  3.5076146E-03
         177 -4.6646408E-05
         178  2.9962740E-04
         179 -3.7886630E-04
         180 -0.2428768    
         181 -1.7577822E-05
         182  6.5711232E-05
         183 -3.4638782E-05
         184 -8.7739805E-05
         185  1.2134090E-04
         186 -2.6660255E-04
         187 -4.6029338E-05
         188  2.2170719E-02
         189 -5.9011330E-05
         190  3.7535279E-05
         191 -2.5730396E-05
         192 -1.4175135E-03
         193 -2.9020968E-05
         194 -2.5623996E-04
         195  6.9327507E-04
         196  0.2267784    
         197  5.1736347E-06
         198 -1.6465938E-05
         199  7.7956338E-07
         200  1.4711699E-03
         201  1.1057155E-05
         202 -3.0187386E-04
         203  3.9266961E-04
         204  0.1470849    
         205 -4.3826358E-06
         206 -2.3251623E-05
         207  6.0271755E-06
         208  3.2934736E-04
         209  4.6242425E-05
         210  1.5621782E-04
         211 -2.2419104E-04
         212 -0.1036136    
         213 -5.0512845E-05
         214  1.0380967E-05
         215 -7.5741373E-06
         216 -1.2779017E-03
         217 -9.2849268E-06
         218  1.5619921E-04
         219 -9.7254780E-04
         220 -0.2476844    
         221 -6.1944898E-05
         222  4.3062166E-05
         223  2.4219180E-06
         224  3.8631032E-03
         225 -4.3501728E-04
         226  1.7306488E-04
         227  5.5566913E-04
         228  0.1170016    
         229  1.1772317E-04
         230 -1.6946204E-05
         231 -1.8035689E-05
         232  3.1305351E-03
         233  3.2823943E-04
         234 -8.7626692E-04
         235 -1.7435414E-04
         236  0.2550224    
         237 -2.7034507E-04
         238  2.4797810E-05
         239  1.1051263E-04
         240  1.4292374E-03
         241  1.4204036E-04
         242  2.0844436E-06
         243 -3.8389098E-06
         244  3.0838592E-06
         245  1.8933375E-04
         246  6.4495885E-05
         247  8.3242812E-06
         248  4.2152474E-06
         249 -5.1565739E-06
         250  9.6121745E-04
         251 -3.1779442E-04
         252  8.1588661E-07
         253 -4.1710045E-05
         254 -7.5217024E-05
         255 -2.4114077E-03
         256 -3.1492396E-04
         257 -3.0572719E-05
         258 -6.5666747E-05
         259 -9.5033574E-05
         260  1.2226300E-03
         261  5.5159227E-04
         262  2.2310996E-05
         263  8.2042447E-05
         264 -1.5261189E-04
         265  2.1401497E-03
         266 -1.9210388E-04
         267 -1.6681799E-05
         268 -8.7084368E-07
         269  8.1714506E-06
         270 -3.0769769E-04
         271 -1.6349397E-04
         272 -1.5396588E-05
         273 -6.0420571E-06
         274  2.8833526E-06
         275  7.4071490E-04
         276  5.8055588E-04
         277  4.4006078E-06
         278  4.8128422E-05
         279 -1.3839522E-04
         280 -2.6619835E-03
         281 -1.2864097E-04
         282 -2.6166366E-05
         283  5.2171428E-05
         284 -1.3985171E-05
         285  2.7481804E-04
         286  9.6891315E-05
         287 -2.4079727E-06
         288  1.6544631E-08
         289  2.0230643E-06
         290 -6.5081031E-04
         291 -2.0676734E-05
         292  6.1788323E-06
         293  3.2746771E-06
         294 -3.3217448E-06
         295 -9.2890282E-04
         296 -1.1576617E-04
         297  1.1775934E-05
         298  1.1793741E-05
         299 -8.9021969E-06
         300  1.4353711E-03
 Sym= Particle
 Ene= -0.4210190    
 Spin= Alpha
 Occup= 2
           1  1.2140918E-05
           2  8.3306868E-06
           3  8.7893186E-06
           4  9.8113735E-05
           5 -1.7380820E-05
           6 -1.3962684E-05
           7 -9.8697847E-06
           8 -1.8429004E-03
           9  2.9161502E-06
          10  2.9807395E-04
          11 -1.2359233E-04
          12  0.2191010    
          13 -9.4179140E-06
          14 -6.5950167E-05
          15  2.4428138E-05
          16 -4.4224977E-02
          17 -3.9766655E-06
          18 -1.1343628E-04
          19  2.0697767E-05
          20 -9.4316177E-02
          21 -3.5234323E-06
          22  6.2175486E-06
          23  2.2565030E-06
          24  9.6822577E-03
          25  4.8610207E-05
          26 -1.7641435E-04
          27  1.5387125E-04
          28 -0.2134310    
          29 -2.7793369E-05
          30  5.0798088E-05
          31 -3.7944730E-05
          32  5.2462954E-02
          33 -5.1917505E-06
          34  1.0447339E-04
          35 -9.8643643E-05
          36  0.1205366    
          37  6.1542255E-06
          38 -1.1323069E-05
          39  3.2908354E-06
          40 -2.8725768E-02
          41  1.1434048E-05
          42  5.9341673E-05
          43  6.3144730E-06
          44  0.1003655    
          45  8.9939595E-06
          46 -4.6299741E-05
          47 -3.3598240E-05
          48 -2.9736003E-02
          49  3.0653318E-05
          50 -1.6085646E-04
          51 -7.9629433E-05
          52 -0.3047724    
          53 -2.3401615E-05
          54  2.1542221E-05
          55  3.5016168E-05
          56  8.7752260E-02
          57 -3.7073353E-06
          58  1.6118461E-04
          59  8.6913395E-05
          60  0.2763741    
          61  1.4209087E-05
          62  4.2204738E-06
          63 -2.0025025E-05
          64 -4.9217351E-02
          65 -1.2653974E-05
          66  7.5433600E-05
          67 -4.4533144E-06
          68  7.2211035E-02
          69  1.4467848E-05
          70 -1.0719427E-05
          71  7.9758456E-06
          72 -1.2676513E-02
          73  2.2788188E-06
          74 -2.5030109E-04
          75  5.1580835E-05
          76 -0.1851704    
          77 -8.1432518E-06
          78  3.9615566E-05
          79 -4.2323077E-06
          80  3.6106572E-02
          81  2.6874037E-05
          82 -1.5966948E-04
          83  9.6702614E-05
          84 -0.3142652    
          85 -2.2854698E-05
          86  3.5457968E-05
          87 -6.7466004E-05
          88  9.0906456E-02
          89 -1.3111743E-05
          90  1.3061751E-04
          91 -6.1445382E-05
          92  0.1787523    
          93  6.4692667E-06
          94 -4.3855953E-06
          95 -2.5968997E-05
          96 -2.8118970E-02
          97 -1.8943827E-05
          98  9.1066526E-05
          99 -1.9398287E-04
         100  0.1699122    
         101  1.8170691E-05
         102 -1.0629024E-05
         103  6.0880338E-05
         104 -3.7484095E-02
         105 -5.8228024E-06
         106 -5.2097410E-05
         107  1.7214658E-04
         108 -0.1139184    
         109  1.5971371E-05
         110  1.1217589E-06
         111 -3.7681937E-05
         112  2.6725316E-02
         113 -3.8270996E-06
         114 -5.9175447E-05
         115  1.9000399E-04
         116 -0.1090078    
         117  1.6901118E-05
         118  1.3492862E-05
         119 -4.9364095E-05
         120  2.0295246E-02
         121 -1.4211543E-06
         122  1.1465471E-04
         123 -3.3708534E-04
         124  0.1895528    
         125  1.4572051E-05
         126 -2.1348129E-05
         127  5.9495862E-05
         128 -3.7213601E-02
         129 -6.5981794E-06
         130  1.2479585E-06
         131 -1.5393845E-05
         132  1.0755628E-02
         133  2.1642372E-05
         134  5.9178992E-06
         135 -2.6047869E-06
         136 -9.5771095E-03
         137  5.6153744E-06
         138 -1.3797506E-04
         139  3.0902514E-04
         140 -0.2203651    
         141  5.4579741E-06
         142  4.6059031E-05
         143 -6.4900254E-05
         144  5.1437855E-02
         145  1.2822107E-05
         146 -3.8476566E-05
         147  7.3620517E-06
         148 -3.4782562E-02
         149 -2.1517466E-05
         150 -2.9982399E-05
         151  1.5860795E-05
         152 -2.6316322E-05
         153 -3.3143831E-05
         154  1.1553254E-04
         155 -9.9051111E-05
         156  0.2401298    
         157 -2.2121417E-06
         158 -6.4600739E-05
         159  1.2173044E-05
         160 -7.0099190E-02
         161  2.5137406E-05
         162  6.5984947E-05
         163  1.3247057E-04
         164  0.2138361    
         165 -3.5264540E-05
         166  3.1718730E-05
         167 -5.4472755E-05
         168 -6.1145380E-02
         169  3.8731308E-05
         170  1.3812042E-06
         171 -4.3369568E-04
         172 -0.2992708    
         173 -1.2649510E-05
         174  1.6509446E-05
         175  6.7164503E-05
         176  5.6849767E-02
         177 -6.6894121E-05
         178  6.5967048E-05
         179  1.0952575E-04
         180  4.3588135E-02
         181  5.9104299E-05
         182 -6.4380780E-05
         183 -1.6074204E-05
         184 -1.5007185E-02
         185  1.1737420E-05
         186 -2.7759827E-04
         187  5.7555310E-04
         188  0.2082042    
         189 -1.0286903E-05
         190  5.3221174E-05
         191 -9.0483860E-05
         192 -3.6400441E-02
         193  7.4293516E-06
         194  1.4529761E-04
         195 -3.3471762E-04
         196 -0.1101365    
         197 -1.8496570E-05
         198 -1.9699098E-06
         199  6.5109627E-05
         200  2.3944590E-02
         201  3.0531583E-06
         202  3.0932951E-04
         203 -5.9392065E-04
         204 -0.1895692    
         205 -4.7121262E-06
         206 -5.8780894E-05
         207  1.2610848E-04
         208  3.9032806E-02
         209 -1.2954732E-05
         210 -2.5201309E-04
         211  4.8013893E-04
         212  0.1743852    
         213 -1.6013646E-06
         214  5.7963771E-05
         215 -6.4912929E-05
         216 -2.6525855E-02
         217  6.5349297E-05
         218 -2.5309573E-04
         219  4.0441495E-04
         220  0.1480793    
         221 -3.4973724E-05
         222  4.6590576E-05
         223 -9.9853285E-05
         224 -3.8733359E-02
         225 -1.8032179E-05
         226  3.4976675E-04
         227 -4.4143863E-04
         228 -0.2415479    
         229  2.5883091E-05
         230 -7.7343546E-05
         231  6.6328517E-05
         232  4.9232211E-02
         233 -5.6231693E-05
         234 -1.5360839E-04
         235  2.5311821E-05
         236  6.4670131E-02
         237  6.1081540E-05
         238  1.1238567E-04
         239 -3.6474114E-05
         240 -1.7675532E-02
         241 -9.6478616E-06
         242 -5.5103583E-06
         243  3.4005338E-06
         244  1.9790268E-06
         245 -2.3001351E-03
         246 -7.0954825E-06
         247  1.0667321E-06
         248  4.9385781E-05
         249 -1.8670331E-05
         250  3.7673291E-02
         251 -2.7536293E-05
         252  7.3786682E-06
         253 -2.6937547E-05
         254  1.9158659E-05
         255 -1.4115456E-02
         256 -1.5149774E-05
         257  1.9731635E-06
         258 -1.1339839E-05
         259  2.1141715E-05
         260 -1.5316913E-02
         261  1.6431668E-05
         262  1.9601931E-07
         263 -2.0857540E-05
         264  8.6123600E-06
         265 -6.4430870E-03
         266  5.9394220E-06
         267  2.5157490E-06
         268 -6.7977871E-06
         269  3.4043973E-05
         270 -2.0698244E-02
         271 -2.3484922E-06
         272  3.8311728E-06
         273  1.8252545E-05
         274 -5.4135227E-05
         275  3.3799946E-02
         276  1.3057846E-05
         277  5.5272781E-06
         278  5.4458601E-06
         279  2.9714490E-06
         280 -4.6494827E-03
         281  9.9289273E-06
         282 -6.1191477E-06
         283 -4.4195498E-05
         284  7.9621364E-05
         285  2.0554498E-02
         286 -3.3394931E-06
         287 -3.1337549E-06
         288  1.5572328E-05
         289 -5.3856915E-05
         290 -1.6986404E-02
         291 -8.2985107E-06
         292  7.6461074E-06
         293  3.8940503E-05
         294 -9.2686314E-05
         295 -3.1483255E-02
         296 -9.4227889E-06
         297  7.5952386E-07
         298 -7.6749957E-06
         299  7.0110807E-05
         300  1.9962067E-02
 Sym= Hole
 Ene= -6.3572168E-02
 Spin= Alpha
 Occup= 0
           1 -2.0763790E-05
           2 -2.7963746E-04
           3 -2.7851904E-06
           4 -0.2376643    
           5 -9.2860719E-06
           6 -5.7073335E-05
           7 -2.1094524E-05
           8 -9.3389219E-03
           9  7.9021183E-06
          10 -3.3249476E-04
          11  1.8000684E-04
          12 -0.2107820    
          13  2.3422981E-06
          14 -2.9733037E-05
          15 -3.0831670E-05
          16 -8.8141952E-03
          17 -1.6235765E-04
          18 -2.4549816E-05
          19 -3.5378500E-04
          20 -1.3466396E-02
          21  1.2761897E-04
          22  2.4615876E-05
          23  2.5487730E-05
          24 -3.0694217E-03
          25 -1.8184890E-04
          26 -5.1137916E-04
          27  6.9792593E-05
          28  0.2301071    
          29  1.5506454E-04
          30  1.4165782E-04
          31  5.1108942E-05
          32  9.9942582E-03
          33  1.0677715E-03
          34  1.6855237E-03
          35 -1.1921290E-03
          36  9.0546377E-02
          37 -3.3934819E-04
          38  1.6908954E-05
          39 -1.6967649E-06
          40 -6.6766078E-03
          41 -2.5529251E-04
          42 -5.7543197E-04
          43  5.1419536E-04
          44 -0.1766256    
          45  2.4140655E-04
          46  5.9285958E-05
          47 -1.9517474E-04
          48  3.5661219E-03
          49  1.3966684E-04
          50  4.8089013E-04
          51 -6.1572972E-04
          52 -0.1633403    
          53  1.8434325E-04
          54 -1.5857995E-04
          55 -1.0613040E-05
          56  3.8365251E-03
          57  2.0897281E-04
          58 -2.5356843E-04
          59  3.5274052E-04
          60  0.1176807    
          61 -1.2391606E-04
          62  2.7456215E-05
          63  8.6975833E-06
          64 -6.4619188E-03
          65  1.7924876E-04
          66  7.6739339E-04
          67 -4.9630168E-04
          68  0.2226612    
          69  8.1545906E-05
          70  5.6636054E-05
          71  7.1121860E-05
          72  1.0926719E-02
          73 -1.5905482E-04
          74 -3.2911319E-04
          75 -1.2493078E-05
          76 -5.7952780E-02
          77  8.1224316E-05
          78 -1.6466216E-05
          79  3.1195370E-05
          80 -3.3997979E-03
          81 -3.4602318E-04
          82  2.6505176E-04
          83  2.1959418E-04
          84 -0.1767613    
          85  2.1528646E-04
          86 -1.7093633E-04
          87  8.7004819E-06
          88  3.5624118E-03
          89  9.3114766E-04
          90 -1.3578358E-03
          91 -7.5291854E-04
          92  9.0531133E-02
          93 -2.7065718E-04
          94 -3.0395815E-05
          95 -6.7731112E-06
          96 -6.6786404E-03
          97 -2.2578829E-04
          98  4.2498097E-04
          99  1.0422612E-04
         100  0.2302528    
         101  1.2244532E-04
         102 -8.2024044E-06
         103 -1.2278793E-04
         104  9.9977730E-03
         105 -1.0572655E-04
         106 -2.0769273E-04
         107  1.7106737E-04
         108 -1.3309334E-02
         109  8.5484084E-05
         110  9.7917973E-06
         111 -1.3115631E-05
         112 -3.0659889E-03
         113  7.9327192E-06
         114 -6.8387897E-05
         115  3.4292278E-04
         116 -0.2107779    
         117  3.5344342E-06
         118 -1.6676506E-05
         119  3.5709629E-05
         120 -8.8150464E-03
         121 -3.0149649E-05
         122 -2.3939178E-04
         123  4.7148942E-04
         124 -0.2378505    
         125 -8.0610989E-06
         126 -2.4686465E-06
         127  5.3264976E-05
         128 -9.3451021E-03
         129 -7.4176678E-05
         130  5.1240073E-05
         131  1.6303993E-04
         132 -5.8136255E-02
         133  1.8158124E-05
         134  2.2142167E-05
         135  1.2505787E-05
         136 -3.4045621E-03
         137  1.8866050E-04
         138 -2.7643036E-04
         139 -4.4787189E-04
         140  0.2226889    
         141  3.3363012E-05
         142 -3.5762826E-06
         143 -5.6836001E-05
         144  1.0931778E-02
         145 -1.2349254E-04
         146 -7.3322844E-05
         147 -2.7556444E-04
         148  0.1177738    
         149  1.0978210E-06
         150 -8.6864347E-06
         151 -1.1223864E-05
         152 -6.4655072E-03
         153  1.0631042E-04
         154 -5.7297928E-04
         155  8.9692447E-05
         156 -0.1633109    
         157  1.3387042E-04
         158  5.1082567E-05
         159  8.5551146E-05
         160  3.8380052E-03
         161 -1.4017985E-04
         162 -2.8248259E-04
         163 -6.1810669E-04
         164 -0.1767221    
         165  1.4573227E-04
         166  1.2107067E-04
         167  8.1343038E-05
         168  3.5620851E-03
         169  7.7408273E-04
         170  2.0654638E-04
         171  1.6991217E-03
         172  9.0446793E-02
         173 -2.5279151E-04
         174  2.1599011E-05
         175  1.8064782E-05
         176 -6.6738869E-03
         177 -1.2953191E-04
         178 -5.7090660E-05
         179 -4.3296066E-05
         180  0.2301530    
         181  1.1580622E-04
         182 -1.1232013E-04
         183  8.4778425E-05
         184  9.9914344E-03
         185 -1.3463946E-04
         186  3.0671942E-04
         187  1.2850630E-04
         188 -1.3215418E-02
         189  9.2768118E-05
         190 -2.0985999E-05
         191  7.0362371E-06
         192 -3.0635213E-03
         193  3.6910494E-06
         194  2.6096145E-04
         195 -6.8876537E-04
         196 -0.2106025    
         197  4.9903406E-06
         198  4.1611780E-05
         199 -2.4552595E-05
         200 -8.8088876E-03
         201 -1.0719452E-05
         202  4.5846822E-04
         203 -6.4931816E-04
         204 -0.2377683    
         205 -1.0082679E-05
         206  5.7200668E-05
         207 -5.1512648E-05
         208 -9.3413386E-03
         209 -1.3043042E-04
         210  1.7741727E-04
         211 -3.1671749E-04
         212 -5.8203761E-02
         213  7.0307695E-05
         214 -1.3853118E-05
         215 -2.4010562E-05
         216 -3.4056455E-03
         217  1.1980462E-04
         218 -1.2643091E-04
         219  1.1333574E-03
         220  0.2225367    
         221  8.2354170E-05
         222 -8.9517380E-05
         223  3.3062144E-05
         224  1.0926817E-02
         225  3.0725825E-04
         226 -3.9657566E-04
         227 -1.8315129E-04
         228  0.1177573    
         229 -1.2604753E-04
         230 -1.9923682E-05
         231  8.5606343E-06
         232 -6.4615076E-03
         233 -3.9221293E-05
         234  5.6451233E-04
         235  4.5707982E-04
         236 -0.1631961    
         237  2.3348577E-04
         238  6.7617526E-05
         239 -1.4867743E-04
         240  3.8410970E-03
         241 -3.3703611E-05
         242 -1.8670718E-05
         243  1.5722830E-05
         244 -4.5174229E-06
         245  1.4127224E-02
         246 -1.0249565E-04
         247 -2.3554521E-05
         248  7.8549301E-06
         249 -3.2250042E-05
         250  1.3906918E-02
         251  2.8473674E-04
         252 -1.6002650E-05
         253  2.9313009E-05
         254  6.8263536E-05
         255 -1.4856519E-03
         256  2.3752505E-04
         257 -3.9298662E-05
         258  1.7193903E-05
         259  3.1227752E-05
         260 -5.5792427E-04
         261  1.6968601E-04
         262 -1.6702623E-05
         263  2.8457081E-05
         264 -3.4710083E-05
         265 -1.4918302E-03
         266 -8.1532591E-05
         267 -2.2971015E-05
         268 -1.0856686E-05
         269 -1.0858207E-06
         270  1.3909481E-02
         271  2.5798696E-05
         272 -1.0591261E-05
         273  1.3855470E-05
         274 -2.7771348E-05
         275  1.4135419E-02
         276  1.4801088E-04
         277 -3.7945818E-05
         278  2.1597557E-06
         279  2.2618740E-06
         280 -5.5181095E-04
         281  2.5952701E-04
         282 -7.8636767E-06
         283 -5.9897891E-05
         284 -1.1648037E-05
         285 -1.4944458E-03
         286 -9.9624122E-05
         287 -1.8687273E-05
         288  6.0855086E-06
         289  4.1330364E-05
         290  1.3900824E-02
         291 -3.5381875E-06
         292 -2.1007127E-05
         293 -2.3066144E-05
         294  3.7495276E-05
         295  1.4129392E-02
         296  1.8281896E-04
         297 -3.9637111E-05
         298 -2.0836153E-05
         299 -1.6861674E-07
         300 -5.4879725E-04
 Sym= Particle
 Ene= -6.3572168E-02
 Spin= Alpha
 Occup= 2
           1  9.1644251E-06
           2  2.3191649E-04
           3 -6.1699975E-05
           4  0.1565279    
           5  4.6763721E-06
           6 -5.0079852E-05
           7  1.2731149E-05
           8 -3.2251980E-02
           9 -9.8853016E-06
          10  2.4729338E-04
          11 -1.0756325E-04
          12  0.1835504    
          13  2.0730396E-05
          14 -5.4451619E-05
          15  3.8348706E-05
          16 -4.0803313E-02
          17 -8.2247852E-06
          18 -2.7999133E-04
          19  1.0882333E-04
          20 -0.2327577    
          21  2.7037846E-05
          22  7.1800816E-05
          23 -2.5844296E-05
          24  4.5815982E-02
          25  1.9260475E-05
          26 -8.3716848E-05
          27  7.6873577E-05
          28 -8.2258627E-02
          29  6.6484672E-06
          30  2.5749876E-05
          31 -3.8163722E-05
          32  1.9919736E-02
          33  8.1066491E-06
          34  1.1513620E-04
          35 -1.6757620E-04
          36  0.2542646    
          37 -5.4736602E-06
          38 -3.2529308E-05
          39  4.1676372E-05
          40 -3.7617337E-02
          41 -3.2077227E-05
          42 -4.2800326E-05
          43  4.2199506E-05
          44 -0.1291443    
          45  3.3506050E-05
          46  2.8459528E-05
          47 -6.7358560E-06
          48  2.2876851E-02
          49  5.3181629E-05
          50 -4.1946765E-05
          51 -9.0332564E-05
          52 -0.1489225    
          53 -3.3946140E-05
          54  3.3137210E-05
          55  3.7727739E-05
          56  3.2585986E-02
          57  1.4222753E-06
          58  1.5539162E-04
          59  4.8901242E-05
          60  0.2470444    
          61 -1.4466396E-05
          62 -1.9002251E-05
          63  1.6912081E-06
          64 -3.3953663E-02
          65 -2.1033369E-05
          66 -6.7120352E-05
          67 -8.7634699E-06
          68 -5.1487736E-02
          69  1.9366116E-05
          70 -1.3366286E-05
          71  3.4922396E-06
          72  8.0031855E-03
          73 -9.6197255E-06
          74 -2.9758867E-04
          75  5.8071229E-05
          76 -0.2311815    
          77  1.7352733E-05
          78  4.2285184E-05
          79  9.4707520E-06
          80  4.5960404E-02
          81 -3.9628894E-06
          82 -8.2202292E-05
          83  5.8364614E-05
          84 -0.1291137    
          85 -2.4936697E-05
          86  3.6661415E-05
          87 -3.4953289E-05
          88  2.2870781E-02
          89  1.3549047E-05
          90  1.0756783E-04
          91 -1.5501434E-04
          92  0.2542853    
          93 -2.2527785E-05
          94 -6.6150028E-06
          95  2.5699514E-05
          96 -3.7626557E-02
          97  4.8178945E-06
          98 -2.5984407E-05
          99  5.6280423E-05
         100 -8.2325183E-02
         101 -1.9533268E-06
         102 -2.3390779E-05
         103  2.0751109E-05
         104  1.9940594E-02
         105  3.4357711E-06
         106 -1.1068220E-04
         107  3.6459762E-04
         108 -0.2328426    
         109  2.1966738E-05
         110  1.1737544E-05
         111 -1.0117698E-04
         112  4.5840636E-02
         113 -9.5282330E-06
         114  1.0287624E-04
         115 -3.1589388E-04
         116  0.1836878    
         117  2.2991822E-05
         118 -1.2485845E-05
         119  5.3339991E-05
         120 -4.0844165E-02
         121  3.2547671E-06
         122  9.8565193E-05
         123 -2.8235928E-04
         124  0.1564753    
         125  1.4218801E-05
         126 -1.7903087E-05
         127  4.7477923E-05
         128 -3.2234982E-02
         129  2.0209609E-06
         130 -1.6058789E-04
         131  3.8698132E-04
         132 -0.2312662    
         133  9.8641276E-06
         134  3.9929386E-05
         135 -8.5502797E-05
         136  4.5989260E-02
         137  4.3718953E-07
         138 -2.1369162E-05
         139  4.0991123E-05
         140 -5.1342044E-02
         141 -5.8454411E-06
         142  7.0916089E-06
         143  2.7210130E-05
         144  7.9566473E-03
         145 -1.1005835E-05
         146  1.4211112E-04
         147 -2.0302694E-04
         148  0.2470653    
         149 -3.0419562E-06
         150  1.9551117E-05
         151  2.1309846E-05
         152 -3.3959910E-02
         153  2.3913120E-05
         154 -1.0219369E-04
         155  8.9563255E-05
         156 -0.1490939    
         157 -6.6713528E-06
         158  6.7606961E-05
         159 -6.1015173E-05
         160  3.2653566E-02
         161 -2.0618034E-05
         162 -5.0091247E-05
         163 -5.7444962E-05
         164 -0.1289752    
         165  7.2763310E-06
         166 -1.2530376E-05
         167  2.6783136E-05
         168  2.2814557E-02
         169 -2.9335153E-05
         170 -1.1909417E-06
         171  4.3718674E-04
         172  0.2542574    
         173  1.7774786E-05
         174 -1.7165381E-05
         175 -8.8851593E-05
         176 -3.7618559E-02
         177  5.9990074E-05
         178 -4.6328296E-05
         179 -1.9659367E-04
         180 -8.2430519E-02
         181 -3.9006547E-05
         182  7.0371796E-05
         183  4.0981333E-05
         184  1.9974966E-02
         185 -7.9306055E-06
         186  2.9021417E-04
         187 -6.6201232E-04
         188 -0.2327227    
         189  2.7125905E-05
         190 -6.9442038E-05
         191  1.4035727E-04
         192  4.5803227E-02
         193 -1.3315530E-05
         194 -2.5571886E-04
         195  5.5414252E-04
         196  0.1836735    
         197  2.5349205E-05
         198  3.0433703E-05
         199 -1.1856909E-04
         200 -4.0840659E-02
         201 -2.3868090E-06
         202 -2.6860641E-04
         203  4.8792502E-04
         204  0.1563747    
         205  1.1378427E-05
         206  5.7371817E-05
         207 -1.0244812E-04
         208 -3.2207210E-02
         209  5.0565573E-06
         210  3.4603488E-04
         211 -6.3914835E-04
         212 -0.2311488    
         213  1.2985985E-05
         214 -7.9272017E-05
         215  1.1750536E-04
         216  4.5953516E-02
         217 -3.7261201E-05
         218  6.8356589E-05
         219 -1.5745938E-04
         220 -5.1352136E-02
         221  1.7396043E-05
         222  2.8108027E-05
         223  1.9599802E-05
         224  7.9602543E-03
         225 -1.1459519E-05
         226 -3.5204762E-04
         227  4.0658517E-04
         228  0.2470379    
         229 -1.9692513E-06
         230  4.5200894E-05
         231 -9.2313319E-05
         232 -3.3949021E-02
         233  7.1409988E-05
         234  2.0145865E-04
         235 -1.3352401E-04
         236 -0.1490415    
         237 -5.6876259E-05
         238 -9.2613955E-05
         239  5.0611045E-05
         240  3.2627217E-02
         241 -1.0648580E-05
         242 -2.9657517E-06
         243  5.3094191E-05
         244 -1.6165675E-05
         245  2.7539939E-02
         246  2.2372810E-06
         247  3.3028393E-06
         248  4.0501553E-05
         249 -1.2225612E-05
         250  3.3662148E-02
         251 -1.3341429E-06
         252  2.0867859E-05
         253 -2.1226489E-05
         254  2.1233040E-05
         255 -3.0561704E-02
         256  1.5627293E-05
         257  2.5358120E-06
         258 -4.7631507E-05
         259  4.8333448E-05
         260 -2.9997252E-02
         261 -6.1229211E-06
         262  2.6213425E-05
         263 -1.6571657E-05
         264  1.2985352E-05
         265 -3.0581566E-02
         266  1.4666924E-05
         267 -1.1184527E-05
         268  3.1089970E-05
         269 -5.1014216E-05
         270  3.3694100E-02
         271 -5.3915760E-06
         272  7.4883665E-06
         273  9.0659778E-06
         274 -4.1603194E-05
         275  2.7529640E-02
         276 -9.3191175E-06
         277  8.4315234E-06
         278 -1.3335784E-05
         279  2.8958148E-05
         280 -3.0010054E-02
         281 -1.8623177E-05
         282  2.4422250E-05
         283  3.1884803E-05
         284 -8.4119943E-05
         285 -3.0559342E-02
         286  1.4640305E-05
         287 -1.5327158E-05
         288 -4.2026186E-05
         289  1.0209431E-04
         290  3.3688862E-02
         291  6.3886196E-06
         292 -9.4527304E-06
         293 -2.8255252E-05
         294  7.4351403E-05
         295  2.7504452E-02
         296 -6.4155570E-06
         297  7.9790088E-06
         298  1.0497755E-05
         299 -1.1130509E-04
         300 -2.9985495E-02
