 [Molden Format]
 [Atoms] Angs
C       1      6      1.59631656     -5.58445669     -2.57647665
C       2      6      2.65390967     -6.41779315     -1.86134158
C       3      6      2.87206750     -5.99059530     -0.40937228
C       4      6      3.52977512     -4.61939367     -0.28707842
C       5      6      3.71767713     -4.20298048      1.17003524
C       6      6      4.30821444     -2.79146985      1.27298397
N       7      7      3.46572234     -1.83855640      0.58656589
C       8      6      2.15973894     -1.62752863      1.02290038
C       9      6      1.73254099     -1.85450347      2.27813201
C      10      6      0.31802875     -1.58827574      2.71067705
C      11      6     -0.35198295     -0.57372353      1.82718656
C      12      6     -1.09107402      0.43615449      2.29843496
C      13      6     -1.66304327      1.54777226      1.45231951
C      14      6     -0.66856517      2.05072853      0.43189041
C      15      6      0.61140832      2.50734550      0.64498355
C      16      6      1.44584410      2.73880722     -0.45272211
C      17      6      2.84917435      3.14618881     -0.28274201
C      18      6      3.34369644      4.16396508     -1.06821320
C      19      6      4.66398968      4.60970385     -0.94930097
C      20      6      5.49761201      4.04567512     -0.02618039
C      21      6      5.04214631      2.99992721      0.80155361
C      22      6      5.89003437      2.42074471      1.76882657
C      23      6      5.45262952      1.40716450      2.57237788
C      24      6      4.15529158      0.90325383      2.41005339
C      25      6      3.31527090      1.43388170      1.47135712
C      26      6      3.71001022      2.52244474      0.66588620
C      27      6      0.93232094      2.58192709     -1.74163549
C      28      6     -0.37654454      2.19465574     -1.96140000
C      29      6     -1.17853357      1.91123347     -0.86811834
C      30      6     -2.52114907      1.36463768     -0.77878379
C      31      6     -3.44394723      1.04320910     -1.76132098
C      32      6     -4.65401021      0.48907298     -1.38389132
C      33      6     -4.95188758      0.24464567     -0.04341184
C      34      6     -6.22653445     -0.38818495      0.33728505
C      35      6     -6.19992959     -1.55344840      1.06724963
C      36      6     -7.38046295     -2.22370232      1.40967968
C      37      6     -8.59173417     -1.72522355      1.02094762
C      38      6     -8.67023536     -0.51829123      0.29588614
C      39      6     -9.91245198      0.02694000     -0.09181507
C      40      6     -9.97882674      1.21282214     -0.76623364
C      41      6     -8.80258656      1.91474746     -1.06889614
C      42      6     -7.58277611      1.40947242     -0.71489623
C      43      6     -7.47613178      0.17230437     -0.04404303
C      44      6     -4.01446892      0.55855630      0.94224083
C      45      6     -2.81528716      1.12171349      0.57270610
C      46      6     -0.03605995     -0.73088912      0.42029175
C      47      6      1.17433198     -1.17227381      0.05101398
S      48     16      1.59863313     -1.25457817     -1.66148014
C      49      6      3.23538303     -0.60101927     -1.48010560
C      50      6      3.73161428      0.26775623     -2.43473215
C      51      6      5.01896267      0.75748663     -2.31935042
C      52      6      5.80188894      0.36404916     -1.24720601
C      53      6      5.30386426     -0.49861692     -0.29044868
C      54      6      4.00295488     -0.99462030     -0.38064439
H      55      1      0.65439439     -5.61820325     -2.03302595
H      56      1      1.90297173     -4.54566375     -2.66402296
H      57      1      1.42691213     -5.97143535     -3.57879644
H      58      1      2.34374443     -7.46568439     -1.87341835
H      59      1      3.59998561     -6.34790234     -2.40313611
H      60      1      1.90894074     -5.97502619      0.10668144
H      61      1      3.50181482     -6.73256196      0.08893786
H      62      1      2.90728082     -3.87686382     -0.78637967
H      63      1      4.49988440     -4.63453779     -0.79044751
H      64      1      4.38954355     -4.89915916      1.67623753
H      65      1      2.75250638     -4.23638760      1.67779545
H      66      1      5.28090567     -2.79044963      0.77983736
H      67      1      4.45872851     -2.51531567      2.32429088
H      68      1      2.38362632     -2.26764806      3.03123889
H      69      1     -0.24804000     -2.53166414      2.67184594
H      70      1      0.30885436     -1.25451128      3.75037945
H      71      1     -1.26829840      0.50688752      3.36301706
H      72      1     -1.98412920      2.35704817      2.11708157
H      73      1      0.97104224      2.67810361      1.64907958
H      74      1      2.68922379      4.65209536     -1.77606606
H      75      1      5.01040085      5.41258783     -1.58398333
H      76      1      6.51413647      4.39457305      0.08790994
H      77      1      6.89757550      2.80137204      1.86298841
H      78      1      6.10425301      0.97899037      3.32076424
H      79      1      3.81888390      0.08141509      3.02535254
H      80      1      2.33513011      1.00454560      1.33831063
H      81      1      1.58651777      2.74413649     -2.58572811
H      82      1     -0.75198571      2.08032801     -2.96751190
H      83      1     -3.22314767      1.21676476     -2.80410697
H      84      1     -5.37791075      0.21609584     -2.13846188
H      85      1     -5.24732882     -1.97297311      1.35878065
H      86      1     -7.32165818     -3.14320754      1.97393087
H      87      1     -9.50747153     -2.24325913      1.26797499
H      88      1    -10.81405073     -0.51221145      0.16326925
H      89      1    -10.93410425      1.62351906     -1.05928548
H      90      1     -8.86844741      2.86373496     -1.58111929
H      91      1     -6.68286143      1.96415681     -0.93553929
H      92      1     -4.24394708      0.36971598      1.98125693
H      93      1     -0.75758700     -0.44708183     -0.32509602
H      94      1      3.10353876      0.54141818     -3.26848259
H      95      1      5.40642492      1.44142528     -3.05821416
H      96      1      6.80767631      0.74260256     -1.14464469
H      97      1      5.92232300     -0.76719038      0.55171538
 [GTO]
           1   0
s              4   1.000000
     36.83593991     -0.01198412
      6.34345366     -0.05472052
      0.50972357      0.58055871
      0.19426827      0.47700800
p              4   1.000000
      5.93707404      0.05713170
      1.53939464      0.28574555
      0.54268425      0.55178730
      0.21605195      0.26323149
s              7   1.000000
      0.38350848     -0.19457014
      0.04707223      0.94009141
      0.02222627      0.24688227
     36.83593991      0.00524288
      6.34345366      0.02393945
      0.50972357     -0.25398614
      0.19426827     -0.20868418
p              7   1.000000
      1.83062075     -0.01151923
      0.10124670      0.56607256
      0.03901771      0.59117872
      5.93707404     -0.02401136
      1.53939464     -0.12009340
      0.54268425     -0.23190566
      0.21605195     -0.11063116
 
           2   0
s              4   1.000000
     36.85333186     -0.01198412
      6.34644870     -0.05472053
      0.50996423      0.58055871
      0.19435999      0.47700800
p              4   1.000000
      5.93987721      0.05713170
      1.54012146      0.28574555
      0.54294047      0.55178730
      0.21615396      0.26323149
s              7   1.000000
      0.38350848     -0.19455599
      0.04707223      0.94002305
      0.02222627      0.24686433
     36.85333186      0.00524051
      6.34644870      0.02392861
      0.50996423     -0.25387115
      0.19435999     -0.20858971
p              7   1.000000
      1.83062075     -0.01151844
      0.10124670      0.56603392
      0.03901771      0.59113834
      5.93987721     -0.02400044
      1.54012146     -0.12003878
      0.54294047     -0.23180019
      0.21615396     -0.11058085
 
           3   0
s              4   1.000000
     36.92175960     -0.01198412
      6.35823252     -0.05472052
      0.51091111      0.58055871
      0.19472087      0.47700800
p              4   1.000000
      5.95090613      0.05713170
      1.54298110      0.28574555
      0.54394858      0.55178731
      0.21655530      0.26323149
s              7   1.000000
      0.38350848     -0.19450050
      0.04707223      0.93975492
      0.02222627      0.24679391
     36.92175960      0.00523119
      6.35823252      0.02388606
      0.51091111     -0.25341972
      0.19472087     -0.20821879
p              7   1.000000
      1.83062075     -0.01151536
      0.10124670      0.56588236
      0.03901771      0.59098008
      5.95090613     -0.02395757
      1.54298110     -0.11982434
      0.54394858     -0.23138611
      0.21655530     -0.11038331
 
           4   0
s              4   1.000000
     36.94791375     -0.01198412
      6.36273648     -0.05472052
      0.51127303      0.58055871
      0.19485880      0.47700799
p              4   1.000000
      5.95512155      0.05713170
      1.54407409      0.28574555
      0.54433390      0.55178731
      0.21670871      0.26323149
s              7   1.000000
      0.38350848     -0.19447936
      0.04707223      0.93965279
      0.02222627      0.24676710
     36.94791375      0.00522763
      6.36273648      0.02386984
      0.51127303     -0.25324759
      0.19485880     -0.20807736
p              7   1.000000
      1.83062075     -0.01151418
      0.10124670      0.56582464
      0.03901771      0.59091980
      5.95512155     -0.02394122
      1.54407409     -0.11974258
      0.54433390     -0.23122822
      0.21670871     -0.11030799
 
           5   0
s              4   1.000000
     36.94946355     -0.01198412
      6.36300337     -0.05472052
      0.51129447      0.58055871
      0.19486698      0.47700799
p              4   1.000000
      5.95537134      0.05713170
      1.54413886      0.28574555
      0.54435673      0.55178731
      0.21671779      0.26323149
s              7   1.000000
      0.38350848     -0.19447811
      0.04707223      0.93964675
      0.02222627      0.24676549
     36.94946355      0.00522742
      6.36300337      0.02386888
      0.51129447     -0.25323740
      0.19486698     -0.20806899
p              7   1.000000
      1.83062075     -0.01151411
      0.10124670      0.56582121
      0.03901771      0.59091620
      5.95537134     -0.02394025
      1.54413886     -0.11973774
      0.54435673     -0.23121887
      0.21671779     -0.11030353
 
           6   0
s              4   1.000000
     37.08747990     -0.01198412
      6.38677093     -0.05472052
      0.51320429      0.58055871
      0.19559486      0.47700799
p              4   1.000000
      5.97761628      0.05713170
      1.54990664      0.28574555
      0.54639005      0.55178731
      0.21752730      0.26323149
s              7   1.000000
      0.38350848     -0.19436724
      0.04707223      0.93911105
      0.02222627      0.24662482
     37.08747990      0.00520875
      6.38677093      0.02378362
      0.51320429     -0.25233287
      0.19559486     -0.20732580
p              7   1.000000
      1.83062075     -0.01150795
      0.10124670      0.56551841
      0.03901771      0.59059999
      5.97761628     -0.02385435
      1.54990664     -0.11930807
      0.54639005     -0.23038917
      0.21752730     -0.10990772
 
           7   0
s              4   1.000000
     61.12335218     -0.01198412
     10.52594702     -0.05472052
      0.84580476      0.58055871
      0.32235713      0.47700799
p              4   1.000000
      7.20473030      0.05713170
      1.86807898      0.28574555
      0.65855565      0.55178731
      0.26218235      0.26323149
s              7   1.000000
      0.47894987     -0.18780650
      0.05878681      0.90741197
      0.02775758      0.23830015
     61.12335218      0.00397474
     10.52594702      0.01814899
      0.84580476     -0.19255217
      0.32235713     -0.15820781
p              7   1.000000
      2.28619608     -0.01156825
      0.12644335      0.56848137
      0.04872781      0.59369434
      7.20473030     -0.02468402
      1.86807898     -0.12345769
      0.65855565     -0.23840227
      0.26218235     -0.11373039
 
           8   0
s              4   1.000000
     35.30061919     -0.01198412
      6.07905872     -0.05472053
      0.48847831      0.58055871
      0.18617117      0.47700799
p              4   1.000000
      5.68961700      0.05713170
      1.47523273      0.28574555
      0.52006519      0.55178731
      0.20704691      0.26323149
s              7   1.000000
      0.38350848     -0.19589315
      0.04707223      0.94648373
      0.02222627      0.24856101
     35.30061919      0.00546101
      6.07905872      0.02493545
      0.48847831     -0.26455329
      0.18617117     -0.21736654
p              7   1.000000
      1.83062075     -0.01159276
      0.10124670      0.56968621
      0.03901771      0.59495261
      5.68961700     -0.02501472
      1.47523273     -0.12511171
      0.52006519     -0.24159626
      0.20704691     -0.11525409
 
           9   0
s              4   1.000000
     34.98595029     -0.01198412
      6.02487014     -0.05472052
      0.48412402      0.58055871
      0.18451165      0.47700800
p              4   1.000000
      5.63889988      0.05713170
      1.46208254      0.28574555
      0.51542934      0.55178730
      0.20520130      0.26323149
s              7   1.000000
      0.38350848     -0.19618355
      0.04707223      0.94788681
      0.02222627      0.24892946
     34.98595029      0.00550793
      6.02487014      0.02514967
      0.48412402     -0.26682604
      0.18451165     -0.21923391
p              7   1.000000
      1.83062075     -0.01160891
      0.10124670      0.57047945
      0.03901771      0.59578103
      5.63889988     -0.02523046
      1.46208254     -0.12619075
      0.51542934     -0.24367993
      0.20520130     -0.11624811
 
          10   0
s              4   1.000000
     37.04887300     -0.01198412
      6.38012250     -0.05472052
      0.51267007      0.58055871
      0.19539125      0.47700799
p              4   1.000000
      5.97139377      0.05713170
      1.54829324      0.28574555
      0.54582128      0.55178731
      0.21730086      0.26323149
s              7   1.000000
      0.38350848     -0.19439814
      0.04707223      0.93926035
      0.02222627      0.24666402
     37.04887300      0.00521396
      6.38012250      0.02380741
      0.51267007     -0.25258526
      0.19539125     -0.20753317
p              7   1.000000
      1.83062075     -0.01150967
      0.10124670      0.56560280
      0.03901771      0.59068811
      5.97139377     -0.02387832
      1.54829324     -0.11942796
      0.54582128     -0.23062068
      0.21730086     -0.11001816
 
          11   0
s              4   1.000000
     34.97550095     -0.01198412
      6.02307067     -0.05472053
      0.48397943      0.58055871
      0.18445654      0.47700799
p              4   1.000000
      5.63721570      0.05713170
      1.46164585      0.28574555
      0.51527539      0.55178731
      0.20514001      0.26323149
s              7   1.000000
      0.38350848     -0.19619331
      0.04707223      0.94793397
      0.02222627      0.24894186
     34.97550095      0.00550950
      6.02307067      0.02515685
      0.48397943     -0.26690217
      0.18445654     -0.21929645
p              7   1.000000
      1.83062075     -0.01160945
      0.10124670      0.57050612
      0.03901771      0.59580890
      5.63721570     -0.02523769
      1.46164585     -0.12622690
      0.51527539     -0.24374973
      0.20514001     -0.11628141
 
          12   0
s              4   1.000000
     34.96790050     -0.01198412
      6.02176181     -0.05472052
      0.48387426      0.58055871
      0.18441646      0.47700799
p              4   1.000000
      5.63599069      0.05713170
      1.46132823      0.28574555
      0.51516342      0.55178730
      0.20509543      0.26323149
s              7   1.000000
      0.38350848     -0.19620042
      0.04707223      0.94796831
      0.02222627      0.24895088
     34.96790050      0.00551064
      6.02176181      0.02516207
      0.48387426     -0.26695757
      0.18441646     -0.21934197
p              7   1.000000
      1.83062075     -0.01160984
      0.10124670      0.57052554
      0.03901771      0.59582917
      5.63599069     -0.02524295
      1.46132823     -0.12625320
      0.51516342     -0.24380052
      0.20509543     -0.11630563
 
          13   0
s              4   1.000000
     37.25011353     -0.01198412
      6.41477778     -0.05472052
      0.51545477      0.58055871
      0.19645257      0.47700799
p              4   1.000000
      6.00382894      0.05713170
      1.55670319      0.28574555
      0.54878605      0.55178731
      0.21848118      0.26323149
s              7   1.000000
      0.38350848     -0.19423799
      0.04707223      0.93848660
      0.02222627      0.24646083
     37.25011353      0.00518692
      6.41477778      0.02368391
      0.51545477     -0.25127504
      0.19645257     -0.20645664
p              7   1.000000
      1.83062075     -0.01150077
      0.10124670      0.56516545
      0.03901771      0.59023136
      6.00382894     -0.02375387
      1.55670319     -0.11880556
      0.54878605     -0.22941879
      0.21848118     -0.10944480
 
          14   0
s              4   1.000000
     35.44738709     -0.01198412
      6.10433337     -0.05472052
      0.49050923      0.58055871
      0.18694521      0.47700799
p              4   1.000000
      5.71327248      0.05713170
      1.48136624      0.28574555
      0.52222744      0.55178731
      0.20790774      0.26323149
s              7   1.000000
      0.38350848     -0.19576005
      0.04707223      0.94584062
      0.02222627      0.24839211
     35.44738709      0.00543940
      6.10433337      0.02483676
      0.49050923     -0.26350617
      0.18694521     -0.21650617
p              7   1.000000
      1.83062075     -0.01158537
      0.10124670      0.56932262
      0.03901771      0.59457289
      5.71327248     -0.02491531
      1.48136624     -0.12461453
      0.52222744     -0.24063617
      0.20790774     -0.11479608
 
          15   0
s              4   1.000000
     35.05562745     -0.01198412
      6.03686912     -0.05472053
      0.48508819      0.58055871
      0.18487912      0.47700799
p              4   1.000000
      5.65013018      0.05713170
      1.46499439      0.28574555
      0.51645586      0.55178731
      0.20560998      0.26323149
s              7   1.000000
      0.38350848     -0.19611865
      0.04707223      0.94757322
      0.02222627      0.24884712
     35.05562745      0.00549747
      6.03686912      0.02510193
      0.48508819     -0.26631949
      0.18487912     -0.21881771
p              7   1.000000
      1.83062075     -0.01160530
      0.10124670      0.57030217
      0.03901771      0.59559590
      5.65013018     -0.02518238
      1.46499439     -0.12595027
      0.51645586     -0.24321554
      0.20560998     -0.11602657
 
          16   0
s              4   1.000000
     35.11495807     -0.01198412
      6.04708634     -0.05472053
      0.48590919      0.58055871
      0.18519202      0.47700800
p              4   1.000000
      5.65969286      0.05713170
      1.46747384      0.28574555
      0.51732994      0.55178731
      0.20595796      0.26323149
s              7   1.000000
      0.38350848     -0.19606365
      0.04707223      0.94730752
      0.02222627      0.24877733
     35.11495807      0.00548860
      6.04708634      0.02506141
      0.48590919     -0.26588965
      0.18519202     -0.21846453
p              7   1.000000
      1.83062075     -0.01160224
      0.10124670      0.57015195
      0.03901771      0.59543901
      5.65969286     -0.02514158
      1.46747384     -0.12574619
      0.51732994     -0.24282146
      0.20595796     -0.11583858
 
          17   0
s              4   1.000000
     35.14281147     -0.01198412
      6.05188293     -0.05472052
      0.48629462      0.58055871
      0.18533891      0.47700799
p              4   1.000000
      5.66418216      0.05713170
      1.46863785      0.28574555
      0.51774029      0.55178731
      0.20612133      0.26323149
s              7   1.000000
      0.38350848     -0.19603792
      0.04707223      0.94718319
      0.02222627      0.24874469
     35.14281147      0.00548444
      6.05188293      0.02504244
      0.48629462     -0.26568832
      0.18533891     -0.21829911
p              7   1.000000
      1.83062075     -0.01160081
      0.10124670      0.57008165
      0.03901771      0.59536559
      5.66418216     -0.02512247
      1.46863785     -0.12565061
      0.51774029     -0.24263689
      0.20612133     -0.11575052
 
          18   0
s              4   1.000000
     35.02700899     -0.01198412
      6.03194078     -0.05472052
      0.48469218      0.58055871
      0.18472819      0.47700799
p              4   1.000000
      5.64551757      0.05713170
      1.46379840      0.28574555
      0.51603423      0.55178731
      0.20544212      0.26323149
s              7   1.000000
      0.38350848     -0.19614526
      0.04707223      0.94770182
      0.02222627      0.24888088
     35.02700899      0.00550176
      6.03194078      0.02512152
      0.48469218     -0.26652732
      0.18472819     -0.21898846
p              7   1.000000
      1.83062075     -0.01160678
      0.10124670      0.57037486
      0.03901771      0.59567184
      5.64551757     -0.02520211
      1.46379840     -0.12604893
      0.51603423     -0.24340607
      0.20544212     -0.11611747
 
          19   0
s              4   1.000000
     34.89881535     -0.01198412
      6.00986478     -0.05472052
      0.48291828      0.58055871
      0.18405211      0.47700799
p              4   1.000000
      5.62485581      0.05713170
      1.45844112      0.28574555
      0.51414563      0.55178731
      0.20469023      0.26323149
s              7   1.000000
      0.38350848     -0.19626520
      0.04707223      0.94828130
      0.02222627      0.24903307
     34.89881535      0.00552106
      6.00986478      0.02520963
      0.48291828     -0.26746217
      0.18405211     -0.21975657
p              7   1.000000
      1.83062075     -0.01161345
      0.10124670      0.57070248
      0.03901771      0.59601397
      5.62485581     -0.02529085
      1.45844112     -0.12649276
      0.51414563     -0.24426311
      0.20469023     -0.11652632
 
          20   0
s              4   1.000000
     34.99236294     -0.01198412
      6.02597445     -0.05472052
      0.48421276      0.58055871
      0.18454547      0.47700799
p              4   1.000000
      5.63993345      0.05713170
      1.46235053      0.28574555
      0.51552381      0.55178731
      0.20523891      0.26323149
s              7   1.000000
      0.38350848     -0.19617756
      0.04707223      0.94785787
      0.02222627      0.24892187
     34.99236294      0.00550696
      6.02597445      0.02514527
      0.48421276     -0.26677934
      0.18454547     -0.21919553
p              7   1.000000
      1.83062075     -0.01160857
      0.10124670      0.57046310
      0.03901771      0.59576396
      5.63993345     -0.02522603
      1.46235053     -0.12616858
      0.51552381     -0.24363712
      0.20523891     -0.11622769
 
          21   0
s              4   1.000000
     35.17159238     -0.01198412
      6.05683924     -0.05472052
      0.48669288      0.58055871
      0.18549070      0.47700799
p              4   1.000000
      5.66882096      0.05713170
      1.46984063      0.28574555
      0.51816430      0.55178731
      0.20629014      0.26323149
s              7   1.000000
      0.38350848     -0.19601139
      0.04707223      0.94705500
      0.02222627      0.24871103
     35.17159238      0.00548015
      6.05683924      0.02502286
      0.48669288     -0.26548060
      0.18549070     -0.21812845
p              7   1.000000
      1.83062075     -0.01159934
      0.10124670      0.57000917
      0.03901771      0.59528993
      5.66882096     -0.02510275
      1.46984063     -0.12555199
      0.51816430     -0.24244645
      0.20629014     -0.11565967
 
          22   0
s              4   1.000000
     35.00171046     -0.01198412
      6.02758417     -0.05472052
      0.48434211      0.58055871
      0.18459476      0.47700800
p              4   1.000000
      5.64144005      0.05713170
      1.46274116      0.28574555
      0.51566152      0.55178731
      0.20529374      0.26323149
s              7   1.000000
      0.38350848     -0.19616884
      0.04707223      0.94781574
      0.02222627      0.24891081
     35.00171046      0.00550556
      6.02758417      0.02513886
      0.48434211     -0.26671130
      0.18459476     -0.21913963
p              7   1.000000
      1.83062075     -0.01160809
      0.10124670      0.57043927
      0.03901771      0.59573908
      5.64144005     -0.02521957
      1.46274116     -0.12613628
      0.51566152     -0.24357474
      0.20529374     -0.11619793
 
          23   0
s              4   1.000000
     34.90867504     -0.01198412
      6.01156270     -0.05472052
      0.48305471      0.58055871
      0.18410411      0.47700800
p              4   1.000000
      5.62644496      0.05713170
      1.45885316      0.28574555
      0.51429088      0.55178731
      0.20474806      0.26323149
s              7   1.000000
      0.38350848     -0.19625593
      0.04707223      0.94823652
      0.02222627      0.24902130
     34.90867504      0.00551957
      6.01156270      0.02520283
      0.48305471     -0.26739004
      0.18410411     -0.21969731
p              7   1.000000
      1.83062075     -0.01161293
      0.10124670      0.57067718
      0.03901771      0.59598756
      5.62644496     -0.02528400
      1.45885316     -0.12645851
      0.51429088     -0.24419699
      0.20474806     -0.11649477
 
          24   0
s              4   1.000000
     34.93109974     -0.01198412
      6.01542442     -0.05472052
      0.48336502      0.58055871
      0.18422237      0.47700799
p              4   1.000000
      5.63005928      0.05713170
      1.45979030      0.28574555
      0.51462125      0.55178731
      0.20487959      0.26323149
s              7   1.000000
      0.38350848     -0.19623488
      0.04707223      0.94813483
      0.02222627      0.24899461
     34.93109974      0.00551618
      6.01542442      0.02518738
      0.48336502     -0.26722613
      0.18422237     -0.21956263
p              7   1.000000
      1.83062075     -0.01161176
      0.10124670      0.57061968
      0.03901771      0.59592748
      5.63005928     -0.02526844
      1.45979030     -0.12638070
      0.51462125     -0.24404672
      0.20487959     -0.11642309
 
          25   0
s              4   1.000000
     35.02965737     -0.01198412
      6.03239686     -0.05472052
      0.48472883      0.58055871
      0.18474215      0.47700799
p              4   1.000000
      5.64594442      0.05713170
      1.46390908      0.28574555
      0.51607325      0.55178730
      0.20545765      0.26323149
s              7   1.000000
      0.38350848     -0.19614280
      0.04707223      0.94768991
      0.02222627      0.24887776
     35.02965737      0.00550136
      6.03239686      0.02511970
      0.48472883     -0.26650807
      0.18474215     -0.21897265
p              7   1.000000
      1.83062075     -0.01160664
      0.10124670      0.57036813
      0.03901771      0.59566480
      5.64594442     -0.02520028
      1.46390908     -0.12603980
      0.51607325     -0.24338843
      0.20545765     -0.11610905
 
          26   0
s              4   1.000000
     35.22198882     -0.01198412
      6.06551792     -0.05472052
      0.48739025      0.58055871
      0.18575649      0.47700799
p              4   1.000000
      5.67694366      0.05713170
      1.47194672      0.28574555
      0.51890677      0.55178731
      0.20658573      0.26323149
s              7   1.000000
      0.38350848     -0.19596507
      0.04707223      0.94683120
      0.02222627      0.24865224
     35.22198882      0.00547266
      6.06551792      0.02498865
      0.48739025     -0.26511765
      0.18575649     -0.21783023
p              7   1.000000
      1.83062075     -0.01159676
      0.10124670      0.56988265
      0.03901771      0.59515776
      5.67694366     -0.02506829
      1.47194672     -0.12537966
      0.51890677     -0.24211368
      0.20658573     -0.11550093
 
          27   0
s              4   1.000000
     35.04177927     -0.01198412
      6.03448435     -0.05472052
      0.48489657      0.58055871
      0.18480608      0.47700799
p              4   1.000000
      5.64789818      0.05713170
      1.46441566      0.28574555
      0.51625184      0.55178731
      0.20552875      0.26323149
s              7   1.000000
      0.38350848     -0.19613152
      0.04707223      0.94763542
      0.02222627      0.24886345
     35.04177927      0.00549954
      6.03448435      0.02511140
      0.48489657     -0.26642001
      0.18480608     -0.21890030
p              7   1.000000
      1.83062075     -0.01160601
      0.10124670      0.57033732
      0.03901771      0.59563264
      5.64789818     -0.02519192
      1.46441566     -0.12599799
      0.51625184     -0.24330770
      0.20552875     -0.11607054
 
          28   0
s              4   1.000000
     34.94915227     -0.01198412
      6.01853321     -0.05472052
      0.48361482      0.58055871
      0.18431758      0.47700799
p              4   1.000000
      5.63296892      0.05713170
      1.46054473      0.28574555
      0.51488721      0.55178731
      0.20498547      0.26323149
s              7   1.000000
      0.38350848     -0.19621796
      0.04707223      0.94805308
      0.02222627      0.24897313
     34.94915227      0.00551346
      6.01853321      0.02517496
      0.48361482     -0.26709432
      0.18431758     -0.21945433
p              7   1.000000
      1.83062075     -0.01161082
      0.10124670      0.57057346
      0.03901771      0.59587922
      5.63296892     -0.02525593
      1.46054473     -0.12631812
      0.51488721     -0.24392588
      0.20498547     -0.11636545
 
          29   0
s              4   1.000000
     35.35162918     -0.01198412
      6.08784307     -0.05472052
      0.48918417      0.58055871
      0.18644019      0.47700800
p              4   1.000000
      5.69783859      0.05713170
      1.47736446      0.28574555
      0.52081669      0.55178731
      0.20734610      0.26323149
s              7   1.000000
      0.38350848     -0.19584672
      0.04707223      0.94625940
      0.02222627      0.24850209
     35.35162918      0.00545348
      6.08784307      0.02490106
      0.48918417     -0.26418844
      0.18644019     -0.21706675
p              7   1.000000
      1.83062075     -0.01159018
      0.10124670      0.56955938
      0.03901771      0.59482016
      5.69783859     -0.02498008
      1.47736446     -0.12493848
      0.52081669     -0.24126173
      0.20734610     -0.11509450
 
          30   0
s              4   1.000000
     35.34684644     -0.01198412
      6.08701944     -0.05472052
      0.48911798      0.58055871
      0.18641497      0.47700799
p              4   1.000000
      5.69706773      0.05713170
      1.47716459      0.28574555
      0.52074623      0.55178731
      0.20731805      0.26323149
s              7   1.000000
      0.38350848     -0.19585107
      0.04707223      0.94628040
      0.02222627      0.24850760
     35.34684644      0.00545419
      6.08701944      0.02490428
      0.48911798     -0.26422260
      0.18641497     -0.21709483
p              7   1.000000
      1.83062075     -0.01159043
      0.10124670      0.56957125
      0.03901771      0.59483258
      5.69706773     -0.02498333
      1.47716459     -0.12495470
      0.52074623     -0.24129306
      0.20731805     -0.11510945
 
          31   0
s              4   1.000000
     34.94598254     -0.01198412
      6.01798736     -0.05472052
      0.48357096      0.58055871
      0.18430086      0.47700800
p              4   1.000000
      5.63245804      0.05713170
      1.46041226      0.28574555
      0.51484052      0.55178731
      0.20496688      0.26323149
s              7   1.000000
      0.38350848     -0.19622093
      0.04707223      0.94806743
      0.02222627      0.24897689
     34.94598254      0.00551394
      6.01798736      0.02517714
      0.48357096     -0.26711745
      0.18430086     -0.21947334
p              7   1.000000
      1.83062075     -0.01161098
      0.10124670      0.57058158
      0.03901771      0.59588771
      5.63245804     -0.02525812
      1.46041226     -0.12632910
      0.51484052     -0.24394709
      0.20496688     -0.11637556
 
          32   0
s              4   1.000000
     35.02170456     -0.01198412
      6.03102732     -0.05472053
      0.48461878      0.58055871
      0.18470021      0.47700800
p              4   1.000000
      5.64466262      0.05713170
      1.46357673      0.28574555
      0.51595609      0.55178731
      0.20541101      0.26323149
s              7   1.000000
      0.38350848     -0.19615020
      0.04707223      0.94772568
      0.02222627      0.24888716
     35.02170456      0.00550256
      6.03102732      0.02512515
      0.48461878     -0.26656587
      0.18470021     -0.21902014
p              7   1.000000
      1.83062075     -0.01160705
      0.10124670      0.57038836
      0.03901771      0.59568592
      5.64466262     -0.02520577
      1.46357673     -0.12606724
      0.51595609     -0.24344142
      0.20541101     -0.11613433
 
          33   0
s              4   1.000000
     35.11834124     -0.01198412
      6.04766895     -0.05472053
      0.48595601      0.58055871
      0.18520986      0.47700799
p              4   1.000000
      5.66023814      0.05713170
      1.46761523      0.28574555
      0.51737978      0.55178730
      0.20597781      0.26323149
s              7   1.000000
      0.38350848     -0.19606052
      0.04707223      0.94729240
      0.02222627      0.24877336
     35.11834124      0.00548809
      6.04766895      0.02505911
      0.48595601     -0.26586518
      0.18520986     -0.21844443
p              7   1.000000
      1.83062075     -0.01160207
      0.10124670      0.57014340
      0.03901771      0.59543007
      5.66023814     -0.02513925
      1.46761523     -0.12573457
      0.51737978     -0.24279903
      0.20597781     -0.11582787
 
          34   0
s              4   1.000000
     35.15030085     -0.01198412
      6.05317266     -0.05472052
      0.48639825      0.58055871
      0.18537841      0.47700799
p              4   1.000000
      5.66538927      0.05713170
      1.46895084      0.28574555
      0.51785063      0.55178731
      0.20616526      0.26323149
s              7   1.000000
      0.38350848     -0.19603101
      0.04707223      0.94714982
      0.02222627      0.24873592
     35.15030085      0.00548332
      6.05317266      0.02503734
      0.48639825     -0.26563424
      0.18537841     -0.21825468
p              7   1.000000
      1.83062075     -0.01160043
      0.10124670      0.57006278
      0.03901771      0.59534588
      5.66538927     -0.02511733
      1.46895084     -0.12562493
      0.51785063     -0.24258730
      0.20616526     -0.11572687
 
          35   0
s              4   1.000000
     35.01677655     -0.01198412
      6.03017867     -0.05472053
      0.48455059      0.58055871
      0.18467422      0.47700799
p              4   1.000000
      5.64386834      0.05713170
      1.46337078      0.28574555
      0.51588349      0.55178731
      0.20538211      0.26323149
s              7   1.000000
      0.38350848     -0.19615479
      0.04707223      0.94774787
      0.02222627      0.24889299
     35.01677655      0.00550330
      6.03017867      0.02512853
      0.48455059     -0.26660170
      0.18467422     -0.21904958
p              7   1.000000
      1.83062075     -0.01160731
      0.10124670      0.57040090
      0.03901771      0.59569903
      5.64386834     -0.02520917
      1.46337078     -0.12608425
      0.51588349     -0.24347427
      0.20538211     -0.11615000
 
          36   0
s              4   1.000000
     34.89891400     -0.01198412
      6.00988177     -0.05472052
      0.48291964      0.58055871
      0.18405263      0.47700800
p              4   1.000000
      5.62487171      0.05713170
      1.45844524      0.28574555
      0.51414708      0.55178731
      0.20469081      0.26323149
s              7   1.000000
      0.38350848     -0.19626510
      0.04707223      0.94828085
      0.02222627      0.24903295
     34.89891400      0.00552104
      6.00988177      0.02520956
      0.48291964     -0.26746145
      0.18405263     -0.21975598
p              7   1.000000
      1.83062075     -0.01161344
      0.10124670      0.57070224
      0.03901771      0.59601369
      5.62487171     -0.02529078
      1.45844524     -0.12649241
      0.51414708     -0.24426245
      0.20469081     -0.11652600
 
          37   0
s              4   1.000000
     34.98600295     -0.01198412
      6.02487921     -0.05472053
      0.48412475      0.58055871
      0.18451193      0.47700799
p              4   1.000000
      5.63890837      0.05713170
      1.46208474      0.28574555
      0.51543011      0.55178731
      0.20520161      0.26323149
s              7   1.000000
      0.38350848     -0.19618350
      0.04707223      0.94788657
      0.02222627      0.24892941
     34.98600295      0.00550792
      6.02487921      0.02514964
      0.48412475     -0.26682566
      0.18451193     -0.21923359
p              7   1.000000
      1.83062075     -0.01160890
      0.10124670      0.57047931
      0.03901771      0.59578091
      5.63890837     -0.02523043
      1.46208474     -0.12619057
      0.51543011     -0.24367958
      0.20520161     -0.11624795
 
          38   0
s              4   1.000000
     35.15898116     -0.01198412
      6.05466748     -0.05472052
      0.48651837      0.58055871
      0.18542419      0.47700799
p              4   1.000000
      5.66678833      0.05713170
      1.46931360      0.28574555
      0.51797851      0.55178731
      0.20621617      0.26323149
s              7   1.000000
      0.38350848     -0.19602301
      0.04707223      0.94711113
      0.02222627      0.24872576
     35.15898116      0.00548203
      6.05466748      0.02503143
      0.48651837     -0.26557158
      0.18542419     -0.21820320
p              7   1.000000
      1.83062075     -0.01159998
      0.10124670      0.57004091
      0.03901771      0.59532307
      5.66678833     -0.02511139
      1.46931360     -0.12559518
      0.51797851     -0.24252986
      0.20621617     -0.11569947
 
          39   0
s              4   1.000000
     34.99020593     -0.01198412
      6.02560299     -0.05472052
      0.48418291      0.58055871
      0.18453409      0.47700799
p              4   1.000000
      5.63958579      0.05713170
      1.46226038      0.28574555
      0.51549203      0.55178730
      0.20522626      0.26323149
s              7   1.000000
      0.38350848     -0.19617957
      0.04707223      0.94786761
      0.02222627      0.24892443
     34.99020593      0.00550729
      6.02560299      0.02514675
      0.48418291     -0.26679505
      0.18453409     -0.21920844
p              7   1.000000
      1.83062075     -0.01160869
      0.10124670      0.57046860
      0.03901771      0.59576970
      5.63958579     -0.02522752
      1.46226038     -0.12617604
      0.51549203     -0.24365152
      0.20522626     -0.11623455
 
          40   0
s              4   1.000000
     34.90331411     -0.01198412
      6.01063950     -0.05472053
      0.48298053      0.58055871
      0.18407583      0.47700799
p              4   1.000000
      5.62558090      0.05713170
      1.45862913      0.28574555
      0.51421190      0.55178731
      0.20471662      0.26323149
s              7   1.000000
      0.38350848     -0.19626097
      0.04707223      0.94826086
      0.02222627      0.24902771
     34.90331411      0.00552038
      6.01063950      0.02520653
      0.48298053     -0.26742925
      0.18407583     -0.21972953
p              7   1.000000
      1.83062075     -0.01161321
      0.10124670      0.57069094
      0.03901771      0.59600192
      5.62558090     -0.02528772
      1.45862913     -0.12647713
      0.51421190     -0.24423293
      0.20471662     -0.11651192
 
          41   0
s              4   1.000000
     34.90897371     -0.01198412
      6.01161413     -0.05472052
      0.48305885      0.58055871
      0.18410568      0.47700800
p              4   1.000000
      5.62649310      0.05713170
      1.45886564      0.28574555
      0.51429528      0.55178731
      0.20474982      0.26323149
s              7   1.000000
      0.38350848     -0.19625565
      0.04707223      0.94823517
      0.02222627      0.24902096
     34.90897371      0.00551952
      6.01161413      0.02520263
      0.48305885     -0.26738785
      0.18410568     -0.21969551
p              7   1.000000
      1.83062075     -0.01161291
      0.10124670      0.57067641
      0.03901771      0.59598675
      5.62649310     -0.02528379
      1.45886564     -0.12645748
      0.51429528     -0.24419498
      0.20474982     -0.11649381
 
          42   0
s              4   1.000000
     34.99751073     -0.01198412
      6.02686094     -0.05472052
      0.48428399      0.58055871
      0.18457262      0.47700800
p              4   1.000000
      5.64076315      0.05713170
      1.46256565      0.28574555
      0.51559965      0.55178731
      0.20526911      0.26323149
s              7   1.000000
      0.38350848     -0.19617276
      0.04707223      0.94783466
      0.02222627      0.24891578
     34.99751073      0.00550619
      6.02686094      0.02514174
      0.48428399     -0.26674186
      0.18457262     -0.21916474
p              7   1.000000
      1.83062075     -0.01160831
      0.10124670      0.57044997
      0.03901771      0.59575024
      5.64076315     -0.02522247
      1.46256565     -0.12615079
      0.51559965     -0.24360277
      0.20526911     -0.11621130
 
          43   0
s              4   1.000000
     35.21997847     -0.01198412
      6.06517172     -0.05472052
      0.48736243      0.58055871
      0.18574588      0.47700799
p              4   1.000000
      5.67661964      0.05713170
      1.47186271      0.28574555
      0.51887715      0.55178731
      0.20657393      0.26323149
s              7   1.000000
      0.38350848     -0.19596692
      0.04707223      0.94684012
      0.02222627      0.24865458
     35.21997847      0.00547296
      6.06517172      0.02499001
      0.48736243     -0.26513211
      0.18574588     -0.21784211
p              7   1.000000
      1.83062075     -0.01159686
      0.10124670      0.56988769
      0.03901771      0.59516302
      5.67661964     -0.02506967
      1.47186271     -0.12538653
      0.51887715     -0.24212694
      0.20657393     -0.11550725
 
          44   0
s              4   1.000000
     35.04270131     -0.01198412
      6.03464313     -0.05472052
      0.48490933      0.58055871
      0.18481095      0.47700799
p              4   1.000000
      5.64804679      0.05713170
      1.46445420      0.28574555
      0.51626542      0.55178731
      0.20553416      0.26323149
s              7   1.000000
      0.38350848     -0.19613066
      0.04707223      0.94763127
      0.02222627      0.24886235
     35.04270131      0.00549941
      6.03464313      0.02511077
      0.48490933     -0.26641332
      0.18481095     -0.21889480
p              7   1.000000
      1.83062075     -0.01160597
      0.10124670      0.57033498
      0.03901771      0.59563017
      5.64804679     -0.02519129
      1.46445420     -0.12599481
      0.51626542     -0.24330156
      0.20553416     -0.11606761
 
          45   0
s              4   1.000000
     35.40878071     -0.01198412
      6.09768503     -0.05472052
      0.48997501      0.58055871
      0.18674160      0.47700799
p              4   1.000000
      5.70705005      0.05713170
      1.47975286      0.28574555
      0.52165867      0.55178730
      0.20768131      0.26323149
s              7   1.000000
      0.38350848     -0.19579492
      0.04707223      0.94600910
      0.02222627      0.24843635
     35.40878071      0.00544507
      6.09768503      0.02486264
      0.48997501     -0.26378082
      0.18674160     -0.21673184
p              7   1.000000
      1.83062075     -0.01158730
      0.10124670      0.56941787
      0.03901771      0.59467237
      5.70705005     -0.02494139
      1.47975286     -0.12474494
      0.52165867     -0.24088800
      0.20768131     -0.11491621
 
          46   0
s              4   1.000000
     35.24254672     -0.01198412
      6.06905817     -0.05472052
      0.48767472      0.58055871
      0.18586491      0.47700799
p              4   1.000000
      5.68025710      0.05713170
      1.47280585      0.28574555
      0.51920964      0.55178731
      0.20670630      0.26323149
s              7   1.000000
      0.38350848     -0.19594623
      0.04707223      0.94674015
      0.02222627      0.24862833
     35.24254672      0.00546961
      6.06905817      0.02497472
      0.48767472     -0.26496987
      0.18586491     -0.21770881
p              7   1.000000
      1.83062075     -0.01159571
      0.10124670      0.56983118
      0.03901771      0.59510404
      5.68025710     -0.02505427
      1.47280585     -0.12530950
      0.51920964     -0.24197819
      0.20670630     -0.11543629
 
          47   0
s              4   1.000000
     35.05741224     -0.01198412
      6.03717648     -0.05472052
      0.48511289      0.58055871
      0.18488853      0.47700799
p              4   1.000000
      5.65041784      0.05713170
      1.46506897      0.28574555
      0.51648215      0.55178731
      0.20562044      0.26323149
s              7   1.000000
      0.38350848     -0.19611699
      0.04707223      0.94756521
      0.02222627      0.24884502
     35.05741224      0.00549720
      6.03717648      0.02510071
      0.48511289     -0.26630654
      0.18488853     -0.21880707
p              7   1.000000
      1.83062075     -0.01160521
      0.10124670      0.57029763
      0.03901771      0.59559117
      5.65041784     -0.02518115
      1.46506897     -0.12594412
      0.51648215     -0.24320367
      0.20562044     -0.11602091
 
          48   0
s              4   1.000000
     12.20231768     -0.03295496
      3.43709320     -0.17245169
      0.61632426      0.75185111
      0.30323405      0.35896273
p              4   1.000000
      7.04605925     -0.01434249
      0.72813948      0.27551776
      0.32909417      0.58467508
      0.15909138      0.21449865
s              7   1.000000
      0.16124732     -0.33764846
      0.03162593      1.06540179
      0.01560824      0.12669565
     12.20231768      0.00422694
      3.43709320      0.02211936
      0.61632426     -0.09643549
      0.30323405     -0.04604202
p              7   1.000000
      0.34551743     -0.06467583
      0.05282782      0.69476679
      0.02597475      0.41371839
      7.04605925      0.00468561
      0.72813948     -0.09001004
      0.32909417     -0.19100993
      0.15909138     -0.07007545
 
          49   0
s              4   1.000000
     35.09038097     -0.01198412
      6.04285396     -0.05472053
      0.48556910      0.58055871
      0.18506240      0.47700799
p              4   1.000000
      5.65573162      0.05713170
      1.46644675      0.28574555
      0.51696786      0.55178731
      0.20581381      0.26323149
s              7   1.000000
      0.38350848     -0.19608641
      0.04707223      0.94741744
      0.02222627      0.24880619
     35.09038097      0.00549227
      6.04285396      0.02507818
      0.48556910     -0.26606754
      0.18506240     -0.21861070
p              7   1.000000
      1.83062075     -0.01160351
      0.10124670      0.57021409
      0.03901771      0.59550391
      5.65573162     -0.02515846
      1.46644675     -0.12583065
      0.51696786     -0.24298455
      0.20581381     -0.11591638
 
          50   0
s              4   1.000000
     35.13161496     -0.01198412
      6.04995480     -0.05472052
      0.48613968      0.58055871
      0.18527987      0.47700800
p              4   1.000000
      5.66237755      0.05713170
      1.46816995      0.28574555
      0.51757534      0.55178731
      0.20605566      0.26323149
s              7   1.000000
      0.38350848     -0.19604826
      0.04707223      0.94723313
      0.02222627      0.24875781
     35.13161496      0.00548611
      6.04995480      0.02505006
      0.48613968     -0.26576921
      0.18527987     -0.21836558
p              7   1.000000
      1.83062075     -0.01160139
      0.10124670      0.57010989
      0.03901771      0.59539508
      5.66237755     -0.02513015
      1.46816995     -0.12568901
      0.51757534     -0.24271105
      0.20605566     -0.11578590
 
          51   0
s              4   1.000000
     34.92945531     -0.01198412
      6.01514123     -0.05472052
      0.48334226      0.58055871
      0.18421370      0.47700800
p              4   1.000000
      5.62979424      0.05713170
      1.45972158      0.28574555
      0.51459703      0.55178731
      0.20486994      0.26323149
s              7   1.000000
      0.38350848     -0.19623642
      0.04707223      0.94814228
      0.02222627      0.24899656
     34.92945531      0.00551643
      6.01514123      0.02518851
      0.48334226     -0.26723814
      0.18421370     -0.21957250
p              7   1.000000
      1.83062075     -0.01161185
      0.10124670      0.57062389
      0.03901771      0.59593189
      5.62979424     -0.02526958
      1.45972158     -0.12638640
      0.51459703     -0.24405773
      0.20486994     -0.11642834
 
          52   0
s              4   1.000000
     34.93419616     -0.01198412
      6.01595765     -0.05472052
      0.48340787      0.58055871
      0.18423870      0.47700799
p              4   1.000000
      5.63055835      0.05713170
      1.45991970      0.28574555
      0.51466687      0.55178731
      0.20489775      0.26323149
s              7   1.000000
      0.38350848     -0.19623198
      0.04707223      0.94812080
      0.02222627      0.24899090
     34.93419616      0.00551572
      6.01595765      0.02518525
      0.48340787     -0.26720351
      0.18423870     -0.21954405
p              7   1.000000
      1.83062075     -0.01161160
      0.10124670      0.57061174
      0.03901771      0.59591923
      5.63055835     -0.02526629
      1.45991970     -0.12636996
      0.51466687     -0.24402599
      0.20489775     -0.11641320
 
          53   0
s              4   1.000000
     35.03833587     -0.01198412
      6.03389137     -0.05472052
      0.48484892      0.58055871
      0.18478792      0.47700799
p              4   1.000000
      5.64734319      0.05713170
      1.46427176      0.28574555
      0.51620111      0.55178731
      0.20550856      0.26323149
s              7   1.000000
      0.38350848     -0.19613472
      0.04707223      0.94765089
      0.02222627      0.24886752
     35.03833587      0.00550006
      6.03389137      0.02511376
      0.48484892     -0.26644502
      0.18478792     -0.21892085
p              7   1.000000
      1.83062075     -0.01160619
      0.10124670      0.57034607
      0.03901771      0.59564174
      5.64734319     -0.02519430
      1.46427176     -0.12600987
      0.51620111     -0.24333063
      0.20550856     -0.11608147
 
          54   0
s              4   1.000000
     35.38571644     -0.01198412
      6.09371318     -0.05472052
      0.48965585      0.58055871
      0.18661997      0.47700800
p              4   1.000000
      5.70333264      0.05713170
      1.47878899      0.28574555
      0.52131888      0.55178731
      0.20754603      0.26323149
s              7   1.000000
      0.38350848     -0.19581580
      0.04707223      0.94610998
      0.02222627      0.24846285
     35.38571644      0.00544846
      6.09371318      0.02487814
      0.48965585     -0.26394517
      0.18661997     -0.21686688
p              7   1.000000
      1.83062075     -0.01158846
      0.10124670      0.56947490
      0.03901771      0.59473197
      5.70333264     -0.02495699
      1.47878899     -0.12482297
      0.52131888     -0.24103869
      0.20754603     -0.11498810
 
          55   0
s              4   1.000000
      8.30591580      0.05675242
      1.51988026      0.26014135
      0.42223938      0.53284611
      0.14013745      0.29162544
s              7   1.000000
      0.92936822     -0.06733233
      0.05643440      0.66949420
      0.02166600      0.51464446
      8.30591580     -0.02903082
      1.51988026     -0.13307130
      0.42223938     -0.27256921
      0.14013745     -0.14917650
p              4   1.000000
      0.64737396      0.05713170
      0.16785440      0.28574555
      0.05917387      0.55178731
      0.02355814      0.26323150
 
          56   0
s              4   1.000000
      8.30624819      0.05675242
      1.51994108      0.26014135
      0.42225628      0.53284611
      0.14014306      0.29162544
s              7   1.000000
      0.92936822     -0.06733190
      0.05643440      0.66948994
      0.02166600      0.51464121
      8.30624819     -0.02902994
      1.51994108     -0.13306722
      0.42225628     -0.27256085
      0.14014306     -0.14917192
p              4   1.000000
      0.64737396      0.05713170
      0.16785440      0.28574555
      0.05917387      0.55178731
      0.02355814      0.26323150
 
          57   0
s              4   1.000000
      8.30570225      0.05675242
      1.51984118      0.26014135
      0.42222852      0.53284611
      0.14013385      0.29162544
s              7   1.000000
      0.92936822     -0.06733260
      0.05643440      0.66949692
      0.02166600      0.51464657
      8.30570225     -0.02903140
      1.51984118     -0.13307392
      0.42222852     -0.27257457
      0.14013385     -0.14917943
p              4   1.000000
      0.64737396      0.05713170
      0.16785440      0.28574555
      0.05917387      0.55178731
      0.02355814      0.26323150
 
          58   0
s              4   1.000000
      8.30794496      0.05675242
      1.52025157      0.26014135
      0.42234253      0.53284611
      0.14017169      0.29162544
s              7   1.000000
      0.92936822     -0.06732971
      0.05643440      0.66946822
      0.02166600      0.51462451
      8.30794496     -0.02902539
      1.52025157     -0.13304640
      0.42234253     -0.27251822
      0.14017169     -0.14914859
p              4   1.000000
      0.64737396      0.05713170
      0.16785440      0.28574555
      0.05917387      0.55178731
      0.02355814      0.26323150
 
          59   0
s              4   1.000000
      8.30801857      0.05675242
      1.52026504      0.26014135
      0.42234627      0.53284611
      0.14017293      0.29162544
s              7   1.000000
      0.92936822     -0.06732962
      0.05643440      0.66946728
      0.02166600      0.51462376
      8.30801857     -0.02902520
      1.52026504     -0.13304550
      0.42234627     -0.27251637
      0.14017293     -0.14914758
p              4   1.000000
      0.64737396      0.05713170
      0.16785440      0.28574555
      0.05917387      0.55178731
      0.02355814      0.26323150
 
          60   0
s              4   1.000000
      8.30834318      0.05675242
      1.52032444      0.26014135
      0.42236278      0.53284611
      0.14017841      0.29162544
s              7   1.000000
      0.92936822     -0.06732920
      0.05643440      0.66946313
      0.02166600      0.51462058
      8.30834318     -0.02902433
      1.52032444     -0.13304152
      0.42236278     -0.27250821
      0.14017841     -0.14914311
p              4   1.000000
      0.64737396      0.05713170
      0.16785440      0.28574555
      0.05917387      0.55178731
      0.02355814      0.26323150
 
          61   0
s              4   1.000000
      8.30806028      0.05675242
      1.52027267      0.26014135
      0.42234840      0.53284611
      0.14017364      0.29162544
s              7   1.000000
      0.92936822     -0.06732957
      0.05643440      0.66946675
      0.02166600      0.51462337
      8.30806028     -0.02902509
      1.52027267     -0.13304499
      0.42234840     -0.27251532
      0.14017364     -0.14914700
p              4   1.000000
      0.64737396      0.05713170
      0.16785440      0.28574555
      0.05917387      0.55178731
      0.02355814      0.26323150
 
          62   0
s              4   1.000000
      8.31033083      0.05675242
      1.52068816      0.26014135
      0.42246382      0.53284611
      0.14021194      0.29162544
s              7   1.000000
      0.92936822     -0.06732664
      0.05643440      0.66943770
      0.02166600      0.51460103
      8.31033083     -0.02901901
      1.52068816     -0.13301714
      0.42246382     -0.27245829
      0.14021194     -0.14911579
p              4   1.000000
      0.64737396      0.05713170
      0.16785440      0.28574555
      0.05917387      0.55178731
      0.02355814      0.26323150
 
          63   0
s              4   1.000000
      8.30831130      0.05675242
      1.52031860      0.26014135
      0.42236116      0.53284611
      0.14017787      0.29162544
s              7   1.000000
      0.92936822     -0.06732924
      0.05643440      0.66946354
      0.02166600      0.51462091
      8.30831130     -0.02902441
      1.52031860     -0.13304191
      0.42236116     -0.27250901
      0.14017787     -0.14914355
p              4   1.000000
      0.64737396      0.05713170
      0.16785440      0.28574555
      0.05917387      0.55178731
      0.02355814      0.26323150
 
          64   0
s              4   1.000000
      8.30804697      0.05675242
      1.52027024      0.26014135
      0.42234772      0.53284611
      0.14017341      0.29162544
s              7   1.000000
      0.92936822     -0.06732958
      0.05643440      0.66946692
      0.02166600      0.51462349
      8.30804697     -0.02902512
      1.52027024     -0.13304515
      0.42234772     -0.27251565
      0.14017341     -0.14914718
p              4   1.000000
      0.64737396      0.05713170
      0.16785440      0.28574555
      0.05917387      0.55178731
      0.02355814      0.26323150
 
          65   0
s              4   1.000000
      8.30896935      0.05675242
      1.52043902      0.26014135
      0.42239461      0.53284611
      0.14018897      0.29162544
s              7   1.000000
      0.92936822     -0.06732840
      0.05643440      0.66945512
      0.02166600      0.51461442
      8.30896935     -0.02902265
      1.52043902     -0.13303384
      0.42239461     -0.27249248
      0.14018897     -0.14913450
p              4   1.000000
      0.64737396      0.05713170
      0.16785440      0.28574555
      0.05917387      0.55178731
      0.02355814      0.26323150
 
          66   0
s              4   1.000000
      8.30975552      0.05675242
      1.52058288      0.26014135
      0.42243457      0.53284611
      0.14020224      0.29162544
s              7   1.000000
      0.92936822     -0.06732739
      0.05643440      0.66944506
      0.02166600      0.51460669
      8.30975552     -0.02902055
      1.52058288     -0.13302420
      0.42243457     -0.27247274
      0.14020224     -0.14912370
p              4   1.000000
      0.64737396      0.05713170
      0.16785440      0.28574555
      0.05917387      0.55178731
      0.02355814      0.26323150
 
          67   0
s              4   1.000000
      8.30739117      0.05675242
      1.52015023      0.26014135
      0.42231438      0.53284611
      0.14016235      0.29162544
s              7   1.000000
      0.92936822     -0.06733043
      0.05643440      0.66947530
      0.02166600      0.51462995
      8.30739117     -0.02902688
      1.52015023     -0.13305319
      0.42231438     -0.27253213
      0.14016235     -0.14915620
p              4   1.000000
      0.64737396      0.05713170
      0.16785440      0.28574555
      0.05917387      0.55178731
      0.02355814      0.26323150
 
          68   0
s              4   1.000000
      8.30947932      0.05675242
      1.52053234      0.26014135
      0.42242053      0.53284611
      0.14019758      0.29162544
s              7   1.000000
      0.92936822     -0.06732774
      0.05643440      0.66944860
      0.02166600      0.51460940
      8.30947932     -0.02902129
      1.52053234     -0.13302759
      0.42242053     -0.27247967
      0.14019758     -0.14912750
p              4   1.000000
      0.64737396      0.05713170
      0.16785440      0.28574555
      0.05917387      0.55178731
      0.02355814      0.26323150
 
          69   0
s              4   1.000000
      8.30802479      0.05675242
      1.52026618      0.26014135
      0.42234659      0.53284611
      0.14017304      0.29162544
s              7   1.000000
      0.92936822     -0.06732961
      0.05643440      0.66946720
      0.02166600      0.51462371
      8.30802479     -0.02902518
      1.52026618     -0.13304542
      0.42234659     -0.27251621
      0.14017304     -0.14914749
p              4   1.000000
      0.64737396      0.05713170
      0.16785440      0.28574555
      0.05917387      0.55178731
      0.02355814      0.26323150
 
          70   0
s              4   1.000000
      8.30865436      0.05675242
      1.52038138      0.26014135
      0.42237860      0.53284611
      0.14018366      0.29162544
s              7   1.000000
      0.92936822     -0.06732880
      0.05643440      0.66945914
      0.02166600      0.51461753
      8.30865436     -0.02902350
      1.52038138     -0.13303770
      0.42237860     -0.27250040
      0.14018366     -0.14913883
p              4   1.000000
      0.64737396      0.05713170
      0.16785440      0.28574555
      0.05917387      0.55178731
      0.02355814      0.26323150
 
          71   0
s              4   1.000000
      8.30925318      0.05675242
      1.52049096      0.26014135
      0.42240904      0.53284611
      0.14019376      0.29162544
s              7   1.000000
      0.92936822     -0.06732803
      0.05643440      0.66945148
      0.02166600      0.51461164
      8.30925318     -0.02902189
      1.52049096     -0.13303036
      0.42240904     -0.27248535
      0.14019376     -0.14913060
p              4   1.000000
      0.64737396      0.05713170
      0.16785440      0.28574555
      0.05917387      0.55178731
      0.02355814      0.26323150
 
          72   0
s              4   1.000000
      8.31076403      0.05675242
      1.52076743      0.26014135
      0.42248584      0.53284611
      0.14021925      0.29162544
s              7   1.000000
      0.92936822     -0.06732609
      0.05643440      0.66943216
      0.02166600      0.51459678
      8.31076403     -0.02901785
      1.52076743     -0.13301183
      0.42248584     -0.27244741
      0.14021925     -0.14910984
p              4   1.000000
      0.64737396      0.05713170
      0.16785440      0.28574555
      0.05917387      0.55178731
      0.02355814      0.26323150
 
          73   0
s              4   1.000000
      8.30996699      0.05675242
      1.52062158      0.26014135
      0.42244532      0.53284611
      0.14020581      0.29162544
s              7   1.000000
      0.92936822     -0.06732711
      0.05643440      0.66944236
      0.02166600      0.51460461
      8.30996699     -0.02901998
      1.52062158     -0.13302161
      0.42244532     -0.27246743
      0.14020581     -0.14912079
p              4   1.000000
      0.64737396      0.05713170
      0.16785440      0.28574555
      0.05917387      0.55178731
      0.02355814      0.26323150
 
          74   0
s              4   1.000000
      8.30971525      0.05675242
      1.52057551      0.26014135
      0.42243253      0.53284611
      0.14020156      0.29162544
s              7   1.000000
      0.92936822     -0.06732744
      0.05643440      0.66944557
      0.02166600      0.51460709
      8.30971525     -0.02902066
      1.52057551     -0.13302469
      0.42243253     -0.27247375
      0.14020156     -0.14912425
p              4   1.000000
      0.64737396      0.05713170
      0.16785440      0.28574555
      0.05917387      0.55178731
      0.02355814      0.26323150
 
          75   0
s              4   1.000000
      8.30893185      0.05675242
      1.52043216      0.26014135
      0.42239270      0.53284611
      0.14018834      0.29162544
s              7   1.000000
      0.92936822     -0.06732844
      0.05643440      0.66945559
      0.02166600      0.51461479
      8.30893185     -0.02902275
      1.52043216     -0.13303430
      0.42239270     -0.27249342
      0.14018834     -0.14913502
p              4   1.000000
      0.64737396      0.05713170
      0.16785440      0.28574555
      0.05917387      0.55178731
      0.02355814      0.26323150
 
          76   0
s              4   1.000000
      8.30915976      0.05675242
      1.52047386      0.26014135
      0.42240429      0.53284611
      0.14019219      0.29162544
s              7   1.000000
      0.92936822     -0.06732815
      0.05643440      0.66945268
      0.02166600      0.51461256
      8.30915976     -0.02902214
      1.52047386     -0.13303150
      0.42240429     -0.27248770
      0.14019219     -0.14913188
p              4   1.000000
      0.64737396      0.05713170
      0.16785440      0.28574555
      0.05917387      0.55178731
      0.02355814      0.26323150
 
          77   0
s              4   1.000000
      8.30922855      0.05675242
      1.52048645      0.26014135
      0.42240779      0.53284611
      0.14019335      0.29162544
s              7   1.000000
      0.92936822     -0.06732806
      0.05643440      0.66945180
      0.02166600      0.51461186
      8.30922855     -0.02902196
      1.52048645     -0.13303066
      0.42240779     -0.27248597
      0.14019335     -0.14913094
p              4   1.000000
      0.64737396      0.05713170
      0.16785440      0.28574555
      0.05917387      0.55178731
      0.02355814      0.26323150
 
          78   0
s              4   1.000000
      8.30886636      0.05675242
      1.52042017      0.26014135
      0.42238937      0.53284611
      0.14018724      0.29162544
s              7   1.000000
      0.92936822     -0.06732853
      0.05643440      0.66945644
      0.02166600      0.51461544
      8.30886636     -0.02902293
      1.52042017     -0.13303510
      0.42238937     -0.27249507
      0.14018724     -0.14913592
p              4   1.000000
      0.64737396      0.05713170
      0.16785440      0.28574555
      0.05917387      0.55178731
      0.02355814      0.26323150
 
          79   0
s              4   1.000000
      8.30951607      0.05675242
      1.52053906      0.26014135
      0.42242240      0.53284611
      0.14019820      0.29162543
s              7   1.000000
      0.92936822     -0.06732769
      0.05643440      0.66944812
      0.02166600      0.51460905
      8.30951607     -0.02902119
      1.52053906     -0.13302713
      0.42242240     -0.27247875
      0.14019820     -0.14912699
p              4   1.000000
      0.64737396      0.05713170
      0.16785440      0.28574555
      0.05917387      0.55178731
      0.02355814      0.26323150
 
          80   0
s              4   1.000000
      8.31210421      0.05675242
      1.52101266      0.26014135
      0.42255397      0.53284611
      0.14024186      0.29162544
s              7   1.000000
      0.92936822     -0.06732436
      0.05643440      0.66941503
      0.02166600      0.51458361
      8.31210421     -0.02901427
      1.52101266     -0.13299541
      0.42255397     -0.27241377
      0.14024186     -0.14909142
p              4   1.000000
      0.64737396      0.05713170
      0.16785440      0.28574555
      0.05917387      0.55178731
      0.02355814      0.26323150
 
          81   0
s              4   1.000000
      8.30987928      0.05675242
      1.52060553      0.26014135
      0.42244087      0.53284611
      0.14020433      0.29162544
s              7   1.000000
      0.92936822     -0.06732723
      0.05643440      0.66944347
      0.02166600      0.51460548
      8.30987928     -0.02902022
      1.52060553     -0.13302268
      0.42244087     -0.27246963
      0.14020433     -0.14912200
p              4   1.000000
      0.64737396      0.05713170
      0.16785440      0.28574555
      0.05917387      0.55178731
      0.02355814      0.26323150
 
          82   0
s              4   1.000000
      8.30908776      0.05675242
      1.52046069      0.26014135
      0.42240063      0.53284611
      0.14019097      0.29162544
s              7   1.000000
      0.92936822     -0.06732824
      0.05643440      0.66945360
      0.02166600      0.51461325
      8.30908776     -0.02902234
      1.52046069     -0.13303239
      0.42240063     -0.27248951
      0.14019097     -0.14913288
p              4   1.000000
      0.64737396      0.05713170
      0.16785440      0.28574555
      0.05917387      0.55178731
      0.02355814      0.26323150
 
          83   0
s              4   1.000000
      8.30902539      0.05675242
      1.52044928      0.26014135
      0.42239746      0.53284611
      0.14018992      0.29162544
s              7   1.000000
      0.92936822     -0.06732832
      0.05643440      0.66945440
      0.02166600      0.51461387
      8.30902539     -0.02902250
      1.52044928     -0.13303315
      0.42239746     -0.27249108
      0.14018992     -0.14913373
p              4   1.000000
      0.64737396      0.05713170
      0.16785440      0.28574555
      0.05917387      0.55178731
      0.02355814      0.26323150
 
          84   0
s              4   1.000000
      8.30957369      0.05675242
      1.52054961      0.26014135
      0.42242533      0.53284611
      0.14019917      0.29162544
s              7   1.000000
      0.92936822     -0.06732762
      0.05643440      0.66944738
      0.02166600      0.51460848
      8.30957369     -0.02902104
      1.52054961     -0.13302643
      0.42242533     -0.27247730
      0.14019917     -0.14912619
p              4   1.000000
      0.64737396      0.05713170
      0.16785440      0.28574555
      0.05917387      0.55178731
      0.02355814      0.26323150
 
          85   0
s              4   1.000000
      8.30951686      0.05675242
      1.52053921      0.26014135
      0.42242244      0.53284611
      0.14019821      0.29162544
s              7   1.000000
      0.92936822     -0.06732769
      0.05643440      0.66944811
      0.02166600      0.51460903
      8.30951686     -0.02902119
      1.52053921     -0.13302712
      0.42242244     -0.27247873
      0.14019821     -0.14912698
p              4   1.000000
      0.64737396      0.05713170
      0.16785440      0.28574555
      0.05917387      0.55178731
      0.02355814      0.26323150
 
          86   0
s              4   1.000000
      8.30889757      0.05675242
      1.52042589      0.26014135
      0.42239096      0.53284611
      0.14018776      0.29162544
s              7   1.000000
      0.92936822     -0.06732849
      0.05643440      0.66945604
      0.02166600      0.51461512
      8.30889757     -0.02902285
      1.52042589     -0.13303472
      0.42239096     -0.27249429
      0.14018776     -0.14913549
p              4   1.000000
      0.64737396      0.05713170
      0.16785440      0.28574555
      0.05917387      0.55178731
      0.02355814      0.26323150
 
          87   0
s              4   1.000000
      8.30910535      0.05675242
      1.52046391      0.26014135
      0.42240152      0.53284611
      0.14019127      0.29162544
s              7   1.000000
      0.92936822     -0.06732822
      0.05643440      0.66945337
      0.02166600      0.51461308
      8.30910535     -0.02902229
      1.52046391     -0.13303217
      0.42240152     -0.27248907
      0.14019127     -0.14913263
p              4   1.000000
      0.64737396      0.05713170
      0.16785440      0.28574555
      0.05917387      0.55178731
      0.02355814      0.26323150
 
          88   0
s              4   1.000000
      8.30913132      0.05675242
      1.52046866      0.26014135
      0.42240284      0.53284611
      0.14019171      0.29162544
s              7   1.000000
      0.92936822     -0.06732819
      0.05643440      0.66945304
      0.02166600      0.51461283
      8.30913132     -0.02902222
      1.52046866     -0.13303185
      0.42240284     -0.27248841
      0.14019171     -0.14913228
p              4   1.000000
      0.64737396      0.05713170
      0.16785440      0.28574555
      0.05917387      0.55178731
      0.02355814      0.26323150
 
          89   0
s              4   1.000000
      8.30882893      0.05675242
      1.52041333      0.26014135
      0.42238747      0.53284611
      0.14018660      0.29162544
s              7   1.000000
      0.92936822     -0.06732858
      0.05643440      0.66945691
      0.02166600      0.51461581
      8.30882893     -0.02902303
      1.52041333     -0.13303556
      0.42238747     -0.27249601
      0.14018660     -0.14913643
p              4   1.000000
      0.64737396      0.05713170
      0.16785440      0.28574555
      0.05917387      0.55178731
      0.02355814      0.26323150
 
          90   0
s              4   1.000000
      8.30889742      0.05675242
      1.52042586      0.26014135
      0.42239095      0.53284611
      0.14018776      0.29162544
s              7   1.000000
      0.92936822     -0.06732849
      0.05643440      0.66945604
      0.02166600      0.51461514
      8.30889742     -0.02902285
      1.52042586     -0.13303472
      0.42239095     -0.27249429
      0.14018776     -0.14913549
p              4   1.000000
      0.64737396      0.05713170
      0.16785440      0.28574555
      0.05917387      0.55178731
      0.02355814      0.26323150
 
          91   0
s              4   1.000000
      8.31019640      0.05675242
      1.52066356      0.26014135
      0.42245699      0.53284611
      0.14020968      0.29162544
s              7   1.000000
      0.92936822     -0.06732682
      0.05643440      0.66943942
      0.02166600      0.51460237
      8.31019640     -0.02901937
      1.52066356     -0.13301879
      0.42245699     -0.27246167
      0.14020968     -0.14911764
p              4   1.000000
      0.64737396      0.05713170
      0.16785440      0.28574555
      0.05917387      0.55178731
      0.02355814      0.26323150
 
          92   0
s              4   1.000000
      8.30949233      0.05675242
      1.52053472      0.26014135
      0.42242120      0.53284611
      0.14019780      0.29162544
s              7   1.000000
      0.92936822     -0.06732772
      0.05643440      0.66944843
      0.02166600      0.51460928
      8.30949233     -0.02902125
      1.52053472     -0.13302743
      0.42242120     -0.27247935
      0.14019780     -0.14912731
p              4   1.000000
      0.64737396      0.05713170
      0.16785440      0.28574555
      0.05917387      0.55178731
      0.02355814      0.26323150
 
          93   0
s              4   1.000000
      8.31320213      0.05675242
      1.52121357      0.26014135
      0.42260979      0.53284611
      0.14026039      0.29162544
s              7   1.000000
      0.92936822     -0.06732295
      0.05643440      0.66940100
      0.02166600      0.51457283
      8.31320213     -0.02901133
      1.52121357     -0.13298196
      0.42260979     -0.27238621
      0.14026039     -0.14907634
p              4   1.000000
      0.64737396      0.05713170
      0.16785440      0.28574555
      0.05917387      0.55178731
      0.02355814      0.26323150
 
          94   0
s              4   1.000000
      8.31063220      0.05675242
      1.52074330      0.26014135
      0.42247914      0.53284611
      0.14021703      0.29162544
s              7   1.000000
      0.92936822     -0.06732626
      0.05643440      0.66943385
      0.02166600      0.51459807
      8.31063220     -0.02901821
      1.52074330     -0.13301345
      0.42247914     -0.27245072
      0.14021703     -0.14911165
p              4   1.000000
      0.64737396      0.05713170
      0.16785440      0.28574555
      0.05917387      0.55178731
      0.02355814      0.26323150
 
          95   0
s              4   1.000000
      8.30904989      0.05675242
      1.52045376      0.26014135
      0.42239870      0.53284611
      0.14019033      0.29162544
s              7   1.000000
      0.92936822     -0.06732829
      0.05643440      0.66945409
      0.02166600      0.51461363
      8.30904989     -0.02902244
      1.52045376     -0.13303285
      0.42239870     -0.27249046
      0.14019033     -0.14913340
p              4   1.000000
      0.64737396      0.05713170
      0.16785440      0.28574555
      0.05917387      0.55178731
      0.02355814      0.26323150
 
          96   0
s              4   1.000000
      8.30925013      0.05675242
      1.52049040      0.26014135
      0.42240888      0.53284611
      0.14019371      0.29162543
s              7   1.000000
      0.92936822     -0.06732804
      0.05643440      0.66945152
      0.02166600      0.51461166
      8.30925013     -0.02902190
      1.52049040     -0.13303040
      0.42240888     -0.27248543
      0.14019371     -0.14913064
p              4   1.000000
      0.64737396      0.05713170
      0.16785440      0.28574555
      0.05917387      0.55178731
      0.02355814      0.26323150
 
          97   0
s              4   1.000000
      8.31002432      0.05675242
      1.52063207      0.26014135
      0.42244824      0.53284611
      0.14020677      0.29162544
s              7   1.000000
      0.92936822     -0.06732704
      0.05643440      0.66944162
      0.02166600      0.51460406
      8.31002432     -0.02901983
      1.52063207     -0.13302090
      0.42244824     -0.27246599
      0.14020677     -0.14912000
p              4   1.000000
      0.64737396      0.05713170
      0.16785440      0.28574555
      0.05917387      0.55178731
      0.02355814      0.26323150
 
 [MO]
 Sym= Hole
 Ene= -0.8101155    
 Spin= Alpha
 Occup= 0
           1  4.4039278E-03
           2  2.5075660E-03
           3  8.7294932E-03
           4  8.7016501E-04
           5 -6.3585485E-03
           6 -1.0519426E-04
           7  7.7583862E-04
           8  4.5573773E-04
           9 -2.4844548E-03
          10  9.6449145E-04
          11 -3.6495412E-03
          12 -3.2115909E-03
          13 -5.5936066E-04
          14 -4.2900638E-04
          15  1.7994823E-03
          16  9.7937183E-04
          17 -1.1617267E-03
          18 -2.8964852E-05
          19 -4.3038782E-03
          20  2.9376482E-03
          21 -1.1875631E-03
          22 -1.0181683E-03
          23  2.6934363E-03
          24  3.7061292E-04
          25  8.1646889E-03
          26 -1.6277909E-02
          27  1.7037218E-02
          28 -1.8231409E-02
          29 -8.4597161E-03
          30  8.9531875E-04
          31 -1.8514348E-03
          32  1.6909202E-03
          33  1.1711425E-02
          34 -4.3911725E-05
          35  2.0307072E-02
          36  1.2661937E-02
          37 -8.6373715E-03
          38 -8.6305308E-04
          39 -1.6839193E-03
          40  1.1146144E-03
          41  1.4709187E-03
          42 -1.1293937E-02
          43 -5.9206918E-04
          44 -9.6534993E-03
          45 -9.4249938E-04
          46 -7.7043043E-04
          47  2.8835295E-03
          48  4.3245568E-04
          49 -1.1501282E-02
          50  2.3300376E-02
          51  6.0210470E-02
          52  7.8625821E-02
          53  3.1177299E-03
          54 -6.2720478E-03
          55 -1.0917534E-02
          56 -1.0613447E-02
          57  3.6129184E-02
          58  2.4731899E-02
          59  0.1517902    
          60 -1.2623915E-02
          61 -2.3966391E-02
          62  7.9091534E-04
          63  4.3770846E-04
          64  5.9913755E-03
          65 -2.5129052E-02
          66  4.7930583E-02
          67  0.1698943    
          68  8.1380822E-02
          69  1.4638378E-02
          70 -6.5219146E-04
          71 -4.5336504E-03
          72 -7.6310751E-03
          73 -2.6265947E-02
          74  1.8333403E-02
          75 -8.0713391E-02
          76  2.9338632E-02
          77  1.8585315E-02
          78  2.5115921E-03
          79 -1.8513091E-03
          80 -4.4448883E-03
          81  1.9252932E-03
          82  9.0409644E-02
          83  0.1109325    
          84 -4.0120363E-02
          85  3.4964357E-03
          86 -8.1680119E-03
          87 -3.3692631E-03
          88 -6.1990316E-03
          89  1.3631063E-02
          90  0.3058177    
          91  0.1517152    
          92  3.8962986E-02
          93 -8.0025345E-03
          94 -1.6099498E-02
          95 -4.0505314E-03
          96  2.8010942E-03
          97 -8.2879243E-03
          98 -4.6629019E-02
          99  1.3717382E-04
         100 -1.6139554E-02
         101  5.4025084E-05
         102 -3.4803720E-03
         103 -1.4574394E-03
         104  3.1978898E-03
         105 -2.1625951E-02
         106  3.9136995E-02
         107  3.6044078E-04
         108 -5.0041854E-02
         109  1.0397620E-02
         110 -5.4437853E-03
         111  1.3904463E-03
         112  3.7472779E-03
         113  5.5239494E-03
         114 -9.1416510E-03
         115 -3.1493258E-02
         116  2.1276269E-03
         117 -2.8794687E-03
         118  8.5400563E-04
         119  4.6180813E-03
         120  1.8638356E-03
         121 -5.9366771E-03
         122  9.4681699E-03
         123 -3.3779282E-03
         124 -8.4234793E-03
         125  5.0011929E-04
         126  6.7830825E-04
         127  1.5255940E-03
         128 -7.6684088E-04
         129  3.4459294E-03
         130 -7.3721982E-03
         131  1.9173578E-03
         132  4.2340993E-03
         133 -2.8490159E-03
         134 -8.5938927E-06
         135  3.1337270E-03
         136  1.1813221E-03
         137 -1.1679432E-03
         138 -1.0650709E-03
         139  6.2234085E-03
         140  4.8785675E-03
         141 -5.5973767E-04
         142  4.0524787E-06
         143  1.2879767E-03
         144 -2.2212106E-04
         145  6.3181517E-04
         146 -3.8685434E-04
         147 -2.6276552E-03
         148 -2.7303500E-03
         149 -2.0874478E-04
         150 -1.2240169E-04
         151 -1.9094448E-04
         152 -6.8997464E-04
         153 -2.3921998E-04
         154  2.5361413E-03
         155 -4.5454865E-03
         156 -4.7092410E-03
         157  9.9247543E-04
         158 -5.0349091E-04
         159 -1.4923746E-04
         160 -5.2497984E-04
         161 -5.0703052E-04
         162 -1.3731300E-03
         163  2.1075229E-03
         164  2.1245845E-03
         165  1.1084072E-03
         166  6.4256525E-04
         167  6.7506800E-05
         168 -1.2548887E-03
         169 -1.4868324E-03
         170 -3.7052904E-03
         171  1.0787599E-02
         172  9.3275588E-03
         173  1.0821967E-03
         174  5.0348067E-04
         175 -1.2355400E-04
         176 -5.9478165E-04
         177  9.6311892E-04
         178 -3.3463622E-03
         179 -1.5043974E-04
         180  1.6623545E-03
         181 -4.2658279E-04
         182  1.1990838E-03
         183  4.4622814E-04
         184  6.2623032E-04
         185 -2.9376554E-03
         186  8.8280318E-03
         187 -5.3984569E-03
         188 -1.5097718E-02
         189  2.7628473E-03
         190  9.5956697E-04
         191 -1.0349179E-03
         192 -6.7870453E-04
         193  1.8809877E-05
         194  3.9117276E-03
         195 -6.2500215E-03
         196 -5.5001820E-03
         197  8.1741670E-04
         198  4.6037990E-04
         199 -3.8124077E-04
         200 -6.5234699E-04
         201 -4.8599645E-04
         202 -3.0733063E-04
         203 -2.1351886E-04
         204  4.7565904E-04
         205 -9.2532689E-04
         206  6.5266283E-04
         207  2.5434969E-03
         208  2.2568829E-04
         209 -1.5356968E-03
         210 -2.1099718E-03
         211  1.8843604E-02
         212 -2.4027420E-05
         213  6.3819331E-03
         214 -3.8481440E-04
         215 -6.6051320E-03
         216 -3.5649721E-04
         217 -5.8739278E-03
         218 -2.0969382E-03
         219  2.0572813E-02
         220 -7.5902292E-03
         221  8.2687866E-03
         222  2.9667644E-03
         223 -6.2434347E-03
         224 -1.6482093E-03
         225  1.4869557E-03
         226  1.2864180E-02
         227 -8.0759183E-04
         228  1.8517660E-02
         229  2.6790434E-03
         230 -3.9504226E-03
         231 -2.0542450E-03
         232 -2.5056426E-03
         233 -4.6233349E-03
         234  1.6130071E-02
         235 -2.0670110E-02
         236 -2.3894621E-02
         237  9.4063544E-05
         238 -5.4987869E-03
         239 -7.0792896E-04
         240  3.6805717E-03
         241  6.8258261E-03
         242  6.2935888E-03
         243  1.0643932E-02
         244  1.1196078E-02
         245 -6.7628251E-05
         246 -1.2292615E-03
         247  2.4596305E-04
         248  3.7928277E-03
         249  1.1871512E-03
         250 -1.0308537E-02
         251  2.5393840E-02
         252  1.4456003E-03
         253  1.7846700E-05
         254  5.7200866E-04
         255 -5.7088153E-04
         256  1.8169282E-03
         257  6.5935683E-03
         258  9.2159538E-03
         259  3.6598621E-03
         260  1.0024549E-02
         261 -9.8306499E-04
         262  3.1101322E-03
         263  9.6327299E-04
         264 -4.7678748E-04
         265 -3.6670764E-03
         266 -6.0267798E-03
         267 -3.0263667E-03
         268  4.6260119E-04
         269  1.0851758E-03
         270  5.2965892E-04
         271  1.8319261E-04
         272 -5.7579909E-04
         273  2.0944733E-04
         274  2.0946690E-04
         275 -2.6644429E-03
         276 -4.5298296E-03
         277 -1.3008782E-04
         278 -5.0845218E-04
         279  1.8368959E-05
         280  8.7695278E-04
         281 -5.0292566E-04
         282 -2.3439770E-04
         283  2.7627239E-04
         284  3.5031672E-04
         285  5.2885964E-05
         286  4.9639581E-04
         287  2.6817348E-05
         288  1.0815992E-04
         289  8.1372447E-05
         290 -3.9226236E-04
         291  2.9253189E-03
         292  3.6904691E-03
         293  3.7043515E-05
         294  6.9837042E-05
         295  5.6854060E-05
         296 -3.7634562E-04
         297 -7.2952599E-04
         298 -1.3197374E-03
         299 -1.1544831E-03
         300  8.5464545E-04
         301  2.7101461E-04
         302  3.3827621E-04
         303 -9.7615608E-05
         304  7.7598685E-05
         305  1.4098370E-04
         306  3.5746465E-04
         307 -1.4402550E-03
         308 -1.9686669E-03
         309 -2.7070730E-04
         310 -4.4402248E-05
         311  8.4969135E-05
         312  2.0050102E-04
         313  2.1315172E-04
         314 -7.4062537E-04
         315 -3.4379258E-04
         316 -5.2755425E-04
         317  2.6240898E-05
         318  1.2860444E-04
         319  9.7819015E-05
         320  1.2217413E-04
         321 -1.0911951E-05
         322  3.8213260E-04
         323  1.2485480E-03
         324  2.5015257E-03
         325 -1.6216091E-04
         326 -2.3538522E-04
         327 -3.7691956E-05
         328  1.0464883E-04
         329  3.3150925E-05
         330 -8.7571709E-04
         331 -6.0922280E-04
         332  1.4108828E-03
         333  2.6654574E-04
         334 -3.0539930E-04
         335 -5.9822242E-04
         336 -8.5498832E-05
         337  1.4576447E-03
         338  2.7513846E-03
         339 -1.3506793E-03
         340 -1.6027094E-03
         341 -5.5217108E-04
         342 -2.5335513E-04
         343 -1.6176545E-04
         344 -1.7420320E-04
         345 -3.7557418E-03
         346 -3.6391253E-03
         347 -3.1386904E-02
         348 -1.8892074E-03
         349 -1.8819451E-03
         350  2.0132761E-03
         351  1.8758604E-03
         352 -6.8913720E-04
         353  3.3179559E-02
         354  5.8087692E-02
         355  1.5481747E-03
         356  5.4248083E-02
         357 -1.9825766E-02
         358 -5.9160306E-03
         359 -5.1358849E-04
         360 -2.8585850E-03
         361 -2.2877786E-02
         362 -0.1923492    
         363 -0.3685462    
         364  4.9593639E-02
         365  1.8720767E-02
         366  9.6596256E-03
         367  1.3703083E-02
         368 -6.9212392E-03
         369  7.9128835E-03
         370 -3.4667101E-02
         371 -0.2544512    
         372 -2.0278156E-02
         373 -5.8528525E-03
         374 -6.6577189E-04
         375  3.1716783E-02
         376  1.7480699E-03
         377 -3.1785551E-02
         378 -0.2016704    
         379  0.5429462    
         380 -3.7809085E-02
         381  4.0268833E-03
         382  1.8496748E-02
         383 -6.1154619E-02
         384  5.5237710E-03
         385  1.9716000E-02
         386  3.1098967E-02
         387 -0.1291097    
         388 -4.3320999E-02
         389 -1.4064920E-02
         390 -1.8059296E-03
         391  2.9060228E-02
         392  1.4764487E-04
         393 -2.9717123E-02
         394  7.4648947E-02
         395 -8.2465947E-02
         396 -9.8734438E-02
         397  1.8000878E-02
         398 -9.9210925E-03
         399 -1.2874960E-03
         400  7.0967413E-03
         401  1.1263337E-02
         402 -4.0308911E-02
         403  5.0520889E-02
         404  4.2581964E-02
         405 -3.4209490E-03
         406  4.0946659E-03
         407 -4.7820848E-03
         408 -4.2429366E-03
         409 -1.2498604E-04
         410 -5.5582572E-02
         411  0.1283442    
         412  8.1178322E-02
         413  6.2412419E-04
         414  2.4492585E-03
         415 -8.1625031E-03
         416 -4.9703391E-03
         417 -1.0066763E-02
         418  2.4906453E-02
         419 -2.1154832E-02
         420 -1.1424779E-02
         421  5.0443420E-03
         422 -3.0233418E-03
         423 -4.1315607E-03
         424 -3.0692597E-03
         425  1.2023924E-02
         426  4.2365011E-02
         427 -0.1356085    
         428 -0.1350411    
         429 -1.2314684E-02
         430  4.5342143E-03
         431  1.1448340E-02
         432  1.3905893E-02
         433 -1.3480328E-03
         434 -2.6627444E-03
         435 -1.9140983E-03
         436 -2.8467935E-03
         437  1.4595905E-03
         438 -4.7953604E-04
         439 -1.1761586E-02
         440  2.8162722E-03
         441 -2.1240486E-02
         442 -5.9908214E-03
         443 -4.3382770E-03
         444  1.0930093E-05
         445 -8.5171667E-04
         446 -7.6789077E-04
         447 -7.3560502E-04
         448  2.9891410E-03
         449 -8.2098180E-04
         450  3.1655090E-04
         451 -2.2605944E-03
         452  7.1992096E-04
         453 -7.5139666E-05
         454  1.1235964E-04
         455  1.2773792E-03
         456 -3.7625706E-04
         457 -4.8987992E-04
         458 -1.6755045E-03
         459  6.2684814E-04
         460 -7.3868665E-04
         461  5.4116087E-04
         462  9.4076846E-04
         463  7.0913751E-03
         464 -1.0396655E-03
         465  5.5854203E-04
         466 -1.3523087E-03
         467  1.1357777E-03
         468  1.4792117E-03
         469 -1.2292885E-02
         470  1.4595849E-02
         471 -2.5326826E-02
         472  9.8729683E-03
         473 -5.4022535E-03
         474  1.0278235E-03
         475  2.2497512E-03
         476  1.7049621E-03
         477 -5.4389558E-04
         478 -2.6260123E-03
         479 -5.4923428E-04
         480 -3.0602512E-04
         481  1.7328319E-03
         482  5.6218796E-05
         483 -4.8687370E-04
         484 -1.3719012E-03
         485  2.7149962E-03
         486 -1.3582862E-03
         487 -9.1479225E-05
         488 -2.9741111E-04
         489  1.5047122E-03
         490  1.4816469E-04
         491  1.6524264E-03
         492 -1.9999775E-03
         493 -2.7260065E-02
         494  6.5614670E-03
         495 -4.2130472E-03
         496  2.6647577E-03
         497 -6.4001055E-03
         498  1.3629278E-02
         499  9.7269099E-04
         500  8.0933282E-03
         501  2.4098894E-03
         502 -1.6911206E-03
         503  0.1026738    
         504 -8.9681959E-03
         505 -7.2757727E-03
         506 -1.0626981E-02
         507 -4.2676888E-03
         508 -2.2864094E-02
         509  7.0315241E-03
         510 -4.1628173E-03
         511  2.6917835E-03
         512  3.9415821E-03
         513  1.1635614E-02
         514 -1.9587183E-03
         515  1.8506339E-02
         516  8.9876140E-03
         517 -1.9332549E-03
         518 -6.2884754E-03
         519  2.3408260E-03
         520  1.2686953E-05
         521 -4.5202645E-03
         522  9.0419158E-04
         523  1.0118857E-02
         524 -3.8670551E-03
         525  8.9914264E-04
         526 -1.6589940E-03
         527  4.7582882E-03
         528 -1.1249515E-03
         529 -4.2049677E-04
         530 -1.5475010E-03
         531  1.3065948E-03
         532 -4.1050656E-04
         533 -7.8799756E-04
         534 -5.2113208E-04
         535  6.9208829E-05
         536 -5.9804611E-04
         537 -7.5469195E-04
         538  4.3580402E-04
         539 -5.7388458E-04
         540 -3.5386303E-05
         541 -1.8975085E-04
         542 -5.2637089E-04
         543  1.2536402E-03
         544 -8.6869783E-04
         545  4.6228113E-05
         546  4.7606285E-04
         547  7.8044593E-04
         548  6.3879846E-04
         549 -1.6301643E-03
         550  6.9971074E-04
         551  7.3943037E-04
         552  1.0140708E-03
         553 -3.0147021E-03
         554  1.2391341E-03
         555 -2.2293979E-03
         556 -3.8543937E-03
         557 -3.6040808E-03
         558  7.0494279E-04
         559  2.3909548E-04
         560 -3.0437603E-05
         561 -1.9012722E-03
         562  3.6486017E-03
         563 -2.0265135E-03
         564  2.8557288E-03
         565 -3.1024630E-03
         566 -2.6232048E-03
         567  8.4184884E-04
         568  8.8148555E-03
         569  2.3684760E-03
         570  1.4658801E-03
         571 -3.8513110E-03
         572  1.4114169E-03
         573 -1.1572793E-02
         574  1.5814604E-03
         575 -1.6494629E-03
         576  9.6365844E-04
         577  1.5203925E-03
         578  2.5886612E-03
         579 -9.8012865E-04
         580 -5.7268434E-04
         581  1.1885586E-03
         582  8.5565844E-05
         583  1.5850734E-03
         584 -8.7910070E-04
         585 -9.4594725E-04
         586 -2.6907763E-04
         587  1.9614011E-04
         588  2.8364444E-05
         589 -1.2948294E-04
         590 -1.5424831E-04
         591 -1.8059092E-05
         592  2.3847292E-04
         593 -4.3387173E-04
         594 -2.6310805E-05
         595  2.5078656E-05
         596 -7.3242350E-05
         597  4.7058778E-04
         598 -5.3802214E-04
         599  1.0701984E-04
         600  4.9996896E-05
         601 -1.9356888E-04
         602 -1.3797908E-04
         603  8.2942389E-04
         604  1.3893197E-04
         605  1.2799890E-05
         606 -5.5806238E-05
         607 -1.1609888E-04
         608  8.2363847E-05
         609 -2.4290908E-04
         610 -5.7384808E-05
         611  3.2288447E-04
         612  2.8733478E-04
         613 -7.3499780E-04
         614  3.6941361E-04
         615 -5.5141188E-04
         616 -1.2633642E-03
         617 -5.7739444E-04
         618 -1.4038714E-02
         619  2.7791786E-03
         620  3.0498279E-04
         621  6.5106887E-04
         622 -3.0758777E-03
         623 -2.2048699E-03
         624  8.2088159E-03
         625  6.0392944E-03
         626 -1.6955389E-02
         627 -1.8495794E-02
         628  3.7309164E-03
         629  1.0195440E-02
         630 -1.3870538E-02
         631 -1.0237637E-02
         632  9.4471744E-04
         633 -1.4386472E-02
         634  1.5150695E-03
         635 -1.3896234E-03
         636  3.6296756E-03
         637  2.5260893E-03
         638  1.0579681E-03
         639  4.4728213E-04
         640 -3.7879092E-03
         641  9.7241560E-03
         642  4.7330428E-03
         643  1.3879352E-02
         644  3.7673482E-04
         645 -1.7619141E-03
         646 -1.9635817E-03
         647  6.4453337E-04
 Sym= Particle
 Ene= -0.8101155    
 Spin= Alpha
 Occup= 2
           1 -2.4283750E-03
           2 -1.7939326E-03
           3 -5.3541092E-03
           4 -1.4779346E-04
           5  3.8713918E-03
           6  2.8998355E-04
           7  1.4618281E-03
           8 -5.5501534E-04
           9  1.3276568E-03
          10 -9.0520794E-04
          11  2.1125670E-03
          12  3.6006705E-03
          13  7.0196146E-04
          14 -7.8556786E-04
          15 -2.3383426E-03
          16 -2.2720505E-04
          17 -1.2576947E-03
          18  5.0548941E-04
          19  1.7743548E-03
          20 -1.6919856E-03
          21  1.7186629E-03
          22  7.3603896E-04
          23 -4.7027431E-03
          24  6.9255003E-04
          25 -4.3701711E-03
          26  5.8480818E-03
          27 -9.9695511E-03
          28  1.3867901E-02
          29  8.0634616E-03
          30  1.5615840E-03
          31  7.4600647E-03
          32 -8.3369389E-03
          33 -2.0061573E-02
          34  1.6386282E-03
          35 -2.2957658E-02
          36 -9.5107406E-03
          37  1.9410130E-02
          38  7.1428204E-04
          39  1.0875835E-02
          40  4.4655841E-04
          41  8.9426730E-03
          42 -5.8352458E-03
          43  4.5111654E-03
          44 -6.4999913E-03
          45 -5.0188983E-03
          46  3.3760322E-03
          47 -6.2128473E-03
          48 -9.4727374E-04
          49  9.4866678E-03
          50 -3.2322910E-02
          51 -8.9584850E-02
          52 -9.6477591E-02
          53 -4.4364715E-03
          54  1.4668560E-02
          55  4.0538076E-02
          56  3.1567052E-02
          57  1.4377417E-03
          58  7.9408661E-02
          59  0.2919857    
          60  8.9365825E-02
          61 -3.2947706E-03
          62 -1.8425193E-02
          63 -8.6888649E-02
          64 -4.0147807E-02
          65  2.6581263E-02
          66 -0.1330788    
          67 -0.3810047    
          68 -0.1202178    
          69 -2.1411788E-02
          70  3.1018779E-02
          71  9.2030525E-02
          72  3.9414644E-02
          73 -2.1498147E-02
          74  1.7981203E-02
          75 -5.2855141E-02
          76  2.1408504E-02
          77  1.2221449E-02
          78 -1.8111728E-02
          79  1.0965860E-02
          80 -1.4108818E-02
          81  2.0114556E-02
          82 -0.1856896    
          83 -0.1611740    
          84  1.4511311E-02
          85 -1.9671058E-02
          86  4.1206703E-02
          87  4.0725265E-02
          88 -1.4289497E-02
          89  1.5282269E-02
          90  0.3242865    
          91  0.1919918    
          92  4.2631466E-02
          93 -1.7277332E-02
          94 -7.2285116E-02
          95 -3.8361575E-02
          96 -1.1161112E-02
          97  1.6112082E-02
          98  1.9095698E-02
          99  2.3051451E-03
         100  9.5106931E-03
         101 -2.1312332E-02
         102 -4.6524109E-04
         103  7.5668748E-03
         104 -2.4788789E-03
         105 -2.6927318E-02
         106  3.0037882E-02
         107  2.2690332E-02
         108 -4.9523763E-02
         109  1.1869419E-02
         110 -1.5042727E-02
         111 -1.2205247E-03
         112  2.1461818E-02
         113  3.5497071E-03
         114 -1.1531253E-02
         115 -8.7817730E-03
         116 -7.8860847E-03
         117 -2.9549666E-03
         118  7.8576580E-03
         119  2.4603065E-03
         120  4.4941530E-03
         121 -2.4548811E-03
         122  3.6611136E-03
         123 -1.9192340E-02
         124 -5.2194474E-03
         125 -1.8208133E-03
         126 -9.0987007E-05
         127  3.0391591E-03
         128 -3.0061135E-03
         129  3.8122123E-03
         130 -9.5171994E-03
         131  4.5119873E-03
         132  5.9859725E-03
         133  1.1022507E-03
         134 -4.7396044E-03
         135 -6.8639829E-03
         136 -3.2247331E-03
         137  2.3509435E-04
         138 -5.1293318E-05
         139  2.1221543E-04
         140 -6.5941655E-04
         141  2.4941277E-03
         142 -3.9541945E-03
         143 -3.3112299E-03
         144  1.0851065E-03
         145  4.0002030E-04
         146  2.0596997E-03
         147 -4.7340374E-03
         148 -4.2581386E-03
         149  7.8586192E-04
         150 -1.9689002E-03
         151  2.7594795E-03
         152  1.5782653E-03
         153  4.6899728E-04
         154 -2.2095419E-03
         155  2.1227854E-03
         156  3.9239354E-03
         157  3.4955129E-04
         158  2.3632146E-04
         159  1.9033016E-03
         160 -2.9104587E-04
         161 -5.0661410E-04
         162  1.1301854E-03
         163  1.5256624E-03
         164  1.0998205E-03
         165  2.3592201E-03
         166 -2.6561893E-03
         167 -9.6925633E-04
         168  4.3969214E-04
         169  3.4915769E-04
         170  4.4100424E-03
         171 -9.7686602E-03
         172 -7.6904367E-03
         173  2.3069987E-03
         174 -2.3472379E-03
         175  9.1783050E-04
         176  8.4664067E-04
         177 -2.0968032E-03
         178  1.9161128E-03
         179  7.9816664E-03
         180  6.8877363E-03
         181  3.4032324E-03
         182 -2.8452959E-03
         183 -5.2717091E-03
         184 -3.7028466E-03
         185  7.9811048E-03
         186 -1.0254516E-02
         187 -4.3604099E-03
         188  1.4370725E-02
         189 -6.8043810E-03
         190  5.1000393E-03
         191  6.4886967E-03
         192 -6.3723731E-03
         193 -5.7197837E-03
         194  1.1171384E-02
         195 -7.8010997E-03
         196 -1.0292926E-02
         197  6.8164938E-03
         198 -1.1053958E-02
         199  6.5282581E-04
         200 -5.1448718E-03
         201  8.8662171E-04
         202 -1.4521576E-03
         203  1.1271911E-03
         204  1.0175306E-02
         205  4.6281135E-03
         206 -7.2563691E-03
         207 -3.8461073E-03
         208 -3.8702786E-03
         209 -2.3181124E-04
         210 -1.4984219E-03
         211  5.1374095E-03
         212  1.4599930E-03
         213 -6.7992010E-03
         214 -3.5561498E-03
         215  1.8138486E-03
         216 -1.3495365E-03
         217  1.0895301E-03
         218  1.7069963E-04
         219  6.7113512E-03
         220 -8.8292075E-04
         221 -1.5381727E-02
         222 -7.9837680E-04
         223  6.3363989E-03
         224 -4.6924199E-03
         225  4.8682932E-03
         226  2.8486351E-02
         227 -2.0092137E-02
         228  1.5753739E-02
         229 -1.5761599E-02
         230 -1.5928145E-02
         231  1.0675691E-02
         232 -1.3802928E-02
         233  2.9815554E-03
         234  3.1499427E-02
         235 -2.6093611E-02
         236 -1.7301196E-02
         237 -1.0511866E-02
         238 -1.0476316E-02
         239  6.1016083E-03
         240  8.2388101E-03
         241  7.0890565E-03
         242  4.7000176E-03
         243  8.7366328E-03
         244  1.2003394E-03
         245 -4.2161141E-03
         246  6.9411574E-03
         247 -1.6509906E-03
         248  3.8180449E-03
         249  4.7874167E-03
         250 -1.2600120E-02
         251  2.6215475E-02
         252  1.9417506E-03
         253 -2.9135074E-03
         254  7.4554211E-03
         255 -4.9704961E-03
         256 -2.3343686E-04
         257  3.8098765E-03
         258  1.3232366E-02
         259 -2.2473069E-02
         260  2.6684601E-03
         261 -1.7722241E-03
         262  2.3553285E-03
         263  6.5912567E-03
         264  1.2521498E-03
         265 -3.5559756E-03
         266 -5.8039781E-03
         267 -2.3388027E-04
         268  4.6013570E-03
         269  1.4915162E-03
         270  2.8503989E-03
         271 -1.8026730E-03
         272  2.9091892E-04
         273 -9.1245834E-04
         274  8.1912044E-04
         275 -1.4627432E-03
         276  1.2190753E-03
         277  2.5216071E-04
         278  2.2896694E-03
         279  1.4033099E-03
         280  2.8774184E-03
         281  8.2629831E-06
         282 -3.1063991E-04
         283 -5.6232139E-04
         284 -1.7027520E-03
         285  5.2871456E-04
         286  1.9979966E-03
         287  1.0354641E-03
         288  1.5544001E-03
         289 -1.4979472E-04
         290  1.2153606E-04
         291  4.4360262E-04
         292  1.2844699E-03
         293  7.4930559E-04
         294  1.0915993E-03
         295 -3.3759745E-04
         296 -9.3427172E-04
         297 -8.9306524E-04
         298 -1.4916698E-03
         299 -1.0722206E-03
         300 -4.7494180E-04
         301  9.0016035E-04
         302  1.9553718E-03
         303 -1.5586049E-04
         304 -2.4391486E-05
         305  4.1473875E-04
         306  8.1673492E-04
         307 -2.1393064E-03
         308 -2.9301222E-03
         309  4.4640238E-04
         310  7.9525402E-04
         311  3.3401011E-04
         312  9.7051269E-04
         313  7.2467650E-05
         314 -4.2192545E-04
         315  1.5502038E-03
         316  3.0176621E-03
         317  2.8552717E-04
         318  6.2244822E-04
         319 -2.6947190E-04
         320 -2.7549133E-04
         321  4.8765799E-04
         322  4.0064947E-04
         323  1.0803657E-03
         324  1.3946305E-03
         325  7.2621688E-06
         326  6.4929284E-04
         327 -9.6491008E-04
         328 -1.4988889E-04
         329  4.2205589E-05
         330  6.5424875E-04
         331 -2.0729338E-03
         332 -3.9572003E-03
         333 -2.5798631E-04
         334 -4.5255222E-04
         335 -8.3594624E-04
         336  1.3673615E-04
         337  3.2034954E-03
         338  4.3286160E-03
         339  2.3155460E-04
         340  3.6720480E-03
         341 -2.4669128E-03
         342 -1.5734794E-03
         343 -1.5652443E-03
         344 -9.6301670E-04
         345  3.1671764E-03
         346 -2.2033276E-03
         347 -2.1864716E-02
         348  1.3261676E-02
         349 -1.1029088E-02
         350  3.6466946E-03
         351  1.2298211E-02
         352 -9.3322834E-03
         353  3.7772965E-02
         354  3.1280227E-02
         355  4.6055440E-02
         356  4.8916958E-02
         357 -3.8854256E-02
         358 -1.2550495E-02
         359 -1.0797727E-02
         360 -2.6352907E-02
         361  1.5767103E-02
         362 -0.1403144    
         363 -0.3680706    
         364 -1.0727395E-02
         365 -1.7361678E-02
         366  1.5898341E-02
         367  8.9828052E-02
         368  1.6028659E-02
         369 -1.0462685E-02
         370  0.1187151    
         371  0.4033765    
         372  2.0778991E-02
         373  4.3464685E-03
         374 -2.5968436E-02
         375 -0.1030540    
         376  1.9240126E-04
         377  4.5717772E-02
         378  5.9799302E-02
         379 -0.1191061    
         380  3.6548823E-02
         381 -1.8472346E-02
         382 -3.4985186E-03
         383  3.2661330E-02
         384 -8.6177951E-03
         385 -4.1774686E-02
         386  4.1728683E-02
         387  4.8230462E-02
         388  8.2303993E-03
         389  3.3792209E-02
         390 -2.0235261E-02
         391 -2.0998111E-02
         392  1.6163245E-02
         393  1.6187107E-02
         394 -3.6144882E-02
         395  4.2196691E-02
         396  5.4059036E-02
         397 -1.3522539E-02
         398  1.4428570E-02
         399 -5.0671864E-03
         400 -1.8084697E-02
         401 -9.2992196E-03
         402  3.7818942E-02
         403 -5.9955537E-02
         404 -4.0820397E-02
         405  5.1833936E-03
         406 -8.9873802E-03
         407  1.5039044E-02
         408  8.3079264E-03
         409 -6.4157420E-03
         410  7.7828411E-03
         411 -1.0070211E-02
         412 -1.3844985E-02
         413  3.9272397E-03
         414 -2.7310345E-04
         415  2.7452006E-03
         416  2.3686194E-03
         417  1.0179656E-02
         418 -4.5284983E-02
         419  6.8460956E-02
         420  4.7381207E-02
         421 -7.3067285E-03
         422  1.5748639E-02
         423 -1.5463886E-02
         424 -1.4004962E-02
         425 -1.8503096E-02
         426  3.1723689E-02
         427 -2.5686812E-02
         428 -4.7415037E-02
         429  2.3186762E-02
         430 -2.7806027E-02
         431  7.5057475E-03
         432  1.7762389E-02
         433  3.4584504E-05
         434  2.9425960E-04
         435  1.8968378E-03
         436 -1.0492012E-03
         437 -1.2435274E-03
         438  2.1830616E-03
         439  3.7786064E-03
         440  9.2595618E-04
         441  9.9003073E-03
         442 -2.0101115E-04
         443  1.8711841E-03
         444 -1.6872944E-05
         445 -4.4114969E-04
         446  4.5354571E-04
         447  4.9932546E-04
         448 -9.8532008E-04
         449  1.5905332E-04
         450 -3.9887347E-04
         451  1.4242560E-03
         452  4.0668124E-04
         453  3.3403619E-04
         454 -1.4765576E-03
         455 -1.6482377E-03
         456 -9.4961323E-04
         457  1.2966638E-03
         458  1.4627406E-03
         459 -3.2977187E-03
         460  1.2484908E-03
         461 -1.5881819E-03
         462 -1.0742304E-03
         463 -2.8053005E-04
         464 -1.3522167E-03
         465  1.3474141E-03
         466  3.3883151E-04
         467  2.6540313E-04
         468  5.0521307E-03
         469  1.3174464E-03
         470  1.0410888E-02
         471  1.4192481E-02
         472 -1.1751707E-02
         473 -1.0530060E-04
         474  1.9935116E-03
         475 -1.5546539E-03
         476  3.6897254E-03
         477  4.5820395E-04
         478  8.6208619E-03
         479 -4.1062853E-04
         480  2.8481351E-03
         481 -5.7258485E-03
         482  8.0941356E-04
         483  6.1991177E-03
         484  5.8040656E-03
         485 -1.4115461E-02
         486  7.9840822E-03
         487  1.4230317E-02
         488 -1.4422610E-02
         489  3.4737971E-03
         490 -9.8437089E-03
         491 -1.7405833E-03
         492 -8.7772723E-04
         493  3.1078849E-02
         494 -1.7542033E-02
         495  9.7940397E-03
         496 -1.0764545E-02
         497  8.2051288E-03
         498 -2.2210764E-02
         499  1.3444272E-03
         500 -2.7843123E-02
         501 -6.9794558E-02
         502 -1.4352273E-02
         503 -0.1503788    
         504  6.9092229E-02
         505  4.0208131E-02
         506  2.4798114E-02
         507 -2.2118045E-02
         508  9.2928290E-02
         509 -3.9763737E-02
         510 -4.8079914E-03
         511  1.0982376E-02
         512  3.7844259E-02
         513 -3.1489387E-02
         514  1.4385379E-02
         515  7.8273691E-02
         516  3.6387559E-02
         517 -3.6897766E-03
         518 -3.6808636E-02
         519  1.4412277E-02
         520  1.9135069E-02
         521 -1.6264440E-02
         522 -7.5386572E-03
         523  1.7863540E-02
         524  8.4967504E-04
         525 -2.1597869E-03
         526 -9.4615612E-03
         527  1.1257656E-02
         528 -2.1269030E-03
         529  5.2156616E-03
         530 -3.0249095E-04
         531 -5.4756757E-03
         532  5.8141490E-04
         533  3.1684528E-04
         534  1.3782409E-03
         535 -2.6051229E-04
         536 -1.3138952E-03
         537 -2.9784342E-04
         538  1.3584465E-04
         539  7.4638735E-04
         540 -1.3822201E-03
         541  1.3959894E-03
         542  1.3107869E-03
         543 -1.6893410E-03
         544  1.6835635E-03
         545 -2.8714695E-04
         546 -6.7231077E-04
         547 -1.9257857E-03
         548 -3.5285484E-03
         549  4.8337174E-03
         550 -2.7013605E-03
         551 -7.5947278E-04
         552 -6.4835032E-05
         553 -1.9200025E-03
         554 -9.0605607E-03
         555  1.7774476E-02
         556  1.9684147E-02
         557  2.5494308E-03
         558  1.0974194E-03
         559  4.6631512E-03
         560 -3.3444565E-05
         561 -6.6339597E-03
         562 -2.0381024E-02
         563  6.0164463E-03
         564  2.9278030E-03
         565 -3.2603829E-03
         566  8.4574049E-04
         567  3.7716939E-03
         568  1.6362803E-02
         569 -6.7141592E-03
         570  3.4686149E-04
         571  7.8189867E-03
         572  2.7589630E-03
         573 -9.1816522E-03
         574  5.7465020E-03
         575  4.2744228E-03
         576  7.2873774E-04
         577  4.7988156E-03
         578 -2.1333026E-03
         579  1.4818158E-03
         580 -3.5591685E-04
         581  5.0550243E-03
         582  7.2816282E-04
         583  2.5465682E-03
         584 -5.6585687E-04
         585 -4.4173127E-04
         586  4.8038672E-04
         587  2.8524725E-04
         588 -4.9205679E-05
         589  1.1277201E-03
         590  6.9923612E-04
         591  6.4765726E-04
         592 -3.0711724E-04
         593  3.1797140E-04
         594  4.8388602E-04
         595  5.0083565E-04
         596 -9.7221659E-05
         597 -2.6289825E-04
         598 -4.6125083E-04
         599  3.9805321E-04
         600  4.5669326E-04
         601 -2.0377197E-04
         602 -1.7765946E-04
         603  7.8239398E-05
         604  3.1737585E-04
         605  5.6563607E-05
         606  3.7994928E-04
         607  1.2437508E-03
         608 -6.4513995E-04
         609  9.5531915E-04
         610  5.1168742E-04
         611 -4.1217168E-04
         612  8.6241792E-04
         613 -2.8794075E-04
         614  4.6632750E-04
         615 -1.0927103E-03
         616 -2.6757000E-03
         617 -3.5495055E-03
         618 -1.3747127E-02
         619 -9.5415517E-04
         620 -1.0955339E-02
         621  3.9957687E-03
         622 -1.5537631E-02
         623 -2.2515738E-02
         624  4.7758040E-03
         625 -3.5234712E-02
         626 -5.8279376E-02
         627  2.8272048E-02
         628  1.0201531E-02
         629 -1.2631102E-02
         630  7.9214061E-03
         631  2.0446092E-02
         632 -5.2431278E-05
         633  8.3738482E-03
         634  1.1837598E-03
         635  5.6057521E-03
         636 -1.1772287E-02
         637 -9.4677266E-03
         638  5.6293691E-03
         639  6.3908636E-04
         640  3.3195256E-03
         641 -3.5067268E-03
         642 -3.0297684E-03
         643  6.5707578E-03
         644 -6.1345678E-03
         645  3.1221856E-04
         646  1.6222700E-02
         647  5.7812622E-03
