 [Molden Format]
 [Atoms] Angs
C       1      6      6.54907655      0.99778259      1.94757302
C       2      6      5.18009625      1.04665556      2.11034195
C       3      6      4.38981258     -0.02864143      1.73294236
C       4      6      4.95326567     -1.17488155      1.18800934
C       5      6      6.34154115     -1.20238131      1.00218066
C       6      6      7.12639551     -0.13095172      1.38538425
O       7      8      6.98947987     -2.26844934      0.42638003
C       8      6      6.21701884     -3.33125994      0.01927909
C       9      6      6.87363353     -4.39506776     -0.57134314
C      10      6      6.16562246     -5.51822387     -0.97552840
C      11      6      4.80181043     -5.57368047     -0.76876901
C      12      6      4.13861229     -4.50698809     -0.18087263
C      13      6      4.82852759     -3.36246256      0.20032285
N      14      7      4.18508370     -2.27918140      0.80310872
C      15      6      2.77521301     -2.18192366      0.77974977
C      16      6      2.05282015     -2.06008634      1.96244608
C      17      6      0.68850428     -1.83294027      1.92611873
C      18      6      0.03194613     -1.71192132      0.70763085
C      19      6     -1.35766748     -1.22876888      0.60946135
N      20      7     -2.36692149     -1.95382979      1.00943150
C      21      6     -3.61126222     -1.47312251      0.79747382
C      22      6     -4.73366521     -2.20940338      1.22517440
C      23      6     -5.99183529     -1.75338151      0.95342139
C      24      6     -6.18946157     -0.54648638      0.24471707
N      25      7     -7.50459791     -0.12739879     -0.03641015
C      26      6     -8.39281120      0.14423112      1.00930274
C      27      6     -7.99171759      0.14140867      2.34005558
C      28      6     -8.89563208      0.41493641      3.35550022
C      29      6    -10.21073509      0.71161195      3.05816402
C      30      6    -10.61878759      0.75451453      1.73296457
C      31      6     -9.72074676      0.48160780      0.71722133
O      32      8    -10.19084497      0.57275127     -0.57118482
C      33      6     -9.29742026      0.33616943     -1.58932004
C      34      6     -9.78426582      0.44131408     -2.87968204
C      35      6     -8.95790697      0.18493033     -3.96363028
C      36      6     -7.64768258     -0.18980587     -3.74368088
C      37      6     -7.15438176     -0.29270571     -2.45169831
C      38      6     -7.96122311     -0.01581576     -1.35482758
C      39      6     -5.10969225      0.19978746     -0.16913272
C      40      6     -3.80694133     -0.24527782      0.10693907
N      41      7     -2.74819381      0.52229321     -0.24456600
C      42      6     -1.55466809      0.07011321      0.02456047
C      43      6     -0.34647898      0.87878365     -0.22287033
C      44      6      0.12081833      1.13711206     -1.50544055
C      45      6      1.37311775      1.69547043     -1.69056930
C      46      6      2.16708252      2.01637721     -0.59421949
N      47      7      3.49516262      2.46585501     -0.77287411
C      48      6      4.47109591      1.58619062     -1.25298977
C      49      6      4.16121668      0.32201737     -1.73673829
C      50      6      5.15146783     -0.52325248     -2.21443363
C      51      6      6.47131496     -0.12197284     -2.21416559
C      52      6      6.80112462      1.12863924     -1.71340983
C      53      6      5.81776327      1.97174806     -1.23084942
O      54      8      6.23250545      3.18002075     -0.72478778
C      55      6      5.26467745      4.02101306     -0.22651440
C      56      6      5.68920291      5.23234937      0.28736964
C      57      6      4.76746366      6.14839854      0.77463854
C      58      6      3.42063212      5.84906483      0.72780508
C      59      6      2.99074574      4.63313799      0.21778866
C      60      6      3.90320972      3.69274515     -0.24502001
C      61      6      1.65451551      1.85681963      0.69045878
C      62      6      0.41572555      1.28070322      0.87224991
C      63      6      0.74361584     -1.92410364     -0.47155994
C      64      6      2.09927472     -2.16980279     -0.43750704
H      65      1      7.16984763      1.82980570      2.24055055
H      66      1      4.71563958      1.92557144      2.53265438
H      67      1      3.31999869      0.02664019      1.85142758
H      68      1      8.19104003     -0.19678137      1.22572148
H      69      1      7.94236233     -4.32739742     -0.70163685
H      70      1      6.68696240     -6.34170238     -1.43765550
H      71      1      4.24038184     -6.44846516     -1.05917408
H      72      1      3.07459004     -4.56457934     -0.01164447
H      73      1      2.56813820     -2.12136255      2.90937651
H      74      1      0.13458408     -1.71550626      2.84542092
H      75      1     -4.56816145     -3.13802037      1.74861008
H      76      1     -6.85797665     -2.32003823      1.26134259
H      77      1     -6.96280855     -0.07057003      2.58526738
H      78      1     -8.55757326      0.39830350      4.38014687
H      79      1    -10.91904666      0.92160586      3.84393469
H      80      1    -11.63358892      1.00255532      1.46429267
H      81      1    -10.81785430      0.71968361     -3.01295934
H      82      1     -9.34638777      0.27061431     -4.96609312
H      83      1     -6.99496636     -0.40908511     -4.57461320
H      84      1     -6.13248730     -0.60075298     -2.29729142
H      85      1     -5.23833500      1.13313489     -0.69527640
H      86      1     -0.48454767      0.86926433     -2.35841706
H      87      1      1.74983960      1.86558304     -2.68811447
H      88      1      3.13489923     -0.00702851     -1.72842824
H      89      1      4.88224408     -1.50077396     -2.58669844
H      90      1      7.24633306     -0.77330909     -2.58635767
H      91      1      7.82445856      1.46759534     -1.67957704
H      92      1      6.74725454      5.44264313      0.29249848
H      93      1      5.10914450      7.08970568      1.17540390
H      94      1      2.69053680      6.55932343      1.08457874
H      95      1      1.93540768      4.41324493      0.17308879
H      96      1      2.24501588      2.16070345      1.54097263
H      97      1      0.03854249      1.12277857      1.87206277
H      98      1      0.23020472     -1.87714514     -1.42078832
H      99      1      2.64837077     -2.32520450     -1.35337005
 [GTO]
           1   0
s              4   1.000000
     34.92490547     -0.01198412
      6.01435771     -0.05472052
      0.48327930      0.58055871
      0.18418971      0.47700800
p              4   1.000000
      5.62906092      0.05713170
      1.45953144      0.28574555
      0.51453000      0.55178731
      0.20484326      0.26323149
s              7   1.000000
      0.38350848     -0.19624069
      0.04707223      0.94816291
      0.02222627      0.24900197
     34.92490547      0.00551712
      6.01435771      0.02519165
      0.48327930     -0.26727138
      0.18418971     -0.21959982
p              7   1.000000
      1.83062075     -0.01161208
      0.10124670      0.57063555
      0.03901771      0.59594407
      5.62906092     -0.02527274
      1.45953144     -0.12640218
      0.51453000     -0.24408821
      0.20484326     -0.11644288
 
           2   0
s              4   1.000000
     34.93440481     -0.01198412
      6.01599358     -0.05472052
      0.48341075      0.58055871
      0.18423980      0.47700800
p              4   1.000000
      5.63059198      0.05713170
      1.45992842      0.28574555
      0.51466995      0.55178731
      0.20489897      0.26323149
s              7   1.000000
      0.38350848     -0.19623178
      0.04707223      0.94811985
      0.02222627      0.24899066
     34.93440481      0.00551569
      6.01599358      0.02518511
      0.48341075     -0.26720199
      0.18423980     -0.21954280
p              7   1.000000
      1.83062075     -0.01161159
      0.10124670      0.57061122
      0.03901771      0.59591866
      5.63059198     -0.02526615
      1.45992842     -0.12636924
      0.51466995     -0.24402459
      0.20489897     -0.11641253
 
           3   0
s              4   1.000000
     35.04214794     -0.01198412
      6.03454784     -0.05472053
      0.48490167      0.58055871
      0.18480803      0.47700799
p              4   1.000000
      5.64795760      0.05713170
      1.46443107      0.28574555
      0.51625727      0.55178731
      0.20553092      0.26323149
s              7   1.000000
      0.38350848     -0.19613118
      0.04707223      0.94763376
      0.02222627      0.24886301
     35.04214794      0.00549949
      6.03454784      0.02511115
      0.48490167     -0.26641734
      0.18480803     -0.21889810
p              7   1.000000
      1.83062075     -0.01160600
      0.10124670      0.57033639
      0.03901771      0.59563163
      5.64795760     -0.02519167
      1.46443107     -0.12599672
      0.51625727     -0.24330525
      0.20553092     -0.11606937
 
           4   0
s              4   1.000000
     35.23938892     -0.01198412
      6.06851437     -0.05472052
      0.48763102      0.58055871
      0.18584825      0.47700799
p              4   1.000000
      5.67974814      0.05713170
      1.47267388      0.28574555
      0.51916312      0.55178731
      0.20668778      0.26323149
s              7   1.000000
      0.38350848     -0.19594912
      0.04707223      0.94675413
      0.02222627      0.24863201
     35.23938892      0.00547008
      6.06851437      0.02497686
      0.48763102     -0.26499256
      0.18584825     -0.21772745
p              7   1.000000
      1.83062075     -0.01159588
      0.10124670      0.56983908
      0.03901771      0.59511225
      5.67974814     -0.02505642
      1.47267388     -0.12532027
      0.51916312     -0.24199899
      0.20668778     -0.11544621
 
           5   0
s              4   1.000000
     35.23545445     -0.01198412
      6.06783682     -0.05472052
      0.48757658      0.58055871
      0.18582750      0.47700799
p              4   1.000000
      5.67911400      0.05713170
      1.47250946      0.28574555
      0.51910515      0.55178731
      0.20666471      0.26323149
s              7   1.000000
      0.38350848     -0.19595273
      0.04707223      0.94677154
      0.02222627      0.24863659
     35.23545445      0.00547066
      6.06783682      0.02497952
      0.48757658     -0.26502084
      0.18582750     -0.21775069
p              7   1.000000
      1.83062075     -0.01159608
      0.10124670      0.56984893
      0.03901771      0.59512257
      5.67911400     -0.02505910
      1.47250946     -0.12533370
      0.51910515     -0.24202492
      0.20666471     -0.11545858
 
           6   0
s              4   1.000000
     34.98627396     -0.01198412
      6.02492588     -0.05472052
      0.48412850      0.58055871
      0.18451335      0.47700800
p              4   1.000000
      5.63895205      0.05713170
      1.46209606      0.28574555
      0.51543411      0.55178731
      0.20520320      0.26323149
s              7   1.000000
      0.38350848     -0.19618325
      0.04707223      0.94788535
      0.02222627      0.24892909
     34.98627396      0.00550788
      6.02492588      0.02514945
      0.48412850     -0.26682368
      0.18451335     -0.21923197
p              7   1.000000
      1.83062075     -0.01160889
      0.10124670      0.57047862
      0.03901771      0.59578018
      5.63895205     -0.02523024
      1.46209606     -0.12618964
      0.51543411     -0.24367777
      0.20520320     -0.11624708
 
           7   0
s              4   1.000000
     78.08049685     -0.01198412
     13.44610765     -0.05472053
      1.08045212      0.58055871
      0.41178705      0.47700799
p              4   1.000000
      8.05187783      0.05713170
      2.08773169      0.28574555
      0.73599002      0.55178731
      0.29301031      0.26323149
s              7   1.000000
      0.57971233     -0.18685713
      0.07115450      0.90282499
      0.03359728      0.23709555
     78.08049685      0.00376708
     13.44610765      0.01720081
      1.08045212     -0.18249242
      0.41178705     -0.14994236
p              7   1.000000
      2.76717072     -0.01171740
      0.15304476      0.57581119
      0.05897927      0.60134926
      8.05187783     -0.02664259
      2.08773169     -0.13325355
      0.73599002     -0.25731851
      0.29301031     -0.12275443
 
           8   0
s              4   1.000000
     35.22407324     -0.01198412
      6.06587688     -0.05472053
      0.48741909      0.58055871
      0.18576748      0.47700799
p              4   1.000000
      5.67727962      0.05713170
      1.47203383      0.28574555
      0.51893748      0.55178731
      0.20659795      0.26323149
s              7   1.000000
      0.38350848     -0.19596316
      0.04707223      0.94682197
      0.02222627      0.24864983
     35.22407324      0.00547235
      6.06587688      0.02498723
      0.48741909     -0.26510266
      0.18576748     -0.21781792
p              7   1.000000
      1.83062075     -0.01159666
      0.10124670      0.56987743
      0.03901771      0.59515230
      5.67727962     -0.02506687
      1.47203383     -0.12537255
      0.51893748     -0.24209994
      0.20659795     -0.11549437
 
           9   0
s              4   1.000000
     34.97311147     -0.01198412
      6.02265919     -0.05472052
      0.48394636      0.58055871
      0.18444394      0.47700800
p              4   1.000000
      5.63683057      0.05713170
      1.46154600      0.28574555
      0.51524019      0.55178731
      0.20512600      0.26323149
s              7   1.000000
      0.38350848     -0.19619554
      0.04707223      0.94794476
      0.02222627      0.24894469
     34.97311147      0.00550986
      6.02265919      0.02515849
      0.48394636     -0.26691958
      0.18444394     -0.21931076
p              7   1.000000
      1.83062075     -0.01160957
      0.10124670      0.57051222
      0.03901771      0.59581526
      5.63683057     -0.02523934
      1.46154600     -0.12623516
      0.51524019     -0.24376569
      0.20512600     -0.11628902
 
          10   0
s              4   1.000000
     34.91559655     -0.01198412
      6.01275464     -0.05472052
      0.48315049      0.58055871
      0.18414061      0.47700799
p              4   1.000000
      5.62756054      0.05713170
      1.45914242      0.28574555
      0.51439285      0.55178731
      0.20478866      0.26323149
s              7   1.000000
      0.38350848     -0.19624943
      0.04707223      0.94820511
      0.02222627      0.24901306
     34.91559655      0.00551852
      6.01275464      0.02519806
      0.48315049     -0.26733943
      0.18414061     -0.21965572
p              7   1.000000
      1.83062075     -0.01161257
      0.10124670      0.57065942
      0.03901771      0.59596899
      5.62756054     -0.02527919
      1.45914242     -0.12643448
      0.51439285     -0.24415059
      0.20478866     -0.11647264
 
          11   0
s              4   1.000000
     34.91888539     -0.01198412
      6.01332101     -0.05472052
      0.48319600      0.58055871
      0.18415796      0.47700799
p              4   1.000000
      5.62809062      0.05713170
      1.45927986      0.28574555
      0.51444131      0.55178731
      0.20480795      0.26323149
s              7   1.000000
      0.38350848     -0.19624634
      0.04707223      0.94819020
      0.02222627      0.24900914
     34.91888539      0.00551803
      6.01332101      0.02519579
      0.48319600     -0.26731538
      0.18415796     -0.21963597
p              7   1.000000
      1.83062075     -0.01161240
      0.10124670      0.57065098
      0.03901771      0.59596017
      5.62809062     -0.02527691
      1.45927986     -0.12642307
      0.51444131     -0.24412855
      0.20480795     -0.11646212
 
          12   0
s              4   1.000000
     35.02630862     -0.01198412
      6.03182018     -0.05472052
      0.48468249      0.58055871
      0.18472449      0.47700799
p              4   1.000000
      5.64540468      0.05713170
      1.46376913      0.28574555
      0.51602392      0.55178731
      0.20543801      0.26323149
s              7   1.000000
      0.38350848     -0.19614591
      0.04707223      0.94770497
      0.02222627      0.24888170
     35.02630862      0.00550186
      6.03182018      0.02512200
      0.48468249     -0.26653241
      0.18472449     -0.21899264
p              7   1.000000
      1.83062075     -0.01160681
      0.10124670      0.57037664
      0.03901771      0.59567370
      5.64540468     -0.02520259
      1.46376913     -0.12605135
      0.51602392     -0.24341074
      0.20543801     -0.11611969
 
          13   0
s              4   1.000000
     35.23350468     -0.01198412
      6.06750105     -0.05472052
      0.48754960      0.58055871
      0.18581722      0.47700800
p              4   1.000000
      5.67879974      0.05713170
      1.47242797      0.28574555
      0.51907642      0.55178731
      0.20665327      0.26323149
s              7   1.000000
      0.38350848     -0.19595451
      0.04707223      0.94678018
      0.02222627      0.24863886
     35.23350468      0.00547095
      6.06750105      0.02498084
      0.48754960     -0.26503485
      0.18581722     -0.21776220
p              7   1.000000
      1.83062075     -0.01159618
      0.10124670      0.56985381
      0.03901771      0.59512767
      5.67879974     -0.02506043
      1.47242797     -0.12534035
      0.51907642     -0.24203777
      0.20665327     -0.11546471
 
          14   0
s              4   1.000000
     61.15264905     -0.01198412
     10.53099218     -0.05472052
      0.84621016      0.58055871
      0.32251164      0.47700799
p              4   1.000000
      7.20818358      0.05713170
      1.86897437      0.28574555
      0.65887130      0.55178731
      0.26230802      0.26323149
s              7   1.000000
      0.47894987     -0.18779765
      0.05878681      0.90736926
      0.02775758      0.23828895
     61.15264905      0.00397285
     10.53099218      0.01814037
      0.84621016     -0.19246069
      0.32251164     -0.15813265
p              7   1.000000
      2.28619608     -0.01156741
      0.12644335      0.56844021
      0.04872781      0.59365138
      7.20818358     -0.02467266
      1.86897437     -0.12340086
      0.65887130     -0.23829253
      0.26230802     -0.11367804
 
          15   0
s              4   1.000000
     35.20332975     -0.01198412
      6.06230468     -0.05472052
      0.48713205      0.58055871
      0.18565808      0.47700799
p              4   1.000000
      5.67393626      0.05713170
      1.47116695      0.28574555
      0.51863187      0.55178731
      0.20647629      0.26323149
s              7   1.000000
      0.38350848     -0.19598220
      0.04707223      0.94691397
      0.02222627      0.24867398
     35.20332975      0.00547543
      6.06230468      0.02500130
      0.48713205     -0.26525192
      0.18565808     -0.21794055
p              7   1.000000
      1.83062075     -0.01159771
      0.10124670      0.56992944
      0.03901771      0.59520664
      5.67393626     -0.02508104
      1.47116695     -0.12544341
      0.51863187     -0.24223678
      0.20647629     -0.11555965
 
          16   0
s              4   1.000000
     35.01314596     -0.01198412
      6.02955346     -0.05472052
      0.48450035      0.58055871
      0.18465508      0.47700800
p              4   1.000000
      5.64328318      0.05713170
      1.46321906      0.28574555
      0.51583000      0.55178731
      0.20536081      0.26323149
s              7   1.000000
      0.38350848     -0.19615818
      0.04707223      0.94776421
      0.02222627      0.24889728
     35.01314596      0.00550384
      6.02955346      0.02513102
      0.48450035     -0.26662810
      0.18465508     -0.21907127
p              7   1.000000
      1.83062075     -0.01160750
      0.10124670      0.57041014
      0.03901771      0.59570865
      5.64328318     -0.02521167
      1.46321906     -0.12609678
      0.51583000     -0.24349847
      0.20536081     -0.11616155
 
          17   0
s              4   1.000000
     35.00370415     -0.01198412
      6.02792750     -0.05472052
      0.48436969      0.58055871
      0.18460528      0.47700800
p              4   1.000000
      5.64176138      0.05713170
      1.46282448      0.28574555
      0.51569090      0.55178731
      0.20530543      0.26323149
s              7   1.000000
      0.38350848     -0.19616698
      0.04707223      0.94780675
      0.02222627      0.24890844
     35.00370415      0.00550526
      6.02792750      0.02513749
      0.48436969     -0.26669679
      0.18460528     -0.21912771
p              7   1.000000
      1.83062075     -0.01160799
      0.10124670      0.57043419
      0.03901771      0.59573378
      5.64176138     -0.02521819
      1.46282448     -0.12612939
      0.51569090     -0.24356144
      0.20530543     -0.11619159
 
          18   0
s              4   1.000000
     35.13649152     -0.01198412
      6.05079458     -0.05472052
      0.48620716      0.58055871
      0.18530558      0.47700799
p              4   1.000000
      5.66316354      0.05713170
      1.46837374      0.28574555
      0.51764718      0.55178731
      0.20608426      0.26323149
s              7   1.000000
      0.38350848     -0.19604376
      0.04707223      0.94721138
      0.02222627      0.24875208
     35.13649152      0.00548538
      6.05079458      0.02504674
      0.48620716     -0.26573398
      0.18530558     -0.21833663
p              7   1.000000
      1.83062075     -0.01160114
      0.10124670      0.57009759
      0.03901771      0.59538225
      5.66316354     -0.02512680
      1.46837374     -0.12567228
      0.51764718     -0.24267874
      0.20608426     -0.11577049
 
          19   0
s              4   1.000000
     35.30693915     -0.01198412
      6.08014708     -0.05472053
      0.48856576      0.58055871
      0.18620450      0.47700799
p              4   1.000000
      5.69063562      0.05713170
      1.47549684      0.28574555
      0.52015830      0.55178731
      0.20708398      0.26323149
s              7   1.000000
      0.38350848     -0.19588739
      0.04707223      0.94645589
      0.02222627      0.24855369
     35.30693915      0.00546008
      6.08014708      0.02493119
      0.48856576     -0.26450804
      0.18620450     -0.21732935
p              7   1.000000
      1.83062075     -0.01159244
      0.10124670      0.56967046
      0.03901771      0.59493619
      5.69063562     -0.02501042
      1.47549684     -0.12509022
      0.52015830     -0.24155476
      0.20708398     -0.11523429
 
          20   0
s              4   1.000000
     57.24829209     -0.01198412
      9.85862961     -0.05472052
      0.79218295      0.58055871
      0.30192053      0.47700799
p              4   1.000000
      6.74796931      0.05713170
      1.74964768      0.28574555
      0.61680495      0.55178731
      0.24556068      0.26323149
s              7   1.000000
      0.47894987     -0.18908701
      0.05878681      0.91359893
      0.02775758      0.23992495
     57.24829209      0.00424026
      9.85862961      0.01936141
      0.79218295     -0.20541538
      0.30192053     -0.16877669
p              7   1.000000
      2.28619608     -0.01168924
      0.12644335      0.57442741
      0.04872781      0.59990410
      6.74796931     -0.02628214
      1.74964768     -0.13145073
      0.61680495     -0.25383719
      0.24556068     -0.12109365
 
          21   0
s              4   1.000000
     35.29433388     -0.01198412
      6.07797634     -0.05472053
      0.48839133      0.58055871
      0.18613803      0.47700799
p              4   1.000000
      5.68860396      0.05713170
      1.47497006      0.28574555
      0.51997259      0.55178731
      0.20701005      0.26323149
s              7   1.000000
      0.38350848     -0.19589889
      0.04707223      0.94651143
      0.02222627      0.24856827
     35.29433388      0.00546194
      6.07797634      0.02493970
      0.48839133     -0.26459832
      0.18613803     -0.21740353
p              7   1.000000
      1.83062075     -0.01159308
      0.10124670      0.56970186
      0.03901771      0.59496896
      5.68860396     -0.02501899
      1.47497006     -0.12513309
      0.51997259     -0.24163754
      0.20701005     -0.11527378
 
          22   0
s              4   1.000000
     34.97816830     -0.01198412
      6.02353001     -0.05472052
      0.48401634      0.58055871
      0.18447061      0.47700800
p              4   1.000000
      5.63764561      0.05713170
      1.46175732      0.28574555
      0.51531469      0.55178731
      0.20515566      0.26323149
s              7   1.000000
      0.38350848     -0.19619082
      0.04707223      0.94792194
      0.02222627      0.24893869
     34.97816830      0.00550910
      6.02353001      0.02515501
      0.48401634     -0.26688273
      0.18447061     -0.21928049
p              7   1.000000
      1.83062075     -0.01160931
      0.10124670      0.57049931
      0.03901771      0.59580178
      5.63764561     -0.02523584
      1.46175732     -0.12621767
      0.51531469     -0.24373191
      0.20515566     -0.11627290
 
          23   0
s              4   1.000000
     35.00236835     -0.01198412
      6.02769746     -0.05472052
      0.48435121      0.58055871
      0.18459823      0.47700799
p              4   1.000000
      5.64154608      0.05713170
      1.46276866      0.28574555
      0.51567122      0.55178731
      0.20529760      0.26323149
s              7   1.000000
      0.38350848     -0.19616822
      0.04707223      0.94781277
      0.02222627      0.24891003
     35.00236835      0.00550546
      6.02769746      0.02513841
      0.48435121     -0.26670651
      0.18459823     -0.21913570
p              7   1.000000
      1.83062075     -0.01160805
      0.10124670      0.57043760
      0.03901771      0.59573734
      5.64154608     -0.02521912
      1.46276866     -0.12613401
      0.51567122     -0.24357035
      0.20529760     -0.11619583
 
          24   0
s              4   1.000000
     35.18267705     -0.01198412
      6.05874811     -0.05472053
      0.48684626      0.58055871
      0.18554916      0.47700800
p              4   1.000000
      5.67060754      0.05713170
      1.47030386      0.28574555
      0.51832761      0.55178731
      0.20635515      0.26323149
s              7   1.000000
      0.38350848     -0.19600119
      0.04707223      0.94700570
      0.02222627      0.24869807
     35.18267705      0.00547850
      6.05874811      0.02501533
      0.48684626     -0.26540069
      0.18554916     -0.21806278
p              7   1.000000
      1.83062075     -0.01159877
      0.10124670      0.56998130
      0.03901771      0.59526081
      5.67060754     -0.02509516
      1.47030386     -0.12551405
      0.51832761     -0.24237318
      0.20635515     -0.11562472
 
          25   0
s              4   1.000000
     61.15231148     -0.01198412
     10.53093405     -0.05472052
      0.84620549      0.58055871
      0.32250986      0.47700799
p              4   1.000000
      7.20814379      0.05713170
      1.86896405      0.28574555
      0.65886766      0.55178731
      0.26230657      0.26323149
s              7   1.000000
      0.47894987     -0.18779776
      0.05878681      0.90736975
      0.02775758      0.23828907
     61.15231148      0.00397287
     10.53093405      0.01814047
      0.84620549     -0.19246175
      0.32250986     -0.15813352
p              7   1.000000
      2.28619608     -0.01156742
      0.12644335      0.56844069
      0.04872781      0.59365187
      7.20814379     -0.02467279
      1.86896405     -0.12340152
      0.65886766     -0.23829379
      0.26230657     -0.11367864
 
          26   0
s              4   1.000000
     35.22870512     -0.01198412
      6.06667453     -0.05472052
      0.48748318      0.58055871
      0.18579191      0.47700799
p              4   1.000000
      5.67802617      0.05713170
      1.47222740      0.28574555
      0.51900572      0.55178731
      0.20662512      0.26323149
s              7   1.000000
      0.38350848     -0.19595891
      0.04707223      0.94680144
      0.02222627      0.24864444
     35.22870512      0.00547166
      6.06667453      0.02498410
      0.48748318     -0.26506935
      0.18579191     -0.21779055
p              7   1.000000
      1.83062075     -0.01159642
      0.10124670      0.56986582
      0.03901771      0.59514021
      5.67802617     -0.02506371
      1.47222740     -0.12535673
      0.51900572     -0.24206940
      0.20662512     -0.11547980
 
          27   0
s              4   1.000000
     35.02552391     -0.01198412
      6.03168504     -0.05472053
      0.48467163      0.58055871
      0.18472036      0.47700799
p              4   1.000000
      5.64527821      0.05713170
      1.46373634      0.28574555
      0.51601236      0.55178731
      0.20543341      0.26323149
s              7   1.000000
      0.38350848     -0.19614664
      0.04707223      0.94770851
      0.02222627      0.24888263
     35.02552391      0.00550198
      6.03168504      0.02512253
      0.48467163     -0.26653811
      0.18472036     -0.21899733
p              7   1.000000
      1.83062075     -0.01160686
      0.10124670      0.57037865
      0.03901771      0.59567576
      5.64527821     -0.02520313
      1.46373634     -0.12605406
      0.51601236     -0.24341597
      0.20543341     -0.11612218
 
          28   0
s              4   1.000000
     34.91916200     -0.01198412
      6.01336864     -0.05472052
      0.48319983      0.58055871
      0.18415941      0.47700799
p              4   1.000000
      5.62813521      0.05713170
      1.45929142      0.28574555
      0.51444538      0.55178731
      0.20480957      0.26323149
s              7   1.000000
      0.38350848     -0.19624608
      0.04707223      0.94818894
      0.02222627      0.24900882
     34.91916200      0.00551799
      6.01336864      0.02519560
      0.48319983     -0.26731336
      0.18415941     -0.21963431
p              7   1.000000
      1.83062075     -0.01161238
      0.10124670      0.57065028
      0.03901771      0.59595944
      5.62813521     -0.02527672
      1.45929142     -0.12642211
      0.51444538     -0.24412669
      0.20480957     -0.11646124
 
          29   0
s              4   1.000000
     34.91512696     -0.01198412
      6.01267377     -0.05472053
      0.48314399      0.58055871
      0.18413813      0.47700799
p              4   1.000000
      5.62748485      0.05713170
      1.45912279      0.28574555
      0.51438594      0.55178731
      0.20478590      0.26323149
s              7   1.000000
      0.38350848     -0.19624987
      0.04707223      0.94820725
      0.02222627      0.24901362
     34.91512696      0.00551859
      6.01267377      0.02519838
      0.48314399     -0.26734286
      0.18413813     -0.21965854
p              7   1.000000
      1.83062075     -0.01161259
      0.10124670      0.57066062
      0.03901771      0.59597024
      5.62748485     -0.02527952
      1.45912279     -0.12643611
      0.51438594     -0.24415373
      0.20478590     -0.11647414
 
          30   0
s              4   1.000000
     34.97216507     -0.01198412
      6.02249621     -0.05472053
      0.48393327      0.58055871
      0.18443895      0.47700800
p              4   1.000000
      5.63667804      0.05713170
      1.46150644      0.28574555
      0.51522625      0.55178731
      0.20512045      0.26323149
s              7   1.000000
      0.38350848     -0.19619643
      0.04707223      0.94794904
      0.02222627      0.24894581
     34.97216507      0.00551000
      6.02249621      0.02515914
      0.48393327     -0.26692648
      0.18443895     -0.21931643
p              7   1.000000
      1.83062075     -0.01160962
      0.10124670      0.57051464
      0.03901771      0.59581780
      5.63667804     -0.02524000
      1.46150644     -0.12623844
      0.51522625     -0.24377202
      0.20512045     -0.11629204
 
          31   0
s              4   1.000000
     35.21995143     -0.01198412
      6.06516707     -0.05472052
      0.48736205      0.58055871
      0.18574574      0.47700799
p              4   1.000000
      5.67661528      0.05713170
      1.47186158      0.28574555
      0.51887675      0.55178730
      0.20657378      0.26323149
s              7   1.000000
      0.38350848     -0.19596694
      0.04707223      0.94684023
      0.02222627      0.24865463
     35.21995143      0.00547296
      6.06516707      0.02499003
      0.48736205     -0.26513230
      0.18574574     -0.21784227
p              7   1.000000
      1.83062075     -0.01159687
      0.10124670      0.56988776
      0.03901771      0.59516310
      5.67661528     -0.02506969
      1.47186158     -0.12538662
      0.51887675     -0.24212712
      0.20657378     -0.11550733
 
          32   0
s              4   1.000000
     78.07287352     -0.01198412
     13.44479485     -0.05472052
      1.08034663      0.58055871
      0.41174684      0.47700799
p              4   1.000000
      8.05109169      0.05713170
      2.08752785      0.28574555
      0.73591817      0.55178731
      0.29298170      0.26323149
s              7   1.000000
      0.57971233     -0.18685877
      0.07115450      0.90283290
      0.03359728      0.23709762
     78.07287352      0.00376745
     13.44479485      0.01720249
      1.08034663     -0.18251023
      0.41174684     -0.14995699
p              7   1.000000
      2.76717072     -0.01171760
      0.15304476      0.57582078
      0.05897927      0.60135926
      8.05109169     -0.02664507
      2.08752785     -0.13326596
      0.73591817     -0.25734247
      0.29298170     -0.12276586
 
          33   0
s              4   1.000000
     35.22218142     -0.01198412
      6.06555109     -0.05472053
      0.48739291      0.58055871
      0.18575750      0.47700799
p              4   1.000000
      5.67697470      0.05713170
      1.47195477      0.28574555
      0.51890961      0.55178731
      0.20658686      0.26323149
s              7   1.000000
      0.38350848     -0.19596490
      0.04707223      0.94683034
      0.02222627      0.24865202
     35.22218142      0.00547263
      6.06555109      0.02498852
      0.48739291     -0.26511627
      0.18575750     -0.21782910
p              7   1.000000
      1.83062075     -0.01159675
      0.10124670      0.56988217
      0.03901771      0.59515728
      5.67697470     -0.02506816
      1.47195477     -0.12537901
      0.51890961     -0.24211241
      0.20658686     -0.11550032
 
          34   0
s              4   1.000000
     34.97362673     -0.01198412
      6.02274792     -0.05472053
      0.48395349      0.58055871
      0.18444665      0.47700799
p              4   1.000000
      5.63691362      0.05713170
      1.46156753      0.28574555
      0.51524778      0.55178731
      0.20512902      0.26323149
s              7   1.000000
      0.38350848     -0.19619506
      0.04707223      0.94794244
      0.02222627      0.24894408
     34.97362673      0.00550978
      6.02274792      0.02515813
      0.48395349     -0.26691583
      0.18444665     -0.21930768
p              7   1.000000
      1.83062075     -0.01160955
      0.10124670      0.57051091
      0.03901771      0.59581388
      5.63691362     -0.02523899
      1.46156753     -0.12623338
      0.51524778     -0.24376225
      0.20512902     -0.11628738
 
          35   0
s              4   1.000000
     34.91425624     -0.01198412
      6.01252383     -0.05472053
      0.48313194      0.58055871
      0.18413354      0.47700800
p              4   1.000000
      5.62734451      0.05713170
      1.45908640      0.28574555
      0.51437311      0.55178731
      0.20478080      0.26323149
s              7   1.000000
      0.38350848     -0.19625069
      0.04707223      0.94821120
      0.02222627      0.24901464
     34.91425624      0.00551873
      6.01252383      0.02519898
      0.48313194     -0.26734922
      0.18413354     -0.21966377
p              7   1.000000
      1.83062075     -0.01161264
      0.10124670      0.57066286
      0.03901771      0.59597259
      5.62734451     -0.02528012
      1.45908640     -0.12643914
      0.51437311     -0.24415957
      0.20478080     -0.11647692
 
          36   0
s              4   1.000000
     34.91989813     -0.01198412
      6.01349541     -0.05472053
      0.48321001      0.58055871
      0.18416330      0.47700799
p              4   1.000000
      5.62825385      0.05713170
      1.45932218      0.28574555
      0.51445623      0.55178731
      0.20481389      0.26323149
s              7   1.000000
      0.38350848     -0.19624539
      0.04707223      0.94818561
      0.02222627      0.24900794
     34.91989813      0.00551787
      6.01349541      0.02519510
      0.48321001     -0.26730798
      0.18416330     -0.21962989
p              7   1.000000
      1.83062075     -0.01161234
      0.10124670      0.57064839
      0.03901771      0.59595746
      5.62825385     -0.02527621
      1.45932218     -0.12641956
      0.51445623     -0.24412176
      0.20481389     -0.11645888
 
          37   0
s              4   1.000000
     35.02196423     -0.01198412
      6.03107204     -0.05472052
      0.48462237      0.58055871
      0.18470158      0.47700799
p              4   1.000000
      5.64470447      0.05713170
      1.46358758      0.28574555
      0.51595991      0.55178731
      0.20541253      0.26323149
s              7   1.000000
      0.38350848     -0.19614996
      0.04707223      0.94772452
      0.02222627      0.24888685
     35.02196423      0.00550252
      6.03107204      0.02512497
      0.48462237     -0.26656398
      0.18470158     -0.21901859
p              7   1.000000
      1.83062075     -0.01160704
      0.10124670      0.57038770
      0.03901771      0.59568523
      5.64470447     -0.02520559
      1.46358758     -0.12606634
      0.51595991     -0.24343969
      0.20541253     -0.11613350
 
          38   0
s              4   1.000000
     35.21688584     -0.01198412
      6.06463915     -0.05472052
      0.48731963      0.58055871
      0.18572957      0.47700799
p              4   1.000000
      5.67612118      0.05713170
      1.47173346      0.28574555
      0.51883159      0.55178731
      0.20655580      0.26323149
s              7   1.000000
      0.38350848     -0.19596975
      0.04707223      0.94685382
      0.02222627      0.24865819
     35.21688584      0.00547342
      6.06463915      0.02499211
      0.48731963     -0.26515436
      0.18572957     -0.21786039
p              7   1.000000
      1.83062075     -0.01159702
      0.10124670      0.56989544
      0.03901771      0.59517112
      5.67612118     -0.02507178
      1.47173346     -0.12539709
      0.51883159     -0.24214734
      0.20655580     -0.11551698
 
          39   0
s              4   1.000000
     35.07745501     -0.01198412
      6.04062801     -0.05472052
      0.48539024      0.58055871
      0.18499423      0.47700799
p              4   1.000000
      5.65364826      0.05713170
      1.46590657      0.28574555
      0.51677743      0.55178731
      0.20573800      0.26323149
s              7   1.000000
      0.38350848     -0.19609839
      0.04707223      0.94747534
      0.02222627      0.24882140
     35.07745501      0.00549420
      6.04062801      0.02508701
      0.48539024     -0.26616119
      0.18499423     -0.21868765
p              7   1.000000
      1.83062075     -0.01160417
      0.10124670      0.57024682
      0.03901771      0.59553809
      5.65364826     -0.02516735
      1.46590657     -0.12587511
      0.51677743     -0.24307042
      0.20573800     -0.11595734
 
          40   0
s              4   1.000000
     35.29414601     -0.01198412
      6.07794399     -0.05472052
      0.48838873      0.58055871
      0.18613704      0.47700799
p              4   1.000000
      5.68857368      0.05713170
      1.47496221      0.28574555
      0.51996982      0.55178731
      0.20700895      0.26323149
s              7   1.000000
      0.38350848     -0.19589906
      0.04707223      0.94651225
      0.02222627      0.24856849
     35.29414601      0.00546197
      6.07794399      0.02493982
      0.48838873     -0.26459967
      0.18613704     -0.21740463
p              7   1.000000
      1.83062075     -0.01159309
      0.10124670      0.56970232
      0.03901771      0.59496944
      5.68857368     -0.02501912
      1.47496221     -0.12513373
      0.51996982     -0.24163877
      0.20700895     -0.11527437
 
          41   0
s              4   1.000000
     57.25384018     -0.01198412
      9.85958503     -0.05472052
      0.79225973      0.58055871
      0.30194979      0.47700799
p              4   1.000000
      6.74862327      0.05713170
      1.74981724      0.28574555
      0.61686473      0.55178731
      0.24558448      0.26323149
s              7   1.000000
      0.47894987     -0.18908500
      0.05878681      0.91358924
      0.02775758      0.23992241
     57.25384018      0.00423986
      9.85958503      0.01935957
      0.79225973     -0.20539581
      0.30194979     -0.16876061
p              7   1.000000
      2.28619608     -0.01168906
      0.12644335      0.57441813
      0.04872781      0.59989441
      6.74862327     -0.02627971
      1.74981724     -0.13143857
      0.61686473     -0.25381370
      0.24558448     -0.12108245
 
          42   0
s              4   1.000000
     35.30573996     -0.01198412
      6.07994056     -0.05472052
      0.48854917      0.58055871
      0.18619818      0.47700799
p              4   1.000000
      5.69044234      0.05713170
      1.47544673      0.28574555
      0.52014063      0.55178731
      0.20707695      0.26323149
s              7   1.000000
      0.38350848     -0.19588848
      0.04707223      0.94646117
      0.02222627      0.24855508
     35.30573996      0.00546025
      6.07994056      0.02493200
      0.48854917     -0.26451662
      0.18619818     -0.21733641
p              7   1.000000
      1.83062075     -0.01159250
      0.10124670      0.56967344
      0.03901771      0.59493930
      5.69044234     -0.02501124
      1.47544673     -0.12509430
      0.52014063     -0.24156263
      0.20707695     -0.11523805
 
          43   0
s              4   1.000000
     35.13794072     -0.01198412
      6.05104415     -0.05472052
      0.48622722      0.58055871
      0.18531323      0.47700800
p              4   1.000000
      5.66339711      0.05713170
      1.46843430      0.28574555
      0.51766853      0.55178731
      0.20609276      0.26323149
s              7   1.000000
      0.38350848     -0.19604242
      0.04707223      0.94720492
      0.02222627      0.24875040
     35.13794072      0.00548517
      6.05104415      0.02504575
      0.48622722     -0.26572351
      0.18531323     -0.21832802
p              7   1.000000
      1.83062075     -0.01160106
      0.10124670      0.57009393
      0.03901771      0.59537841
      5.66339711     -0.02512581
      1.46843430     -0.12566731
      0.51766853     -0.24266914
      0.20609276     -0.11576591
 
          44   0
s              4   1.000000
     35.00356387     -0.01198412
      6.02790334     -0.05472052
      0.48436775      0.58055871
      0.18460454      0.47700799
p              4   1.000000
      5.64173877      0.05713170
      1.46281862      0.28574555
      0.51568883      0.55178731
      0.20530461      0.26323149
s              7   1.000000
      0.38350848     -0.19616711
      0.04707223      0.94780738
      0.02222627      0.24890861
     35.00356387      0.00550528
      6.02790334      0.02513759
      0.48436775     -0.26669781
      0.18460454     -0.21912855
p              7   1.000000
      1.83062075     -0.01160799
      0.10124670      0.57043455
      0.03901771      0.59573414
      5.64173877     -0.02521829
      1.46281862     -0.12612988
      0.51568883     -0.24356238
      0.20530461     -0.11619203
 
          45   0
s              4   1.000000
     35.01320285     -0.01198412
      6.02956325     -0.05472052
      0.48450114      0.58055871
      0.18465538      0.47700799
p              4   1.000000
      5.64329235      0.05713170
      1.46322144      0.28574555
      0.51583084      0.55178731
      0.20536114      0.26323149
s              7   1.000000
      0.38350848     -0.19615812
      0.04707223      0.94776396
      0.02222627      0.24889721
     35.01320285      0.00550383
      6.02956325      0.02513098
      0.48450114     -0.26662769
      0.18465538     -0.21907094
p              7   1.000000
      1.83062075     -0.01160749
      0.10124670      0.57040999
      0.03901771      0.59570853
      5.64329235     -0.02521164
      1.46322144     -0.12609659
      0.51583084     -0.24349809
      0.20536114     -0.11616137
 
          46   0
s              4   1.000000
     35.20302912     -0.01198412
      6.06225291     -0.05472052
      0.48712789      0.58055871
      0.18565650      0.47700799
p              4   1.000000
      5.67388781      0.05713170
      1.47115438      0.28574555
      0.51862745      0.55178731
      0.20647452      0.26323149
s              7   1.000000
      0.38350848     -0.19598247
      0.04707223      0.94691530
      0.02222627      0.24867432
     35.20302912      0.00547548
      6.06225291      0.02500151
      0.48712789     -0.26525408
      0.18565650     -0.21794233
p              7   1.000000
      1.83062075     -0.01159773
      0.10124670      0.56993020
      0.03901771      0.59520744
      5.67388781     -0.02508125
      1.47115438     -0.12544444
      0.51862745     -0.24223877
      0.20647452     -0.11556060
 
          47   0
s              4   1.000000
     61.15382777     -0.01198412
     10.53119517     -0.05472052
      0.84622647      0.58055871
      0.32251785      0.47700799
p              4   1.000000
      7.20832252      0.05713170
      1.86901039      0.28574555
      0.65888400      0.55178731
      0.26231307      0.26323149
s              7   1.000000
      0.47894987     -0.18779730
      0.05878681      0.90736754
      0.02775758      0.23828850
     61.15382777      0.00397277
     10.53119517      0.01814002
      0.84622647     -0.19245701
      0.32251785     -0.15812963
p              7   1.000000
      2.28619608     -0.01156738
      0.12644335      0.56843856
      0.04872781      0.59364963
      7.20832252     -0.02467220
      1.86901039     -0.12339858
      0.65888400     -0.23828812
      0.26231307     -0.11367593
 
          48   0
s              4   1.000000
     35.23922305     -0.01198412
      6.06848580     -0.05472052
      0.48762873      0.58055871
      0.18584738      0.47700799
p              4   1.000000
      5.67972141      0.05713170
      1.47266695      0.28574555
      0.51916067      0.55178731
      0.20668681      0.26323149
s              7   1.000000
      0.38350848     -0.19594927
      0.04707223      0.94675487
      0.02222627      0.24863221
     35.23922305      0.00547010
      6.06848580      0.02497697
      0.48762873     -0.26499375
      0.18584738     -0.21772843
p              7   1.000000
      1.83062075     -0.01159588
      0.10124670      0.56983950
      0.03901771      0.59511270
      5.67972141     -0.02505653
      1.47266695     -0.12532084
      0.51916067     -0.24200009
      0.20668681     -0.11544674
 
          49   0
s              4   1.000000
     35.04252047     -0.01198412
      6.03461199     -0.05472052
      0.48490682      0.58055871
      0.18480999      0.47700799
p              4   1.000000
      5.64801765      0.05713170
      1.46444664      0.28574555
      0.51626276      0.55178731
      0.20553310      0.26323149
s              7   1.000000
      0.38350848     -0.19613083
      0.04707223      0.94763209
      0.02222627      0.24886257
     35.04252047      0.00549943
      6.03461199      0.02511089
      0.48490682     -0.26641463
      0.18480999     -0.21889588
p              7   1.000000
      1.83062075     -0.01160598
      0.10124670      0.57033544
      0.03901771      0.59563065
      5.64801765     -0.02519141
      1.46444664     -0.12599544
      0.51626276     -0.24330277
      0.20553310     -0.11606819
 
          50   0
s              4   1.000000
     34.93479780     -0.01198412
      6.01606125     -0.05472052
      0.48341619      0.58055871
      0.18424188      0.47700799
p              4   1.000000
      5.63065532      0.05713170
      1.45994485      0.28574555
      0.51467574      0.55178731
      0.20490128      0.26323149
s              7   1.000000
      0.38350848     -0.19623141
      0.04707223      0.94811808
      0.02222627      0.24899020
     34.93479780      0.00551563
      6.01606125      0.02518484
      0.48341619     -0.26719912
      0.18424188     -0.21954044
p              7   1.000000
      1.83062075     -0.01161157
      0.10124670      0.57061021
      0.03901771      0.59591761
      5.63065532     -0.02526588
      1.45994485     -0.12636787
      0.51467574     -0.24402196
      0.20490128     -0.11641128
 
          51   0
s              4   1.000000
     34.92516613     -0.01198412
      6.01440260     -0.05472052
      0.48328291      0.58055871
      0.18419108      0.47700800
p              4   1.000000
      5.62910293      0.05713170
      1.45954233      0.28574555
      0.51453384      0.55178731
      0.20484479      0.26323149
s              7   1.000000
      0.38350848     -0.19624045
      0.04707223      0.94816173
      0.02222627      0.24900165
     34.92516613      0.00551708
      6.01440260      0.02519147
      0.48328291     -0.26726948
      0.18419108     -0.21959825
p              7   1.000000
      1.83062075     -0.01161207
      0.10124670      0.57063489
      0.03901771      0.59594338
      5.62910293     -0.02527256
      1.45954233     -0.12640128
      0.51453384     -0.24408646
      0.20484479     -0.11644205
 
          52   0
s              4   1.000000
     34.98601771     -0.01198412
      6.02488175     -0.05472052
      0.48412496      0.58055871
      0.18451200      0.47700799
p              4   1.000000
      5.63891075      0.05713170
      1.46208535      0.28574555
      0.51543033      0.55178731
      0.20520170      0.26323149
s              7   1.000000
      0.38350848     -0.19618349
      0.04707223      0.94788650
      0.02222627      0.24892938
     34.98601771      0.00550792
      6.02488175      0.02514962
      0.48412496     -0.26682555
      0.18451200     -0.21923350
p              7   1.000000
      1.83062075     -0.01160890
      0.10124670      0.57047928
      0.03901771      0.59578087
      5.63891075     -0.02523042
      1.46208535     -0.12619052
      0.51543033     -0.24367948
      0.20520170     -0.11624789
 
          53   0
s              4   1.000000
     35.23496326     -0.01198412
      6.06775223     -0.05472052
      0.48756978      0.58055871
      0.18582491      0.47700799
p              4   1.000000
      5.67903483      0.05713170
      1.47248893      0.28574555
      0.51909791      0.55178731
      0.20666182      0.26323149
s              7   1.000000
      0.38350848     -0.19595317
      0.04707223      0.94677372
      0.02222627      0.24863715
     35.23496326      0.00547074
      6.06775223      0.02497985
      0.48756978     -0.26502437
      0.18582491     -0.21775359
p              7   1.000000
      1.83062075     -0.01159610
      0.10124670      0.56985016
      0.03901771      0.59512382
      5.67903483     -0.02505944
      1.47248893     -0.12533537
      0.51909791     -0.24202815
      0.20666182     -0.11546013
 
          54   0
s              4   1.000000
     78.07969772     -0.01198412
     13.44597003     -0.05472052
      1.08044106      0.58055871
      0.41178283      0.47700799
p              4   1.000000
      8.05179542      0.05713170
      2.08771032      0.28574555
      0.73598249      0.55178731
      0.29300731      0.26323149
s              7   1.000000
      0.57971233     -0.18685730
      0.07115450      0.90282581
      0.03359728      0.23709576
     78.07969772      0.00376712
     13.44597003      0.01720099
      1.08044106     -0.18249429
      0.41178283     -0.14994390
p              7   1.000000
      2.76717072     -0.01171742
      0.15304476      0.57581219
      0.05897927      0.60135030
      8.05179542     -0.02664285
      2.08771032     -0.13325485
      0.73598249     -0.25732102
      0.29300731     -0.12275562
 
          55   0
s              4   1.000000
     35.22384239     -0.01198412
      6.06583712     -0.05472053
      0.48741589      0.58055871
      0.18576626      0.47700799
p              4   1.000000
      5.67724241      0.05713170
      1.47202418      0.28574555
      0.51893408      0.55178731
      0.20659660      0.26323149
s              7   1.000000
      0.38350848     -0.19596337
      0.04707223      0.94682298
      0.02222627      0.24865010
     35.22384239      0.00547239
      6.06583712      0.02498739
      0.48741589     -0.26510432
      0.18576626     -0.21781928
p              7   1.000000
      1.83062075     -0.01159667
      0.10124670      0.56987801
      0.03901771      0.59515291
      5.67724241     -0.02506703
      1.47202418     -0.12537333
      0.51893408     -0.24210146
      0.20659660     -0.11549510
 
          56   0
s              4   1.000000
     34.97309395     -0.01198412
      6.02265617     -0.05472053
      0.48394612      0.58055871
      0.18444384      0.47700800
p              4   1.000000
      5.63682775      0.05713170
      1.46154526      0.28574555
      0.51523993      0.55178731
      0.20512590      0.26323149
s              7   1.000000
      0.38350848     -0.19619556
      0.04707223      0.94794484
      0.02222627      0.24894471
     34.97309395      0.00550986
      6.02265617      0.02515850
      0.48394612     -0.26691971
      0.18444384     -0.21931087
p              7   1.000000
      1.83062075     -0.01160957
      0.10124670      0.57051227
      0.03901771      0.59581534
      5.63682775     -0.02523935
      1.46154526     -0.12623522
      0.51523993     -0.24376581
      0.20512590     -0.11628908
 
          57   0
s              4   1.000000
     34.91558155     -0.01198412
      6.01275206     -0.05472053
      0.48315028      0.58055871
      0.18414053      0.47700799
p              4   1.000000
      5.62755812      0.05713170
      1.45914179      0.28574555
      0.51439263      0.55178731
      0.20478857      0.26323149
s              7   1.000000
      0.38350848     -0.19624944
      0.04707223      0.94820518
      0.02222627      0.24901308
     34.91558155      0.00551853
      6.01275206      0.02519807
      0.48315028     -0.26733954
      0.18414053     -0.21965581
p              7   1.000000
      1.83062075     -0.01161257
      0.10124670      0.57065945
      0.03901771      0.59596903
      5.62755812     -0.02527920
      1.45914179     -0.12643454
      0.51439263     -0.24415069
      0.20478857     -0.11647268
 
          58   0
s              4   1.000000
     34.91888419     -0.01198412
      6.01332080     -0.05472052
      0.48319598      0.58055871
      0.18415795      0.47700799
p              4   1.000000
      5.62809043      0.05713170
      1.45927981      0.28574555
      0.51444129      0.55178731
      0.20480794      0.26323149
s              7   1.000000
      0.38350848     -0.19624634
      0.04707223      0.94819020
      0.02222627      0.24900914
     34.91888419      0.00551803
      6.01332080      0.02519580
      0.48319598     -0.26731539
      0.18415795     -0.21963598
p              7   1.000000
      1.83062075     -0.01161240
      0.10124670      0.57065099
      0.03901771      0.59596021
      5.62809043     -0.02527691
      1.45927981     -0.12642307
      0.51444129     -0.24412855
      0.20480794     -0.11646213
 
          59   0
s              4   1.000000
     35.02614098     -0.01198412
      6.03179131     -0.05472052
      0.48468017      0.58055871
      0.18472361      0.47700799
p              4   1.000000
      5.64537766      0.05713170
      1.46376213      0.28574555
      0.51602145      0.55178731
      0.20543703      0.26323149
s              7   1.000000
      0.38350848     -0.19614607
      0.04707223      0.94770573
      0.02222627      0.24888190
     35.02614098      0.00550189
      6.03179131      0.02512211
      0.48468017     -0.26653363
      0.18472361     -0.21899364
p              7   1.000000
      1.83062075     -0.01160682
      0.10124670      0.57037707
      0.03901771      0.59567414
      5.64537766     -0.02520271
      1.46376213     -0.12605193
      0.51602145     -0.24341186
      0.20543703     -0.11612023
 
          60   0
s              4   1.000000
     35.23336067     -0.01198412
      6.06747625     -0.05472053
      0.48754761      0.58055871
      0.18581646      0.47700800
p              4   1.000000
      5.67877653      0.05713170
      1.47242196      0.28574555
      0.51907430      0.55178731
      0.20665243      0.26323149
s              7   1.000000
      0.38350848     -0.19595464
      0.04707223      0.94678082
      0.02222627      0.24863901
     35.23336067      0.00547097
      6.06747625      0.02498094
      0.48754761     -0.26503589
      0.18581646     -0.21776305
p              7   1.000000
      1.83062075     -0.01159618
      0.10124670      0.56985416
      0.03901771      0.59512803
      5.67877653     -0.02506053
      1.47242196     -0.12534084
      0.51907430     -0.24203872
      0.20665243     -0.11546517
 
          61   0
s              4   1.000000
     35.02203517     -0.01198412
      6.03108425     -0.05472052
      0.48462335      0.58055871
      0.18470196      0.47700800
p              4   1.000000
      5.64471591      0.05713170
      1.46359054      0.28574555
      0.51596096      0.55178731
      0.20541295      0.26323149
s              7   1.000000
      0.38350848     -0.19614990
      0.04707223      0.94772420
      0.02222627      0.24888677
     35.02203517      0.00550251
      6.03108425      0.02512492
      0.48462335     -0.26656347
      0.18470196     -0.21901817
p              7   1.000000
      1.83062075     -0.01160704
      0.10124670      0.57038752
      0.03901771      0.59568503
      5.64471591     -0.02520554
      1.46359054     -0.12606610
      0.51596096     -0.24343922
      0.20541295     -0.11613328
 
          62   0
s              4   1.000000
     35.04415145     -0.01198412
      6.03489286     -0.05472052
      0.48492939      0.58055871
      0.18481859      0.47700799
p              4   1.000000
      5.64828052      0.05713170
      1.46451480      0.28574555
      0.51628679      0.55178731
      0.20554267      0.26323149
s              7   1.000000
      0.38350848     -0.19612931
      0.04707223      0.94762476
      0.02222627      0.24886065
     35.04415145      0.00549919
      6.03489286      0.02510978
      0.48492939     -0.26640279
      0.18481859     -0.21888615
p              7   1.000000
      1.83062075     -0.01160589
      0.10124670      0.57033130
      0.03901771      0.59562633
      5.64828052     -0.02519029
      1.46451480     -0.12598981
      0.51628679     -0.24329191
      0.20554267     -0.11606300
 
          63   0
s              4   1.000000
     35.04430002     -0.01198412
      6.03491844     -0.05472052
      0.48493145      0.58055871
      0.18481938      0.47700800
p              4   1.000000
      5.64830447      0.05713170
      1.46452100      0.28574555
      0.51628897      0.55178731
      0.20554354      0.26323149
s              7   1.000000
      0.38350848     -0.19612917
      0.04707223      0.94762409
      0.02222627      0.24886047
     35.04430002      0.00549917
      6.03491844      0.02510968
      0.48493145     -0.26640171
      0.18481938     -0.21888526
p              7   1.000000
      1.83062075     -0.01160588
      0.10124670      0.57033092
      0.03901771      0.59562592
      5.64830447     -0.02519019
      1.46452100     -0.12598930
      0.51628897     -0.24329092
      0.20554354     -0.11606253
 
          64   0
s              4   1.000000
     35.02226524     -0.01198412
      6.03112387     -0.05472053
      0.48462654      0.58055871
      0.18470317      0.47700799
p              4   1.000000
      5.64475299      0.05713170
      1.46360016      0.28574555
      0.51596435      0.55178731
      0.20541430      0.26323149
s              7   1.000000
      0.38350848     -0.19614968
      0.04707223      0.94772317
      0.02222627      0.24888648
     35.02226524      0.00550247
      6.03112387      0.02512477
      0.48462654     -0.26656180
      0.18470317     -0.21901679
p              7   1.000000
      1.83062075     -0.01160702
      0.10124670      0.57038694
      0.03901771      0.59568442
      5.64475299     -0.02520538
      1.46360016     -0.12606530
      0.51596435     -0.24343768
      0.20541430     -0.11613254
 
          65   0
s              4   1.000000
      8.30907157      0.05675242
      1.52045773      0.26014135
      0.42239981      0.53284611
      0.14019070      0.29162544
s              7   1.000000
      0.92936822     -0.06732826
      0.05643440      0.66945381
      0.02166600      0.51461343
      8.30907157     -0.02902238
      1.52045773     -0.13303258
      0.42239981     -0.27248992
      0.14019070     -0.14913310
p              4   1.000000
      0.64737396      0.05713170
      0.16785440      0.28574555
      0.05917387      0.55178731
      0.02355814      0.26323150
 
          66   0
s              4   1.000000
      8.30929172      0.05675242
      1.52049801      0.26014135
      0.42241100      0.53284611
      0.14019441      0.29162544
s              7   1.000000
      0.92936822     -0.06732798
      0.05643440      0.66945100
      0.02166600      0.51461124
      8.30929172     -0.02902179
      1.52049801     -0.13302988
      0.42241100     -0.27248439
      0.14019441     -0.14913007
p              4   1.000000
      0.64737396      0.05713170
      0.16785440      0.28574555
      0.05917387      0.55178731
      0.02355814      0.26323150
 
          67   0
s              4   1.000000
      8.31136870      0.05675242
      1.52087807      0.26014135
      0.42251658      0.53284611
      0.14022946      0.29162544
s              7   1.000000
      0.92936822     -0.06732531
      0.05643440      0.66942443
      0.02166600      0.51459084
      8.31136870     -0.02901624
      1.52087807     -0.13300442
      0.42251658     -0.27243223
      0.14022946     -0.14910153
p              4   1.000000
      0.64737396      0.05713170
      0.16785440      0.28574555
      0.05917387      0.55178731
      0.02355814      0.26323150
 
          68   0
s              4   1.000000
      8.30940309      0.05675242
      1.52051839      0.26014135
      0.42241666      0.53284611
      0.14019629      0.29162544
s              7   1.000000
      0.92936822     -0.06732784
      0.05643440      0.66944957
      0.02166600      0.51461015
      8.30940309     -0.02902149
      1.52051839     -0.13302852
      0.42241666     -0.27248159
      0.14019629     -0.14912854
p              4   1.000000
      0.64737396      0.05713170
      0.16785440      0.28574555
      0.05917387      0.55178731
      0.02355814      0.26323150
 
          69   0
s              4   1.000000
      8.30923808      0.05675242
      1.52048819      0.26014135
      0.42240827      0.53284611
      0.14019351      0.29162544
s              7   1.000000
      0.92936822     -0.06732805
      0.05643440      0.66945167
      0.02166600      0.51461179
      8.30923808     -0.02902193
      1.52048819     -0.13303054
      0.42240827     -0.27248573
      0.14019351     -0.14913081
p              4   1.000000
      0.64737396      0.05713170
      0.16785440      0.28574555
      0.05917387      0.55178731
      0.02355814      0.26323150
 
          70   0
s              4   1.000000
      8.30890996      0.05675242
      1.52042815      0.26014135
      0.42239159      0.53284611
      0.14018797      0.29162544
s              7   1.000000
      0.92936822     -0.06732847
      0.05643440      0.66945588
      0.02166600      0.51461502
      8.30890996     -0.02902281
      1.52042815     -0.13303457
      0.42239159     -0.27249397
      0.14018797     -0.14913532
p              4   1.000000
      0.64737396      0.05713170
      0.16785440      0.28574555
      0.05917387      0.55178731
      0.02355814      0.26323150
 
          71   0
s              4   1.000000
      8.30900684      0.05675242
      1.52044588      0.26014135
      0.42239651      0.53284611
      0.14018961      0.29162544
s              7   1.000000
      0.92936822     -0.06732835
      0.05643440      0.66945463
      0.02166600      0.51461405
      8.30900684     -0.02902255
      1.52044588     -0.13303338
      0.42239651     -0.27249154
      0.14018961     -0.14913399
p              4   1.000000
      0.64737396      0.05713170
      0.16785440      0.28574555
      0.05917387      0.55178731
      0.02355814      0.26323150
 
          72   0
s              4   1.000000
      8.31026697      0.05675242
      1.52067647      0.26014135
      0.42246058      0.53284611
      0.14021087      0.29162544
s              7   1.000000
      0.92936822     -0.06732673
      0.05643440      0.66943851
      0.02166600      0.51460168
      8.31026697     -0.02901918
      1.52067647     -0.13301793
      0.42246058     -0.27245989
      0.14021087     -0.14911667
p              4   1.000000
      0.64737396      0.05713170
      0.16785440      0.28574555
      0.05917387      0.55178731
      0.02355814      0.26323150
 
          73   0
s              4   1.000000
      8.30944139      0.05675242
      1.52052540      0.26014135
      0.42241861      0.53284611
      0.14019694      0.29162544
s              7   1.000000
      0.92936822     -0.06732779
      0.05643440      0.66944908
      0.02166600      0.51460978
      8.30944139     -0.02902139
      1.52052540     -0.13302805
      0.42241861     -0.27248063
      0.14019694     -0.14912801
p              4   1.000000
      0.64737396      0.05713170
      0.16785440      0.28574555
      0.05917387      0.55178731
      0.02355814      0.26323150
 
          74   0
s              4   1.000000
      8.30935271      0.05675242
      1.52050917      0.26014135
      0.42241410      0.53284611
      0.14019544      0.29162544
s              7   1.000000
      0.92936822     -0.06732790
      0.05643440      0.66945021
      0.02166600      0.51461064
      8.30935271     -0.02902163
      1.52050917     -0.13302914
      0.42241410     -0.27248285
      0.14019544     -0.14912923
p              4   1.000000
      0.64737396      0.05713170
      0.16785440      0.28574555
      0.05917387      0.55178731
      0.02355814      0.26323150
 
          75   0
s              4   1.000000
      8.30922572      0.05675242
      1.52048593      0.26014135
      0.42240764      0.53284611
      0.14019330      0.29162544
s              7   1.000000
      0.92936822     -0.06732807
      0.05643440      0.66945183
      0.02166600      0.51461191
      8.30922572     -0.02902197
      1.52048593     -0.13303069
      0.42240764     -0.27248604
      0.14019330     -0.14913098
p              4   1.000000
      0.64737396      0.05713170
      0.16785440      0.28574555
      0.05917387      0.55178731
      0.02355814      0.26323150
 
          76   0
s              4   1.000000
      8.30956414      0.05675242
      1.52054786      0.26014135
      0.42242485      0.53284611
      0.14019901      0.29162544
s              7   1.000000
      0.92936822     -0.06732763
      0.05643440      0.66944751
      0.02166600      0.51460858
      8.30956414     -0.02902106
      1.52054786     -0.13302654
      0.42242485     -0.27247754
      0.14019901     -0.14912633
p              4   1.000000
      0.64737396      0.05713170
      0.16785440      0.28574555
      0.05917387      0.55178731
      0.02355814      0.26323150
 
          77   0
s              4   1.000000
      8.31043494      0.05675242
      1.52070721      0.26014135
      0.42246911      0.53284611
      0.14021370      0.29162544
s              7   1.000000
      0.92936822     -0.06732651
      0.05643440      0.66943637
      0.02166600      0.51460001
      8.31043494     -0.02901873
      1.52070721     -0.13301587
      0.42246911     -0.27245568
      0.14021370     -0.14911436
p              4   1.000000
      0.64737396      0.05713170
      0.16785440      0.28574555
      0.05917387      0.55178731
      0.02355814      0.26323150
 
          78   0
s              4   1.000000
      8.30901534      0.05675242
      1.52044744      0.26014135
      0.42239695      0.53284611
      0.14018975      0.29162544
s              7   1.000000
      0.92936822     -0.06732834
      0.05643440      0.66945452
      0.02166600      0.51461397
      8.30901534     -0.02902253
      1.52044744     -0.13303327
      0.42239695     -0.27249133
      0.14018975     -0.14913387
p              4   1.000000
      0.64737396      0.05713170
      0.16785440      0.28574555
      0.05917387      0.55178731
      0.02355814      0.26323150
 
          79   0
s              4   1.000000
      8.30890925      0.05675242
      1.52042802      0.26014135
      0.42239155      0.53284611
      0.14018796      0.29162544
s              7   1.000000
      0.92936822     -0.06732847
      0.05643440      0.66945588
      0.02166600      0.51461502
      8.30890925     -0.02902281
      1.52042802     -0.13303457
      0.42239155     -0.27249399
      0.14018796     -0.14913533
p              4   1.000000
      0.64737396      0.05713170
      0.16785440      0.28574555
      0.05917387      0.55178731
      0.02355814      0.26323150
 
          80   0
s              4   1.000000
      8.30921480      0.05675242
      1.52048394      0.26014135
      0.42240709      0.53284611
      0.14019312      0.29162544
s              7   1.000000
      0.92936822     -0.06732808
      0.05643440      0.66945198
      0.02166600      0.51461201
      8.30921480     -0.02902200
      1.52048394     -0.13303083
      0.42240709     -0.27248632
      0.14019312     -0.14913113
p              4   1.000000
      0.64737396      0.05713170
      0.16785440      0.28574555
      0.05917387      0.55178731
      0.02355814      0.26323150
 
          81   0
s              4   1.000000
      8.30923061      0.05675242
      1.52048683      0.26014135
      0.42240789      0.53284611
      0.14019338      0.29162544
s              7   1.000000
      0.92936822     -0.06732806
      0.05643440      0.66945177
      0.02166600      0.51461186
      8.30923061     -0.02902195
      1.52048683     -0.13303063
      0.42240789     -0.27248592
      0.14019338     -0.14913091
p              4   1.000000
      0.64737396      0.05713170
      0.16785440      0.28574555
      0.05917387      0.55178731
      0.02355814      0.26323150
 
          82   0
s              4   1.000000
      8.30890590      0.05675242
      1.52042741      0.26014135
      0.42239138      0.53284611
      0.14018790      0.29162544
s              7   1.000000
      0.92936822     -0.06732848
      0.05643440      0.66945593
      0.02166600      0.51461504
      8.30890590     -0.02902282
      1.52042741     -0.13303462
      0.42239138     -0.27249408
      0.14018790     -0.14913537
p              4   1.000000
      0.64737396      0.05713170
      0.16785440      0.28574555
      0.05917387      0.55178731
      0.02355814      0.26323150
 
          83   0
s              4   1.000000
      8.30902332      0.05675242
      1.52044890      0.26014135
      0.42239735      0.53284611
      0.14018988      0.29162544
s              7   1.000000
      0.92936822     -0.06732833
      0.05643440      0.66945443
      0.02166600      0.51461390
      8.30902332     -0.02902251
      1.52044890     -0.13303318
      0.42239735     -0.27249113
      0.14018988     -0.14913376
p              4   1.000000
      0.64737396      0.05713170
      0.16785440      0.28574555
      0.05917387      0.55178731
      0.02355814      0.26323150
 
          84   0
s              4   1.000000
      8.31050410      0.05675242
      1.52071986      0.26014135
      0.42247263      0.53284611
      0.14021487      0.29162544
s              7   1.000000
      0.92936822     -0.06732642
      0.05643440      0.66943549
      0.02166600      0.51459934
      8.31050410     -0.02901855
      1.52071986     -0.13301502
      0.42247263     -0.27245394
      0.14021487     -0.14911341
p              4   1.000000
      0.64737396      0.05713170
      0.16785440      0.28574555
      0.05917387      0.55178731
      0.02355814      0.26323150
 
          85   0
s              4   1.000000
      8.30964943      0.05675242
      1.52056347      0.26014135
      0.42242918      0.53284611
      0.14020045      0.29162544
s              7   1.000000
      0.92936822     -0.06732752
      0.05643440      0.66944642
      0.02166600      0.51460774
      8.30964943     -0.02902083
      1.52056347     -0.13302550
      0.42242918     -0.27247540
      0.14020045     -0.14912516
p              4   1.000000
      0.64737396      0.05713170
      0.16785440      0.28574555
      0.05917387      0.55178731
      0.02355814      0.26323150
 
          86   0
s              4   1.000000
      8.30935421      0.05675242
      1.52050945      0.26014135
      0.42241417      0.53284611
      0.14019547      0.29162544
s              7   1.000000
      0.92936822     -0.06732790
      0.05643440      0.66945020
      0.02166600      0.51461064
      8.30935421     -0.02902162
      1.52050945     -0.13302912
      0.42241417     -0.27248282
      0.14019547     -0.14912921
p              4   1.000000
      0.64737396      0.05713170
      0.16785440      0.28574555
      0.05917387      0.55178731
      0.02355814      0.26323150
 
          87   0
s              4   1.000000
      8.30944555      0.05675242
      1.52052616      0.26014135
      0.42241882      0.53284611
      0.14019701      0.29162544
s              7   1.000000
      0.92936822     -0.06732778
      0.05643440      0.66944902
      0.02166600      0.51460975
      8.30944555     -0.02902138
      1.52052616     -0.13302800
      0.42241882     -0.27248052
      0.14019701     -0.14912796
p              4   1.000000
      0.64737396      0.05713170
      0.16785440      0.28574555
      0.05917387      0.55178731
      0.02355814      0.26323150
 
          88   0
s              4   1.000000
      8.31136841      0.05675242
      1.52087802      0.26014135
      0.42251657      0.53284611
      0.14022945      0.29162544
s              7   1.000000
      0.92936822     -0.06732531
      0.05643440      0.66942443
      0.02166600      0.51459084
      8.31136841     -0.02901624
      1.52087802     -0.13300443
      0.42251657     -0.27243224
      0.14022945     -0.14910153
p              4   1.000000
      0.64737396      0.05713170
      0.16785440      0.28574555
      0.05917387      0.55178731
      0.02355814      0.26323150
 
          89   0
s              4   1.000000
      8.30930430      0.05675242
      1.52050031      0.26014135
      0.42241164      0.53284611
      0.14019462      0.29162544
s              7   1.000000
      0.92936822     -0.06732797
      0.05643440      0.66945083
      0.02166600      0.51461114
      8.30930430     -0.02902176
      1.52050031     -0.13302973
      0.42241164     -0.27248407
      0.14019462     -0.14912990
p              4   1.000000
      0.64737396      0.05713170
      0.16785440      0.28574555
      0.05917387      0.55178731
      0.02355814      0.26323150
 
          90   0
s              4   1.000000
      8.30907523      0.05675242
      1.52045840      0.26014135
      0.42239999      0.53284611
      0.14019076      0.29162544
s              7   1.000000
      0.92936822     -0.06732826
      0.05643440      0.66945376
      0.02166600      0.51461338
      8.30907523     -0.02902237
      1.52045840     -0.13303254
      0.42239999     -0.27248982
      0.14019076     -0.14913305
p              4   1.000000
      0.64737396      0.05713170
      0.16785440      0.28574555
      0.05917387      0.55178731
      0.02355814      0.26323150
 
          91   0
s              4   1.000000
      8.30940025      0.05675242
      1.52051787      0.26014135
      0.42241651      0.53284611
      0.14019624      0.29162544
s              7   1.000000
      0.92936822     -0.06732784
      0.05643440      0.66944960
      0.02166600      0.51461020
      8.30940025     -0.02902150
      1.52051787     -0.13302855
      0.42241651     -0.27248166
      0.14019624     -0.14912858
p              4   1.000000
      0.64737396      0.05713170
      0.16785440      0.28574555
      0.05917387      0.55178731
      0.02355814      0.26323150
 
          92   0
s              4   1.000000
      8.30923844      0.05675242
      1.52048826      0.26014135
      0.42240829      0.53284611
      0.14019351      0.29162544
s              7   1.000000
      0.92936822     -0.06732805
      0.05643440      0.66945167
      0.02166600      0.51461179
      8.30923844     -0.02902193
      1.52048826     -0.13303054
      0.42240829     -0.27248572
      0.14019351     -0.14913081
p              4   1.000000
      0.64737396      0.05713170
      0.16785440      0.28574555
      0.05917387      0.55178731
      0.02355814      0.26323150
 
          93   0
s              4   1.000000
      8.30891271      0.05675242
      1.52042866      0.26014135
      0.42239173      0.53284611
      0.14018802      0.29162544
s              7   1.000000
      0.92936822     -0.06732847
      0.05643440      0.66945584
      0.02166600      0.51461497
      8.30891271     -0.02902280
      1.52042866     -0.13303453
      0.42239173     -0.27249391
      0.14018802     -0.14913528
p              4   1.000000
      0.64737396      0.05713170
      0.16785440      0.28574555
      0.05917387      0.55178731
      0.02355814      0.26323150
 
          94   0
s              4   1.000000
      8.30900656      0.05675242
      1.52044583      0.26014135
      0.42239650      0.53284611
      0.14018960      0.29162544
s              7   1.000000
      0.92936822     -0.06732835
      0.05643440      0.66945464
      0.02166600      0.51461405
      8.30900656     -0.02902255
      1.52044583     -0.13303338
      0.42239650     -0.27249155
      0.14018960     -0.14913399
p              4   1.000000
      0.64737396      0.05713170
      0.16785440      0.28574555
      0.05917387      0.55178731
      0.02355814      0.26323150
 
          95   0
s              4   1.000000
      8.31026701      0.05675242
      1.52067648      0.26014135
      0.42246058      0.53284611
      0.14021087      0.29162544
s              7   1.000000
      0.92936822     -0.06732673
      0.05643440      0.66943851
      0.02166600      0.51460168
      8.31026701     -0.02901918
      1.52067648     -0.13301793
      0.42246058     -0.27245989
      0.14021087     -0.14911667
p              4   1.000000
      0.64737396      0.05713170
      0.16785440      0.28574555
      0.05917387      0.55178731
      0.02355814      0.26323150
 
          96   0
s              4   1.000000
      8.30993112      0.05675242
      1.52061501      0.26014135
      0.42244350      0.53284611
      0.14020520      0.29162544
s              7   1.000000
      0.92936822     -0.06732716
      0.05643440      0.66944282
      0.02166600      0.51460496
      8.30993112     -0.02902008
      1.52061501     -0.13302205
      0.42244350     -0.27246833
      0.14020520     -0.14912128
p              4   1.000000
      0.64737396      0.05713170
      0.16785440      0.28574555
      0.05917387      0.55178731
      0.02355814      0.26323150
 
          97   0
s              4   1.000000
      8.30974472      0.05675242
      1.52058090      0.26014135
      0.42243402      0.53284611
      0.14020205      0.29162544
s              7   1.000000
      0.92936822     -0.06732740
      0.05643440      0.66944519
      0.02166600      0.51460679
      8.30974472     -0.02902058
      1.52058090     -0.13302433
      0.42243402     -0.27247301
      0.14020205     -0.14912384
p              4   1.000000
      0.64737396      0.05713170
      0.16785440      0.28574555
      0.05917387      0.55178731
      0.02355814      0.26323150
 
          98   0
s              4   1.000000
      8.30974853      0.05675242
      1.52058160      0.26014135
      0.42243422      0.53284611
      0.14020212      0.29162544
s              7   1.000000
      0.92936822     -0.06732739
      0.05643440      0.66944514
      0.02166600      0.51460677
      8.30974853     -0.02902057
      1.52058160     -0.13302428
      0.42243422     -0.27247291
      0.14020212     -0.14912379
p              4   1.000000
      0.64737396      0.05713170
      0.16785440      0.28574555
      0.05917387      0.55178731
      0.02355814      0.26323150
 
          99   0
s              4   1.000000
      8.30993794      0.05675242
      1.52061626      0.26014135
      0.42244385      0.53284611
      0.14020532      0.29162544
s              7   1.000000
      0.92936822     -0.06732715
      0.05643440      0.66944272
      0.02166600      0.51460491
      8.30993794     -0.02902006
      1.52061626     -0.13302196
      0.42244385     -0.27246816
      0.14020532     -0.14912119
p              4   1.000000
      0.64737396      0.05713170
      0.16785440      0.28574555
      0.05917387      0.55178731
      0.02355814      0.26323150
 
 [MO]
 Sym= Hole
 Ene=  -1.050519    
 Spin= Alpha
 Occup= 0
           1  5.1971783E-05
           2  3.3396884E-04
           3 -4.9159926E-04
           4  9.8594383E-04
           5 -6.6851382E-05
           6  1.9069882E-04
           7 -5.9192342E-05
           8 -1.0060146E-04
           9 -1.4066227E-05
          10 -1.8212962E-04
          11 -4.0810558E-04
          12  1.1008786E-03
          13 -4.7358088E-05
          14  5.8736052E-05
          15  2.1466396E-06
          16 -7.2869923E-05
          17 -8.0978549E-05
          18 -2.7312557E-04
          19  5.2170042E-04
          20 -4.0996730E-04
          21 -1.0910022E-04
          22  2.6547146E-04
          23  7.8627651E-05
          24 -1.1496498E-04
          25  8.0012553E-04
          26 -7.2000659E-04
          27 -3.1920220E-04
          28 -2.1064582E-03
          29 -5.4271345E-04
          30  6.0977740E-04
          31 -1.8133316E-05
          32  1.7536002E-04
          33 -2.2954072E-04
          34 -7.1174567E-05
          35  8.1470620E-04
          36 -1.2607611E-03
          37  1.2451781E-04
          38 -1.0803604E-04
          39 -1.3542760E-04
          40  1.0374329E-04
          41  1.0074951E-04
          42 -3.2516682E-04
          43  1.7162789E-04
          44 -4.0488772E-04
          45 -3.2300031E-05
          46 -6.2988613E-05
          47 -8.6765758E-06
          48 -3.9260317E-06
          49  2.9549917E-04
          50  8.9866086E-04
          51 -9.5181516E-04
          52  1.4373100E-03
          53 -1.3605668E-04
          54  8.5907792E-05
          55  8.9907684E-05
          56 -1.8225062E-04
          57  1.3566176E-04
          58 -6.9641077E-04
          59  4.3912910E-04
          60 -1.0456964E-03
          61 -7.6542441E-05
          62  1.2617731E-04
          63 -1.3048905E-04
          64  6.8045512E-05
          65 -1.7961375E-04
          66 -9.9988516E-05
          67 -9.8737008E-05
          68 -6.4208161E-04
          69  8.9214984E-05
          70  1.7405207E-06
          71 -2.6903032E-05
          72  1.6018183E-05
          73 -5.0086681E-05
          74  3.5976991E-04
          75 -2.8173270E-04
          76  7.9332863E-04
          77  4.4658507E-05
          78  6.4733620E-05
          79  2.9360732E-05
          80 -1.3651680E-05
          81  4.3237951E-06
          82  1.0328892E-05
          83 -5.8093312E-04
          84  1.0408090E-03
          85  2.0027528E-06
          86 -1.4557505E-04
          87 -3.8572565E-05
          88 -9.4701245E-05
          89 -2.0919729E-04
          90  2.6559739E-04
          91  2.4660688E-04
          92 -4.8491455E-04
          93  1.7760089E-04
          94 -3.7155248E-04
          95  1.4363195E-05
          96 -8.5766544E-05
          97 -5.8172003E-04
          98  6.1943778E-04
          99 -1.8362675E-04
         100 -2.1567226E-03
         101  5.3125597E-04
         102 -2.1578034E-04
         103  7.4969241E-05
         104  3.5530407E-04
         105  9.5268078E-05
         106  3.2568930E-04
         107 -3.6799657E-04
         108  1.8459673E-03
         109 -1.2737597E-04
         110  9.4124320E-05
         111 -2.0057657E-04
         112 -4.2468013E-04
         113 -2.5341910E-04
         114 -9.4941357E-04
         115 -9.5555130E-03
         116 -8.3725213E-04
         117  1.5488404E-04
         118 -1.4680521E-04
         119  1.6904522E-03
         120  3.2331687E-04
         121 -1.5931014E-03
         122  2.8102978E-03
         123  1.8855458E-03
         124  1.0676177E-03
         125  9.1826229E-04
         126 -1.9653143E-04
         127  2.4981130E-04
         128 -6.0321635E-04
         129  5.1542600E-03
         130 -3.2276623E-03
         131  1.0016600E-02
         132 -6.7927586E-03
         133 -3.7399265E-03
         134  1.9849662E-03
         135 -2.2394059E-03
         136  1.5502343E-03
         137  1.3954504E-04
         138 -1.3825921E-03
         139 -2.2712499E-03
         140  2.6378538E-03
         141  5.0217228E-04
         142 -7.2434646E-06
         143 -7.7262562E-04
         144 -2.9906882E-03
         145 -6.5653533E-04
         146 -3.1340260E-03
         147 -2.6604705E-02
         148 -6.3767590E-02
         149  1.5090860E-03
         150  3.9956233E-04
         151  5.4788687E-03
         152  1.3017868E-02
         153  2.0204114E-03
         154  6.6997588E-04
         155  6.3958955E-03
         156  2.4364343E-02
         157 -1.0682421E-03
         158  2.1867473E-03
         159  2.6886391E-03
         160 -1.4169799E-03
         161 -1.9678548E-03
         162  4.8936955E-03
         163  3.8955513E-02
         164  5.2276269E-02
         165  3.1189085E-03
         166 -1.1623472E-03
         167 -8.7546883E-03
         168 -6.5123374E-03
         169 -1.4358283E-02
         170  1.5432076E-02
         171 -1.9700576E-02
         172 -1.7759129E-02
         173  6.0428218E-03
         174 -2.0515684E-03
         175  2.5882989E-03
         176 -1.9943139E-03
         177  4.3501202E-02
         178 -1.5856856E-02
         179  2.7879884E-02
         180 -9.0048790E-02
         181 -2.6643202E-02
         182  1.1895539E-02
         183 -1.1458583E-02
         184  1.9100579E-02
         185 -3.0065209E-03
         186 -4.3356437E-03
         187 -4.3242704E-03
         188  3.7394155E-02
         189  3.2131751E-03
         190  4.3840166E-03
         191  2.0026606E-02
         192 -6.6075986E-03
         193  5.1060836E-03
         194  0.1490637    
         195  0.4822761    
         196 -1.1118095E-02
         197 -2.5470846E-03
         198 -2.1683041E-02
         199 -6.5146364E-02
         200  4.0568183E-03
         201 -1.3603868E-03
         202 -5.7755146E-02
         203 -0.1955767    
         204  1.5722178E-02
         205  1.0252208E-03
         206  1.1503171E-02
         207  3.5145249E-02
         208 -1.5193399E-03
         209 -2.5395453E-03
         210 -4.8760511E-02
         211 -0.2222893    
         212  2.0275714E-02
         213  1.4599274E-03
         214  2.5367807E-03
         215  1.3312537E-02
         216 -3.5153779E-03
         217  9.2298660E-04
         218  3.9007664E-02
         219  0.1701019    
         220 -1.0861336E-02
         221 -4.7630043E-04
         222 -4.8982971E-03
         223 -2.1686856E-02
         224  1.7563521E-03
         225  2.6129579E-04
         226  5.9820358E-02
         227  0.2428330    
         228 -1.1801757E-02
         229 -7.1582792E-05
         230 -6.9076964E-03
         231 -2.7580053E-02
         232  9.6524670E-04
         233 -3.0012962E-03
         234 -3.9745297E-02
         235 -0.1403885    
         236  9.9851564E-03
         237  1.6023192E-03
         238  3.3786979E-03
         239  1.1504862E-02
         240 -1.3020773E-03
         241  5.2964403E-03
         242 -6.4217657E-02
         243 -0.2718874    
         244  7.5601926E-03
         245 -2.8600937E-03
         246  1.1792564E-02
         247  4.9822107E-02
         248  2.2522328E-04
         249 -3.4308498E-04
         250  7.9020843E-02
         251  0.3228684    
         252 -4.3608770E-03
         253 -3.7331851E-05
         254 -1.3176830E-02
         255 -5.2114338E-02
         256  9.3192881E-04
         257 -7.1317592E-04
         258 -6.9132216E-02
         259 -0.2707565    
         260  3.1476775E-03
         261 -3.7407255E-04
         262  1.1062272E-02
         263  5.0177637E-02
         264 -5.6096789E-04
         265 -2.3349587E-04
         266 -3.8015883E-02
         267 -0.1384633    
         268  3.6810557E-03
         269 -4.1127088E-04
         270  2.4499958E-03
         271  1.1599696E-02
         272 -8.4146461E-04
         273 -2.7734225E-04
         274  6.8231784E-02
         275  0.2407522    
         276 -6.2691187E-03
         277 -1.5064803E-04
         278 -7.9667931E-03
         279 -2.7182199E-02
         280  1.2551778E-04
         281  3.8079961E-04
         282  4.9816597E-02
         283  0.1656469    
         284 -3.6824080E-03
         285 -2.9640435E-04
         286 -7.1638827E-03
         287 -2.1436783E-02
         288 -5.1167398E-04
         289 -3.8370152E-03
         290 -6.9634788E-02
         291 -0.2179947    
         292  5.2379635E-03
         293  2.8789267E-03
         294  4.5725582E-03
         295  1.2127019E-02
         296 -8.0907263E-04
         297  1.5511280E-03
         298 -5.5712387E-02
         299 -0.1978241    
         300  9.1946200E-03
         301 -4.4104451E-04
         302  1.0839102E-02
         303  3.5729274E-02
         304  1.2993663E-04
         305 -4.1322246E-02
         306  5.5721637E-02
         307 -3.3814669E-02
         308 -0.1276947    
         309  2.7236404E-02
         310 -2.3766326E-02
         311  5.7787928E-03
         312  1.7731555E-02
         313  1.3254140E-02
         314 -1.4561910E-02
         315 -8.3263097E-03
         316 -2.1672398E-02
         317 -3.5779709E-03
         318  6.1627552E-03
         319  1.0994792E-03
         320  7.0275913E-04
         321 -7.1881250E-03
         322  5.4538967E-03
         323  3.2035604E-02
         324  4.4273105E-02
         325  2.7537427E-03
         326  1.3796848E-03
         327 -2.9215247E-03
         328 -5.8877594E-03
         329  3.3164532E-03
         330 -3.1149376E-03
         331 -5.1134359E-03
         332 -1.3831594E-02
         333 -1.0679760E-04
         334 -1.8965973E-03
         335  3.6201847E-03
         336  4.4797352E-03
         337 -2.0211288E-03
         338  3.4076818E-03
         339  1.2425579E-03
         340 -1.9417699E-05
         341  1.9656799E-03
         342 -2.6794691E-03
         343  4.8573068E-04
         344 -2.2310275E-04
         345 -1.1853531E-03
         346  8.6352677E-04
         347  5.8248203E-04
         348 -1.4132316E-03
         349  1.0882015E-03
         350  2.1459071E-04
         351 -1.8258025E-04
         352  4.9330533E-04
         353  1.8290151E-04
         354 -4.2612001E-04
         355  1.0138238E-03
         356  2.7890471E-04
         357 -6.5416352E-05
         358  3.6935546E-04
         359 -1.7006593E-04
         360 -2.0916112E-04
         361  1.8080264E-05
         362  2.4303640E-04
         363 -4.6062210E-04
         364 -3.0408407E-04
         365 -1.7387385E-04
         366  4.7350093E-04
         367  4.7954607E-05
         368 -4.2984313E-05
         369 -1.2091699E-04
         370  1.7237714E-04
         371 -1.4294739E-04
         372  5.2855705E-04
         373 -2.7224376E-05
         374  1.0170884E-04
         375  5.9633272E-05
         376 -1.5035619E-04
         377  1.9413581E-05
         378  2.3571134E-04
         379  8.2721119E-05
         380  1.1141668E-04
         381 -4.9719685E-05
         382  2.1618183E-04
         383 -5.9173439E-05
         384  3.1142994E-05
         385  3.2451568E-05
         386  4.8246962E-05
         387 -1.5980701E-04
         388 -7.5545940E-05
         389 -1.2926392E-04
         390  1.0777303E-04
         391 -1.6301265E-04
         392 -2.3769866E-05
         393  6.0448070E-07
         394 -2.2726679E-04
         395 -8.3760293E-05
         396  4.7849844E-05
         397 -1.0646260E-04
         398 -1.3938313E-04
         399  1.8742747E-05
         400 -3.0885465E-05
         401  4.0878997E-05
         402  3.1319435E-04
         403 -7.8919853E-05
         404 -6.7873836E-05
         405 -6.2891886E-05
         406  3.6373338E-05
         407  6.0752140E-05
         408 -6.3117412E-05
         409 -3.9769300E-05
         410  2.0317064E-05
         411  5.5547848E-06
         412 -1.1405588E-04
         413 -4.3304815E-05
         414  7.2680573E-06
         415  4.0088922E-05
         416 -1.7792031E-06
         417  7.1480026E-05
         418 -1.5651766E-04
         419  1.8129621E-06
         420 -1.4463421E-04
         421 -4.8848880E-05
         422  2.8732022E-06
         423 -3.7957048E-05
         424 -1.2747571E-05
         425  9.0722882E-05
         426  3.0237233E-04
         427  8.5466643E-05
         428 -8.5966465E-05
         429 -6.7991954E-05
         430  3.8226528E-05
         431 -6.6648809E-06
         432 -3.9514980E-06
         433  3.4457709E-05
         434 -1.3795078E-05
         435  2.3705697E-04
         436 -6.2696359E-05
         437 -3.8486531E-05
         438  5.9874346E-05
         439  7.9883204E-05
         440  2.2510647E-05
         441 -7.2406889E-05
         442 -1.3679393E-04
         443 -1.5118593E-04
         444 -1.1766513E-04
         445 -2.1857251E-05
         446  6.6473967E-06
         447 -6.9551730E-05
         448 -2.5603689E-05
         449  5.8721733E-05
         450  7.2598821E-05
         451  1.3464772E-04
         452  1.8504463E-04
         453 -2.7757476E-05
         454  3.7235925E-05
         455  2.9806282E-05
         456  2.5968029E-05
         457 -6.1965868E-05
         458 -3.6435769E-05
         459 -2.0206909E-04
         460  6.8880901E-05
         461 -2.3050232E-05
         462 -1.5000996E-05
         463 -2.9655252E-05
         464  7.5659436E-06
         465  5.6596811E-05
         466 -4.7337540E-05
         467  8.7764893E-05
         468  1.0377296E-04
         469 -9.9978417E-05
         470  8.9223817E-05
         471  2.0395432E-04
         472 -2.4121613E-05
         473  3.0484138E-05
         474  3.6184760E-05
         475 -1.4185336E-04
         476  2.9030118E-05
         477 -1.3267742E-04
         478  1.3408555E-04
         479  1.2742005E-04
         480  2.4454248E-05
         481 -1.1223685E-03
         482  1.9166562E-03
         483 -4.8126135E-04
         484  1.8522482E-05
         485  4.2592865E-04
         486  2.9442130E-04
         487 -1.6125375E-04
         488 -9.8722252E-05
         489  1.7192828E-03
         490 -1.7684061E-03
         491 -5.4999784E-04
         492 -1.4719327E-03
         493 -7.8461273E-04
         494  5.8983592E-04
         495  8.6176727E-04
         496 -1.4678021E-04
         497 -5.9038769E-03
         498  7.1837776E-03
         499  8.1314323E-03
         500 -6.7901406E-03
         501  3.8680024E-03
         502 -2.2943306E-03
         503 -5.4510724E-04
         504  7.4923842E-04
         505  2.6172991E-03
         506 -2.4327568E-03
         507  4.7374746E-05
         508  1.4782605E-04
         509 -8.8875263E-04
         510  6.5338810E-04
         511  2.7213493E-04
         512 -2.9558878E-04
         513  9.5958661E-05
         514 -6.3481377E-05
         515  3.5344288E-05
         516  3.2552787E-05
         517  1.2667184E-05
         518  8.6415130E-05
         519 -4.7179827E-05
         520  1.5677340E-04
         521  2.4637086E-05
         522  8.8429828E-05
         523 -3.8808281E-05
         524  3.0525793E-05
         525 -1.4898481E-04
         526  7.2172159E-05
         527  6.9845810E-05
         528 -3.3155075E-04
         529 -9.0102541E-05
         530  3.6659942E-05
         531 -8.7865257E-05
         532 -1.3042409E-05
         533  3.4996923E-05
         534 -2.9401835E-05
         535 -1.6326431E-06
         536  4.0784998E-05
         537  4.8661197E-05
         538  3.2203101E-05
         539  5.4176162E-05
         540 -4.4323704E-05
         541  6.0575103E-06
         542  5.5035816E-06
         543  3.4087381E-04
         544  6.2305189E-05
         545  3.3554617E-05
         546 -4.8477900E-06
         547  8.2304323E-05
         548  1.6766522E-04
         549  9.4210836E-06
         550 -1.0969345E-04
         551  3.6053138E-04
         552  9.9733370E-05
         553  2.9110024E-03
         554 -5.0031278E-05
         555  2.0821292E-04
         556  4.6613856E-04
         557  1.8305223E-05
         558 -1.7046005E-03
         559 -5.9224665E-04
         560  1.7449044E-03
         561 -5.7431759E-04
         562 -2.9522757E-04
         563  1.9106554E-02
         564 -3.1979068E-03
         565 -5.7334997E-05
         566 -2.0933490E-04
         567 -1.6644136E-03
         568 -1.0529662E-02
         569 -2.8399390E-03
         570  8.1680948E-03
         571 -1.1120406E-02
         572  4.5294762E-03
         573  1.3277640E-03
         574 -1.7165696E-03
         575 -7.1186926E-03
         576 -1.9150957E-02
         577 -1.1047299E-03
         578 -2.5891152E-03
         579  1.4476971E-04
         580  3.3488655E-03
         581  1.5003419E-02
         582 -2.5474947E-04
         583 -1.4700791E-03
         584  2.0645832E-05
         585  4.7787414E-03
         586  1.9879550E-02
         587 -7.3231827E-04
         588  1.2028289E-03
         589  5.6801230E-04
         590 -7.3587953E-04
         591 -4.3794927E-03
         592 -4.6587884E-04
         593  2.1612267E-03
         594 -7.1405416E-04
         595 -1.5027585E-03
         596 -3.8547751E-03
         597  5.3275749E-04
         598  1.1437180E-03
         599 -1.2665497E-04
         600  5.8315634E-03
         601  1.9605123E-02
         602 -3.1786703E-04
         603  1.5999535E-03
         604 -8.1877282E-04
         605  4.0279147E-03
         606  1.4371820E-02
         607 -6.4440753E-04
         608  7.4158434E-04
         609  1.6445381E-03
         610 -1.0409040E-03
         611 -1.9716972E-02
         612  1.5271959E-03
         613  1.1940184E-02
         614  2.1459660E-03
         615 -1.3787747E-02
         616 -5.1101907E-03
         617 -5.8312961E-03
         618  7.2710129E-04
         619 -5.6535751E-04
         620  6.0120953E-04
         621 -2.6798749E-04
         622 -8.5710327E-04
         623 -3.4805856E-04
         624 -1.2501027E-04
         625  1.4530036E-04
         626  2.5566469E-04
         627  1.3936643E-06
         628 -2.5708941E-05
         629 -1.4684780E-04
         630 -8.1198297E-05
         631 -1.0701447E-04
         632  3.3074863E-05
         633  2.9534025E-05
         634 -4.1210489E-05
         635  8.5198131E-05
         636 -3.5138248E-05
         637 -8.9119188E-05
         638  2.8915313E-04
         639  3.5628469E-05
         640 -3.5881716E-05
         641  7.1305311E-07
         642 -5.5467470E-05
         643 -2.5882406E-05
         644 -2.5925296E-05
         645  1.0150190E-05
         646  3.7128862E-05
         647  2.5996720E-05
         648 -2.1216291E-04
         649 -9.1680078E-05
         650  4.3270993E-05
         651  1.5627724E-05
         652  6.9161456E-06
         653  2.6134553E-04
         654  2.2522998E-05
         655  1.5903879E-05
         656 -1.9881131E-06
         657  1.5376969E-06
         658 -1.4943611E-04
         659 -5.1910542E-05
         660 -2.6424053E-05
         661  1.6917784E-05
         662  3.2968819E-05
         663 -1.0426265E-05
         664 -1.5835113E-04
         665 -4.3472701E-06
         666  2.7773320E-04
         667 -1.7885935E-04
         668  1.0752609E-03
         669 -3.6864518E-04
         670  5.9166097E-04
         671 -1.5130536E-05
         672  1.8445973E-04
         673  2.9047721E-04
         674 -5.2777084E-04
         675  9.0273016E-04
         676  1.7337083E-03
         677 -1.6029579E-04
         678  1.4422858E-03
         679  8.7778497E-04
         680 -2.3935616E-03
         681  1.8692067E-03
         682 -6.7303475E-04
         683 -1.9544330E-03
         684  6.4976787E-04
         685 -3.6630357E-04
         686 -3.6033995E-05
         687  3.2598674E-04
 Sym= Particle
 Ene=  -1.050519    
 Spin= Alpha
 Occup= 2
           1  3.9498464E-05
           2 -8.5392121E-06
           3 -9.8020872E-05
           4  2.6013236E-04
           5 -9.8244171E-05
           6  1.6126694E-04
           7 -1.2310223E-04
           8  1.2663229E-04
           9 -7.4259959E-05
          10  1.6666074E-04
          11 -4.4361703E-04
          12  1.0729850E-03
          13  3.1676958E-05
          14  1.8552209E-05
          15  8.0307509E-05
          16 -2.2275561E-04
          17 -8.2441722E-05
          18 -6.9546237E-05
          19  5.7960406E-04
          20 -1.2753855E-03
          21  1.4922148E-04
          22  5.5379292E-05
          23 -1.1281440E-04
          24  2.8008159E-04
          25  1.0597658E-04
          26  1.1410372E-04
          27 -3.9565272E-04
          28  9.3725289E-04
          29 -7.8632402E-05
          30  2.6670114E-05
          31  1.3566852E-04
          32 -4.7971154E-04
          33 -9.1093432E-05
          34  1.2801684E-04
          35 -2.4214455E-04
          36  7.7161042E-04
          37 -2.1072949E-05
          38 -2.0489320E-05
          39  4.6792175E-05
          40 -1.5699530E-04
          41 -2.9450392E-05
          42 -2.6683946E-04
          43  5.0237059E-04
          44 -1.2564705E-03
          45  5.0433073E-06
          46  2.1744971E-04
          47 -1.2424999E-04
          48  3.8242058E-04
          49  1.1321103E-04
          50 -5.9525290E-05
          51  1.0456476E-04
          52 -7.4345953E-05
          53 -2.4575685E-04
          54  6.2278286E-06
          55 -8.7065506E-05
          56  4.5845084E-07
          57 -2.3942217E-05
          58 -9.1646420E-05
          59  2.7502741E-04
          60 -6.2801235E-04
          61 -9.8778204E-05
          62  1.8314193E-05
          63 -1.5770388E-04
          64  2.6043542E-04
          65  4.2371303E-06
          66  1.1342144E-04
          67 -4.3010141E-04
          68  9.8702882E-04
          69 -6.9590249E-05
          70  1.0643914E-05
          71  6.1852828E-05
          72 -2.6160141E-04
          73 -2.6607916E-06
          74 -7.6238124E-05
          75  1.1629109E-04
          76 -1.4231204E-04
          77 -2.9391238E-05
          78  4.0692084E-05
          79 -1.6603904E-05
          80 -1.2475903E-04
          81  1.5671423E-05
          82 -2.1666478E-04
          83  4.3483381E-04
          84 -1.0641399E-03
          85 -8.4318061E-05
          86  1.3878358E-04
          87 -1.2869993E-04
          88  2.6576509E-04
          89  2.0652536E-05
          90  6.6597822E-05
          91 -5.3166563E-04
          92  1.1908356E-03
          93 -6.2905761E-05
          94  1.4987907E-04
          95  2.6717733E-05
          96 -3.0814158E-04
          97  8.4185580E-05
          98 -1.2590083E-04
          99  2.0818879E-04
         100 -4.8452592E-04
         101 -1.0738089E-04
         102  2.2037265E-04
         103 -1.4588250E-04
         104  3.1223826E-04
         105 -1.0333698E-04
         106 -8.4820735E-05
         107  1.4305643E-04
         108 -1.7377039E-04
         109  1.1945216E-04
         110  2.3111602E-04
         111 -4.5298493E-05
         112  1.0418345E-05
         113 -9.9936173E-05
         114  6.4141386E-05
         115  7.1326045E-05
         116 -1.2488273E-04
         117  3.7119252E-04
         118  3.5175813E-07
         119 -1.8258089E-04
         120  8.1484090E-05
         121 -1.0229815E-04
         122 -8.0676150E-04
         123 -6.1485227E-03
         124  3.3976180E-06
         125  2.8341086E-04
         126  3.4228648E-04
         127  1.8654082E-03
         128  8.7493772E-06
         129  1.4101036E-04
         130  8.7221997E-04
         131  6.3810535E-03
         132 -6.5337267E-04
         133 -1.9891932E-05
         134  1.2948242E-04
         135 -2.2251883E-03
         136  2.0725165E-04
         137 -1.6002180E-06
         138  5.4727461E-05
         139  6.1847793E-04
         140  1.1915845E-04
         141  3.0882840E-04
         142  1.7117999E-04
         143 -5.3925021E-04
         144 -5.2797352E-04
         145 -2.7842197E-04
         146 -7.0069458E-05
         147 -2.3362213E-03
         148 -4.7919466E-03
         149  1.3128259E-03
         150 -7.3448312E-04
         151  9.3099824E-04
         152  7.3230191E-04
         153 -2.3137935E-04
         154 -5.2958215E-04
         155  9.5695461E-04
         156  1.2816970E-05
         157  6.8062142E-04
         158 -7.3231803E-04
         159  2.8466454E-04
         160  5.1350490E-04
         161 -7.1476091E-04
         162  3.8424254E-04
         163  2.9950489E-03
         164  5.7060095E-03
         165  3.2824478E-03
         166 -1.6492219E-03
         167 -6.5616611E-04
         168 -1.1214664E-03
         169  9.3511818E-04
         170 -1.8529261E-03
         171  1.7665880E-03
         172  1.1045742E-03
         173  1.6467930E-03
         174  8.2850784E-05
         175 -2.2656876E-03
         176  1.3617788E-03
         177 -1.3916242E-03
         178  1.6704784E-03
         179 -3.3052247E-03
         180 -7.4465331E-03
         181  3.2391765E-03
         182 -4.4561038E-03
         183 -1.9965705E-03
         184  7.9530142E-03
         185 -3.4068741E-03
         186  2.7760561E-03
         187  4.0889392E-03
         188  9.3584657E-03
         189  8.1284447E-03
         190  7.5052551E-04
         191 -2.2080531E-03
         192 -1.5379646E-03
         193 -3.8901689E-03
         194  2.7907477E-03
         195  9.9468464E-04
         196  1.1217947E-03
         197  3.2391809E-03
         198 -3.0967467E-03
         199  1.8311384E-04
         200 -4.5066961E-04
         201  6.9260946E-03
         202 -0.1057650    
         203 -0.4092165    
         204  2.6053827E-02
         205 -2.1858155E-03
         206  4.0054675E-02
         207  0.1578344    
         208 -1.0298797E-02
         209 -5.7066544E-03
         210  2.4925329E-02
         211  0.1159692    
         212 -2.5253503E-03
         213  5.9722359E-03
         214 -1.0826589E-02
         215 -3.9773479E-02
         216  3.9891814E-04
         217 -2.1814478E-03
         218  6.0626604E-02
         219  0.2568182    
         220 -1.5639102E-02
         221  2.7827751E-03
         222 -1.7337386E-02
         223 -6.6334695E-02
         224  3.9295712E-03
         225  4.7559344E-04
         226 -7.8395583E-02
         227 -0.3325288    
         228  1.5801419E-02
         229  4.4625296E-04
         230  1.9323166E-02
         231  8.7375432E-02
         232 -4.1687121E-03
         233 -1.3100849E-03
         234  7.3209647E-03
         235  2.6008731E-02
         236 -2.5122894E-03
         237  1.4007362E-03
         238 -1.8990152E-04
         239 -1.3092689E-03
         240  1.4783446E-03
         241 -5.4630972E-03
         242  8.7176606E-02
         243  0.3371449    
         244 -8.3839735E-03
         245  3.5432053E-03
         246 -3.2334749E-02
         247 -0.1298462    
         248  6.4595076E-03
         249  3.7030941E-03
         250  5.7925461E-03
         251 -1.9158142E-03
         252  2.0131080E-03
         253 -6.0247639E-03
         254 -5.6466381E-03
         255  1.6511728E-03
         256 -2.0419331E-03
         257 -7.2757727E-03
         258 -8.8387847E-02
         259 -0.3364094    
         260 -2.3204600E-04
         261  4.8592943E-03
         262  3.5728611E-02
         263  0.1285447    
         264 -1.7232189E-03
         265  1.5531006E-04
         266 -4.1937619E-03
         267 -1.8679451E-02
         268  3.8166679E-03
         269  3.6419524E-04
         270 -2.2991879E-05
         271 -1.0784203E-03
         272 -2.1218681E-03
         273 -8.3182284E-05
         274  9.3815610E-02
         275  0.3208876    
         276 -7.6352274E-03
         277  2.9613200E-04
         278 -2.5459273E-02
         279 -8.3652094E-02
         280  1.4751535E-03
         281 -6.7011081E-04
         282 -7.3686168E-02
         283 -0.2537926    
         284  9.6242717E-03
         285  1.5609440E-03
         286  1.7930079E-02
         287  6.6111952E-02
         288 -2.9973364E-03
         289 -6.1339485E-03
         290 -3.0591771E-02
         291 -0.1080709    
         292 -2.3065230E-03
         293  5.7918280E-03
         294  9.3261739E-03
         295  3.8648434E-02
         296  5.3849956E-04
         297  1.0624589E-02
         298  0.1135433    
         299  0.3993369    
         300 -7.0398860E-03
         301 -5.3618583E-03
         302 -4.4034313E-02
         303 -0.1530790    
         304  1.8963692E-03
         305 -4.0427331E-04
         306  5.0135986E-05
         307 -3.7135258E-03
         308 -4.7397418E-03
         309  2.7813641E-03
         310  7.7573315E-04
         311  4.6092444E-03
         312 -3.3527231E-03
         313  4.1485787E-04
         314 -8.1718480E-04
         315 -2.8499495E-03
         316 -6.8148538E-03
         317  2.3024862E-03
         318  4.7792532E-04
         319  7.3105399E-04
         320  1.7137496E-03
         321 -1.3441604E-04
         322 -2.4625933E-04
         323  1.2302494E-03
         324  3.4200938E-03
         325  8.3675358E-04
         326 -1.4190463E-03
         327 -9.6713280E-05
         328 -2.1475239E-03
         329 -3.6482664E-04
         330  7.2522351E-05
         331  9.7156689E-04
         332  1.7544859E-03
         333  1.6650731E-03
         334 -1.3018651E-03
         335 -1.3710263E-04
         336 -4.1413901E-04
         337 -1.2034630E-05
         338  6.7710597E-04
         339 -1.2296098E-03
         340 -9.9977689E-05
         341  4.1434000E-04
         342 -4.9600482E-04
         343  8.4239384E-04
         344  3.1085129E-04
         345 -1.4980232E-04
         346  2.4887284E-03
         347 -5.5610649E-03
         348  3.9287072E-05
         349  2.3198382E-04
         350 -7.6249125E-04
         351  2.1259675E-03
         352 -1.7112221E-04
         353 -1.2381051E-05
         354 -2.7069300E-03
         355  6.3793864E-03
         356  6.8392917E-05
         357  1.6260381E-04
         358  9.7567396E-04
         359 -1.8026229E-03
         360 -9.2639675E-05
         361 -9.3967181E-05
         362  3.8040345E-04
         363 -1.1032686E-03
         364  1.7969440E-05
         365  3.5168068E-04
         366 -2.1129315E-05
         367  4.8897997E-04
         368 -2.8936613E-05
         369 -2.4333647E-05
         370 -1.7591165E-05
         371 -5.4160602E-05
         372  1.3259552E-06
         373  7.1276751E-05
         374  1.4319152E-04
         375  4.2936786E-05
         376 -5.6623579E-05
         377 -7.9170692E-05
         378  5.9538928E-05
         379  2.5852746E-04
         380 -9.4119133E-04
         381  1.0107039E-04
         382 -2.4450217E-05
         383 -3.8305003E-05
         384  4.5621625E-04
         385  1.1151065E-05
         386  1.5921418E-04
         387 -5.6715816E-04
         388  1.3731971E-03
         389  6.4728389E-05
         390  1.7382405E-05
         391  5.2477371E-05
         392 -2.9682645E-04
         393 -9.9963509E-05
         394 -4.7453490E-05
         395  4.9073523E-04
         396 -1.1325732E-03
         397  1.0103138E-04
         398  2.8200362E-05
         399 -2.1121728E-04
         400  2.2668001E-04
         401  3.3984950E-05
         402 -6.7096706E-05
         403  1.3358754E-04
         404 -3.1348609E-04
         405 -5.0518185E-05
         406  1.1964067E-04
         407  1.7989181E-05
         408 -7.6554832E-05
         409 -1.4921914E-05
         410  1.6338684E-04
         411 -5.7974074E-04
         412  1.3568534E-03
         413 -2.5483567E-05
         414  3.4291330E-05
         415  1.6862093E-04
         416 -3.8308231E-04
         417  2.4788535E-05
         418 -7.6609875E-05
         419  3.4681871E-04
         420 -7.5379788E-04
         421 -1.0594449E-04
         422  7.4052376E-05
         423 -6.5976579E-05
         424  1.1349161E-04
         425  5.1389816E-05
         426  4.1639469E-06
         427  1.8386625E-07
         428  3.2349013E-05
         429 -1.1328195E-04
         430  4.0289204E-05
         431  1.3746110E-05
         432 -6.1623912E-05
         433 -4.9427999E-05
         434  1.5004967E-04
         435 -3.3052621E-04
         436  8.2993734E-04
         437 -6.3863845E-05
         438 -4.6884521E-05
         439  1.5400840E-04
         440 -3.2112098E-04
         441  2.1172613E-05
         442 -1.1156544E-04
         443  3.8085380E-04
         444 -9.0155215E-04
         445 -8.5651860E-05
         446  1.2118053E-04
         447 -1.2258333E-04
         448  3.4511348E-04
         449  8.5519305E-06
         450 -2.8029172E-05
         451  3.9637749E-07
         452 -1.2282660E-04
         453 -4.6551548E-05
         454  6.5752087E-05
         455 -4.9966056E-06
         456  2.2495243E-04
         457  6.5718318E-06
         458  5.2477972E-05
         459 -4.1148020E-04
         460  1.1485433E-03
         461 -6.6855137E-05
         462  7.2230854E-05
         463  9.8513527E-05
         464 -2.9286489E-04
         465  3.6999270E-05
         466 -1.7855193E-04
         467  4.3822723E-04
         468 -9.8825269E-04
         469 -5.7820995E-05
         470  1.9069386E-04
         471  2.8728246E-05
         472  3.0306479E-04
         473  1.2107979E-04
         474  2.5117057E-05
         475 -1.7253478E-04
         476  2.6515825E-04
         477 -1.1660383E-04
         478  9.6003503E-05
         479  1.4529000E-04
         480 -2.6662953E-04
         481 -1.6681889E-04
         482  2.0555330E-03
         483 -4.9161050E-03
         484  2.0567971E-04
         485  4.9578358E-04
         486 -5.4624199E-04
         487  1.4373689E-03
         488 -5.6331010E-05
         489 -3.8879257E-04
         490 -2.6183517E-03
         491  6.0531786E-03
         492 -4.4604694E-04
         493  7.9260679E-04
         494  9.3095470E-04
         495 -2.0646008E-03
         496  3.6675611E-04
         497 -6.1959558E-04
         498 -4.3226042E-04
         499 -5.4926723E-03
         500  1.9114505E-04
         501  8.9804112E-04
         502  4.9043600E-05
         503  1.9251665E-03
         504 -2.9521115E-04
         505 -5.3270971E-05
         506  5.3742190E-04
         507  5.1282798E-03
         508 -4.0456679E-04
         509  4.0937410E-04
         510 -2.1471790E-04
         511 -1.5791110E-03
         512  1.4009853E-04
         513 -2.9152911E-06
         514 -6.9441536E-05
         515  1.2231666E-04
         516 -1.7480341E-04
         517  1.3442287E-04
         518  4.5087654E-06
         519 -1.1172882E-04
         520 -1.9526569E-05
         521 -1.0151680E-04
         522  2.3742768E-04
         523  3.7170190E-05
         524 -3.8744372E-05
         525 -9.6935721E-05
         526  7.7172270E-04
         527 -8.3060237E-04
         528  9.5905787E-05
         529 -3.8134025E-05
         530  1.2013743E-04
         531  2.1850415E-04
         532 -2.7950911E-04
         533  7.4072006E-05
         534 -1.3480168E-04
         535  9.5955904E-05
         536 -1.7442231E-04
         537  2.0722362E-04
         538  2.6657004E-05
         539 -4.4259330E-05
         540  1.5022995E-05
         541 -1.0889279E-05
         542 -1.4082849E-04
         543 -4.7198169E-05
         544 -4.4576700E-05
         545 -1.1766743E-06
         546  1.7784596E-04
         547 -2.4813716E-04
         548  1.9708681E-05
         549 -7.9683654E-05
         550  5.2932362E-05
         551 -4.7470228E-04
         552  6.0142623E-04
         553  1.0024011E-04
         554 -1.2757070E-04
         555 -1.4091165E-04
         556 -1.3998058E-03
         557 -1.2178292E-06
         558 -4.3420077E-05
         559 -2.5063154E-04
         560  3.6282794E-04
         561  1.1205273E-03
         562  1.4001961E-04
         563  1.0351216E-03
         564  9.4013015E-04
         565 -1.9623740E-03
         566  8.2909246E-04
         567  5.4774771E-04
         568  1.6426829E-03
         569  3.5466568E-04
         570 -1.0223443E-02
         571  5.3042802E-03
         572 -3.5465288E-03
         573  3.9012565E-03
         574 -1.2004806E-03
         575  1.0846295E-02
         576  2.8481733E-02
         577  1.0107904E-03
         578  2.2832521E-03
         579 -1.6715983E-03
         580  1.4900082E-02
         581  6.0798913E-02
         582 -2.7302356E-04
         583  4.4906753E-04
         584 -7.4464729E-04
         585 -1.9748133E-02
         586 -7.7669404E-02
         587  4.6995361E-03
         588  3.7924759E-03
         589 -2.8990880E-03
         590 -1.6094461E-03
         591  6.1506997E-03
         592  3.9405539E-04
         593  2.9842868E-03
         594 -2.9038417E-03
         595 -3.5504801E-03
         596 -3.3052536E-03
         597 -1.6601075E-03
         598  1.1019537E-03
         599 -1.3180397E-03
         600  2.1103896E-02
         601  7.5377017E-02
         602 -2.9863948E-03
         603  4.8553935E-04
         604 -1.1879265E-03
         605 -1.6015822E-02
         606 -5.9937619E-02
         607 -7.7746612E-05
         608  2.1143106E-03
         609 -1.8844708E-04
         610 -3.5588942E-03
         611 -2.7700756E-02
         612  2.1894542E-04
         613  7.3395699E-04
         614 -2.0115514E-04
         615 -9.5542278E-03
         616  5.5062800E-04
         617 -2.5934344E-03
         618  5.1707621E-06
         619 -6.2296880E-05
         620  5.8249582E-04
         621 -1.0254080E-03
         622 -3.6077001E-04
         623 -3.6172733E-05
         624  4.5187389E-05
         625 -6.0259335E-04
         626  1.4978966E-03
         627 -3.0437801E-05
         628  6.1127635E-06
         629 -4.1184070E-05
         630  3.1955139E-04
         631 -7.0432253E-04
         632  8.3476567E-04
         633  3.0387097E-05
         634  3.5318965E-06
         635 -6.1782652E-05
         636  9.1114434E-06
         637 -3.2804956E-04
         638 -1.5418487E-05
         639  1.4672650E-05
         640  4.7870235E-05
         641  1.0582557E-04
         642 -1.5535689E-04
         643  3.4483851E-06
         644  5.7674592E-05
         645  8.5982996E-05
         646 -1.8822141E-04
         647  3.1553974E-04
         648  6.0548176E-05
         649 -7.5696218E-05
         650  8.1804275E-05
         651  6.3393796E-05
         652 -7.3407049E-05
         653  3.1168354E-05
         654 -2.2034463E-05
         655  5.2301140E-05
         656  7.9097867E-05
         657  7.2321047E-05
         658 -7.5570861E-05
         659 -1.1976639E-05
         660  9.0746158E-05
         661 -1.6040965E-04
         662  2.2247036E-04
         663  3.6780150E-06
         664 -6.9732640E-05
         665 -1.1306855E-04
         666  4.9254630E-04
         667 -5.0137640E-04
         668  5.3090366E-06
         669  2.4191093E-05
         670  4.5784298E-04
         671 -1.0403051E-03
         672  1.4031788E-04
         673 -1.6061908E-06
         674  2.7200815E-04
         675 -7.0493319E-04
         676  9.1864489E-04
         677  1.6600893E-04
         678 -4.7694088E-05
         679  4.4728245E-04
         680 -7.3767360E-04
         681 -8.8895101E-04
         682 -1.1049701E-04
         683 -9.6746007E-05
         684 -2.1766964E-05
         685  1.5983148E-04
         686  1.0867160E-03
         687 -1.8913664E-04
