 [Molden Format]
 [Atoms] Angs
C       1      6      0.97659927     -6.39026022     -0.47292747
C       2      6      2.21568354     -5.74516070     -0.61352916
C       3      6      2.30524953     -4.38131366     -0.53936852
C       4      6      1.15098682     -3.61082078     -0.31223032
C       5      6      1.11098640     -2.19242678     -0.17728886
C       6      6      2.32260771     -1.36950475     -0.08221406
C       7      6      2.38332257     -0.16609443     -0.78245065
C       8      6      3.50353184      0.63417364     -0.71058006
C       9      6      4.58071446      0.25829082      0.09041896
N      10      7      5.71718940      1.06818010      0.17052805
C      11      6      7.02463411      0.64378682      0.02633941
C      12      6      7.51730349     -0.61912415     -0.26861062
C      13      6      8.88605688     -0.76625800     -0.38929932
C      14      6      9.75063496      0.31426979     -0.23128897
C      15      6      9.26466281      1.57838622      0.03672603
C      16      6      7.89276622      1.75089194      0.16284459
C      17      6      7.06028528      2.89531022      0.40919994
C      18      6      7.32861847      4.23749648      0.64293111
C      19      6      6.27008676      5.09263923      0.87537866
C      20      6      4.95952900      4.62109486      0.89349806
C      21      6      4.66761235      3.29008016      0.66355066
C      22      6      5.72534158      2.43119388      0.40224324
C      23      6      4.51068100     -0.92725134      0.81921354
C      24      6      3.39503153     -1.73467109      0.72897230
N      25      7     -0.02933203     -1.54732673     -0.12784356
C      26      6     -1.17800451     -2.25210002     -0.12531196
C      27      6     -2.41884315     -1.47949507     -0.09465924
C      28      6     -2.38206755     -0.08889224     -0.00045290
C      29      6     -3.55159297      0.64039977      0.02415133
C      30      6     -4.78314765     -0.00848735     -0.05299672
N      31      7     -5.97035579      0.73092226     -0.03505437
C      32      6     -7.06656210      0.48310417      0.76900527
C      33      6     -7.24126466     -0.47768741      1.75472489
C      34      6     -8.44089767     -0.48765091      2.44039891
C      35      6     -9.44450895      0.43853330      2.16547769
C      36      6     -9.26615946      1.41332712      1.20440804
C      37      6     -8.06894825      1.44339647      0.50165174
C      38      6     -7.54628037      2.30581649     -0.52102939
C      39      6     -8.06155589      3.40180752     -1.20028045
C      40      6     -7.28502286      4.00392628     -2.16991258
C      41      6     -6.01684544      3.51573627     -2.47636146
C      42      6     -5.48279500      2.42672180     -1.81437693
C      43      6     -6.24782661      1.83368524     -0.82022667
C      44      6     -4.82344097     -1.39922166     -0.14911473
C      45      6     -3.65245690     -2.12571651     -0.16595278
N      46      7     -1.25737027     -3.56288166     -0.12245110
C      47      6     -0.11308101     -4.25993686     -0.23346143
C      48      6     -0.16989242     -5.66809185     -0.29547407
H      49      1      0.93573667     -7.46842910     -0.52669564
H      50      1      3.10250404     -6.33647905     -0.78800468
H      51      1      3.25508855     -3.88581084     -0.67612237
H      52      1      1.54399405      0.11950076     -1.39760056
H      53      1      3.56016607      1.54743829     -1.28343994
H      54      1      6.85554323     -1.45996104     -0.41243812
H      55      1      9.29398812     -1.74049956     -0.61518447
H      56      1     10.81437838      0.15777206     -0.33086950
H      57      1      9.93294635      2.41963141      0.14182986
H      58      1      8.34595422      4.59856702      0.64710024
H      59      1      6.45634938      6.14066014      1.05683180
H      60      1      4.15293806      5.31019873      1.09590261
H      61      1      3.64985488      2.93226390      0.70070318
H      62      1      5.32680432     -1.19852809      1.47202941
H      63      1      3.33709731     -2.63321533      1.32581617
H      64      1     -1.42363756      0.40164397      0.06548273
H      65      1     -3.52392462      1.71545470      0.12233523
H      66      1     -6.46274326     -1.18753953      1.98982846
H      67      1     -8.60219638     -1.22815199      3.20996744
H      68      1    -10.36913925      0.39553697      2.72166928
H      69      1    -10.03636970      2.14255082      1.00302634
H      70      1     -9.05160052      3.76840943     -0.97459956
H      71      1     -7.66561900      4.85917054     -2.70830001
H      72      1     -5.43912253      3.99668393     -3.25198818
H      73      1     -4.50713999      2.04450727     -2.07379103
H      74      1     -5.77796861     -1.89757389     -0.22987206
H      75      1     -3.66863873     -3.20122758     -0.24484333
H      76      1     -1.13667773     -6.13998042     -0.21947649
 [GTO]
           1   0
s              4   1.000000
     34.90839491     -0.01198412
      6.01151446     -0.05472052
      0.48305084      0.58055871
      0.18410263      0.47700799
p              4   1.000000
      5.62639981      0.05713170
      1.45884145      0.28574555
      0.51428676      0.55178731
      0.20474642      0.26323149
s              7   1.000000
      0.38350848     -0.19625619
      0.04707223      0.94823780
      0.02222627      0.24902164
     34.90839491      0.00551961
      6.01151446      0.02520302
      0.48305084     -0.26739209
      0.18410263     -0.21969899
p              7   1.000000
      1.83062075     -0.01161294
      0.10124670      0.57067789
      0.03901771      0.59598829
      5.62639981     -0.02528419
      1.45884145     -0.12645948
      0.51428676     -0.24419886
      0.20474642     -0.11649567
 
           2   0
s              4   1.000000
     34.91135454     -0.01198412
      6.01202413     -0.05472053
      0.48309179      0.58055871
      0.18411824      0.47700799
p              4   1.000000
      5.62687683      0.05713170
      1.45896514      0.28574555
      0.51433036      0.55178731
      0.20476378      0.26323149
s              7   1.000000
      0.38350848     -0.19625341
      0.04707223      0.94822437
      0.02222627      0.24901811
     34.91135454      0.00551916
      6.01202413      0.02520098
      0.48309179     -0.26737044
      0.18411824     -0.21968121
p              7   1.000000
      1.83062075     -0.01161279
      0.10124670      0.57067030
      0.03901771      0.59598036
      5.62687683     -0.02528214
      1.45896514     -0.12644921
      0.51433036     -0.24417902
      0.20476378     -0.11648620
 
           3   0
s              4   1.000000
     34.97053215     -0.01198412
      6.02221500     -0.05472052
      0.48391067      0.58055871
      0.18443034      0.47700799
p              4   1.000000
      5.63641485      0.05713170
      1.46143821      0.28574555
      0.51520219      0.55178731
      0.20511087      0.26323149
s              7   1.000000
      0.38350848     -0.19619796
      0.04707223      0.94795642
      0.02222627      0.24894774
     34.97053215      0.00551025
      6.02221500      0.02516026
      0.48391067     -0.26693838
      0.18443034     -0.21932621
p              7   1.000000
      1.83062075     -0.01160971
      0.10124670      0.57051880
      0.03901771      0.59582213
      5.63641485     -0.02524113
      1.46143821     -0.12624409
      0.51520219     -0.24378293
      0.20511087     -0.11629725
 
           4   0
s              4   1.000000
     35.19716316     -0.01198412
      6.06124274     -0.05472053
      0.48704672      0.58055871
      0.18562556      0.47700799
p              4   1.000000
      5.67294236      0.05713170
      1.47090924      0.28574555
      0.51854102      0.55178731
      0.20644012      0.26323149
s              7   1.000000
      0.38350848     -0.19598787
      0.04707223      0.94694135
      0.02222627      0.24868117
     35.19716316      0.00547635
      6.06124274      0.02500549
      0.48704672     -0.26529632
      0.18562556     -0.21797703
p              7   1.000000
      1.83062075     -0.01159803
      0.10124670      0.56994492
      0.03901771      0.59522282
      5.67294236     -0.02508526
      1.47090924     -0.12546449
      0.51854102     -0.24227749
      0.20644012     -0.11557907
 
           5   0
s              4   1.000000
     35.28233003     -0.01198412
      6.07590918     -0.05472053
      0.48822523      0.58055871
      0.18607472      0.47700800
p              4   1.000000
      5.68666922      0.05713170
      1.47446841      0.28574555
      0.51979574      0.55178731
      0.20693964      0.26323149
s              7   1.000000
      0.38350848     -0.19590984
      0.04707223      0.94656437
      0.02222627      0.24858216
     35.28233003      0.00546372
      6.07590918      0.02494781
      0.48822523     -0.26468435
      0.18607472     -0.21747422
p              7   1.000000
      1.83062075     -0.01159369
      0.10124670      0.56973179
      0.03901771      0.59500023
      5.68666922     -0.02502716
      1.47446841     -0.12517394
      0.51979574     -0.24171642
      0.20693964     -0.11531141
 
           6   0
s              4   1.000000
     35.12067167     -0.01198412
      6.04807027     -0.05472052
      0.48598825      0.58055871
      0.18522215      0.47700799
p              4   1.000000
      5.66061375      0.05713170
      1.46771262      0.28574555
      0.51741412      0.55178730
      0.20599148      0.26323149
s              7   1.000000
      0.38350848     -0.19605837
      0.04707223      0.94728199
      0.02222627      0.24877063
     35.12067167      0.00548774
      6.04807027      0.02505752
      0.48598825     -0.26584832
      0.18522215     -0.21843058
p              7   1.000000
      1.83062075     -0.01160195
      0.10124670      0.57013751
      0.03901771      0.59542392
      5.66061375     -0.02513766
      1.46771262     -0.12572657
      0.51741412     -0.24278358
      0.20599148     -0.11582050
 
           7   0
s              4   1.000000
     35.02450859     -0.01198412
      6.03151019     -0.05472052
      0.48465758      0.58055871
      0.18471500      0.47700799
p              4   1.000000
      5.64511456      0.05713170
      1.46369391      0.28574555
      0.51599740      0.55178731
      0.20542746      0.26323149
s              7   1.000000
      0.38350848     -0.19614759
      0.04707223      0.94771308
      0.02222627      0.24888385
     35.02450859      0.00550214
      6.03151019      0.02512323
      0.48465758     -0.26654549
      0.18471500     -0.21900340
p              7   1.000000
      1.83062075     -0.01160691
      0.10124670      0.57038123
      0.03901771      0.59567847
      5.64511456     -0.02520383
      1.46369391     -0.12605756
      0.51599740     -0.24342273
      0.20542746     -0.11612541
 
           8   0
s              4   1.000000
     35.00706728     -0.01198412
      6.02850666     -0.05472052
      0.48441623      0.58055871
      0.18462302      0.47700800
p              4   1.000000
      5.64230344      0.05713170
      1.46296503      0.28574555
      0.51574044      0.55178731
      0.20532516      0.26323149
s              7   1.000000
      0.38350848     -0.19616384
      0.04707223      0.94779159
      0.02222627      0.24890447
     35.00706728      0.00550475
      6.02850666      0.02513518
      0.48441623     -0.26667232
      0.18462302     -0.21910760
p              7   1.000000
      1.83062075     -0.01160781
      0.10124670      0.57042562
      0.03901771      0.59572484
      5.64230344     -0.02521587
      1.46296503     -0.12611778
      0.51574044     -0.24353901
      0.20532516     -0.11618088
 
           9   0
s              4   1.000000
     35.13352581     -0.01198412
      6.05028386     -0.05472052
      0.48616612      0.58055871
      0.18528994      0.47700799
p              4   1.000000
      5.66268553      0.05713170
      1.46824980      0.28574555
      0.51760349      0.55178731
      0.20606687      0.26323149
s              7   1.000000
      0.38350848     -0.19604649
      0.04707223      0.94722461
      0.02222627      0.24875557
     35.13352581      0.00548583
      6.05028386      0.02504876
      0.48616612     -0.26575540
      0.18528994     -0.21835423
p              7   1.000000
      1.83062075     -0.01160129
      0.10124670      0.57010507
      0.03901771      0.59539006
      5.66268553     -0.02512883
      1.46824980     -0.12568246
      0.51760349     -0.24269839
      0.20606687     -0.11577986
 
          10   0
s              4   1.000000
     61.42334766     -0.01198412
     10.57760872     -0.05472052
      0.84995599      0.58055871
      0.32393927      0.47700799
p              4   1.000000
      7.24009136      0.05713170
      1.87724758      0.28574555
      0.66178786      0.55178731
      0.26346915      0.26323149
s              7   1.000000
      0.47894987     -0.18771652
      0.05878681      0.90697723
      0.02775758      0.23818599
     61.42334766      0.00395548
     10.57760872      0.01806106
      0.84995599     -0.19161926
      0.32393927     -0.15744130
p              7   1.000000
      2.28619608     -0.01155972
      0.12644335      0.56806241
      0.04872781      0.59325681
      7.24009136     -0.02456814
      1.87724758     -0.12287814
      0.66178786     -0.23728313
      0.26346915     -0.11319650
 
          11   0
s              4   1.000000
     35.62353149     -0.01198412
      6.13466689     -0.05472052
      0.49294666      0.58055871
      0.18787417      0.47700800
p              4   1.000000
      5.74166275      0.05713170
      1.48872741      0.28574555
      0.52482248      0.55178731
      0.20894087      0.26323149
s              7   1.000000
      0.38350848     -0.19560223
      0.04707223      0.94507811
      0.02222627      0.24819185
     35.62353149      0.00541367
      6.13466689      0.02471931
      0.49294666     -0.26226011
      0.18787417     -0.21548237
p              7   1.000000
      1.83062075     -0.01157659
      0.10124670      0.56889154
      0.03901771      0.59412270
      5.74166275     -0.02479702
      1.48872741     -0.12402286
      0.52482248     -0.23949364
      0.20894087     -0.11425103
 
          12   0
s              4   1.000000
     34.94276293     -0.01198412
      6.01743291     -0.05472052
      0.48352641      0.58055871
      0.18428388      0.47700799
p              4   1.000000
      5.63193911      0.05713170
      1.46027771      0.28574555
      0.51479308      0.55178731
      0.20494800      0.26323149
s              7   1.000000
      0.38350848     -0.19622395
      0.04707223      0.94808200
      0.02222627      0.24898074
     34.94276293      0.00551443
      6.01743291      0.02517935
      0.48352641     -0.26714096
      0.18428388     -0.21949265
p              7   1.000000
      1.83062075     -0.01161115
      0.10124670      0.57058981
      0.03901771      0.59589629
      5.63193911     -0.02526036
      1.46027771     -0.12634026
      0.51479308     -0.24396864
      0.20494800     -0.11638584
 
          13   0
s              4   1.000000
     34.93532401     -0.01198412
      6.01615187     -0.05472052
      0.48342347      0.58055871
      0.18424465      0.47700799
p              4   1.000000
      5.63074014      0.05713170
      1.45996684      0.28574555
      0.51468349      0.55178731
      0.20490437      0.26323149
s              7   1.000000
      0.38350848     -0.19623092
      0.04707223      0.94811569
      0.02222627      0.24898956
     34.93532401      0.00551555
      6.01615187      0.02518447
      0.48342347     -0.26719527
      0.18424465     -0.21953728
p              7   1.000000
      1.83062075     -0.01161154
      0.10124670      0.57060886
      0.03901771      0.59591619
      5.63074014     -0.02526551
      1.45996684     -0.12636605
      0.51468349     -0.24401844
      0.20490437     -0.11640959
 
          14   0
s              4   1.000000
     34.92223330     -0.01198412
      6.01389754     -0.05472052
      0.48324233      0.58055871
      0.18417561      0.47700800
p              4   1.000000
      5.62863023      0.05713170
      1.45941977      0.28574555
      0.51449063      0.55178731
      0.20482759      0.26323149
s              7   1.000000
      0.38350848     -0.19624320
      0.04707223      0.94817501
      0.02222627      0.24900516
     34.92223330      0.00551752
      6.01389754      0.02519349
      0.48324233     -0.26729091
      0.18417561     -0.21961586
p              7   1.000000
      1.83062075     -0.01161222
      0.10124670      0.57064240
      0.03901771      0.59595123
      5.62863023     -0.02527459
      1.45941977     -0.12641145
      0.51449063     -0.24410611
      0.20482759     -0.11645142
 
          15   0
s              4   1.000000
     34.93794912     -0.01198412
      6.01660394     -0.05472052
      0.48345980      0.58055871
      0.18425850      0.47700799
p              4   1.000000
      5.63116324      0.05713170
      1.46007654      0.28574555
      0.51472216      0.55178731
      0.20491976      0.26323149
s              7   1.000000
      0.38350848     -0.19622846
      0.04707223      0.94810380
      0.02222627      0.24898644
     34.93794912      0.00551515
      6.01660394      0.02518267
      0.48345980     -0.26717610
      0.18425850     -0.21952153
p              7   1.000000
      1.83062075     -0.01161140
      0.10124670      0.57060214
      0.03901771      0.59590915
      5.63116324     -0.02526369
      1.46007654     -0.12635695
      0.51472216     -0.24400086
      0.20491976     -0.11640121
 
          16   0
s              4   1.000000
     35.41787656     -0.01198412
      6.09925141     -0.05472052
      0.49010088      0.58055871
      0.18678958      0.47700799
p              4   1.000000
      5.70851609      0.05713170
      1.48013298      0.28574555
      0.52179268      0.55178731
      0.20773466      0.26323149
s              7   1.000000
      0.38350848     -0.19578670
      0.04707223      0.94596937
      0.02222627      0.24842592
     35.41787656      0.00544373
      6.09925141      0.02485654
      0.49010088     -0.26371606
      0.18678958     -0.21667863
p              7   1.000000
      1.83062075     -0.01158685
      0.10124670      0.56939540
      0.03901771      0.59464891
      5.70851609     -0.02493524
      1.48013298     -0.12471419
      0.52179268     -0.24082862
      0.20773466     -0.11488788
 
          17   0
s              4   1.000000
     35.41808547     -0.01198412
      6.09928739     -0.05472052
      0.49010377      0.58055871
      0.18679068      0.47700799
p              4   1.000000
      5.70854976      0.05713170
      1.48014171      0.28574555
      0.52179576      0.55178731
      0.20773588      0.26323149
s              7   1.000000
      0.38350848     -0.19578651
      0.04707223      0.94596845
      0.02222627      0.24842568
     35.41808547      0.00544370
      6.09928739      0.02485640
      0.49010377     -0.26371457
      0.18679068     -0.21667741
p              7   1.000000
      1.83062075     -0.01158684
      0.10124670      0.56939488
      0.03901771      0.59464838
      5.70854976     -0.02493510
      1.48014171     -0.12471348
      0.52179576     -0.24082725
      0.20773588     -0.11488723
 
          18   0
s              4   1.000000
     34.93790336     -0.01198412
      6.01659606     -0.05472052
      0.48345917      0.58055871
      0.18425825      0.47700799
p              4   1.000000
      5.63115587      0.05713170
      1.46007463      0.28574555
      0.51472149      0.55178731
      0.20491949      0.26323149
s              7   1.000000
      0.38350848     -0.19622850
      0.04707223      0.94810401
      0.02222627      0.24898652
     34.93790336      0.00551516
      6.01659606      0.02518270
      0.48345917     -0.26717644
      0.18425825     -0.21952181
p              7   1.000000
      1.83062075     -0.01161141
      0.10124670      0.57060225
      0.03901771      0.59590927
      5.63115587     -0.02526372
      1.46007463     -0.12635711
      0.51472149     -0.24400117
      0.20491949     -0.11640136
 
          19   0
s              4   1.000000
     34.92221498     -0.01198412
      6.01389439     -0.05472052
      0.48324207      0.58055871
      0.18417552      0.47700799
p              4   1.000000
      5.62862727      0.05713170
      1.45941900      0.28574555
      0.51449036      0.55178731
      0.20482748      0.26323149
s              7   1.000000
      0.38350848     -0.19624322
      0.04707223      0.94817510
      0.02222627      0.24900519
     34.92221498      0.00551753
      6.01389439      0.02519350
      0.48324207     -0.26729105
      0.18417552     -0.21961597
p              7   1.000000
      1.83062075     -0.01161222
      0.10124670      0.57064244
      0.03901771      0.59595127
      5.62862727     -0.02527460
      1.45941900     -0.12641152
      0.51449036     -0.24410624
      0.20482748     -0.11645148
 
          20   0
s              4   1.000000
     34.93577234     -0.01198412
      6.01622908     -0.05472052
      0.48342968      0.58055871
      0.18424702      0.47700799
p              4   1.000000
      5.63081240      0.05713170
      1.45998557      0.28574555
      0.51469009      0.55178731
      0.20490700      0.26323149
s              7   1.000000
      0.38350848     -0.19623050
      0.04707223      0.94811366
      0.02222627      0.24898905
     34.93577234      0.00551548
      6.01622908      0.02518417
      0.48342968     -0.26719200
      0.18424702     -0.21953459
p              7   1.000000
      1.83062075     -0.01161152
      0.10124670      0.57060770
      0.03901771      0.59591498
      5.63081240     -0.02526520
      1.45998557     -0.12636449
      0.51469009     -0.24401543
      0.20490700     -0.11640816
 
          21   0
s              4   1.000000
     34.94239380     -0.01198412
      6.01736935     -0.05472052
      0.48352130      0.58055871
      0.18428194      0.47700799
p              4   1.000000
      5.63187962      0.05713170
      1.46026229      0.28574555
      0.51478764      0.55178731
      0.20494583      0.26323149
s              7   1.000000
      0.38350848     -0.19622429
      0.04707223      0.94808367
      0.02222627      0.24898118
     34.94239380      0.00551448
      6.01736935      0.02517961
      0.48352130     -0.26714365
      0.18428194     -0.21949487
p              7   1.000000
      1.83062075     -0.01161117
      0.10124670      0.57059075
      0.03901771      0.59589730
      5.63187962     -0.02526061
      1.46026229     -0.12634154
      0.51478764     -0.24397111
      0.20494583     -0.11638702
 
          22   0
s              4   1.000000
     35.62355313     -0.01198412
      6.13467062     -0.05472052
      0.49294696      0.58055871
      0.18787429      0.47700799
p              4   1.000000
      5.74166624      0.05713170
      1.48872832      0.28574555
      0.52482280      0.55178731
      0.20894100      0.26323149
s              7   1.000000
      0.38350848     -0.19560221
      0.04707223      0.94507801
      0.02222627      0.24819183
     35.62355313      0.00541367
      6.13467062      0.02471930
      0.49294696     -0.26225996
      0.18787429     -0.21548225
p              7   1.000000
      1.83062075     -0.01157659
      0.10124670      0.56889149
      0.03901771      0.59412266
      5.74166624     -0.02479700
      1.48872832     -0.12402279
      0.52482280     -0.23949350
      0.20894100     -0.11425096
 
          23   0
s              4   1.000000
     35.00984818     -0.01198412
      6.02898555     -0.05472053
      0.48445471      0.58055871
      0.18463768      0.47700799
p              4   1.000000
      5.64275165      0.05713170
      1.46308124      0.28574555
      0.51578141      0.55178731
      0.20534147      0.26323149
s              7   1.000000
      0.38350848     -0.19616125
      0.04707223      0.94777907
      0.02222627      0.24890118
     35.00984818      0.00550434
      6.02898555      0.02513328
      0.48445471     -0.26665209
      0.18463768     -0.21909098
p              7   1.000000
      1.83062075     -0.01160767
      0.10124670      0.57041854
      0.03901771      0.59571743
      5.64275165     -0.02521395
      1.46308124     -0.12610817
      0.51578141     -0.24352046
      0.20534147     -0.11617204
 
          24   0
s              4   1.000000
     35.00909673     -0.01198412
      6.02885614     -0.05472052
      0.48444432      0.58055871
      0.18463372      0.47700799
p              4   1.000000
      5.64263054      0.05713170
      1.46304984      0.28574555
      0.51577034      0.55178731
      0.20533706      0.26323149
s              7   1.000000
      0.38350848     -0.19616195
      0.04707223      0.94778246
      0.02222627      0.24890206
     35.00909673      0.00550445
      6.02885614      0.02513379
      0.48444432     -0.26665756
      0.18463372     -0.21909547
p              7   1.000000
      1.83062075     -0.01160771
      0.10124670      0.57042045
      0.03901771      0.59571941
      5.64263054     -0.02521447
      1.46304984     -0.12611077
      0.51577034     -0.24352547
      0.20533706     -0.11617443
 
          25   0
s              4   1.000000
     57.37260619     -0.01198412
      9.88003752     -0.05472052
      0.79390317      0.58055871
      0.30257615      0.47700800
p              4   1.000000
      6.76262246      0.05713170
      1.75344702      0.28574555
      0.61814433      0.55178731
      0.24609391      0.26323149
s              7   1.000000
      0.47894987     -0.18904222
      0.05878681      0.91338256
      0.02775758      0.23986813
     57.37260619      0.00423123
      9.88003752      0.01932016
      0.79390317     -0.20497774
      0.30257615     -0.16841711
p              7   1.000000
      2.28619608     -0.01168502
      0.12644335      0.57421995
      0.04872781      0.59968745
      6.76262246     -0.02622775
      1.75344702     -0.13117869
      0.61814433     -0.25331187
      0.24609391     -0.12084305
 
          26   0
s              4   1.000000
     35.35788567     -0.01198412
      6.08892049     -0.05472053
      0.48927074      0.58055871
      0.18647319      0.47700800
p              4   1.000000
      5.69884699      0.05713170
      1.47762593      0.28574555
      0.52090886      0.55178731
      0.20738280      0.26323149
s              7   1.000000
      0.38350848     -0.19584104
      0.04707223      0.94623195
      0.02222627      0.24849488
     35.35788567      0.00545256
      6.08892049      0.02489685
      0.48927074     -0.26414375
      0.18647319     -0.21703004
p              7   1.000000
      1.83062075     -0.01158987
      0.10124670      0.56954386
      0.03901771      0.59480398
      5.69884699     -0.02497584
      1.47762593     -0.12491726
      0.52090886     -0.24122076
      0.20738280     -0.11507496
 
          27   0
s              4   1.000000
     35.13485049     -0.01198412
      6.05051198     -0.05472053
      0.48618445      0.58055871
      0.18529693      0.47700799
p              4   1.000000
      5.66289904      0.05713170
      1.46830516      0.28574555
      0.51762301      0.55178731
      0.20607464      0.26323149
s              7   1.000000
      0.38350848     -0.19604527
      0.04707223      0.94721871
      0.02222627      0.24875401
     35.13485049      0.00548563
      6.05051198      0.02504786
      0.48618445     -0.26574583
      0.18529693     -0.21834637
p              7   1.000000
      1.83062075     -0.01160122
      0.10124670      0.57010173
      0.03901771      0.59538658
      5.66289904     -0.02512793
      1.46830516     -0.12567791
      0.51762301     -0.24268961
      0.20607464     -0.11577568
 
          28   0
s              4   1.000000
     35.01958852     -0.01198412
      6.03066292     -0.05472052
      0.48458950      0.58055871
      0.18468905      0.47700799
p              4   1.000000
      5.64432156      0.05713170
      1.46348830      0.28574555
      0.51592491      0.55178730
      0.20539860      0.26323149
s              7   1.000000
      0.38350848     -0.19615217
      0.04707223      0.94773521
      0.02222627      0.24888965
     35.01958852      0.00550287
      6.03066292      0.02512660
      0.48458950     -0.26658126
      0.18468905     -0.21903278
p              7   1.000000
      1.83062075     -0.01160716
      0.10124670      0.57039374
      0.03901771      0.59569154
      5.64432156     -0.02520723
      1.46348830     -0.12607454
      0.51592491     -0.24345552
      0.20539860     -0.11614105
 
          29   0
s              4   1.000000
     35.00665767     -0.01198412
      6.02843612     -0.05472053
      0.48441057      0.58055871
      0.18462086      0.47700800
p              4   1.000000
      5.64223742      0.05713170
      1.46294791      0.28574555
      0.51573441      0.55178731
      0.20532275      0.26323149
s              7   1.000000
      0.38350848     -0.19616422
      0.04707223      0.94779344
      0.02222627      0.24890496
     35.00665767      0.00550481
      6.02843612      0.02513546
      0.48441057     -0.26667530
      0.18462086     -0.21911005
p              7   1.000000
      1.83062075     -0.01160783
      0.10124670      0.57042666
      0.03901771      0.59572593
      5.64223742     -0.02521615
      1.46294791     -0.12611919
      0.51573441     -0.24354174
      0.20532275     -0.11618218
 
          30   0
s              4   1.000000
     35.13435013     -0.01198412
      6.05042582     -0.05472053
      0.48617753      0.58055871
      0.18529429      0.47700800
p              4   1.000000
      5.66281840      0.05713170
      1.46828425      0.28574555
      0.51761563      0.55178731
      0.20607170      0.26323149
s              7   1.000000
      0.38350848     -0.19604573
      0.04707223      0.94722093
      0.02222627      0.24875459
     35.13435013      0.00548570
      6.05042582      0.02504820
      0.48617753     -0.26574945
      0.18529429     -0.21834934
p              7   1.000000
      1.83062075     -0.01160125
      0.10124670      0.57010298
      0.03901771      0.59538788
      5.66281840     -0.02512827
      1.46828425     -0.12567963
      0.51761563     -0.24269293
      0.20607170     -0.11577726
 
          31   0
s              4   1.000000
     61.42230762     -0.01198412
     10.57742962     -0.05472052
      0.84994160      0.58055871
      0.32393378      0.47700799
p              4   1.000000
      7.23996877      0.05713170
      1.87721579      0.28574555
      0.66177666      0.55178731
      0.26346469      0.26323149
s              7   1.000000
      0.47894987     -0.18771683
      0.05878681      0.90697873
      0.02775758      0.23818638
     61.42230762      0.00395555
     10.57742962      0.01806136
      0.84994160     -0.19162248
      0.32393378     -0.15744394
p              7   1.000000
      2.28619608     -0.01155975
      0.12644335      0.56806385
      0.04872781      0.59325831
      7.23996877     -0.02456854
      1.87721579     -0.12288014
      0.66177666     -0.23728699
      0.26346469     -0.11319834
 
          32   0
s              4   1.000000
     35.62478738     -0.01198412
      6.13488317     -0.05472052
      0.49296404      0.58055871
      0.18788080      0.47700800
p              4   1.000000
      5.74186517      0.05713170
      1.48877990      0.28574555
      0.52484098      0.55178731
      0.20894824      0.26323149
s              7   1.000000
      0.38350848     -0.19560112
      0.04707223      0.94507271
      0.02222627      0.24819044
     35.62478738      0.00541349
      6.13488317      0.02471848
      0.49296404     -0.26225127
      0.18788080     -0.21547510
p              7   1.000000
      1.83062075     -0.01157653
      0.10124670      0.56888848
      0.03901771      0.59411950
      5.74186517     -0.02479618
      1.48877990     -0.12401866
      0.52484098     -0.23948553
      0.20894824     -0.11424716
 
          33   0
s              4   1.000000
     34.94226384     -0.01198412
      6.01734697     -0.05472052
      0.48351950      0.58055871
      0.18428125      0.47700800
p              4   1.000000
      5.63185867      0.05713170
      1.46025686      0.28574555
      0.51478573      0.55178731
      0.20494507      0.26323149
s              7   1.000000
      0.38350848     -0.19622442
      0.04707223      0.94808427
      0.02222627      0.24898132
     34.94226384      0.00551450
      6.01734697      0.02517970
      0.48351950     -0.26714460
      0.18428125     -0.21949565
p              7   1.000000
      1.83062075     -0.01161118
      0.10124670      0.57059108
      0.03901771      0.59589762
      5.63185867     -0.02526070
      1.46025686     -0.12634199
      0.51478573     -0.24397198
      0.20494507     -0.11638743
 
          34   0
s              4   1.000000
     34.93546110     -0.01198412
      6.01617548     -0.05472052
      0.48342537      0.58055871
      0.18424537      0.47700800
p              4   1.000000
      5.63076223      0.05713170
      1.45997257      0.28574555
      0.51468551      0.55178731
      0.20490517      0.26323149
s              7   1.000000
      0.38350848     -0.19623079
      0.04707223      0.94811506
      0.02222627      0.24898942
     34.93546110      0.00551553
      6.01617548      0.02518438
      0.48342537     -0.26719427
      0.18424537     -0.21953646
p              7   1.000000
      1.83062075     -0.01161153
      0.10124670      0.57060850
      0.03901771      0.59591583
      5.63076223     -0.02526542
      1.45997257     -0.12636557
      0.51468551     -0.24401752
      0.20490517     -0.11640916
 
          35   0
s              4   1.000000
     34.92201045     -0.01198412
      6.01385917     -0.05472052
      0.48323924      0.58055871
      0.18417444      0.47700799
p              4   1.000000
      5.62859431      0.05713170
      1.45941046      0.28574555
      0.51448735      0.55178731
      0.20482628      0.26323149
s              7   1.000000
      0.38350848     -0.19624341
      0.04707223      0.94817603
      0.02222627      0.24900543
     34.92201045      0.00551756
      6.01385917      0.02519364
      0.48323924     -0.26729254
      0.18417444     -0.21961720
p              7   1.000000
      1.83062075     -0.01161223
      0.10124670      0.57064297
      0.03901771      0.59595183
      5.62859431     -0.02527474
      1.45941046     -0.12641223
      0.51448735     -0.24410761
      0.20482628     -0.11645213
 
          36   0
s              4   1.000000
     34.93763203     -0.01198412
      6.01654933     -0.05472052
      0.48345541      0.58055871
      0.18425682      0.47700799
p              4   1.000000
      5.63111214      0.05713170
      1.46006329      0.28574555
      0.51471749      0.55178731
      0.20491790      0.26323149
s              7   1.000000
      0.38350848     -0.19622876
      0.04707223      0.94810523
      0.02222627      0.24898683
     34.93763203      0.00551520
      6.01654933      0.02518288
      0.48345541     -0.26717842
      0.18425682     -0.21952343
p              7   1.000000
      1.83062075     -0.01161142
      0.10124670      0.57060295
      0.03901771      0.59591000
      5.63111214     -0.02526391
      1.46006329     -0.12635805
      0.51471749     -0.24400298
      0.20491790     -0.11640223
 
          37   0
s              4   1.000000
     35.41819210     -0.01198412
      6.09930575     -0.05472052
      0.49010524      0.58055871
      0.18679124      0.47700800
p              4   1.000000
      5.70856694      0.05713170
      1.48014617      0.28574555
      0.52179733      0.55178731
      0.20773651      0.26323149
s              7   1.000000
      0.38350848     -0.19578641
      0.04707223      0.94596798
      0.02222627      0.24842556
     35.41819210      0.00544368
      6.09930575      0.02485633
      0.49010524     -0.26371381
      0.18679124     -0.21667678
p              7   1.000000
      1.83062075     -0.01158683
      0.10124670      0.56939463
      0.03901771      0.59464810
      5.70856694     -0.02493503
      1.48014617     -0.12471312
      0.52179733     -0.24082656
      0.20773651     -0.11488690
 
          38   0
s              4   1.000000
     35.41800920     -0.01198412
      6.09927426     -0.05472052
      0.49010271      0.58055871
      0.18679027      0.47700799
p              4   1.000000
      5.70853747      0.05713170
      1.48013852      0.28574555
      0.52179463      0.55178731
      0.20773543      0.26323149
s              7   1.000000
      0.38350848     -0.19578658
      0.04707223      0.94596878
      0.02222627      0.24842578
     35.41800920      0.00544371
      6.09927426      0.02485645
      0.49010271     -0.26371512
      0.18679027     -0.21667786
p              7   1.000000
      1.83062075     -0.01158684
      0.10124670      0.56939508
      0.03901771      0.59464859
      5.70853747     -0.02493515
      1.48013852     -0.12471374
      0.52179463     -0.24082775
      0.20773543     -0.11488747
 
          39   0
s              4   1.000000
     34.93767937     -0.01198412
      6.01655748     -0.05472053
      0.48345607      0.58055871
      0.18425707      0.47700799
p              4   1.000000
      5.63111976      0.05713170
      1.46006527      0.28574555
      0.51471819      0.55178731
      0.20491818      0.26323149
s              7   1.000000
      0.38350848     -0.19622871
      0.04707223      0.94810502
      0.02222627      0.24898678
     34.93767937      0.00551519
      6.01655748      0.02518285
      0.48345607     -0.26717807
      0.18425707     -0.21952315
p              7   1.000000
      1.83062075     -0.01161142
      0.10124670      0.57060283
      0.03901771      0.59590988
      5.63111976     -0.02526388
      1.46006527     -0.12635788
      0.51471819     -0.24400267
      0.20491818     -0.11640207
 
          40   0
s              4   1.000000
     34.92200517     -0.01198412
      6.01385826     -0.05472052
      0.48323917      0.58055871
      0.18417441      0.47700799
p              4   1.000000
      5.62859346      0.05713170
      1.45941024      0.28574555
      0.51448727      0.55178731
      0.20482625      0.26323149
s              7   1.000000
      0.38350848     -0.19624341
      0.04707223      0.94817606
      0.02222627      0.24900543
     34.92200517      0.00551756
      6.01385826      0.02519365
      0.48323917     -0.26729258
      0.18417441     -0.21961723
p              7   1.000000
      1.83062075     -0.01161223
      0.10124670      0.57064298
      0.03901771      0.59595183
      5.62859346     -0.02527475
      1.45941024     -0.12641224
      0.51448727     -0.24410764
      0.20482625     -0.11645215
 
          41   0
s              4   1.000000
     34.93538464     -0.01198412
      6.01616231     -0.05472052
      0.48342431      0.58055871
      0.18424497      0.47700800
p              4   1.000000
      5.63074991      0.05713170
      1.45996937      0.28574555
      0.51468438      0.55178731
      0.20490472      0.26323149
s              7   1.000000
      0.38350848     -0.19623086
      0.04707223      0.94811541
      0.02222627      0.24898949
     34.93538464      0.00551554
      6.01616231      0.02518443
      0.48342431     -0.26719483
      0.18424497     -0.21953692
p              7   1.000000
      1.83062075     -0.01161154
      0.10124670      0.57060870
      0.03901771      0.59591603
      5.63074991     -0.02526547
      1.45996937     -0.12636584
      0.51468438     -0.24401803
      0.20490472     -0.11640940
 
          42   0
s              4   1.000000
     34.94249999     -0.01198412
      6.01738764     -0.05472052
      0.48352277      0.58055871
      0.18428250      0.47700799
p              4   1.000000
      5.63189673      0.05713170
      1.46026673      0.28574555
      0.51478921      0.55178731
      0.20494645      0.26323149
s              7   1.000000
      0.38350848     -0.19622419
      0.04707223      0.94808320
      0.02222627      0.24898103
     34.94249999      0.00551447
      6.01738764      0.02517953
      0.48352277     -0.26714287
      0.18428250     -0.21949423
p              7   1.000000
      1.83062075     -0.01161117
      0.10124670      0.57059048
      0.03901771      0.59589702
      5.63189673     -0.02526054
      1.46026673     -0.12634117
      0.51478921     -0.24397040
      0.20494645     -0.11638668
 
          43   0
s              4   1.000000
     35.62522903     -0.01198412
      6.13495923     -0.05472052
      0.49297015      0.58055871
      0.18788313      0.47700800
p              4   1.000000
      5.74193635      0.05713170
      1.48879836      0.28574555
      0.52484749      0.55178731
      0.20895083      0.26323149
s              7   1.000000
      0.38350848     -0.19560072
      0.04707223      0.94507080
      0.02222627      0.24818995
     35.62522903      0.00541343
      6.13495923      0.02471818
      0.49297015     -0.26224816
      0.18788313     -0.21547255
p              7   1.000000
      1.83062075     -0.01157651
      0.10124670      0.56888741
      0.03901771      0.59411841
      5.74193635     -0.02479588
      1.48879836     -0.12401719
      0.52484749     -0.23948268
      0.20895083     -0.11424580
 
          44   0
s              4   1.000000
     35.00597049     -0.01198412
      6.02831778     -0.05472053
      0.48440106      0.58055871
      0.18461723      0.47700799
p              4   1.000000
      5.64212666      0.05713170
      1.46291919      0.28574555
      0.51572429      0.55178731
      0.20531873      0.26323149
s              7   1.000000
      0.38350848     -0.19616486
      0.04707223      0.94779653
      0.02222627      0.24890576
     35.00597049      0.00550492
      6.02831778      0.02513594
      0.48440106     -0.26668030
      0.18461723     -0.21911416
p              7   1.000000
      1.83062075     -0.01160787
      0.10124670      0.57042842
      0.03901771      0.59572775
      5.64212666     -0.02521663
      1.46291919     -0.12612156
      0.51572429     -0.24354632
      0.20531873     -0.11618437
 
          45   0
s              4   1.000000
     35.01814575     -0.01198412
      6.03041446     -0.05472053
      0.48456953      0.58055871
      0.18468144      0.47700800
p              4   1.000000
      5.64408902      0.05713170
      1.46342800      0.28574555
      0.51590366      0.55178731
      0.20539014      0.26323149
s              7   1.000000
      0.38350848     -0.19615352
      0.04707223      0.94774171
      0.02222627      0.24889136
     35.01814575      0.00550309
      6.03041446      0.02512759
      0.48456953     -0.26659175
      0.18468144     -0.21904140
p              7   1.000000
      1.83062075     -0.01160724
      0.10124670      0.57039742
      0.03901771      0.59569538
      5.64408902     -0.02520822
      1.46342800     -0.12607952
      0.51590366     -0.24346514
      0.20539014     -0.11614564
 
          46   0
s              4   1.000000
     57.30239199     -0.01198412
      9.86794606     -0.05472052
      0.79293157      0.58055871
      0.30220585      0.47700799
p              4   1.000000
      6.75434617      0.05713170
      1.75130110      0.28574555
      0.61738783      0.55178731
      0.24579274      0.26323149
s              7   1.000000
      0.47894987     -0.18906749
      0.05878681      0.91350461
      0.02775758      0.23990019
     57.30239199      0.00423633
      9.86794606      0.01934344
      0.79293157     -0.20522471
      0.30220585     -0.16862003
p              7   1.000000
      2.28619608     -0.01168741
      0.12644335      0.57433698
      0.04872781      0.59980965
      6.75434617     -0.02625844
      1.75130110     -0.13133221
      0.61738783     -0.25360831
      0.24579274     -0.12098447
 
          47   0
s              4   1.000000
     35.32499730     -0.01198412
      6.08325684     -0.05472053
      0.48881564      0.58055871
      0.18629974      0.47700799
p              4   1.000000
      5.69354617      0.05713170
      1.47625150      0.28574555
      0.52042434      0.55178731
      0.20718990      0.26323149
s              7   1.000000
      0.38350848     -0.19587094
      0.04707223      0.94637642
      0.02222627      0.24853280
     35.32499730      0.00545741
      6.08325684      0.02491901
      0.48881564     -0.26437880
      0.18629974     -0.21722317
p              7   1.000000
      1.83062075     -0.01159153
      0.10124670      0.56962554
      0.03901771      0.59488926
      5.69354617     -0.02499816
      1.47625150     -0.12502886
      0.52042434     -0.24143627
      0.20718990     -0.11517777
 
          48   0
s              4   1.000000
     34.99022927     -0.01198412
      6.02560701     -0.05472052
      0.48418323      0.58055871
      0.18453422      0.47700799
p              4   1.000000
      5.63958955      0.05713170
      1.46226136      0.28574555
      0.51549238      0.55178731
      0.20522640      0.26323149
s              7   1.000000
      0.38350848     -0.19617955
      0.04707223      0.94786750
      0.02222627      0.24892439
     34.99022927      0.00550728
      6.02560701      0.02514673
      0.48418323     -0.26679487
      0.18453422     -0.21920830
p              7   1.000000
      1.83062075     -0.01160868
      0.10124670      0.57046854
      0.03901771      0.59576966
      5.63958955     -0.02522751
      1.46226136     -0.12617596
      0.51549238     -0.24365137
      0.20522640     -0.11623448
 
          49   0
s              4   1.000000
      8.30890995      0.05675242
      1.52042815      0.26014135
      0.42239159      0.53284611
      0.14018797      0.29162544
s              7   1.000000
      0.92936822     -0.06732847
      0.05643440      0.66945588
      0.02166600      0.51461502
      8.30890995     -0.02902281
      1.52042815     -0.13303457
      0.42239159     -0.27249397
      0.14018797     -0.14913532
p              4   1.000000
      0.64737396      0.05713170
      0.16785440      0.28574555
      0.05917387      0.55178731
      0.02355814      0.26323150
 
          50   0
s              4   1.000000
      8.30891192      0.05675242
      1.52042851      0.26014135
      0.42239169      0.53284611
      0.14018801      0.29162544
s              7   1.000000
      0.92936822     -0.06732847
      0.05643440      0.66945584
      0.02166600      0.51461499
      8.30891192     -0.02902281
      1.52042851     -0.13303454
      0.42239169     -0.27249393
      0.14018801     -0.14913529
p              4   1.000000
      0.64737396      0.05713170
      0.16785440      0.28574555
      0.05917387      0.55178731
      0.02355814      0.26323150
 
          51   0
s              4   1.000000
      8.30982044      0.05675242
      1.52059476      0.26014135
      0.42243788      0.53284611
      0.14020333      0.29162544
s              7   1.000000
      0.92936822     -0.06732730
      0.05643440      0.66944422
      0.02166600      0.51460605
      8.30982044     -0.02902038
      1.52059476     -0.13302340
      0.42243788     -0.27247111
      0.14020333     -0.14912281
p              4   1.000000
      0.64737396      0.05713170
      0.16785440      0.28574555
      0.05917387      0.55178731
      0.02355814      0.26323150
 
          52   0
s              4   1.000000
      8.30970297      0.05675242
      1.52057326      0.26014135
      0.42243190      0.53284611
      0.14020135      0.29162544
s              7   1.000000
      0.92936822     -0.06732745
      0.05643440      0.66944572
      0.02166600      0.51460722
      8.30970297     -0.02902069
      1.52057326     -0.13302484
      0.42243190     -0.27247406
      0.14020135     -0.14912442
p              4   1.000000
      0.64737396      0.05713170
      0.16785440      0.28574555
      0.05917387      0.55178731
      0.02355814      0.26323150
 
          53   0
s              4   1.000000
      8.30956661      0.05675242
      1.52054831      0.26014135
      0.42242497      0.53284611
      0.14019905      0.29162544
s              7   1.000000
      0.92936822     -0.06732763
      0.05643440      0.66944747
      0.02166600      0.51460856
      8.30956661     -0.02902106
      1.52054831     -0.13302651
      0.42242497     -0.27247748
      0.14019905     -0.14912629
p              4   1.000000
      0.64737396      0.05713170
      0.16785440      0.28574555
      0.05917387      0.55178731
      0.02355814      0.26323150
 
          54   0
s              4   1.000000
      8.30927049      0.05675242
      1.52049413      0.26014135
      0.42240992      0.53284611
      0.14019405      0.29162544
s              7   1.000000
      0.92936822     -0.06732801
      0.05643440      0.66945126
      0.02166600      0.51461146
      8.30927049     -0.02902185
      1.52049413     -0.13303014
      0.42240992     -0.27248492
      0.14019405     -0.14913036
p              4   1.000000
      0.64737396      0.05713170
      0.16785440      0.28574555
      0.05917387      0.55178731
      0.02355814      0.26323150
 
          55   0
s              4   1.000000
      8.30899251      0.05675242
      1.52044326      0.26014135
      0.42239579      0.53284611
      0.14018936      0.29162544
s              7   1.000000
      0.92936822     -0.06732837
      0.05643440      0.66945481
      0.02166600      0.51461420
      8.30899251     -0.02902259
      1.52044326     -0.13303355
      0.42239579     -0.27249190
      0.14018936     -0.14913418
p              4   1.000000
      0.64737396      0.05713170
      0.16785440      0.28574555
      0.05917387      0.55178731
      0.02355814      0.26323150
 
          56   0
s              4   1.000000
      8.30893639      0.05675242
      1.52043299      0.26014135
      0.42239293      0.53284611
      0.14018842      0.29162544
s              7   1.000000
      0.92936822     -0.06732844
      0.05643440      0.66945554
      0.02166600      0.51461474
      8.30893639     -0.02902274
      1.52043299     -0.13303424
      0.42239293     -0.27249331
      0.14018842     -0.14913496
p              4   1.000000
      0.64737396      0.05713170
      0.16785440      0.28574555
      0.05917387      0.55178731
      0.02355814      0.26323150
 
          57   0
s              4   1.000000
      8.30892752      0.05675242
      1.52043137      0.26014135
      0.42239248      0.53284611
      0.14018827      0.29162544
s              7   1.000000
      0.92936822     -0.06732845
      0.05643440      0.66945565
      0.02166600      0.51461484
      8.30892752     -0.02902277
      1.52043137     -0.13303435
      0.42239248     -0.27249353
      0.14018827     -0.14913508
p              4   1.000000
      0.64737396      0.05713170
      0.16785440      0.28574555
      0.05917387      0.55178731
      0.02355814      0.26323150
 
          58   0
s              4   1.000000
      8.30892428      0.05675242
      1.52043077      0.26014135
      0.42239232      0.53284611
      0.14018821      0.29162544
s              7   1.000000
      0.92936822     -0.06732845
      0.05643440      0.66945569
      0.02166600      0.51461487
      8.30892428     -0.02902277
      1.52043077     -0.13303439
      0.42239232     -0.27249361
      0.14018821     -0.14913512
p              4   1.000000
      0.64737396      0.05713170
      0.16785440      0.28574555
      0.05917387      0.55178731
      0.02355814      0.26323150
 
          59   0
s              4   1.000000
      8.30893792      0.05675242
      1.52043327      0.26014135
      0.42239301      0.53284611
      0.14018844      0.29162544
s              7   1.000000
      0.92936822     -0.06732844
      0.05643440      0.66945552
      0.02166600      0.51461474
      8.30893792     -0.02902274
      1.52043327     -0.13303422
      0.42239301     -0.27249327
      0.14018844     -0.14913494
p              4   1.000000
      0.64737396      0.05713170
      0.16785440      0.28574555
      0.05917387      0.55178731
      0.02355814      0.26323150
 
          60   0
s              4   1.000000
      8.30900375      0.05675242
      1.52044531      0.26014135
      0.42239636      0.53284611
      0.14018955      0.29162543
s              7   1.000000
      0.92936822     -0.06732835
      0.05643440      0.66945468
      0.02166600      0.51461407
      8.30900375     -0.02902256
      1.52044531     -0.13303342
      0.42239636     -0.27249162
      0.14018955     -0.14913403
p              4   1.000000
      0.64737396      0.05713170
      0.16785440      0.28574555
      0.05917387      0.55178731
      0.02355814      0.26323150
 
          61   0
s              4   1.000000
      8.30927983      0.05675242
      1.52049583      0.26014135
      0.42241039      0.53284611
      0.14019421      0.29162544
s              7   1.000000
      0.92936822     -0.06732800
      0.05643440      0.66945114
      0.02166600      0.51461137
      8.30927983     -0.02902182
      1.52049583     -0.13303003
      0.42241039     -0.27248468
      0.14019421     -0.14913024
p              4   1.000000
      0.64737396      0.05713170
      0.16785440      0.28574555
      0.05917387      0.55178731
      0.02355814      0.26323150
 
          62   0
s              4   1.000000
      8.30955560      0.05675242
      1.52054630      0.26014135
      0.42242441      0.53284611
      0.14019887      0.29162544
s              7   1.000000
      0.92936822     -0.06732764
      0.05643440      0.66944762
      0.02166600      0.51460866
      8.30955560     -0.02902109
      1.52054630     -0.13302665
      0.42242441     -0.27247776
      0.14019887     -0.14912644
p              4   1.000000
      0.64737396      0.05713170
      0.16785440      0.28574555
      0.05917387      0.55178731
      0.02355814      0.26323150
 
          63   0
s              4   1.000000
      8.30962453      0.05675242
      1.52055891      0.26014135
      0.42242791      0.53284611
      0.14020003      0.29162544
s              7   1.000000
      0.92936822     -0.06732755
      0.05643440      0.66944673
      0.02166600      0.51460799
      8.30962453     -0.02902090
      1.52055891     -0.13302580
      0.42242791     -0.27247603
      0.14020003     -0.14912550
p              4   1.000000
      0.64737396      0.05713170
      0.16785440      0.28574555
      0.05917387      0.55178731
      0.02355814      0.26323150
 
          64   0
s              4   1.000000
      8.30998695      0.05675242
      1.52062523      0.26014135
      0.42244634      0.53284611
      0.14020614      0.29162543
s              7   1.000000
      0.92936822     -0.06732709
      0.05643440      0.66944210
      0.02166600      0.51460441
      8.30998695     -0.02901993
      1.52062523     -0.13302136
      0.42244634     -0.27246692
      0.14020614     -0.14912052
p              4   1.000000
      0.64737396      0.05713170
      0.16785440      0.28574555
      0.05917387      0.55178731
      0.02355814      0.26323150
 
          65   0
s              4   1.000000
      8.30954226      0.05675242
      1.52054386      0.26014135
      0.42242373      0.53284611
      0.14019864      0.29162544
s              7   1.000000
      0.92936822     -0.06732766
      0.05643440      0.66944778
      0.02166600      0.51460878
      8.30954226     -0.02902112
      1.52054386     -0.13302681
      0.42242373     -0.27247809
      0.14019864     -0.14912663
p              4   1.000000
      0.64737396      0.05713170
      0.16785440      0.28574555
      0.05917387      0.55178731
      0.02355814      0.26323150
 
          66   0
s              4   1.000000
      8.30927132      0.05675242
      1.52049428      0.26014135
      0.42240996      0.53284611
      0.14019407      0.29162544
s              7   1.000000
      0.92936822     -0.06732801
      0.05643440      0.66945125
      0.02166600      0.51461146
      8.30927132     -0.02902185
      1.52049428     -0.13303014
      0.42240996     -0.27248490
      0.14019407     -0.14913035
p              4   1.000000
      0.64737396      0.05713170
      0.16785440      0.28574555
      0.05917387      0.55178731
      0.02355814      0.26323150
 
          67   0
s              4   1.000000
      8.30899300      0.05675242
      1.52044335      0.26014135
      0.42239581      0.53284611
      0.14018937      0.29162544
s              7   1.000000
      0.92936822     -0.06732837
      0.05643440      0.66945481
      0.02166600      0.51461420
      8.30899300     -0.02902259
      1.52044335     -0.13303355
      0.42239581     -0.27249189
      0.14018937     -0.14913418
p              4   1.000000
      0.64737396      0.05713170
      0.16785440      0.28574555
      0.05917387      0.55178731
      0.02355814      0.26323150
 
          68   0
s              4   1.000000
      8.30892666      0.05675242
      1.52043121      0.26014135
      0.42239244      0.53284611
      0.14018825      0.29162544
s              7   1.000000
      0.92936822     -0.06732845
      0.05643440      0.66945566
      0.02166600      0.51461484
      8.30892666     -0.02902277
      1.52043121     -0.13303436
      0.42239244     -0.27249356
      0.14018825     -0.14913509
p              4   1.000000
      0.64737396      0.05713170
      0.16785440      0.28574555
      0.05917387      0.55178731
      0.02355814      0.26323150
 
          69   0
s              4   1.000000
      8.30891742      0.05675242
      1.52042952      0.26014135
      0.42239197      0.53284611
      0.14018810      0.29162544
s              7   1.000000
      0.92936822     -0.06732846
      0.05643440      0.66945578
      0.02166600      0.51461494
      8.30891742     -0.02902279
      1.52042952     -0.13303447
      0.42239197     -0.27249379
      0.14018810     -0.14913522
p              4   1.000000
      0.64737396      0.05713170
      0.16785440      0.28574555
      0.05917387      0.55178731
      0.02355814      0.26323150
 
          70   0
s              4   1.000000
      8.30891946      0.05675242
      1.52042989      0.26014135
      0.42239207      0.53284611
      0.14018813      0.29162544
s              7   1.000000
      0.92936822     -0.06732846
      0.05643440      0.66945576
      0.02166600      0.51461492
      8.30891946     -0.02902279
      1.52042989     -0.13303445
      0.42239207     -0.27249373
      0.14018813     -0.14913519
p              4   1.000000
      0.64737396      0.05713170
      0.16785440      0.28574555
      0.05917387      0.55178731
      0.02355814      0.26323150
 
          71   0
s              4   1.000000
      8.30892715      0.05675242
      1.52043130      0.26014135
      0.42239246      0.53284611
      0.14018826      0.29162544
s              7   1.000000
      0.92936822     -0.06732845
      0.05643440      0.66945565
      0.02166600      0.51461484
      8.30892715     -0.02902277
      1.52043130     -0.13303436
      0.42239246     -0.27249354
      0.14018826     -0.14913508
p              4   1.000000
      0.64737396      0.05713170
      0.16785440      0.28574555
      0.05917387      0.55178731
      0.02355814      0.26323150
 
          72   0
s              4   1.000000
      8.30899236      0.05675242
      1.52044323      0.26014135
      0.42239578      0.53284611
      0.14018936      0.29162544
s              7   1.000000
      0.92936822     -0.06732837
      0.05643440      0.66945483
      0.02166600      0.51461420
      8.30899236     -0.02902259
      1.52044323     -0.13303356
      0.42239578     -0.27249190
      0.14018936     -0.14913419
p              4   1.000000
      0.64737396      0.05713170
      0.16785440      0.28574555
      0.05917387      0.55178731
      0.02355814      0.26323150
 
          73   0
s              4   1.000000
      8.30928048      0.05675242
      1.52049595      0.26014135
      0.42241043      0.53284611
      0.14019422      0.29162544
s              7   1.000000
      0.92936822     -0.06732800
      0.05643440      0.66945113
      0.02166600      0.51461137
      8.30928048     -0.02902182
      1.52049595     -0.13303002
      0.42241043     -0.27248467
      0.14019422     -0.14913023
p              4   1.000000
      0.64737396      0.05713170
      0.16785440      0.28574555
      0.05917387      0.55178731
      0.02355814      0.26323150
 
          74   0
s              4   1.000000
      8.30953619      0.05675242
      1.52054274      0.26014135
      0.42242343      0.53284611
      0.14019854      0.29162544
s              7   1.000000
      0.92936822     -0.06732767
      0.05643440      0.66944786
      0.02166600      0.51460886
      8.30953619     -0.02902114
      1.52054274     -0.13302689
      0.42242343     -0.27247825
      0.14019854     -0.14912671
p              4   1.000000
      0.64737396      0.05713170
      0.16785440      0.28574555
      0.05917387      0.55178731
      0.02355814      0.26323150
 
          75   0
s              4   1.000000
      8.30989042      0.05675242
      1.52060756      0.26014135
      0.42244143      0.53284611
      0.14020451      0.29162543
s              7   1.000000
      0.92936822     -0.06732721
      0.05643440      0.66944334
      0.02166600      0.51460538
      8.30989042     -0.02902019
      1.52060756     -0.13302254
      0.42244143     -0.27246935
      0.14020451     -0.14912184
p              4   1.000000
      0.64737396      0.05713170
      0.16785440      0.28574555
      0.05917387      0.55178731
      0.02355814      0.26323150
 
          76   0
s              4   1.000000
      8.30920771      0.05675242
      1.52048264      0.26014135
      0.42240673      0.53284611
      0.14019299      0.29162544
s              7   1.000000
      0.92936822     -0.06732809
      0.05643440      0.66945206
      0.02166600      0.51461209
      8.30920771     -0.02902202
      1.52048264     -0.13303092
      0.42240673     -0.27248650
      0.14019299     -0.14913123
p              4   1.000000
      0.64737396      0.05713170
      0.16785440      0.28574555
      0.05917387      0.55178731
      0.02355814      0.26323150
 
 [MO]
 Sym= Hole
 Ene= -0.7300217    
 Spin= Alpha
 Occup= 0
           1  4.9729185E-04
           2 -3.9978535E-03
           3  1.8224493E-03
           4 -3.6552217E-02
           5 -1.3478198E-04
           6 -5.4332650E-05
           7  4.5068259E-04
           8  8.3913613E-04
           9 -1.9591298E-05
          10 -8.4537901E-03
          11  3.8564019E-03
          12 -5.1928181E-02
          13  1.4482152E-04
          14  2.5173434E-04
          15  1.3159504E-04
          16  4.8554535E-03
          17  1.5648369E-03
          18  9.3394695E-03
          19 -2.1892006E-03
          20  3.9248165E-02
          21 -1.1673206E-03
          22  9.8339573E-04
          23 -1.6826637E-04
          24  5.1665781E-03
          25  2.1985332E-03
          26  1.8348593E-02
          27  2.0872049E-04
          28  0.1119675    
          29 -1.7028496E-03
          30  1.6475939E-04
          31  7.4592116E-04
          32 -3.4795615E-03
          33 -1.3230551E-03
          34  5.9394762E-03
          35 -4.4718250E-03
          36 -6.1228708E-03
          37  5.3915929E-04
          38 -1.5007181E-03
          39  9.9859470E-05
          40 -4.8367577E-03
          41 -2.4594872E-03
          42 -2.1197114E-02
          43  2.8749024E-02
          44  5.0047427E-02
          45  1.1796780E-03
          46  8.1661594E-05
          47 -9.9828083E-04
          48 -4.6208777E-04
          49 -2.0634506E-03
          50 -8.8265715E-03
          51  1.0446053E-02
          52  1.9068403E-02
          53  3.5452339E-04
          54 -4.2591873E-04
          55  9.7949244E-04
          56  4.7376231E-04
          57  4.0478408E-03
          58  2.0170482E-02
          59 -2.0650219E-02
          60 -2.3307271E-02
          61 -2.6442388E-03
          62 -8.3297899E-04
          63  1.4447104E-04
          64 -2.0284628E-05
          65 -8.6399651E-04
          66  1.5822057E-02
          67 -1.7546250E-02
          68 -3.6497887E-02
          69  1.3760118E-04
          70  5.5167935E-04
          71 -5.4683670E-04
          72  1.6595310E-03
          73  4.8774894E-04
          74  3.5414641E-04
          75 -6.8872245E-03
          76  5.4328673E-02
          77 -1.1616013E-04
          78 -1.5781212E-03
          79  2.3751217E-03
          80 -3.8147317E-03
          81 -2.3117594E-03
          82  5.8140811E-03
          83 -1.1630536E-03
          84  2.1946237E-03
          85  1.3550037E-03
          86 -2.5624069E-04
          87  2.2095238E-04
          88  2.5180774E-03
          89 -4.5104296E-04
          90 -1.2502647E-03
          91  6.9863135E-03
          92 -2.3225298E-02
          93  2.9261064E-04
          94  7.0690323E-04
          95 -5.8768614E-04
          96  1.6598937E-03
          97 -2.2944456E-04
          98 -6.1174828E-06
          99  9.5384760E-04
         100 -5.6623011E-03
         101 -5.8281148E-05
         102  2.4842942E-04
         103  1.7975306E-05
         104 -4.6585186E-04
         105 -3.0491507E-04
         106  1.6075433E-03
         107 -4.0349336E-03
         108  2.1870589E-02
         109  8.3332015E-05
         110 -3.7875634E-05
         111  3.4415058E-04
         112 -1.4955667E-03
         113 -4.7030600E-04
         114  1.5340109E-03
         115 -1.5538338E-03
         116  8.3367396E-03
         117  7.3259878E-05
         118 -1.2427991E-05
         119  4.2531700E-04
         120 -1.5473349E-03
         121  4.2369661E-06
         122 -2.5002910E-03
         123  2.8229656E-03
         124 -2.4789382E-02
         125  1.0389896E-04
         126 -7.5568250E-06
         127  2.9400157E-04
         128  1.3593768E-03
         129  1.8801283E-04
         130 -3.1818611E-06
         131  4.4927294E-03
         132 -2.4187487E-02
         133 -1.2909839E-04
         134 -3.3340461E-04
         135  1.0928999E-05
         136  1.3236552E-03
         137  3.6761159E-04
         138  5.7534530E-04
         139 -3.1627985E-03
         140  1.2926502E-02
         141  1.0555934E-05
         142 -2.7455008E-04
         143  2.3299275E-04
         144 -1.4272794E-03
         145  3.3325693E-04
         146  1.6674059E-03
         147 -5.0101192E-03
         148  2.6001921E-02
         149 -2.7978707E-05
         150 -1.5973397E-04
         151  2.0267320E-04
         152 -1.3570703E-03
         153  1.5671375E-04
         154 -3.4028391E-04
         155  7.9288176E-04
         156 -6.0365433E-03
         157  1.1004879E-04
         158 -4.4608907E-05
         159 -2.2567624E-04
         160 -5.0186447E-04
         161  4.7774854E-04
         162 -4.9059824E-03
         163  5.8090454E-03
         164 -2.7844062E-02
         165 -1.9107298E-04
         166 -1.7363946E-05
         167 -1.1404735E-03
         168  1.4115332E-03
         169  2.1720491E-03
         170 -1.0934777E-03
         171 -4.6892953E-03
         172 -2.6306533E-03
         173 -1.1477435E-03
         174 -4.8975542E-04
         175  5.1507861E-05
         176  2.4137010E-03
         177 -3.0396180E-03
         178  1.1958969E-02
         179 -2.3396090E-02
         180 -1.8973049E-02
         181  1.7381461E-03
         182  1.0854622E-03
         183  1.2674577E-03
         184  5.0025317E-04
         185 -3.7856767E-04
         186 -1.1027431E-02
         187  1.8807223E-02
         188  1.8373810E-02
         189  5.3804123E-04
         190 -3.5139045E-04
         191  3.9083654E-05
         192  1.0267629E-03
         193  7.2075161E-03
         194 -6.7927307E-03
         195  2.2894714E-02
         196 -0.1290340    
         197 -2.9750164E-03
         198 -2.8707681E-03
         199  7.7265775E-04
         200 -7.5107941E-04
         201  1.7695184E-03
         202  3.8693010E-04
         203 -5.4086479E-03
         204 -1.3840954E-03
         205 -1.4026104E-03
         206  1.5587703E-03
         207  4.2833043E-03
         208 -4.5414479E-03
         209 -9.7669591E-04
         210 -2.7683240E-04
         211 -8.1092417E-03
         212  0.3723348    
         213  1.6217750E-04
         214 -8.9161156E-04
         215 -5.6586787E-04
         216 -8.8963890E-03
         217  8.5719451E-03
         218 -2.4146883E-02
         219 -1.2633430E-02
         220  0.1271457    
         221 -1.3796978E-03
         222  6.6966336E-04
         223 -2.7636040E-04
         224 -3.2142008E-04
         225 -3.0852417E-02
         226  6.8428159E-02
         227  5.0685167E-02
         228 -0.2417562    
         229  1.7473737E-02
         230 -1.0669844E-02
         231  2.8857673E-03
         232  6.9790939E-03
         233 -1.2992922E-04
         234 -1.6057184E-02
         235 -1.9034985E-02
         236 -0.2781147    
         237  6.6214852E-05
         238  5.8134110E-03
         239  9.2388038E-03
         240  1.2978410E-02
         241  1.0401559E-04
         242  0.1657357    
         243  0.2585744    
         244  0.3336874    
         245 -3.1760264E-05
         246 -1.8525232E-02
         247 -2.9463725E-02
         248 -1.4200189E-02
         249  1.4129844E-02
         250  2.4542250E-02
         251 -4.0274034E-03
         252 -2.3264654E-02
         253 -7.6284865E-03
         254  6.0746334E-03
         255  7.8851990E-03
         256  1.6199427E-02
         257  3.2969669E-03
         258 -8.3513014E-02
         259 -0.1584339    
         260 -0.1500318    
         261 -1.7827408E-03
         262  8.6523602E-03
         263  8.4196748E-03
         264  5.5303872E-03
         265  9.5935201E-04
         266 -2.0517938E-02
         267 -3.4197211E-02
         268 -3.9795391E-02
         269  3.6767381E-04
         270 -2.6766033E-05
         271 -2.1786075E-03
         272 -3.3360408E-03
         273  2.1859300E-03
         274  8.0704622E-02
         275  0.1251047    
         276  0.1409938    
         277 -3.6561544E-04
         278 -3.8670963E-03
         279 -7.0961788E-03
         280 -7.8929737E-03
         281  2.4176943E-03
         282  4.3663446E-02
         283  6.1089728E-02
         284  6.8791337E-02
         285 -2.5073331E-04
         286 -4.1607535E-03
         287 -8.0997609E-03
         288 -7.5976187E-03
         289  9.9848956E-04
         290 -8.1002571E-02
         291 -0.1114394    
         292 -0.1404108    
         293 -1.0316756E-03
         294  4.0818569E-03
         295  3.2344605E-03
         296  8.8041490E-03
         297 -9.6709124E-04
         298 -6.6985123E-02
         299 -0.1201647    
         300 -0.1405499    
         301  1.0451035E-03
         302  1.2658365E-03
         303  4.9947090E-03
         304  8.8629257E-03
         305 -2.4474447E-03
         306  3.6715861E-02
         307  6.5033600E-02
         308  6.8513341E-02
         309  2.7016897E-04
         310 -5.5918335E-03
         311 -7.2098104E-03
         312 -7.6019573E-03
         313 -2.1806860E-03
         314  7.9252996E-02
         315  0.1256619    
         316  0.1406214    
         317  3.7318142E-04
         318 -4.8400289E-03
         319 -6.5217423E-03
         320 -7.9106931E-03
         321 -9.5928513E-04
         322 -2.2445941E-02
         323 -3.3165257E-02
         324 -3.9748538E-02
         325 -3.5211991E-04
         326 -1.9808006E-03
         327 -9.5468754E-04
         328 -3.3045218E-03
         329 -3.3333790E-03
         330 -0.1081329    
         331 -0.1426134    
         332 -0.1493366    
         333  1.8657343E-03
         334  3.9422358E-03
         335  1.1427067E-02
         336  5.5999523E-03
         337 -1.4219319E-02
         338 -1.4674598E-02
         339  2.1105511E-02
         340 -2.2195056E-02
         341  7.7398308E-03
         342  4.7678058E-03
         343  8.6665154E-03
         344  1.6230440E-02
         345  3.0808797E-02
         346  8.6253425E-03
         347  8.7856881E-02
         348 -0.2424740    
         349 -1.7563669E-02
         350  7.3160161E-03
         351 -8.5450038E-03
         352  6.7037106E-03
         353 -8.5912012E-03
         354  3.6763446E-03
         355 -2.8445160E-02
         356  0.1253048    
         357  1.5839274E-03
         358 -2.8210305E-04
         359 -4.4800832E-05
         360 -9.5582759E-04
         361 -1.2361824E-02
         362  9.9765956E-03
         363  1.2930084E-02
         364 -0.1220337    
         365  3.9911149E-03
         366  3.2538362E-03
         367 -1.0003152E-03
         368  1.4301909E-03
         369  2.0485718E-03
         370 -6.0725445E-03
         371 -8.2413218E-04
         372  1.5649622E-02
         373 -1.3129530E-03
         374  2.5500685E-03
         375 -1.5113351E-03
         376 -5.2934969E-03
         377  1.5476568E-03
         378  2.1735048E-03
         379  2.0045340E-03
         380  2.2484386E-02
         381 -9.9624181E-04
         382  1.7927280E-04
         383 -3.5312911E-04
         384 -3.6213307E-03
         385  5.5491907E-04
         386  1.1646790E-04
         387 -1.1303208E-04
         388  2.4705080E-04
         389  2.5871650E-05
         390 -1.7744865E-03
         391  9.4856456E-05
         392 -9.9620339E-04
         393  2.6253625E-04
         394 -7.1698311E-03
         395 -6.9539412E-05
         396 -3.1706574E-04
         397 -1.2084478E-04
         398 -1.6478248E-04
         399 -2.2499969E-03
         400  2.0567048E-03
         401  3.1304013E-04
         402 -9.7265461E-04
         403 -1.4895101E-03
         404  1.2932710E-03
         405 -2.0242268E-03
         406 -8.5905485E-04
         407 -1.1679615E-03
         408 -3.8026375E-04
         409 -1.2681755E-03
         410  3.6769564E-04
         411  9.9506680E-05
         412 -7.2110753E-04
         413 -2.3471750E-04
         414 -1.9897833E-03
         415  9.5156662E-04
         416 -2.4558551E-04
         417 -3.1593227E-05
         418  4.5447214E-05
         419 -3.9274627E-04
         420 -2.1538805E-05
         421 -3.0058814E-05
         422  1.8884007E-04
         423 -3.9826427E-04
         424  2.0890436E-03
         425  8.6972979E-04
         426 -1.2836872E-04
         427  4.1609113E-05
         428  6.7036184E-05
         429  7.2169286E-04
         430 -7.4496598E-04
         431  1.8109639E-04
         432 -2.0522454E-04
         433 -8.1789876E-05
         434  4.9607403E-04
         435 -2.0971700E-05
         436  9.1902373E-05
         437  6.5756940E-05
         438 -4.5034158E-04
         439  1.8864535E-03
         440 -1.0410429E-03
         441  3.7177329E-04
         442 -7.4232841E-05
         443 -2.6593348E-06
         444 -3.9999685E-04
         445 -1.4063178E-04
         446  3.6873328E-04
         447  8.1202103E-05
         448  3.1866005E-04
         449 -1.7737666E-03
         450  3.5170941E-03
         451  6.4002938E-04
         452  8.6755009E-04
         453  8.1758254E-04
         454 -1.1089907E-03
         455 -4.6680793E-03
         456  8.8675972E-04
         457 -1.6082809E-03
         458 -9.5982902E-04
         459  5.0211127E-04
         460 -2.8111076E-02
         461  8.2107994E-04
         462  3.1058975E-03
         463 -8.4117951E-04
         464 -4.1025025E-03
         465  2.2015493E-02
         466  3.9205565E-03
         467 -1.3963021E-02
         468  1.0040847E-03
         469 -1.8728186E-03
         470 -1.3321331E-03
         471  6.8678334E-04
         472 -7.2043752E-03
         473 -6.2044002E-03
         474 -1.1542265E-02
         475 -6.5125115E-03
         476  1.7853584E-03
         477 -9.6803549E-04
         478 -1.1634598E-03
         479 -1.8121182E-03
         480 -5.4093695E-04
         481  4.3591330E-04
         482  6.8924692E-03
         483  9.7516589E-03
         484  1.1108281E-02
         485 -4.7576930E-03
         486  1.0992847E-03
         487  2.4367801E-03
         488  1.7725080E-03
         489  3.7032808E-03
         490  4.7778385E-03
         491 -1.0970306E-03
         492  6.0274894E-04
         493  2.9290938E-03
         494  3.7425731E-03
         495  5.7756697E-04
         496 -4.2432384E-04
         497  5.9738485E-03
         498  1.0370897E-02
         499  1.1146850E-02
         500  6.4494456E-03
         501 -1.7992745E-03
         502 -6.7372154E-04
         503 -1.3722859E-03
         504 -1.8371035E-03
         505  1.3239764E-03
         506 -6.2044099E-04
         507 -2.5405111E-03
         508 -9.2135100E-03
         509 -1.1574238E-02
         510 -2.1280915E-02
         511 -4.0303273E-03
         512  7.0178164E-03
         513 -1.2044677E-02
         514 -2.0430968E-03
         515  2.8649829E-02
         516 -6.7282573E-04
         517 -1.8676259E-03
         518  1.8783006E-03
         519 -5.0243805E-03
         520 -2.2219419E-03
         521  1.5804018E-05
         522  6.8889192E-04
         523 -1.1796786E-03
         524  5.5072955E-03
 Sym= Particle
 Ene= -0.7300217    
 Spin= Alpha
 Occup= 2
           1  1.1402890E-03
           2  5.7896972E-04
           3  5.0204434E-04
           4  2.2603290E-03
           5  1.1478462E-04
           6 -8.6192024E-04
           7  7.4875797E-04
           8  3.8425073E-03
           9 -1.0450445E-03
          10 -2.5194798E-02
          11  7.5456086E-03
          12 -0.1578900    
          13  7.9981779E-04
          14  3.9289631E-03
          15 -1.2785170E-03
          16  2.8150696E-02
          17 -8.3708030E-05
          18  1.0252187E-02
          19 -2.9888069E-03
          20  4.7874652E-02
          21  5.9655262E-04
          22 -1.6684511E-03
          23  3.1138632E-06
          24  7.3344698E-03
          25 -1.7490953E-03
          26  2.0793976E-02
          27 -2.6111972E-02
          28  0.1948980    
          29 -4.2035157E-04
          30 -3.9991285E-03
          31  6.2396545E-03
          32 -4.6270937E-02
          33  5.4881303E-04
          34  7.8383309E-04
          35  1.4865815E-02
          36 -0.1224136    
          37 -4.7002775E-03
          38  4.6966453E-03
          39 -6.0143541E-03
          40  1.5039410E-02
          41  1.2682197E-03
          42  7.8183906E-03
          43 -1.2855350E-02
          44 -1.1871685E-02
          45 -2.2359255E-03
          46  1.2203627E-03
          47  3.1506415E-03
          48 -2.6499464E-03
          49 -8.9555960E-03
          50 -1.4293371E-02
          51  3.1389762E-02
          52  3.2283142E-02
          53  5.9333583E-03
          54 -2.4357105E-04
          55 -6.1996663E-03
          56 -7.2441516E-03
          57  4.5227981E-03
          58 -5.0784117E-03
          59 -5.2892737E-04
          60  5.6709386E-03
          61 -2.2079926E-03
          62  7.9139468E-04
          63  1.0457151E-04
          64 -6.6789397E-04
          65 -6.2364060E-04
          66  2.1741079E-02
          67 -2.5863323E-02
          68 -4.3852866E-02
          69  8.5724838E-04
          70 -5.6546191E-03
          71  4.8778141E-03
          72  1.0686504E-02
          73  3.9099617E-04
          74 -2.3021409E-04
          75 -2.4446384E-03
          76  1.7421415E-02
          77  5.0336326E-04
          78 -3.8240640E-04
          79 -5.7940918E-04
          80 -5.6344387E-03
          81 -3.4423212E-03
          82  6.9323787E-03
          83 -1.8787268E-03
          84  5.4013715E-03
          85  3.3369607E-03
          86 -3.1766589E-03
          87 -7.5313478E-04
          88 -3.3654817E-04
          89  2.1739608E-04
          90 -1.2342759E-03
          91  4.1952827E-03
          92 -1.4509143E-02
          93  7.1413408E-04
          94 -7.3109323E-04
          95 -1.4533249E-03
          96  3.1558396E-03
          97 -4.2214667E-04
          98  8.9422776E-04
          99 -6.8869302E-04
         100  3.1689769E-03
         101  3.8701182E-04
         102 -3.1127644E-04
         103 -3.3870216E-05
         104 -1.4515843E-03
         105 -1.5216238E-04
         106  6.7653635E-04
         107 -1.8129512E-03
         108  9.2728818E-03
         109  1.7062387E-04
         110 -1.6360309E-04
         111  1.6275425E-04
         112 -1.2895437E-03
         113 -5.1147165E-04
         114  2.2731088E-04
         115  8.0918410E-04
         116 -5.7694302E-03
         117  1.9470663E-04
         118  4.5564843E-04
         119 -3.2150990E-04
         120  1.6100802E-03
         121  3.2738457E-04
         122 -8.8103086E-04
         123 -1.2913515E-03
         124 -3.6480806E-03
         125  1.2952062E-04
         126  1.4944308E-04
         127  4.1771858E-04
         128  5.8663229E-04
         129 -1.8169131E-04
         130  1.6743199E-03
         131  4.3987620E-04
         132 -3.6651071E-03
         133 -5.7930556E-05
         134 -5.7836925E-04
         135 -6.8418167E-06
         136  4.8201124E-04
         137  4.4597819E-04
         138 -4.5070404E-04
         139  4.5292196E-04
         140 -6.1653415E-03
         141 -2.3051565E-05
         142  3.6547735E-05
         143 -5.6436006E-04
         144  1.6385809E-03
         145  1.6528150E-04
         146  7.0175144E-04
         147 -1.9591236E-03
         148  9.8353745E-03
         149  1.4268709E-05
         150  2.3866392E-05
         151  2.3938087E-04
         152 -1.4343355E-03
         153  3.3782970E-04
         154  1.0465192E-04
         155 -1.1075395E-03
         156  3.0547434E-03
         157 -2.1108934E-05
         158  4.0786435E-05
         159  1.0966553E-04
         160 -1.4616782E-03
         161 -2.6690462E-04
         162 -2.5255331E-03
         163  3.5811106E-03
         164 -1.5004233E-02
         165  1.4044692E-04
         166  6.1312178E-04
         167 -8.3841843E-04
         168  2.8924926E-03
         169  3.1407520E-03
         170 -6.2849477E-04
         171 -7.1116914E-03
         172  5.3895093E-03
         173 -2.2658033E-03
         174  7.5395388E-04
         175  2.0430295E-03
         176 -6.8957469E-04
         177 -2.2527247E-03
         178 -2.3940776E-03
         179  2.4058691E-03
         180  8.0466913E-03
         181  1.6787795E-03
         182 -8.2536309E-05
         183 -6.0268547E-05
         184 -1.5254241E-03
         185  5.0774310E-03
         186 -2.6680104E-02
         187  2.6693314E-02
         188  2.6521293E-02
         189 -3.8968201E-03
         190  5.7095406E-03
         191 -6.5202592E-03
         192 -1.9573809E-03
         193  1.5502537E-03
         194 -4.3324665E-03
         195 -1.4184509E-02
         196 -0.1157504    
         197 -4.1325595E-03
         198  1.6732271E-03
         199  2.2875487E-03
         200  4.0922247E-02
         201 -1.5788588E-03
         202  6.7505892E-03
         203 -1.0129797E-03
         204  0.2873302    
         205 -3.5891631E-03
         206 -7.0828684E-03
         207 -2.6794549E-03
         208 -6.5515369E-02
         209  1.2611116E-03
         210 -8.1844628E-03
         211 -2.9124398E-02
         212  0.3882519    
         213 -2.7414307E-03
         214  1.4121452E-03
         215  8.0579137E-03
         216 -0.1093931    
         217 -6.7067530E-04
         218  1.0453781E-02
         219  2.1623453E-02
         220 -0.2650159    
         221 -1.6829178E-03
         222 -4.0527792E-03
         223 -6.9548949E-03
         224  7.0751511E-02
         225  6.2495088E-03
         226 -3.4279658E-03
         227  1.0229437E-02
         228 -0.1831769    
         229 -5.7194890E-03
         230  4.2278953E-03
         231 -5.3091217E-03
         232  6.0017727E-02
         233  2.6239693E-04
         234 -1.2670326E-02
         235 -3.1819589E-02
         236  0.4743222    
         237 -3.8726215E-04
         238  1.1881008E-03
         239  4.8921378E-03
         240 -0.1465744    
         241 -3.3637011E-04
         242 -3.2096311E-02
         243 -4.9715277E-02
         244 -5.8941543E-02
         245  3.8904295E-04
         246  5.5172583E-03
         247  7.2977035E-03
         248  3.5140883E-02
         249 -2.9609283E-02
         250 -7.6761574E-02
         251 -5.0541714E-02
         252 -2.8137092E-02
         253  2.7707746E-02
         254  3.5024673E-02
         255  3.9653517E-03
         256  5.2528316E-03
         257  4.3326686E-03
         258  5.9190892E-02
         259  9.8775379E-02
         260  9.5610365E-02
         261  1.8460468E-03
         262 -6.8088071E-03
         263 -2.8900098E-02
         264 -2.4092190E-02
         265 -4.4525987E-03
         266 -2.7176769E-02
         267 -3.3959184E-02
         268 -3.5679407E-02
         269  4.4530402E-03
         270  8.9640897E-03
         271  7.3684291E-03
         272  1.1728112E-02
         273 -1.0637145E-03
         274 -3.4645054E-02
         275 -5.5757102E-02
         276 -6.2031385E-02
         277  2.5818653E-03
         278  7.5465515E-03
         279  1.0039651E-02
         280  1.2828114E-02
         281 -3.9860862E-03
         282  4.1510526E-02
         283  6.7195579E-02
         284  8.1918262E-02
         285  2.3437412E-03
         286 -1.4542904E-02
         287 -1.8701401E-02
         288 -1.9472981E-02
         289  2.1398899E-03
         290  9.2945335E-04
         291 -2.0142337E-02
         292 -6.0774892E-04
         293  1.6175014E-03
         294 -1.9015470E-03
         295  4.3051811E-03
         296 -1.8244979E-03
         297 -2.2082387E-03
         298 -1.9156506E-02
         299 -8.7424526E-03
         300 -1.1537815E-03
         301 -1.2304700E-03
         302  5.2002915E-03
         303  4.0298249E-04
         304 -1.5042232E-03
         305  3.6741579E-03
         306  4.3648113E-02
         307  6.4811274E-02
         308  8.0861896E-02
         309 -1.4194014E-03
         310 -1.0855506E-02
         311 -2.0600220E-02
         312 -1.9094992E-02
         313  9.4659091E-04
         314 -3.4991149E-02
         315 -5.3887825E-02
         316 -6.0117763E-02
         317 -1.9034424E-03
         318  5.6639565E-03
         319  1.0762369E-02
         320  1.2176923E-02
         321  4.2838296E-03
         322 -1.9647382E-02
         323 -3.9690528E-02
         324 -3.6189467E-02
         325 -3.8562266E-03
         326  3.3004910E-03
         327  1.1188658E-02
         328  1.1777810E-02
         329 -4.3514427E-03
         330  6.3907199E-02
         331  9.4776042E-02
         332  9.4607100E-02
         333 -1.5805502E-03
         334 -2.2736467E-02
         335 -1.8566530E-02
         336 -2.3237504E-02
         337  2.9757617E-02
         338 -1.1164947E-02
         339 -8.9953549E-02
         340 -2.7421651E-02
         341 -2.7553910E-02
         342 -1.1706561E-02
         343  3.2771911E-02
         344  5.3195953E-03
         345 -5.3080353E-03
         346  5.6043784E-03
         347  2.5568621E-03
         348 -0.1731371    
         349  4.2366446E-03
         350 -4.1113398E-03
         351  7.8152539E-04
         352  5.8655284E-02
         353  1.7467511E-03
         354  7.6495362E-03
         355  2.2286206E-02
         356 -0.2693856    
         357 -1.2321620E-03
         358 -1.4174962E-03
         359 -7.4012759E-03
         360  6.6971503E-02
         361 -3.2481046E-03
         362 -1.8061681E-02
         363 -2.5720049E-03
         364 -0.2667398    
         365  1.1377796E-03
         366  2.6500581E-03
         367  2.6579089E-03
         368  6.1857294E-02
         369  4.6928367E-03
         370 -4.3296576E-03
         371  7.7668587E-03
         372 -3.9046351E-02
         373 -5.1543694E-03
         374  2.0643547E-03
         375 -4.0774201E-03
         376 -5.5543152E-03
         377 -3.5295079E-03
         378  1.4112718E-02
         379 -1.3625273E-02
         380  0.1337759    
         381  2.1678130E-03
         382 -2.6424360E-03
         383  3.8831627E-03
         384 -2.4370743E-02
         385 -2.0232878E-03
         386  6.0440978E-04
         387  4.0021041E-04
         388  5.7838482E-05
         389  4.8039518E-03
         390  6.3185616E-05
         391 -2.7833326E-04
         392 -3.2051890E-03
         393  4.3111548E-04
         394 -2.6828004E-02
         395  3.4281386E-03
         396 -1.9232552E-03
         397  5.1240373E-04
         398 -1.3057700E-03
         399  4.2833406E-03
         400  2.9466627E-03
         401  2.7381680E-03
         402 -1.0805598E-02
         403 -3.5384470E-03
         404  3.8864664E-03
         405 -2.7077361E-03
         406  2.7296718E-04
         407 -1.0428861E-03
         408 -9.1971495E-05
         409  2.5242395E-03
         410  1.0731163E-03
         411  3.9181105E-04
         412 -1.0216194E-03
         413  1.6859480E-03
         414 -2.8246425E-03
         415  8.4982708E-04
         416  1.9000018E-04
         417 -2.2347504E-04
         418 -2.5495057E-04
         419  1.2314497E-03
         420  3.1401476E-05
         421  2.6977347E-04
         422 -3.6366266E-04
         423 -2.2008613E-04
         424  1.3449601E-03
         425  1.0990715E-03
         426 -1.4501812E-04
         427  6.2711973E-05
         428  1.6396612E-04
         429 -1.7991217E-03
         430 -9.5317990E-04
         431  3.3261531E-04
         432 -2.1079976E-04
         433  6.0854778E-05
         434 -1.9074391E-03
         435 -4.3897693E-05
         436 -7.6747834E-05
         437  2.4561561E-04
         438 -1.4857971E-04
         439  1.5813737E-03
         440 -8.0046029E-04
         441  1.4540918E-04
         442  1.8667888E-04
         443 -3.4795166E-04
         444  1.3473249E-03
         445 -1.0164124E-03
         446  9.4545004E-04
         447 -1.1510898E-03
         448  5.2459503E-04
         449 -3.5810412E-03
         450  4.3012411E-03
         451  5.3123082E-04
         452 -2.1400652E-03
         453  1.3099540E-03
         454  1.7451033E-03
         455 -2.0726749E-03
         456  1.6814722E-03
         457 -6.0889502E-03
         458  3.5861434E-04
         459  3.8634446E-03
         460  7.5822050E-04
         461 -2.2203478E-03
         462 -2.6527040E-03
         463  2.6881839E-03
         464 -5.1226329E-02
         465 -3.9270245E-03
         466 -4.4699089E-04
         467  1.5248285E-03
         468  3.4526957E-03
         469 -4.6469308E-02
         470  9.2953192E-03
         471 -1.8046105E-03
         472  1.5296947E-02
         473  3.4792334E-02
         474  2.4354836E-02
         475  6.4540049E-03
         476  2.3763936E-03
         477 -5.3536338E-03
         478 -1.0616356E-02
         479 -1.0807936E-02
         480  3.5860363E-04
         481  3.5042472E-03
         482 -4.6997331E-03
         483 -1.2494897E-02
         484 -1.4450625E-02
         485  8.5171219E-03
         486 -1.3624096E-03
         487  9.4421459E-03
         488  1.7280843E-02
         489  2.3077253E-02
         490 -8.1598908E-03
         491  1.8750294E-03
         492  1.1021273E-02
         493  1.6094875E-02
         494  2.3068683E-02
         495 -6.9017136E-05
         496 -3.1244073E-03
         497 -9.4727939E-03
         498 -9.0695946E-03
         499 -1.4163046E-02
         500 -6.1488450E-03
         501 -2.0879090E-03
         502 -7.4284552E-03
         503 -9.4702262E-03
         504 -1.1452312E-02
         505 -9.4825095E-03
         506  2.3198177E-03
         507  2.5202371E-02
         508  2.8543752E-02
         509  2.4968142E-02
         510  2.8843645E-03
         511  5.8560452E-04
         512  1.8040657E-03
         513  4.0923390E-03
         514 -4.3515526E-02
         515 -2.2548158E-03
         516  1.9848933E-03
         517  3.9846501E-03
         518  1.0066808E-03
         519 -6.2770925E-02
         520  1.9684930E-03
         521  2.9022380E-04
         522  4.3390045E-04
         523 -3.5735042E-04
         524  7.4295946E-03
 Sym= Hole
 Ene= -0.2290887    
 Spin= Alpha
 Occup= 0
           1  1.1296222E-03
           2 -6.7940741E-03
           3  5.2559339E-03
           4 -9.3101673E-02
           5 -5.4678912E-05
           6 -7.4525509E-04
           7  1.1131753E-03
           8 -4.8286472E-03
           9 -6.5467739E-04
          10  3.6250152E-02
          11 -1.4864477E-02
          12  0.2524706    
          13  1.0810591E-03
          14 -1.3574227E-03
          15  1.9561474E-03
          16 -1.3561858E-03
          17  3.6136217E-03
          18  6.1698169E-02
          19 -1.5341566E-02
          20  0.2359017    
          21 -2.5323378E-03
          22  1.0621601E-03
          23  3.1636672E-03
          24  1.9267062E-03
          25  1.2115648E-02
          26 -1.2389336E-02
          27  3.9243117E-02
          28 -7.0480280E-02
          29 -7.3439959E-03
          30  3.7967023E-03
          31 -2.7393652E-03
          32  1.9835141E-03
          33  4.6690032E-03
          34  1.7242273E-02
          35  1.9617658E-03
          36 -0.1374430    
          37  1.2550546E-03
          38 -5.9190177E-04
          39 -3.1125681E-03
          40 -7.0218327E-03
          41 -1.0765031E-03
          42 -0.1305626    
          43  0.1400366    
          44  0.2723329    
          45 -4.6348438E-04
          46  4.6947207E-03
          47 -2.6784493E-03
          48 -8.1011588E-03
          49 -1.5969072E-02
          50 -6.6416793E-02
          51  8.6760901E-02
          52  0.1096771    
          53  5.1420648E-03
          54  5.1324145E-04
          55  8.8544731E-04
          56 -2.9981867E-04
          57  2.5695523E-02
          58  0.1086240    
          59 -0.1129429    
          60 -0.1220032    
          61 -1.3974026E-02
          62 -8.8166399E-03
          63  2.4051443E-04
          64  1.9123913E-03
          65 -1.6461138E-03
          66  9.2536099E-02
          67 -0.1062877    
          68 -0.2191438    
          69  2.3851746E-04
          70  6.3190580E-04
          71 -1.4980907E-03
          72  1.3203376E-02
          73  1.3634268E-03
          74  4.6745916E-03
          75 -3.9120220E-02
          76  0.3118296    
          77 -5.0055893E-04
          78 -7.9376809E-03
          79  1.3721263E-02
          80 -2.3796786E-02
          81 -1.4032251E-02
          82  3.2289173E-02
          83 -6.0230568E-03
          84  8.1802486E-03
          85  8.0292737E-03
          86 -2.1996449E-03
          87  1.4549994E-03
          88  1.3442243E-02
          89 -2.6304964E-03
          90 -7.6656099E-03
          91  4.2652823E-02
          92 -0.1453851    
          93  1.6931569E-03
          94  4.3978398E-03
          95 -3.3420403E-03
          96  9.0898238E-03
          97 -9.3695673E-04
          98 -8.0946274E-04
          99  6.9984319E-03
         100 -4.0059038E-02
         101 -2.5475016E-04
         102  1.3958528E-03
         103  2.3039886E-04
         104 -2.6066459E-03
         105 -2.0595866E-03
         106  9.6460553E-03
         107 -2.4327897E-02
         108  0.1298981    
         109  3.2082963E-04
         110 -1.5812139E-04
         111  1.8018708E-03
         112 -8.5498849E-03
         113 -2.2902319E-03
         114  8.6070849E-03
         115 -1.0273772E-02
         116  5.8326516E-02
         117  3.7287991E-04
         118 -2.9790463E-04
         119  2.4888301E-03
         120 -8.5208705E-03
         121 -6.3965858E-06
         122 -1.2626025E-02
         123  1.5276103E-02
         124 -0.1350655    
         125  6.5415329E-04
         126  3.1130062E-04
         127  1.7059537E-03
         128  8.1044687E-03
         129  5.3404871E-04
         130  3.1636260E-04
         131  2.4632959E-02
         132 -0.1335874    
         133 -8.1650738E-04
         134 -2.2540779E-03
         135 -1.7382090E-04
         136  7.8467112E-03
         137  2.1075499E-03
         138  2.6245841E-03
         139 -1.6085064E-02
         140  6.5595418E-02
         141 -2.5705603E-04
         142 -1.5087535E-03
         143  1.6382277E-03
         144 -8.4100692E-03
         145  2.0578452E-03
         146  9.0578431E-03
         147 -2.6386991E-02
         148  0.1361822    
         149 -2.8531818E-04
         150 -8.9752104E-04
         151  1.2241016E-03
         152 -8.3115473E-03
         153  8.1496453E-04
         154 -2.8026076E-03
         155  5.9043644E-03
         156 -4.0952299E-02
         157  3.2461359E-04
         158 -4.6828997E-04
         159 -1.0280794E-03
         160 -2.7605915E-03
         161  2.6810626E-03
         162 -2.6997205E-02
         163  3.1838808E-02
         164 -0.1536715    
         165 -1.5228485E-03
         166  7.4679265E-04
         167 -5.9109544E-03
         168  8.4417779E-03
         169  1.3545848E-02
         170 -5.4230392E-03
         171 -3.0184712E-02
         172 -2.2400420E-03
         173 -7.5700199E-03
         174 -1.9568386E-03
         175  1.4856987E-03
         176  1.3360072E-02
         177 -2.0884188E-02
         178  7.4249566E-02
         179 -0.1331356    
         180 -0.1125982    
         181  1.2285643E-02
         182  3.1460272E-03
         183  8.8900877E-03
         184  3.0689116E-03
         185  8.1297113E-03
         186 -7.2652370E-02
         187  0.1032105    
         188  0.1085563    
         189 -2.7457310E-03
         190  8.1749685E-04
         191  8.3490316E-04
         192  3.8536885E-04
         193 -1.8745521E-02
         194 -3.3245239E-02
         195  2.9301438E-02
         196 -0.1952337    
         197  6.2690601E-03
         198 -3.7210516E-03
         199 -8.1954440E-03
         200  7.4117458E-03
         201  6.0586380E-03
         202  1.5962880E-02
         203  9.3241932E-04
         204  0.1173610    
         205 -8.0159242E-04
         206 -2.5486194E-03
         207 -1.6262927E-03
         208 -2.0638746E-03
         209 -5.0149746E-03
         210 -8.7519325E-03
         211  5.1502767E-03
         212 -3.0600630E-02
         213  1.9742718E-03
         214 -3.9385809E-04
         215  7.4927375E-04
         216  4.7823498E-03
         217 -2.1800254E-03
         218  1.3114457E-03
         219  3.1527195E-03
         220 -4.2366948E-02
         221  1.7526241E-03
         222 -2.7081359E-04
         223  9.2784678E-05
         224 -1.0541426E-03
         225  2.3349046E-03
         226 -5.3442293E-03
         227 -3.9826245E-03
         228  2.4643110E-02
         229 -1.1567546E-03
         230  7.8411307E-04
         231  4.2567909E-04
         232 -1.5249035E-03
         233  8.1209197E-05
         234  1.5367666E-04
         235 -1.3074417E-03
         236  5.2920397E-02
         237 -1.7528881E-05
         238 -5.1879184E-04
         239 -6.5414722E-05
         240 -4.0521063E-03
         241 -3.0797778E-04
         242 -1.1774086E-02
         243 -1.7303513E-02
         244 -2.5781665E-02
         245 -5.7364243E-05
         246  1.6373771E-03
         247  3.2710545E-03
         248  2.4915370E-03
         249 -2.9840472E-03
         250 -8.6620217E-03
         251 -5.0101951E-03
         252 -2.0985599E-03
         253  1.9550056E-03
         254  5.8818655E-04
         255 -5.5816694E-04
         256 -9.9579326E-04
         257 -3.1726471E-05
         258  4.4098147E-03
         259  9.3508679E-03
         260  7.3785097E-03
         261  4.4275023E-04
         262 -4.5095201E-04
         263 -1.2649798E-03
         264 -4.3713010E-04
         265 -5.4376072E-04
         266  1.8429622E-03
         267  3.9738272E-03
         268  3.9972570E-03
         269  6.5638822E-05
         270 -1.1794886E-04
         271 -7.6157878E-05
         272  2.1790675E-04
         273 -1.0424272E-04
         274 -4.0757447E-03
         275 -6.2339818E-03
         276 -6.6858665E-03
         277  1.3275215E-04
         278  3.9927333E-04
         279  6.7619327E-04
         280  9.3328825E-04
         281 -7.0101785E-04
         282 -1.4563176E-03
         283 -1.6680838E-03
         284 -1.5349928E-03
         285  1.9043522E-05
         286  2.1153715E-04
         287  7.5733598E-04
         288  7.1611570E-04
         289  1.4378560E-04
         290  6.0554906E-03
         291  6.7185676E-03
         292  1.0204811E-02
         293  8.2836050E-05
         294 -7.7268918E-04
         295 -3.3619770E-04
         296 -1.1522403E-03
         297 -2.7136627E-04
         298  3.2886774E-03
         299  8.4201023E-03
         300  9.9876290E-03
         301 -1.8390521E-04
         302 -6.7507819E-05
         303 -6.5634493E-04
         304 -1.2498659E-03
         305  8.5191237E-04
         306 -9.2314952E-04
         307 -2.2663607E-03
         308 -1.4239264E-03
         309 -1.2329643E-04
         310  5.8008701E-04
         311  5.1754515E-04
         312  7.4657635E-04
         313  5.9837090E-05
         314 -3.7943057E-03
         315 -6.1795511E-03
         316 -6.6155382E-03
         317 -2.2882168E-04
         318  4.8787906E-04
         319  6.9930759E-04
         320  9.3086984E-04
         321  5.8834988E-04
         322  2.9672410E-03
         323  3.6243147E-03
         324  4.0765037E-03
         325 -6.8813075E-05
         326  7.0355469E-05
         327 -9.8323893E-05
         328  2.3936589E-04
         329  1.8068121E-04
         330  6.8209507E-03
         331  7.8788567E-03
         332  7.4043516E-03
         333 -7.2941411E-04
         334 -1.1762971E-03
         335 -7.8549731E-04
         336 -6.7892397E-04
         337  3.1266357E-03
         338 -5.8547873E-04
         339 -1.0409056E-02
         340 -2.1529053E-03
         341 -2.2724392E-03
         342 -9.5991633E-04
         343  5.6890171E-04
         344 -1.2060774E-03
         345 -4.3590511E-03
         346 -3.4766572E-03
         347 -3.9037559E-03
         348  1.4683255E-02
         349  1.8522281E-03
         350 -4.1823994E-04
         351  6.6646968E-04
         352 -2.8300257E-03
         353  4.7705141E-03
         354  5.8805277E-03
         355  2.9088438E-03
         356 -4.4845361E-02
         357 -1.8510192E-03
         358 -7.0784992E-04
         359 -4.8053046E-04
         360  2.3871060E-03
         361 -2.3932080E-03
         362  1.8276967E-02
         363  8.8690165E-03
         364  0.2449091    
         365  3.9151884E-04
         366 -1.3997812E-04
         367 -3.1347624E-03
         368 -1.8178670E-03
         369  7.9454953E-04
         370 -8.4996708E-03
         371  2.2547138E-04
         372 -0.1378755    
         373  4.6041067E-04
         374  2.3794454E-03
         375 -1.0901139E-03
         376  1.0308416E-02
         377  3.8794538E-03
         378 -3.4910176E-02
         379  2.6752474E-02
         380 -0.3129055    
         381 -1.1187886E-03
         382  1.6418949E-03
         383 -1.8661548E-04
         384  1.0433478E-03
         385  1.0695739E-03
         386  4.0284355E-04
         387  1.1603166E-04
         388  4.1139490E-04
         389  1.6059232E-03
         390 -9.2895748E-03
         391  1.5984614E-03
         392 -2.2217269E-05
         393 -3.8488215E-04
         394  2.7997957E-03
         395  5.2402359E-03
         396  5.4502609E-04
         397 -2.6152194E-03
         398  1.5263930E-04
         399 -8.1896764E-04
         400  1.8297059E-02
         401  9.2797319E-04
         402 -3.0036818E-03
         403 -3.5565356E-03
         404 -2.0319228E-03
         405 -1.8610580E-02
         406 -3.1219448E-03
         407 -7.1874186E-03
         408 -3.3063339E-03
         409 -5.2747377E-03
         410  2.2492411E-03
         411 -1.8039900E-04
         412 -2.8831654E-03
         413 -6.4573245E-04
         414 -1.1459803E-02
         415  5.5942810E-03
         416 -1.4309139E-03
         417 -7.0618968E-05
         418  1.0260336E-04
         419 -2.0708037E-03
         420  9.4376701E-05
         421 -3.5862802E-04
         422  1.2122319E-03
         423 -2.1365636E-03
         424  1.2053677E-02
         425  4.9872468E-03
         426 -8.3308824E-04
         427  5.3973467E-04
         428  4.1976373E-04
         429  3.4540063E-03
         430 -4.5001837E-03
         431  8.5558888E-04
         432 -9.1958052E-04
         433 -5.9897936E-04
         434  3.1010164E-03
         435 -2.6542257E-04
         436  3.6857510E-04
         437  5.1829719E-04
         438 -2.5393746E-03
         439  1.1638034E-02
         440 -5.7991883E-03
         441  1.4582473E-03
         442  1.0293569E-04
         443  1.8494812E-04
         444 -1.9382298E-03
         445 -1.6106101E-03
         446  4.1507321E-04
         447  2.0108363E-03
         448  2.6725770E-03
         449 -1.0513885E-02
         450  1.9661812E-02
         451  2.3377638E-03
         452  6.4642434E-03
         453  6.1240788E-03
         454 -4.8829173E-03
         455 -2.7446693E-02
         456  4.7807174E-04
         457  1.7546674E-03
         458 -9.1562473E-04
         459 -1.1189167E-03
         460  2.5856178E-03
         461 -6.8520074E-04
         462  1.0551197E-03
         463  1.8452705E-03
         464 -5.9188944E-03
         465 -1.0170937E-03
         466 -4.4640410E-04
         467  9.9942519E-04
         468 -1.1648904E-04
         469  2.4868967E-03
         470  8.3132758E-04
         471 -2.1602516E-04
         472  1.0710430E-03
         473  1.1850381E-03
         474  1.1014101E-03
         475  3.6271388E-04
         476 -3.6397387E-04
         477  1.7611282E-04
         478  7.0462527E-05
         479  2.3415413E-04
         480  3.4136756E-04
         481  8.2835169E-05
         482 -6.1289204E-04
         483 -9.9706545E-04
         484 -1.1555933E-03
         485  5.6859088E-04
         486 -3.5298613E-04
         487 -3.3083113E-04
         488 -1.4993259E-04
         489 -2.0311872E-04
         490 -5.7757081E-04
         491  2.6832920E-04
         492 -6.1868886E-05
         493 -2.8203244E-04
         494 -2.5965954E-04
         495 -3.5388020E-04
         496 -1.9401642E-04
         497 -7.3901372E-04
         498 -9.1181532E-04
         499 -1.1751534E-03
         500 -3.2530099E-04
         501  2.9113572E-04
         502 -1.2671018E-05
         503  2.4663773E-04
         504  2.3352276E-04
         505 -8.8302430E-04
         506 -6.7650148E-04
         507 -5.9454248E-04
         508  1.7720402E-03
         509  7.9574191E-04
         510  2.8705948E-03
         511  2.1814035E-06
         512 -9.6731866E-04
         513  7.1440166E-04
         514  2.1414070E-04
         515  1.1882356E-03
         516 -7.2689413E-04
         517 -1.5836344E-03
         518  5.3280924E-04
         519  1.8634466E-03
         520 -9.5368730E-04
         521  4.3728788E-04
         522  1.2993128E-03
         523 -7.5508893E-04
         524  3.4983291E-03
 Sym= Particle
 Ene= -0.2290887    
 Spin= Alpha
 Occup= 2
           1 -6.2274776E-05
           2 -3.3029493E-02
           3  1.3569119E-02
           4 -0.2631138    
           5  3.7089436E-04
           6  7.1097026E-03
           7 -2.4721890E-03
           8  5.8635190E-02
           9  1.1624747E-03
          10 -1.3438265E-02
          11  1.8735492E-03
          12 -7.6825418E-02
          13 -1.6841160E-03
          14  6.1938209E-03
          15 -4.1112638E-04
          16  1.6690074E-02
          17  3.0349575E-03
          18  5.1919937E-02
          19 -1.5701076E-02
          20  0.2678612    
          21 -1.0907347E-03
          22 -9.2337839E-03
          23  9.0062339E-03
          24 -6.1468061E-02
          25 -1.4488796E-02
          26 -1.4231069E-02
          27 -1.2847981E-02
          28 -8.0424070E-02
          29  1.1175983E-02
          30  1.3323181E-02
          31  7.5504314E-03
          32  2.3640005E-02
          33 -3.4903057E-03
          34  2.1230876E-03
          35  4.1260418E-02
          36 -0.3938571    
          37 -5.5355870E-04
          38  1.0600956E-02
          39 -1.9048458E-02
          40  0.1008501    
          41  4.0725330E-03
          42  0.1118638    
          43 -0.1360643    
          44 -0.2054806    
          45 -1.9369774E-03
          46 -3.9500561E-02
          47  4.2581141E-02
          48  5.4329712E-02
          49 -1.9890534E-02
          50 -8.9289442E-02
          51  0.1366070    
          52  0.1419860    
          53  1.2387010E-02
          54  2.4457442E-02
          55 -4.0185120E-02
          56 -2.8881401E-02
          57  8.8774571E-03
          58 -4.6661723E-02
          59  5.3525683E-02
          60  9.5111512E-02
          61 -6.2260525E-03
          62  1.0419016E-02
          63 -1.7584443E-02
          64 -2.9048303E-02
          65  1.0093987E-03
          66  0.1365184    
          67 -0.1654071    
          68 -0.2702280    
          69 -1.2704236E-03
          70 -3.7765164E-02
          71  4.7460809E-02
          72  8.4773965E-02
          73 -3.1536137E-04
          74  3.0538437E-03
          75 -1.0219947E-02
          76  6.6829324E-02
          77 -7.1827648E-04
          78  7.2304355E-03
          79 -4.2425110E-03
          80 -2.7817389E-02
          81 -2.1201510E-02
          82  4.1165244E-02
          83 -1.5017567E-02
          84  4.9482610E-02
          85  1.9296585E-02
          86 -1.9912766E-02
          87 -2.3776689E-03
          88 -1.1475815E-02
          89  2.6222502E-03
          90 -8.7576415E-03
          91  2.5466632E-02
          92 -9.4592221E-02
          93  1.5621040E-03
          94 -2.4229363E-03
          95 -9.4510447E-03
          96  2.1670088E-02
          97 -2.8091406E-03
          98  6.3943644E-03
          99 -5.9319739E-03
         100  3.0147929E-02
         101  2.3895956E-03
         102 -2.0131264E-03
         103  8.5689033E-05
         104 -1.0099859E-02
         105 -1.0355865E-03
         106  3.9739152E-03
         107 -1.1885914E-02
         108  6.0053635E-02
         109  1.4568344E-03
         110 -6.4646843E-04
         111  1.5830579E-03
         112 -1.1284967E-02
         113 -2.5187789E-03
         114 -1.2900520E-03
         115  1.0386364E-02
         116 -6.5751463E-02
         117  7.6807901E-04
         118  3.2038824E-03
         119 -3.6753300E-03
         120  1.7350852E-02
         121  1.5738234E-03
         122 -2.6060746E-03
         123 -1.1371449E-02
         124 -2.3557662E-03
         125  7.7316089E-04
         126  1.5144275E-03
         127  3.7637935E-03
         128  1.3360799E-03
         129 -1.5636132E-03
         130  1.1206418E-02
         131 -1.3852703E-03
         132 -1.6529300E-03
         133 -1.1578415E-03
         134 -3.3175559E-03
         135  5.0948467E-04
         136  9.5770316E-04
         137  2.7716265E-03
         138 -3.9187809E-03
         139  8.6079277E-03
         140 -6.6220053E-02
         141 -1.3730897E-03
         142  1.1916215E-03
         143 -4.9736216E-03
         144  1.7058721E-02
         145  7.3687010E-04
         146  4.6034409E-03
         147 -1.1701568E-02
         148  6.0690820E-02
         149 -1.6118640E-03
         150  1.0166724E-04
         151  2.3161690E-03
         152 -1.1526427E-02
         153  2.8574872E-03
         154  1.1700665E-03
         155 -1.0166415E-02
         156  2.9379049E-02
         157 -2.9043509E-03
         158  1.4139904E-03
         159  2.9967108E-03
         160 -9.6297218E-03
         161 -2.5700545E-03
         162 -1.2997360E-02
         163  2.2515157E-02
         164 -9.5280372E-02
         165 -2.5110322E-03
         166  8.1879562E-03
         167 -1.0292729E-03
         168  2.3333840E-02
         169  2.1166246E-02
         170 -3.6035201E-03
         171 -4.7485724E-02
         172  4.6778649E-02
         173 -2.0289082E-02
         174  1.0715713E-02
         175  2.0596391E-02
         176 -9.1122026E-03
         177 -1.2501745E-02
         178 -4.3364573E-02
         179  5.5158492E-02
         180  9.1520593E-02
         181  8.8085923E-03
         182  1.5150613E-02
         183 -1.1512523E-02
         184 -2.8411530E-02
         185  1.5763385E-02
         186 -0.1163415    
         187  0.1245568    
         188  0.1421550    
         189 -8.1497142E-03
         190  3.1049302E-02
         191 -2.8684380E-02
         192 -4.0656980E-02
         193  8.1565259E-03
         194  2.4250476E-02
         195 -4.0304169E-02
         196  0.3743275    
         197 -7.5588268E-03
         198 -1.1499569E-02
         199  9.5571205E-03
         200 -0.1003397    
         201 -7.8583963E-04
         202 -7.1612600E-04
         203  1.0081334E-03
         204  9.6452450E-03
         205 -1.9162188E-03
         206 -1.7823144E-03
         207 -3.8414092E-03
         208  1.3765051E-02
         209  2.5450108E-03
         210  5.5647837E-03
         211  6.8849847E-03
         212 -0.1209158    
         213 -2.1143188E-03
         214 -3.1952781E-03
         215 -3.9012209E-03
         216  4.1953467E-02
         217  2.6402797E-04
         218 -1.1021589E-03
         219 -2.7991971E-03
         220  4.1445084E-02
         221 -1.0740660E-03
         222  2.7256733E-04
         223  1.3308800E-03
         224 -5.1605725E-03
         225 -5.1573652E-04
         226  2.5193425E-04
         227 -3.2633964E-03
         228  4.0527195E-02
         229  6.3414196E-04
         230 -7.8323198E-04
         231  5.8513426E-04
         232 -1.7974915E-02
         233 -3.5648004E-04
         234  3.1974853E-03
         235  6.9221281E-03
         236 -9.0697758E-02
         237  4.0638392E-04
         238 -3.4590322E-04
         239 -1.8688628E-03
         240  3.1717550E-02
         241  3.6755588E-04
         242  3.9149406E-03
         243  5.5242176E-03
         244  5.2786535E-03
         245 -5.2064257E-05
         246 -1.0132834E-03
         247 -1.2072419E-03
         248 -7.8658434E-03
         249  5.8013862E-03
         250  1.4586481E-02
         251  9.9226385E-03
         252  6.0469010E-03
         253 -5.3973780E-03
         254 -7.4610105E-03
         255 -8.7730295E-04
         256 -9.8024542E-04
         257 -1.5527321E-03
         258 -9.4304066E-03
         259 -1.3703332E-02
         260 -1.3899599E-02
         261  6.5075548E-04
         262  1.6080895E-03
         263  3.8730097E-03
         264  3.7863334E-03
         265  1.0248373E-03
         266  4.6707359E-03
         267  5.2667083E-03
         268  5.3085368E-03
         269 -8.3090801E-04
         270 -1.4125226E-03
         271 -7.9437700E-04
         272 -1.7206378E-03
         273 -3.3535551E-05
         274  4.9786074E-03
         275  8.0175390E-03
         276  8.4720505E-03
         277 -1.9429467E-04
         278 -1.3395072E-03
         279 -1.6146820E-03
         280 -1.6786247E-03
         281  5.7311892E-04
         282 -6.9010993E-03
         283 -1.1302041E-02
         284 -1.3611239E-02
         285 -1.1728863E-04
         286  2.5012661E-03
         287  3.0736469E-03
         288  2.9945315E-03
         289 -4.7193616E-04
         290  4.1407195E-05
         291  4.0103919E-03
         292  2.8518660E-04
         293 -6.2341656E-05
         294  9.6816290E-04
         295 -2.9716737E-04
         296  9.9856651E-04
         297  5.1921315E-04
         298  3.5985408E-03
         299  1.8422725E-03
         300  2.7072101E-04
         301  5.4783875E-04
         302 -6.3639547E-04
         303  5.3859100E-04
         304  1.0326682E-03
         305 -8.9646032E-04
         306 -6.8766950E-03
         307 -1.0602699E-02
         308 -1.3414065E-02
         309  1.0022231E-03
         310  1.6387029E-03
         311  3.1030441E-03
         312  2.8835617E-03
         313 -2.0338313E-04
         314  4.9798195E-03
         315  7.5217574E-03
         316  8.4948642E-03
         317  8.7651989E-04
         318 -8.5072085E-04
         319 -1.8401133E-03
         320 -2.0595000E-03
         321 -8.4115862E-04
         322  2.7343051E-03
         323  5.9929988E-03
         324  5.3135827E-03
         325  1.1839892E-03
         326 -2.3084403E-04
         327 -1.7567450E-03
         328 -1.4603509E-03
         329  6.9233152E-04
         330 -9.3716122E-03
         331 -1.3703825E-02
         332 -1.3633009E-02
         333  1.0688868E-03
         334  5.3276452E-03
         335  2.0903894E-03
         336  3.9152890E-03
         337 -5.9473054E-03
         338  2.3467389E-03
         339  1.7292744E-02
         340  5.4405001E-03
         341  6.1054733E-03
         342  2.9648363E-03
         343 -6.8747406E-03
         344 -1.0089679E-03
         345  1.7547030E-03
         346 -6.1248447E-04
         347 -4.0801009E-03
         348  5.5319574E-02
         349 -1.1776655E-03
         350  8.4730802E-04
         351  3.5303104E-04
         352 -1.4031115E-02
         353 -2.1612749E-03
         354 -2.2653216E-03
         355 -1.6141310E-03
         356  4.4725738E-02
         357  1.7836404E-03
         358  2.0068774E-03
         359  2.3662361E-04
         360 -2.9741714E-02
         361 -1.0359257E-03
         362 -2.3425456E-02
         363 -5.3977901E-03
         364 -0.2235200    
         365  5.5528822E-04
         366  8.1409989E-03
         367  2.8619186E-03
         368  3.6756113E-02
         369  1.1970204E-02
         370  2.9037336E-02
         371  2.6493287E-03
         372  0.1798481    
         373 -8.3013698E-03
         374 -1.0725630E-02
         375 -3.8972490E-03
         376 -4.9633756E-02
         377 -3.6117034E-03
         378  2.4954742E-02
         379 -2.0860760E-02
         380  0.2174303    
         381  2.3502314E-03
         382 -5.7417550E-03
         383  4.6520284E-03
         384 -4.2570993E-02
         385 -1.7807903E-03
         386  1.5520863E-03
         387 -6.4664730E-03
         388  3.9965604E-03
         389 -5.0129678E-02
         390 -3.8780177E-03
         391  2.6858202E-03
         392 -2.2022447E-03
         393  2.1054184E-03
         394 -1.1350174E-02
         395 -3.3909522E-04
         396 -5.1442668E-04
         397 -7.0633423E-03
         398 -2.8749395E-04
         399  3.0717501E-02
         400  5.7644155E-03
         401 -5.0594551E-03
         402  4.7333110E-03
         403  2.6267989E-02
         404  2.6393864E-02
         405 -1.3294728E-02
         406  1.4448737E-03
         407 -1.2769435E-02
         408  1.5870139E-02
         409  2.1472983E-02
         410  6.4813136E-03
         411 -1.9909018E-03
         412 -1.3029341E-03
         413  1.1832564E-02
         414 -2.7715398E-02
         415  4.3366579E-03
         416  1.0717269E-03
         417 -2.3390417E-04
         418 -2.2166378E-03
         419  9.1518117E-03
         420  4.5890210E-04
         421  1.7676512E-03
         422 -6.1026023E-04
         423 -2.6645521E-03
         424  1.2520545E-02
         425  5.6218174E-03
         426 -1.2685220E-03
         427  2.3851136E-04
         428  1.7838356E-03
         429 -1.7938854E-02
         430 -5.8102431E-03
         431  8.6960511E-04
         432 -3.4084680E-04
         433  1.4470320E-03
         434 -1.8228250E-02
         435  1.2035829E-04
         436 -2.6605970E-03
         437  1.9523543E-03
         438 -2.7762604E-04
         439  1.3077192E-02
         440 -4.1342005E-03
         441 -1.8624580E-03
         442  9.5608761E-04
         443 -8.7963941E-04
         444  9.4186543E-03
         445 -6.7490167E-03
         446  1.1515334E-03
         447 -8.9092925E-03
         448  7.8459270E-03
         449 -2.5887093E-02
         450  1.4798995E-02
         451 -4.4520693E-03
         452 -6.5063816E-03
         453  1.6437253E-02
         454  2.4143862E-02
         455 -6.0312967E-03
         456  1.7981480E-03
         457 -6.2476927E-03
         458  1.1041712E-02
         459  2.3729043E-02
         460  1.5551024E-03
         461  8.9211017E-04
         462  3.5111546E-03
         463 -1.3483323E-03
         464  4.1004483E-02
         465  1.6776072E-04
         466  6.4429034E-05
         467 -3.5038986E-04
         468 -1.4917324E-03
         469  5.2910005E-03
         470 -1.2633716E-03
         471  1.1035068E-03
         472 -9.9860772E-04
         473 -8.4549244E-03
         474 -4.8635779E-03
         475 -9.3113695E-04
         476 -5.1156036E-04
         477  8.1220269E-04
         478  1.9776470E-03
         479  1.4435356E-03
         480  3.1707814E-04
         481 -6.5298157E-04
         482  3.2040663E-04
         483  1.8006600E-03
         484  2.5933136E-03
         485 -1.3496428E-03
         486  3.5234942E-04
         487 -1.4789205E-03
         488 -2.6288261E-03
         489 -4.0017324E-03
         490  1.5620785E-03
         491  1.8277506E-05
         492 -1.9636285E-03
         493 -2.6307565E-03
         494 -3.9650905E-03
         495 -3.9639526E-06
         496  1.1099130E-03
         497  1.6243209E-03
         498  1.0555098E-03
         499  2.0119888E-03
         500  1.0227337E-03
         501  8.3227805E-04
         502  9.9839910E-04
         503  1.4496763E-03
         504  1.9358833E-03
         505  2.0865705E-03
         506  6.6312659E-04
         507 -2.3929221E-03
         508 -5.9820632E-03
         509 -4.0767859E-03
         510 -2.3238282E-04
         511 -5.6170038E-04
         512  3.1915333E-04
         513 -1.0903549E-03
         514  1.5332819E-02
         515 -3.4128389E-04
         516  1.1643610E-03
         517  5.1332316E-03
         518 -2.0888499E-03
         519 -5.1693590E-03
         520  1.6613767E-03
         521  1.6382104E-03
         522  5.2435277E-03
         523 -2.8051564E-04
         524  2.9497556E-02
