 [Molden Format]
 [Atoms] Angs
C       1      6      7.58087360      1.67178636      0.45262078
O       2      8      7.08632655      0.52942115     -0.21191561
C       3      6      5.74144659      0.30827049     -0.21224533
C       4      6      5.33212454     -0.85579975     -0.90516304
C       5      6      4.01483110     -1.19281083     -0.98017318
C       6      6      3.02397585     -0.39191041     -0.36798985
C       7      6      1.65713975     -0.71847010     -0.42946876
C       8      6      0.70915095      0.07077981      0.18530308
C       9      6     -0.71397140     -0.21599099      0.13679709
N      10      7     -1.63583962      0.72468823      0.05429579
C      11      6     -2.84660536      0.12695581      0.00897250
C      12      6     -4.06514944      0.91295370     -0.08945958
C      13      6     -4.01676437      2.16830310     -0.69816456
C      14      6     -5.15467722      2.94383619     -0.80202126
C      15      6     -6.36111425      2.48305126     -0.29808901
C      16      6     -6.41607492      1.24666520      0.32426350
C      17      6     -5.27892803      0.46756073      0.43334069
C      18      6     -2.67275904     -1.26074107      0.06106677
C      19      6     -3.51075253     -2.38778639     -0.01432345
C      20      6     -2.97298042     -3.63587809      0.08805856
C      21      6     -1.57869161     -3.78801547      0.29734726
C      22      6     -0.76637133     -2.70390373      0.32608625
N      23      7     -1.29102571     -1.45631040      0.15642586
C      24      6      1.12234394      1.24823060      0.85106630
C      25      6      2.44091560      1.58863439      0.91788352
C      26      6      3.43256946      0.77746583      0.32334601
C      27      6      4.80117911      1.10838606      0.38947919
H      28      1      7.34033782      1.64637850      1.51978697
H      29      1      8.66146080      1.64067512      0.32320051
H      30      1      7.18652888      2.59132423      0.00957704
H      31      1      6.09850666     -1.45913914     -1.36703087
H      32      1      3.71145547     -2.08354995     -1.51139324
H      33      1      1.36845390     -1.58526966     -1.00689715
H      34      1     -3.07076974      2.51710906     -1.08412454
H      35      1     -5.10315985      3.91233180     -1.27908109
H      36      1     -7.25226076      3.08821025     -0.38174674
H      37      1     -7.35038706      0.88992921      0.73454577
H      38      1     -5.32686626     -0.47761794      0.95299419
H      39      1     -4.56776030     -2.24022766     -0.16412127
H      40      1     -3.59747231     -4.51277487      0.02743646
H      41      1     -1.15988050     -4.77199432      0.43112259
H      42      1      0.29589037     -2.76576515      0.49886570
H      43      1      0.36095359      1.86771744      1.29973416
H      44      1      2.74479075      2.48990848      1.43111382
H      45      1      5.07896344      2.00428563      0.92254658
 [GTO]
           1   0
s              4   1.000000
     36.90899969     -0.01198412
      6.35603515     -0.05472052
      0.51073455      0.58055871
      0.19465358      0.47700799
p              4   1.000000
      5.94884953      0.05713170
      1.54244785      0.28574555
      0.54376060      0.55178731
      0.21648046      0.26323149
s              7   1.000000
      0.38350848     -0.19451083
      0.04707223      0.93980482
      0.02222627      0.24680702
     36.90899969      0.00523292
      6.35603515      0.02389398
      0.51073455     -0.25350378
      0.19465358     -0.20828786
p              7   1.000000
      1.83062075     -0.01151593
      0.10124670      0.56591056
      0.03901771      0.59100953
      5.94884953     -0.02396555
      1.54244785     -0.11986427
      0.54376060     -0.23146322
      0.21648046     -0.11042010
 
           2   0
s              4   1.000000
     77.83215208     -0.01198412
     13.40334062     -0.05472052
      1.07701561      0.58055871
      0.41047731      0.47700799
p              4   1.000000
      8.02626782      0.05713170
      2.08109140      0.28574555
      0.73364912      0.55178731
      0.29207836      0.26323149
s              7   1.000000
      0.57971233     -0.18691076
      0.07115450      0.90308410
      0.03359728      0.23716360
     77.83215208      0.00377909
     13.40334062      0.01725563
      1.07701561     -0.18307404
      0.41047731     -0.15042024
p              7   1.000000
      2.76717072     -0.01172378
      0.15304476      0.57612455
      0.05897927      0.60167651
      8.02626782     -0.02672366
      2.08109140     -0.13365902
      0.73364912     -0.25810149
      0.29207836     -0.12312795
 
           3   0
s              4   1.000000
     35.05515522     -0.01198412
      6.03678780     -0.05472052
      0.48508166      0.58055871
      0.18487663      0.47700800
p              4   1.000000
      5.65005407      0.05713170
      1.46497465      0.28574555
      0.51644890      0.55178731
      0.20560720      0.26323149
s              7   1.000000
      0.38350848     -0.19611909
      0.04707223      0.94757535
      0.02222627      0.24884768
     35.05515522      0.00549754
      6.03678780      0.02510225
      0.48508166     -0.26632292
      0.18487663     -0.21882052
p              7   1.000000
      1.83062075     -0.01160532
      0.10124670      0.57030336
      0.03901771      0.59559716
      5.65005407     -0.02518271
      1.46497465     -0.12595189
      0.51644890     -0.24321868
      0.20560720     -0.11602807
 
           4   0
s              4   1.000000
     34.96102250     -0.01198412
      6.02057736     -0.05472052
      0.48377908      0.58055871
      0.18438018      0.47700799
p              4   1.000000
      5.63488212      0.05713170
      1.46104079      0.28574555
      0.51506209      0.55178731
      0.20505509      0.26323149
s              7   1.000000
      0.38350848     -0.19620685
      0.04707223      0.94799939
      0.02222627      0.24895902
     34.96102250      0.00551168
      6.02057736      0.02516680
      0.48377908     -0.26700772
      0.18438018     -0.21938318
p              7   1.000000
      1.83062075     -0.01161020
      0.10124670      0.57054310
      0.03901771      0.59584754
      5.63488212     -0.02524771
      1.46104079     -0.12627701
      0.51506209     -0.24384649
      0.20505509     -0.11632757
 
           5   0
s              4   1.000000
     34.98002192     -0.01198412
      6.02384922     -0.05472052
      0.48404199      0.58055871
      0.18448038      0.47700799
p              4   1.000000
      5.63794437      0.05713170
      1.46183479      0.28574555
      0.51534200      0.55178731
      0.20516653      0.26323149
s              7   1.000000
      0.38350848     -0.19618909
      0.04707223      0.94791356
      0.02222627      0.24893650
     34.98002192      0.00550882
      6.02384922      0.02515374
      0.48404199     -0.26686922
      0.18448038     -0.21926939
p              7   1.000000
      1.83062075     -0.01160921
      0.10124670      0.57049458
      0.03901771      0.59579685
      5.63794437     -0.02523456
      1.46183479     -0.12621126
      0.51534200     -0.24371952
      0.20516653     -0.11626700
 
           6   0
s              4   1.000000
     35.15119958     -0.01198412
      6.05332743     -0.05472052
      0.48641069      0.58055871
      0.18538315      0.47700800
p              4   1.000000
      5.66553412      0.05713170
      1.46898840      0.28574555
      0.51786387      0.55178731
      0.20617053      0.26323149
s              7   1.000000
      0.38350848     -0.19603018
      0.04707223      0.94714580
      0.02222627      0.24873487
     35.15119958      0.00548319
      6.05332743      0.02503673
      0.48641069     -0.26562775
      0.18538315     -0.21824935
p              7   1.000000
      1.83062075     -0.01160038
      0.10124670      0.57006051
      0.03901771      0.59534354
      5.66553412     -0.02511672
      1.46898840     -0.12562185
      0.51786387     -0.24258135
      0.20617053     -0.11572403
 
           7   0
s              4   1.000000
     35.07260530     -0.01198412
      6.03979285     -0.05472052
      0.48532313      0.58055871
      0.18496866      0.47700799
p              4   1.000000
      5.65286660      0.05713170
      1.46570390      0.28574555
      0.51670598      0.55178731
      0.20570955      0.26323149
s              7   1.000000
      0.38350848     -0.19610289
      0.04707223      0.94749707
      0.02222627      0.24882711
     35.07260530      0.00549493
      6.03979285      0.02509032
      0.48532313     -0.26619635
      0.18496866     -0.21871653
p              7   1.000000
      1.83062075     -0.01160442
      0.10124670      0.57025911
      0.03901771      0.59555092
      5.65286660     -0.02517069
      1.46570390     -0.12589180
      0.51670598     -0.24310265
      0.20570955     -0.11597272
 
           8   0
s              4   1.000000
     35.04508564     -0.01198412
      6.03505373     -0.05472053
      0.48494232      0.58055871
      0.18482352      0.47700799
p              4   1.000000
      5.64843109      0.05713170
      1.46455384      0.28574555
      0.51630055      0.55178731
      0.20554814      0.26323149
s              7   1.000000
      0.38350848     -0.19612845
      0.04707223      0.94762057
      0.02222627      0.24885955
     35.04508564      0.00549905
      6.03505373      0.02510914
      0.48494232     -0.26639601
      0.18482352     -0.21888057
p              7   1.000000
      1.83062075     -0.01160584
      0.10124670      0.57032892
      0.03901771      0.59562386
      5.64843109     -0.02518964
      1.46455384     -0.12598659
      0.51630055     -0.24328569
      0.20554814     -0.11606004
 
           9   0
s              4   1.000000
     35.76138016     -0.01198412
      6.15840558     -0.05472053
      0.49485417      0.58055871
      0.18860117      0.47700799
p              4   1.000000
      5.76388067      0.05713170
      1.49448819      0.28574555
      0.52685333      0.55178731
      0.20974939      0.26323149
s              7   1.000000
      0.38350848     -0.19548017
      0.04707223      0.94448834
      0.02222627      0.24803697
     35.76138016      0.00539371
      6.15840558      0.02462815
      0.49485417     -0.26129297
      0.18860117     -0.21468774
p              7   1.000000
      1.83062075     -0.01156981
      0.10124670      0.56855812
      0.03901771      0.59377449
      5.76388067     -0.02470520
      1.49448819     -0.12356362
      0.52685333     -0.23860682
      0.20974939     -0.11382797
 
          10   0
s              4   1.000000
     57.61012970     -0.01198412
      9.92094104     -0.05472052
      0.79718994      0.58055871
      0.30382882      0.47700799
p              4   1.000000
      6.79061983      0.05713170
      1.76070632      0.28574555
      0.62070346      0.55178731
      0.24711274      0.26323149
s              7   1.000000
      0.47894987     -0.18895740
      0.05878681      0.91297271
      0.02775758      0.23976049
     57.61012970      0.00421407
      9.92094104      0.01924181
      0.79718994     -0.20414642
      0.30382882     -0.16773406
p              7   1.000000
      2.28619608     -0.01167702
      0.12644335      0.57382687
      0.04872781      0.59927691
      6.79061983     -0.02612443
      1.76070632     -0.13066196
      0.62070346     -0.25231404
      0.24711274     -0.12036703
 
          11   0
s              4   1.000000
     35.61450534     -0.01198412
      6.13311252     -0.05472052
      0.49282176      0.58055871
      0.18782657      0.47700799
p              4   1.000000
      5.74020795      0.05713170
      1.48835021      0.28574555
      0.52468951      0.55178730
      0.20888793      0.26323149
s              7   1.000000
      0.38350848     -0.19561027
      0.04707223      0.94511694
      0.02222627      0.24820206
     35.61450534      0.00541499
      6.13311252      0.02472530
      0.49282176     -0.26232368
      0.18782657     -0.21553460
p              7   1.000000
      1.83062075     -0.01157704
      0.10124670      0.56891349
      0.03901771      0.59414564
      5.74020795     -0.02480305
      1.48835021     -0.12405305
      0.52468951     -0.23955193
      0.20888793     -0.11427884
 
          12   0
s              4   1.000000
     35.05351668     -0.01198412
      6.03650563     -0.05472053
      0.48505898      0.58055871
      0.18486799      0.47700800
p              4   1.000000
      5.64978997      0.05713170
      1.46490618      0.28574555
      0.51642476      0.55178731
      0.20559759      0.26323149
s              7   1.000000
      0.38350848     -0.19612061
      0.04707223      0.94758271
      0.02222627      0.24884960
     35.05351668      0.00549779
      6.03650563      0.02510337
      0.48505898     -0.26633481
      0.18486799     -0.21883029
p              7   1.000000
      1.83062075     -0.01160541
      0.10124670      0.57030752
      0.03901771      0.59560149
      5.64978997     -0.02518383
      1.46490618     -0.12595754
      0.51642476     -0.24322959
      0.20559759     -0.11603327
 
          13   0
s              4   1.000000
     35.02850822     -0.01198412
      6.03219896     -0.05472053
      0.48471293      0.58055871
      0.18473609      0.47700799
p              4   1.000000
      5.64575921      0.05713170
      1.46386106      0.28574555
      0.51605632      0.55178731
      0.20545091      0.26323149
s              7   1.000000
      0.38350848     -0.19614387
      0.04707223      0.94769508
      0.02222627      0.24887912
     35.02850822      0.00550153
      6.03219896      0.02512049
      0.48471293     -0.26651642
      0.18473609     -0.21897951
p              7   1.000000
      1.83062075     -0.01160670
      0.10124670      0.57037105
      0.03901771      0.59566783
      5.64575921     -0.02520107
      1.46386106     -0.12604376
      0.51605632     -0.24339608
      0.20545091     -0.11611270
 
          14   0
s              4   1.000000
     34.91465668     -0.01198412
      6.01259279     -0.05472053
      0.48313748      0.58055871
      0.18413565      0.47700800
p              4   1.000000
      5.62740906      0.05713170
      1.45910314      0.28574555
      0.51437901      0.55178730
      0.20478315      0.26323149
s              7   1.000000
      0.38350848     -0.19625031
      0.04707223      0.94820938
      0.02222627      0.24901418
     34.91465668      0.00551867
      6.01259279      0.02519871
      0.48313748     -0.26734630
      0.18413565     -0.21966137
p              7   1.000000
      1.83062075     -0.01161262
      0.10124670      0.57066183
      0.03901771      0.59597150
      5.62740906     -0.02527985
      1.45910314     -0.12643775
      0.51437901     -0.24415689
      0.20478315     -0.11647564
 
          15   0
s              4   1.000000
     34.91707091     -0.01198412
      6.01300854     -0.05472053
      0.48317089      0.58055871
      0.18414839      0.47700799
p              4   1.000000
      5.62779817      0.05713170
      1.45920403      0.28574555
      0.51441457      0.55178731
      0.20479731      0.26323149
s              7   1.000000
      0.38350848     -0.19624804
      0.04707223      0.94819844
      0.02222627      0.24901131
     34.91707091      0.00551830
      6.01300854      0.02519704
      0.48317089     -0.26732865
      0.18414839     -0.21964687
p              7   1.000000
      1.83062075     -0.01161249
      0.10124670      0.57065563
      0.03901771      0.59596506
      5.62779817     -0.02527817
      1.45920403     -0.12642937
      0.51441457     -0.24414071
      0.20479731     -0.11646792
 
          16   0
s              4   1.000000
     34.91717084     -0.01198412
      6.01302575     -0.05472052
      0.48317227      0.58055871
      0.18414891      0.47700799
p              4   1.000000
      5.62781428      0.05713170
      1.45920821      0.28574555
      0.51441605      0.55178730
      0.20479789      0.26323149
s              7   1.000000
      0.38350848     -0.19624795
      0.04707223      0.94819798
      0.02222627      0.24901118
     34.91717084      0.00551829
      6.01302575      0.02519698
      0.48317227     -0.26732792
      0.18414891     -0.21964626
p              7   1.000000
      1.83062075     -0.01161249
      0.10124670      0.57065538
      0.03901771      0.59596478
      5.62781428     -0.02527810
      1.45920821     -0.12642902
      0.51441605     -0.24414004
      0.20479789     -0.11646760
 
          17   0
s              4   1.000000
     35.00669003     -0.01198412
      6.02844169     -0.05472053
      0.48441101      0.58055871
      0.18462103      0.47700799
p              4   1.000000
      5.64224263      0.05713170
      1.46294926      0.28574555
      0.51573489      0.55178731
      0.20532295      0.26323149
s              7   1.000000
      0.38350848     -0.19616419
      0.04707223      0.94779330
      0.02222627      0.24890491
     35.00669003      0.00550481
      6.02844169      0.02513544
      0.48441101     -0.26667506
      0.18462103     -0.21910986
p              7   1.000000
      1.83062075     -0.01160783
      0.10124670      0.57042658
      0.03901771      0.59572585
      5.64224263     -0.02521613
      1.46294926     -0.12611908
      0.51573489     -0.24354152
      0.20532295     -0.11618208
 
          18   0
s              4   1.000000
     35.58916499     -0.01198412
      6.12874870     -0.05472052
      0.49247111      0.58055871
      0.18769293      0.47700799
p              4   1.000000
      5.73612369      0.05713170
      1.48729122      0.28574555
      0.52431618      0.55178731
      0.20873931      0.26323149
s              7   1.000000
      0.38350848     -0.19563286
      0.04707223      0.94522608
      0.02222627      0.24823073
     35.58916499      0.00541867
      6.12874870      0.02474214
      0.49247111     -0.26250231
      0.18769293     -0.21568138
p              7   1.000000
      1.83062075     -0.01157830
      0.10124670      0.56897519
      0.03901771      0.59421008
      5.73612369     -0.02482001
      1.48729122     -0.12413787
      0.52431618     -0.23971572
      0.20873931     -0.11435698
 
          19   0
s              4   1.000000
     34.92077699     -0.01198412
      6.01364675     -0.05472053
      0.48322218      0.58055871
      0.18416793      0.47700799
p              4   1.000000
      5.62839550      0.05713170
      1.45935891      0.28574555
      0.51446918      0.55178731
      0.20481904      0.26323149
s              7   1.000000
      0.38350848     -0.19624457
      0.04707223      0.94818162
      0.02222627      0.24900689
     34.92077699      0.00551774
      6.01364675      0.02519449
      0.48322218     -0.26730156
      0.18416793     -0.21962461
p              7   1.000000
      1.83062075     -0.01161230
      0.10124670      0.57064613
      0.03901771      0.59595511
      5.62839550     -0.02527560
      1.45935891     -0.12641651
      0.51446918     -0.24411587
      0.20481904     -0.11645607
 
          20   0
s              4   1.000000
     34.91422961     -0.01198412
      6.01251924     -0.05472052
      0.48313158      0.58055871
      0.18413340      0.47700799
p              4   1.000000
      5.62734022      0.05713170
      1.45908529      0.28574555
      0.51437272      0.55178731
      0.20478064      0.26323149
s              7   1.000000
      0.38350848     -0.19625071
      0.04707223      0.94821132
      0.02222627      0.24901469
     34.91422961      0.00551873
      6.01251924      0.02519900
      0.48313158     -0.26734942
      0.18413340     -0.21966393
p              7   1.000000
      1.83062075     -0.01161264
      0.10124670      0.57066292
      0.03901771      0.59597267
      5.62734022     -0.02528014
      1.45908529     -0.12643923
      0.51437272     -0.24415975
      0.20478064     -0.11647701
 
          21   0
s              4   1.000000
     34.90430545     -0.01198412
      6.01081022     -0.05472053
      0.48299425      0.58055871
      0.18408106      0.47700799
p              4   1.000000
      5.62574069      0.05713170
      1.45867055      0.28574555
      0.51422651      0.55178731
      0.20472243      0.26323149
s              7   1.000000
      0.38350848     -0.19626004
      0.04707223      0.94825636
      0.02222627      0.24902652
     34.90430545      0.00552023
      6.01081022      0.02520584
      0.48299425     -0.26742200
      0.18408106     -0.21972357
p              7   1.000000
      1.83062075     -0.01161316
      0.10124670      0.57068840
      0.03901771      0.59599925
      5.62574069     -0.02528703
      1.45867055     -0.12647369
      0.51422651     -0.24422629
      0.20472243     -0.11650875
 
          22   0
s              4   1.000000
     35.00429485     -0.01198412
      6.02802922     -0.05472052
      0.48437787      0.58055871
      0.18460840      0.47700799
p              4   1.000000
      5.64185659      0.05713170
      1.46284917      0.28574555
      0.51569960      0.55178731
      0.20530890      0.26323149
s              7   1.000000
      0.38350848     -0.19616643
      0.04707223      0.94780409
      0.02222627      0.24890774
     35.00429485      0.00550517
      6.02802922      0.02513708
      0.48437787     -0.26669249
      0.18460840     -0.21912418
p              7   1.000000
      1.83062075     -0.01160795
      0.10124670      0.57043268
      0.03901771      0.59573220
      5.64185659     -0.02521779
      1.46284917     -0.12612735
      0.51569960     -0.24355750
      0.20530890     -0.11618970
 
          23   0
s              4   1.000000
     61.57017201     -0.01198412
     10.60289309     -0.05472053
      0.85198770      0.58055871
      0.32471360      0.47700799
p              4   1.000000
      7.25739784      0.05713170
      1.88173489      0.28574555
      0.66336978      0.55178731
      0.26409894      0.26323149
s              7   1.000000
      0.47894987     -0.18767292
      0.05878681      0.90676658
      0.02775758      0.23813068
     61.57017201      0.00394612
     10.60289309      0.01801832
      0.85198770     -0.19116574
      0.32471360     -0.15706868
p              7   1.000000
      2.28619608     -0.01155559
      0.12644335      0.56785934
      0.04872781      0.59304473
      7.25739784     -0.02451181
      1.88173489     -0.12259641
      0.66336978     -0.23673909
      0.26409894     -0.11293697
 
          24   0
s              4   1.000000
     35.01209271     -0.01198412
      6.02937208     -0.05472053
      0.48448577      0.58055871
      0.18464952      0.47700799
p              4   1.000000
      5.64311342      0.05713170
      1.46317504      0.28574555
      0.51581448      0.55178731
      0.20535463      0.26323149
s              7   1.000000
      0.38350848     -0.19615916
      0.04707223      0.94776896
      0.02222627      0.24889852
     35.01209271      0.00550400
      6.02937208      0.02513174
      0.48448577     -0.26663576
      0.18464952     -0.21907757
p              7   1.000000
      1.83062075     -0.01160755
      0.10124670      0.57041282
      0.03901771      0.59571145
      5.64311342     -0.02521240
      1.46317504     -0.12610042
      0.51581448     -0.24350549
      0.20535463     -0.11616489
 
          25   0
s              4   1.000000
     34.98069601     -0.01198412
      6.02396530     -0.05472052
      0.48405132      0.58055871
      0.18448394      0.47700799
p              4   1.000000
      5.63805302      0.05713170
      1.46186296      0.28574555
      0.51535193      0.55178731
      0.20517048      0.26323149
s              7   1.000000
      0.38350848     -0.19618846
      0.04707223      0.94791052
      0.02222627      0.24893569
     34.98069601      0.00550872
      6.02396530      0.02515328
      0.48405132     -0.26686431
      0.18448394     -0.21926535
p              7   1.000000
      1.83062075     -0.01160918
      0.10124670      0.57049286
      0.03901771      0.59579507
      5.63805302     -0.02523410
      1.46186296     -0.12620893
      0.51535193     -0.24371502
      0.20517048     -0.11626485
 
          26   0
s              4   1.000000
     35.15748181     -0.01198412
      6.05440928     -0.05472053
      0.48649762      0.58055871
      0.18541628      0.47700800
p              4   1.000000
      5.66654667      0.05713170
      1.46925094      0.28574555
      0.51795642      0.55178731
      0.20620738      0.26323149
s              7   1.000000
      0.38350848     -0.19602439
      0.04707223      0.94711781
      0.02222627      0.24872751
     35.15748181      0.00548225
      6.05440928      0.02503245
      0.48649762     -0.26558240
      0.18541628     -0.21821209
p              7   1.000000
      1.83062075     -0.01160006
      0.10124670      0.57004469
      0.03901771      0.59532699
      5.66654667     -0.02511241
      1.46925094     -0.12560032
      0.51795642     -0.24253978
      0.20620738     -0.11570420
 
          27   0
s              4   1.000000
     35.02645222     -0.01198412
      6.03184490     -0.05472052
      0.48468448      0.58055871
      0.18472525      0.47700800
p              4   1.000000
      5.64542783      0.05713170
      1.46377514      0.28574555
      0.51602603      0.55178731
      0.20543886      0.26323149
s              7   1.000000
      0.38350848     -0.19614578
      0.04707223      0.94770433
      0.02222627      0.24888153
     35.02645222      0.00550184
      6.03184490      0.02512190
      0.48468448     -0.26653136
      0.18472525     -0.21899179
p              7   1.000000
      1.83062075     -0.01160681
      0.10124670      0.57037629
      0.03901771      0.59567330
      5.64542783     -0.02520249
      1.46377514     -0.12605086
      0.51602603     -0.24340978
      0.20543886     -0.11611924
 
          28   0
s              4   1.000000
      8.30421638      0.05675242
      1.51956929      0.26014135
      0.42215299      0.53284611
      0.14010878      0.29162544
s              7   1.000000
      0.92936822     -0.06733452
      0.05643440      0.66951596
      0.02166600      0.51466121
      8.30421638     -0.02903538
      1.51956929     -0.13309215
      0.42215299     -0.27261193
      0.14010878     -0.14919988
p              4   1.000000
      0.64737396      0.05713170
      0.16785440      0.28574555
      0.05917387      0.55178731
      0.02355814      0.26323150
 
          29   0
s              4   1.000000
      8.30468185      0.05675242
      1.51965446      0.26014135
      0.42217665      0.53284611
      0.14011663      0.29162544
s              7   1.000000
      0.92936822     -0.06733392
      0.05643440      0.66951000
      0.02166600      0.51465661
      8.30468185     -0.02903413
      1.51965446     -0.13308644
      0.42217665     -0.27260022
      0.14011663     -0.14919347
p              4   1.000000
      0.64737396      0.05713170
      0.16785440      0.28574555
      0.05917387      0.55178731
      0.02355814      0.26323150
 
          30   0
s              4   1.000000
      8.30421425      0.05675242
      1.51956890      0.26014135
      0.42215288      0.53284611
      0.14010875      0.29162544
s              7   1.000000
      0.92936822     -0.06733452
      0.05643440      0.66951599
      0.02166600      0.51466121
      8.30421425     -0.02903538
      1.51956890     -0.13309218
      0.42215288     -0.27261198
      0.14010875     -0.14919990
p              4   1.000000
      0.64737396      0.05713170
      0.16785440      0.28574555
      0.05917387      0.55178731
      0.02355814      0.26323150
 
          31   0
s              4   1.000000
      8.30911742      0.05675242
      1.52046612      0.26014135
      0.42240214      0.53284611
      0.14019147      0.29162544
s              7   1.000000
      0.92936822     -0.06732821
      0.05643440      0.66945323
      0.02166600      0.51461296
      8.30911742     -0.02902226
      1.52046612     -0.13303202
      0.42240214     -0.27248876
      0.14019147     -0.14913246
p              4   1.000000
      0.64737396      0.05713170
      0.16785440      0.28574555
      0.05917387      0.55178731
      0.02355814      0.26323150
 
          32   0
s              4   1.000000
      8.30919240      0.05675242
      1.52047984      0.26014135
      0.42240595      0.53284611
      0.14019274      0.29162544
s              7   1.000000
      0.92936822     -0.06732811
      0.05643440      0.66945226
      0.02166600      0.51461223
      8.30919240     -0.02902206
      1.52047984     -0.13303110
      0.42240595     -0.27248688
      0.14019274     -0.14913144
p              4   1.000000
      0.64737396      0.05713170
      0.16785440      0.28574555
      0.05917387      0.55178731
      0.02355814      0.26323150
 
          33   0
s              4   1.000000
      8.30977092      0.05675242
      1.52058570      0.26014135
      0.42243536      0.53284611
      0.14020250      0.29162544
s              7   1.000000
      0.92936822     -0.06732737
      0.05643440      0.66944486
      0.02166600      0.51460655
      8.30977092     -0.02902051
      1.52058570     -0.13302401
      0.42243536     -0.27247235
      0.14020250     -0.14912348
p              4   1.000000
      0.64737396      0.05713170
      0.16785440      0.28574555
      0.05917387      0.55178731
      0.02355814      0.26323150
 
          34   0
s              4   1.000000
      8.30959385      0.05675242
      1.52055330      0.26014135
      0.42242636      0.53284611
      0.14019951      0.29162544
s              7   1.000000
      0.92936822     -0.06732759
      0.05643440      0.66944713
      0.02166600      0.51460828
      8.30959385     -0.02902098
      1.52055330     -0.13302618
      0.42242636     -0.27247680
      0.14019951     -0.14912592
p              4   1.000000
      0.64737396      0.05713170
      0.16785440      0.28574555
      0.05917387      0.55178731
      0.02355814      0.26323150
 
          35   0
s              4   1.000000
      8.30880821      0.05675242
      1.52040953      0.26014135
      0.42238642      0.53284611
      0.14018626      0.29162544
s              7   1.000000
      0.92936822     -0.06732860
      0.05643440      0.66945718
      0.02166600      0.51461601
      8.30880821     -0.02902308
      1.52040953     -0.13303581
      0.42238642     -0.27249653
      0.14018626     -0.14913672
p              4   1.000000
      0.64737396      0.05713170
      0.16785440      0.28574555
      0.05917387      0.55178731
      0.02355814      0.26323150
 
          36   0
s              4   1.000000
      8.30869981      0.05675242
      1.52038970      0.26014135
      0.42238091      0.53284611
      0.14018443      0.29162544
s              7   1.000000
      0.92936822     -0.06732874
      0.05643440      0.66945856
      0.02166600      0.51461708
      8.30869981     -0.02902337
      1.52038970     -0.13303714
      0.42238091     -0.27249925
      0.14018443     -0.14913821
p              4   1.000000
      0.64737396      0.05713170
      0.16785440      0.28574555
      0.05917387      0.55178731
      0.02355814      0.26323150
 
          37   0
s              4   1.000000
      8.30881409      0.05675242
      1.52041061      0.26014135
      0.42238672      0.53284611
      0.14018635      0.29162544
s              7   1.000000
      0.92936822     -0.06732860
      0.05643440      0.66945710
      0.02166600      0.51461596
      8.30881409     -0.02902307
      1.52041061     -0.13303574
      0.42238672     -0.27249638
      0.14018635     -0.14913664
p              4   1.000000
      0.64737396      0.05713170
      0.16785440      0.28574555
      0.05917387      0.55178731
      0.02355814      0.26323150
 
          38   0
s              4   1.000000
      8.30952151      0.05675242
      1.52054006      0.26014135
      0.42242268      0.53284611
      0.14019829      0.29162544
s              7   1.000000
      0.92936822     -0.06732769
      0.05643440      0.66944805
      0.02166600      0.51460900
      8.30952151     -0.02902118
      1.52054006     -0.13302707
      0.42242268     -0.27247861
      0.14019829     -0.14912692
p              4   1.000000
      0.64737396      0.05713170
      0.16785440      0.28574555
      0.05917387      0.55178731
      0.02355814      0.26323150
 
          39   0
s              4   1.000000
      8.30942708      0.05675242
      1.52052278      0.26014135
      0.42241788      0.53284611
      0.14019670      0.29162544
s              7   1.000000
      0.92936822     -0.06732781
      0.05643440      0.66944926
      0.02166600      0.51460992
      8.30942708     -0.02902143
      1.52052278     -0.13302823
      0.42241788     -0.27248098
      0.14019670     -0.14912821
p              4   1.000000
      0.64737396      0.05713170
      0.16785440      0.28574555
      0.05917387      0.55178731
      0.02355814      0.26323150
 
          40   0
s              4   1.000000
      8.30884198      0.05675242
      1.52041571      0.26014135
      0.42238813      0.53284611
      0.14018682      0.29162544
s              7   1.000000
      0.92936822     -0.06732856
      0.05643440      0.66945674
      0.02166600      0.51461566
      8.30884198     -0.02902299
      1.52041571     -0.13303540
      0.42238813     -0.27249568
      0.14018682     -0.14913625
p              4   1.000000
      0.64737396      0.05713170
      0.16785440      0.28574555
      0.05917387      0.55178731
      0.02355814      0.26323150
 
          41   0
s              4   1.000000
      8.30910838      0.05675242
      1.52046446      0.26014135
      0.42240168      0.53284611
      0.14019132      0.29162544
s              7   1.000000
      0.92936822     -0.06732822
      0.05643440      0.66945333
      0.02166600      0.51461305
      8.30910838     -0.02902228
      1.52046446     -0.13303213
      0.42240168     -0.27248899
      0.14019132     -0.14913259
p              4   1.000000
      0.64737396      0.05713170
      0.16785440      0.28574555
      0.05917387      0.55178731
      0.02355814      0.26323150
 
          42   0
s              4   1.000000
      8.30943874      0.05675242
      1.52052491      0.26014135
      0.42241847      0.53284611
      0.14019689      0.29162544
s              7   1.000000
      0.92936822     -0.06732779
      0.05643440      0.66944911
      0.02166600      0.51460980
      8.30943874     -0.02902140
      1.52052491     -0.13302808
      0.42241847     -0.27248069
      0.14019689     -0.14912805
p              4   1.000000
      0.64737396      0.05713170
      0.16785440      0.28574555
      0.05917387      0.55178731
      0.02355814      0.26323150
 
          43   0
s              4   1.000000
      8.30964243      0.05675242
      1.52056219      0.26014135
      0.42242883      0.53284611
      0.14020033      0.29162544
s              7   1.000000
      0.92936822     -0.06732753
      0.05643440      0.66944650
      0.02166600      0.51460781
      8.30964243     -0.02902085
      1.52056219     -0.13302558
      0.42242883     -0.27247558
      0.14020033     -0.14912525
p              4   1.000000
      0.64737396      0.05713170
      0.16785440      0.28574555
      0.05917387      0.55178731
      0.02355814      0.26323150
 
          44   0
s              4   1.000000
      8.30918349      0.05675242
      1.52047821      0.26014135
      0.42240550      0.53284611
      0.14019259      0.29162544
s              7   1.000000
      0.92936822     -0.06732812
      0.05643440      0.66945238
      0.02166600      0.51461231
      8.30918349     -0.02902208
      1.52047821     -0.13303121
      0.42240550     -0.27248710
      0.14019259     -0.14913156
p              4   1.000000
      0.64737396      0.05713170
      0.16785440      0.28574555
      0.05917387      0.55178731
      0.02355814      0.26323150
 
          45   0
s              4   1.000000
      8.30974365      0.05675242
      1.52058071      0.26014135
      0.42243397      0.53284611
      0.14020204      0.29162544
s              7   1.000000
      0.92936822     -0.06732740
      0.05643440      0.66944522
      0.02166600      0.51460682
      8.30974365     -0.02902058
      1.52058071     -0.13302434
      0.42243397     -0.27247304
      0.14020204     -0.14912386
p              4   1.000000
      0.64737396      0.05713170
      0.16785440      0.28574555
      0.05917387      0.55178731
      0.02355814      0.26323150
 
 [MO]
 Sym= Hole
 Ene= -0.7000183    
 Spin= Alpha
 Occup= 0
           1 -7.2289811E-05
           2 -2.8066375E-04
           3  1.3505224E-04
           4 -1.0166901E-04
           5 -3.3107735E-06
           6  4.0371643E-04
           7 -3.3354496E-03
           8  5.0825728E-03
           9 -4.1214262E-05
          10  7.9726204E-03
          11 -4.6488244E-02
          12  7.4301951E-02
          13  1.1441355E-04
          14 -1.2411998E-03
          15  7.3734010E-03
          16 -1.1438702E-02
          17  2.5834487E-04
          18 -1.2055119E-02
          19  7.2814584E-02
          20 -0.1132542    
          21  8.3628678E-05
          22  1.7410953E-03
          23 -8.2066944E-03
          24  1.2604973E-02
          25 -1.9507640E-03
          26  2.3376781E-03
          27  2.5200385E-03
          28 -3.0142113E-03
          29  6.9026178E-04
          30  3.9324755E-04
          31 -2.5146573E-03
          32  3.2813568E-03
          33  5.1076412E-03
          34  4.9460875E-03
          35 -6.3107476E-02
          36  0.1093274    
          37 -1.6390877E-03
          38 -1.2886664E-03
          39  3.3190099E-03
          40 -5.4890132E-03
          41 -5.0506699E-03
          42  1.1814556E-02
          43 -2.4671437E-02
          44  3.4544323E-02
          45  1.4851015E-03
          46 -2.9587885E-03
          47  3.1332127E-03
          48 -4.6782871E-03
          49  1.8048715E-02
          50 -4.6642303E-02
          51  0.1458414    
          52 -0.1675279    
          53 -1.1124113E-02
          54  6.3901995E-03
          55 -9.2305671E-03
          56  7.9857232E-03
          57  1.5945559E-03
          58 -8.9034578E-03
          59  2.9929936E-02
          60 -9.1752663E-02
          61 -1.5354165E-03
          62  7.6983223E-04
          63 -3.8258724E-03
          64  1.5765386E-02
          65  2.8827942E-03
          66 -1.4328166E-02
          67  2.2311917E-02
          68  0.4309442    
          69 -2.1233147E-03
          70  8.9275296E-04
          71 -2.5601918E-03
          72 -2.7442474E-02
          73 -9.3021896E-03
          74 -6.2381579E-03
          75  2.2864051E-03
          76  2.4821581E-02
          77  4.2708004E-03
          78 -6.1311002E-04
          79 -5.9161172E-03
          80  5.2660890E-03
          81  4.6366747E-04
          82  2.8304616E-02
          83 -9.3646031E-03
          84 -0.4604178    
          85 -6.8242283E-04
          86 -2.7172237E-03
          87 -2.4482172E-03
          88  2.4202405E-02
          89  1.2061343E-03
          90  3.1446307E-03
          91  6.0844989E-03
          92  5.0147679E-02
          93 -1.0074034E-03
          94 -7.2292716E-04
          95 -2.3417484E-03
          96 -1.2353133E-02
          97 -2.1422239E-02
          98  2.9320616E-02
          99  9.8921239E-02
         100  0.1291373    
         101  1.1623643E-02
         102 -1.7788596E-03
         103 -8.6554373E-03
         104 -4.8786933E-03
         105  7.1267700E-03
         106  4.5609525E-03
         107 -1.1688526E-02
         108 -6.3722371E-03
         109 -2.5366575E-03
         110 -9.6978137E-04
         111  2.7751352E-03
         112  2.9867801E-03
         113 -8.3642808E-05
         114 -2.9416710E-02
         115 -6.2739670E-02
         116 -0.1410336    
         117 -2.2031216E-05
         118  1.3679300E-03
         119  3.2831398E-03
         120  1.0012122E-02
         121 -6.2154992E-03
         122 -1.0793434E-02
         123 -3.0737647E-03
         124 -8.6746411E-03
         125  2.2480143E-03
         126  3.0038927E-03
         127  8.5956085E-04
         128  3.3209482E-03
         129  1.8430516E-02
         130  6.6010393E-02
         131  8.1252888E-02
         132  0.1318537    
         133 -1.0890525E-02
         134 -6.2727854E-03
         135 -4.8722709E-03
         136 -7.1906615E-03
         137 -5.9658568E-04
         138  3.0270908E-02
         139 -4.8328922E-03
         140 -0.2657781    
         141 -2.6013288E-03
         142 -4.1257357E-03
         143 -1.3195823E-03
         144  2.1893173E-02
         145  3.8146973E-03
         146 -3.1065529E-02
         147  4.5135426E-03
         148  0.2164710    
         149 -3.1365347E-03
         150  3.8290021E-04
         151  1.2394253E-04
         152 -1.4439092E-02
         153  3.6483794E-04
         154 -3.7021521E-02
         155  7.6124677E-03
         156  0.2739585    
         157 -5.6860253E-04
         158  1.2481504E-03
         159  3.1213975E-04
         160 -1.5336075E-02
         161 -3.9891177E-04
         162  2.4567617E-02
         163 -1.4801723E-02
         164 -0.1876163    
         165 -3.9394989E-04
         166 -2.8595957E-04
         167  1.6692098E-03
         168  1.1292850E-02
         169  6.7517469E-03
         170  4.8190255E-02
         171 -2.4724090E-02
         172 -0.2706980    
         173 -5.7966011E-03
         174 -3.5053196E-03
         175  2.3368045E-03
         176  2.6885469E-02
         177 -1.3063125E-04
         178 -2.1755481E-02
         179  1.5864609E-02
         180  0.1679751    
         181 -8.0945075E-04
         182  4.0973704E-03
         183 -5.0541214E-03
         184 -1.5526088E-02
         185 -2.5703553E-02
         186  1.2553437E-02
         187  6.8965532E-02
         188 -4.1851342E-02
         189  1.3985460E-02
         190 -2.0809541E-03
         191 -9.0949629E-03
         192  1.3281566E-03
         193  8.6226314E-03
         194 -3.9381129E-03
         195 -4.8039056E-02
         196  6.9864973E-02
         197 -3.3203757E-03
         198  2.5036847E-03
         199  3.2587429E-03
         200 -4.0063160E-03
         201 -4.2647656E-04
         202  8.4304223E-03
         203 -5.1109951E-02
         204  9.6514821E-02
         205 -5.1286758E-04
         206 -2.5301945E-04
         207  2.6957637E-03
         208 -9.6658235E-03
         209  5.4564083E-04
         210 -9.7808875E-03
         211  5.6394435E-02
         212 -9.1266543E-02
         213 -7.0626370E-04
         214  2.9954643E-04
         215 -3.0230545E-03
         216  6.4036045E-03
         217 -2.0577794E-02
         218  4.9852338E-03
         219  1.0887219E-03
         220 -5.2661216E-03
         221 -7.2726100E-03
         222 -4.0302260E-04
         223  5.7950499E-05
         224  2.5207168E-04
         225 -1.9450781E-03
         226  3.0818528E-03
         227  2.0682478E-02
         228 -4.9612755E-03
         229 -1.4637222E-03
         230  8.6698784E-03
         231  1.7165487E-03
         232  2.4160731E-03
         233 -4.9693428E-04
         234  2.7984288E-04
         235 -7.3424148E-05
         236 -5.6971214E-04
         237 -1.1311740E-03
         238  2.0170998E-04
         239  5.9122365E-04
         240 -2.2708331E-03
         241  6.4635249E-03
         242 -8.2475645E-03
         243  2.6984548E-04
         244  4.3196729E-03
         245  7.3392917E-03
         246 -8.4316153E-03
         247  5.5783144E-03
         248  1.3755825E-03
         249  7.3834141E-03
         250  3.5609175E-03
         251  5.2873534E-03
         252 -1.0237089E-02
         253  7.5404113E-04
         254 -1.0042912E-03
         255 -1.0932587E-03
         256 -1.6650859E-03
         257  2.4462293E-04
         258 -5.5493976E-05
         259 -2.9272141E-03
         260 -6.0018660E-03
         261 -1.3000711E-02
         262  1.1061674E-02
         263 -1.1290703E-03
         264 -9.7403658E-04
         265 -1.3214562E-03
         266 -1.9478865E-03
         267 -5.8373464E-03
         268 -1.2509557E-03
         269 -1.5224136E-03
         270  8.9862160E-03
         271  3.9933263E-03
         272 -3.1142265E-03
         273  4.2930292E-04
         274  9.1440917E-04
         275 -1.4037574E-03
         276  1.2346515E-02
         277 -2.9988564E-03
         278  1.5273817E-03
         279 -3.0270785E-03
         280  1.4865133E-03
         281  2.1004375E-02
         282 -6.3138544E-03
         283  2.3806728E-03
         284  2.5393085E-03
         285 -4.2364300E-05
         286 -1.7857915E-02
         287 -2.5723958E-03
         288 -1.3680403E-03
         289 -3.3333609E-03
         290 -4.0126448E-03
         291 -1.8021552E-02
         292  6.6166478E-03
         293  2.4206750E-03
         294 -7.0667369E-03
         295  3.1596632E-03
         296 -3.4701279E-03
         297 -1.1753800E-02
         298  1.1188481E-03
         299  1.8997059E-03
         300 -3.0307744E-03
         301  4.7076959E-03
         302 -2.4981978E-03
         303  1.9568022E-04
         304 -8.2288875E-04
         305  2.7849721E-03
         306 -5.7001468E-03
 Sym= Particle
 Ene= -0.7000183    
 Spin= Alpha
 Occup= 2
           1 -8.4226730E-04
           2  4.8219605E-04
           3 -3.4046250E-03
           4  4.3576397E-03
           5  1.2571630E-03
           6 -1.2779293E-04
           7  2.7729485E-03
           8 -3.0038727E-03
           9 -5.7328351E-05
          10  2.2956869E-03
          11 -1.2208328E-02
          12  1.9629840E-02
          13 -8.1204716E-06
          14 -2.5998932E-04
          15  3.2355492E-03
          16 -4.9533434E-03
          17  1.8536503E-04
          18 -4.6768910E-03
          19  2.8618358E-02
          20 -4.3189347E-02
          21  1.6051062E-04
          22  1.3706757E-03
          23 -5.1527456E-03
          24  7.7162120E-03
          25 -1.4464688E-03
          26  1.4949346E-02
          27 -8.2003765E-02
          28  0.1309463    
          29  9.4195985E-04
          30 -2.9240153E-03
          31  1.9686658E-02
          32 -3.0881785E-02
          33  3.5201914E-03
          34 -1.0232670E-02
          35  4.0558245E-02
          36 -5.6253340E-02
          37 -2.0204487E-03
          38  4.9886531E-03
          39 -1.0850531E-02
          40  1.5723770E-02
          41 -4.6572471E-03
          42 -2.8711341E-03
          43  5.2505556E-02
          44 -8.1600845E-02
          45  2.7931777E-03
          46  1.4735654E-03
          47 -9.7997328E-03
          48  1.9565735E-02
          49  1.0208342E-02
          50 -1.8965833E-02
          51  5.9173480E-02
          52 -4.7319558E-02
          53 -6.3749226E-03
          54  1.0491841E-02
          55 -2.0800829E-02
          56  1.2485794E-02
          57  3.4773373E-04
          58  1.7946504E-02
          59 -7.9465248E-02
          60  0.1385597    
          61  1.4205213E-04
          62 -3.0132122E-03
          63  2.7096696E-02
          64 -3.7492894E-02
          65  3.4875397E-03
          66 -1.4608709E-02
          67  6.3810549E-03
          68  0.3333921    
          69 -1.7695755E-03
          70  1.1267299E-02
          71 -1.2895373E-02
          72 -0.1466588    
          73  5.1565967E-03
          74  5.8475928E-03
          75 -2.8554482E-02
          76 -0.1560173    
          77 -7.4666366E-03
          78  1.8336507E-03
          79  1.0259346E-02
          80  4.7079381E-02
          81 -8.1708335E-04
          82  3.3270570E-03
          83 -6.5660044E-03
          84 -0.1278405    
          85  2.4373563E-04
          86 -9.5956959E-03
          87 -5.2658590E-03
          88  3.6103144E-02
          89  1.0168374E-03
          90 -2.9874977E-02
          91 -6.0488060E-02
          92 -0.1271805    
          93  1.4634461E-03
          94  3.0968671E-03
          95  1.9194381E-02
          96  3.0697163E-02
          97 -9.4283493E-03
          98  1.6551299E-02
          99  5.1154308E-02
         100  9.2811935E-02
         101  1.0297287E-02
         102 -1.9631488E-03
         103 -1.4063613E-02
         104 -3.2262061E-02
         105  2.0124984E-03
         106  1.5289321E-02
         107  1.8630987E-02
         108  4.7608655E-02
         109  1.6126548E-03
         110 -4.3173516E-03
         111  2.0508088E-04
         112 -7.6047792E-03
         113 -1.2662486E-03
         114 -2.6580034E-02
         115 -5.8281407E-02
         116 -0.1203517    
         117  3.5424707E-03
         118  5.4644831E-03
         119  1.3586795E-02
         120  2.7001189E-02
         121 -2.1142960E-03
         122  9.8870909E-03
         123  1.8440649E-02
         124  3.5782821E-02
         125  4.5645353E-03
         126 -1.7652783E-03
         127 -3.0282657E-03
         128 -4.4922950E-03
         129  1.4041896E-03
         130  3.0524896E-02
         131  5.5678513E-02
         132  9.5158212E-02
         133  6.3146284E-04
         134 -1.2747157E-02
         135 -1.8947933E-02
         136 -1.8425055E-02
         137  2.3302170E-04
         138 -2.7061347E-02
         139 -7.4873865E-03
         140  0.4376683    
         141  6.6648149E-03
         142  8.7757818E-03
         143  3.2436944E-04
         144 -0.1706249    
         145 -1.0198208E-02
         146  6.4162146E-03
         147 -5.3885323E-03
         148 -5.6470234E-02
         149  1.5626846E-02
         150  2.9693882E-04
         151  2.4500750E-03
         152  2.0301279E-02
         153 -2.8315424E-03
         154  4.7109619E-02
         155 -8.9958999E-03
         156 -0.2948805    
         157  9.0454472E-03
         158 -1.3450491E-02
         159  3.8637312E-03
         160  8.5428543E-02
         161 -3.7124555E-03
         162 -5.5228569E-02
         163  2.7162634E-02
         164  0.3660553    
         165  8.0922227E-03
         166  1.8124649E-02
         167 -7.5414442E-03
         168 -0.1144591    
         169 -7.5357752E-03
         170  1.6165782E-02
         171 -1.3758526E-02
         172 -8.3699755E-02
         173  1.2446727E-02
         174 -8.3135366E-03
         175  8.1419405E-03
         176  2.6105965E-02
         177 -5.6769750E-03
         178  1.7371129E-02
         179 -3.6179196E-02
         180 -0.3174174    
         181  6.2492294E-03
         182 -4.9151420E-03
         183  1.4824716E-02
         184  0.1477663    
         185 -1.5752664E-02
         186 -1.8771630E-02
         187  0.1636764    
         188 -0.2199207    
         189  1.0030126E-02
         190  5.4839402E-03
         191 -4.9826581E-02
         192  6.6488646E-02
         193  4.6248296E-03
         194  1.5251257E-03
         195 -4.6900120E-02
         196  7.6225981E-02
         197 -3.3977893E-03
         198  2.1017680E-04
         199  1.4899184E-02
         200 -2.0370429E-02
         201  8.1708224E-04
         202  1.6554611E-02
         203 -0.1075303    
         204  0.1832016    
         205 -1.4458075E-03
         206 -3.3213322E-03
         207  2.7935315E-02
         208 -4.8125800E-02
         209 -1.5773902E-04
         210 -1.3258608E-02
         211  8.0506980E-02
         212 -0.1281417    
         213 -1.2396523E-04
         214  4.2244704E-03
         215 -2.6281038E-02
         216  4.3596782E-02
         217 -5.0999010E-03
         218 -9.4746496E-04
         219  8.2512451E-03
         220  2.1271284E-03
         221 -3.5709126E-03
         222  3.7894378E-04
         223  1.3191681E-04
         224  8.0957630E-04
         225 -1.5506470E-03
         226  2.5432731E-03
         227  6.8197744E-03
         228  1.1705486E-04
         229 -8.5780825E-03
         230  3.0777850E-03
         231 -3.2989152E-03
         232  1.5664567E-03
         233 -7.5748051E-04
         234  4.1018073E-03
         235 -1.8436329E-02
         236  2.8644929E-02
         237 -8.3607658E-05
         238 -2.0844699E-03
         239 -4.4692824E-05
         240  1.1237654E-02
         241 -1.7440300E-02
         242 -2.5020849E-03
         243  2.3034071E-03
         244 -1.1920325E-02
         245  4.4047656E-03
         246 -1.3880671E-02
         247  4.0127565E-03
         248  3.0847911E-03
         249  1.6548358E-02
         250 -1.1527311E-05
         251  8.3888844E-03
         252  6.1966042E-04
         253  6.4959924E-04
         254  3.0740211E-03
         255  5.6950818E-03
         256  1.0915765E-02
         257  2.3132882E-03
         258  6.0210429E-04
         259 -6.2547703E-03
         260 -1.2631093E-02
         261 -2.7304554E-02
         262  3.9829812E-03
         263  2.7075777E-04
         264  1.0808262E-03
         265  2.3707221E-03
         266  7.2677648E-03
         267  2.2744064E-03
         268  3.8251973E-04
         269  1.1766319E-02
         270  7.5613218E-03
         271  2.7019588E-02
         272  1.3790182E-02
         273 -4.3995902E-03
         274 -4.2656078E-03
         275 -3.9058675E-03
         276 -1.8177416E-02
         277  3.7076217E-03
         278  1.3688819E-04
         279  5.1398976E-03
         280 -6.3781086E-03
         281 -6.7456946E-02
         282  3.3739540E-03
         283 -2.7924808E-04
         284 -1.0453981E-02
         285  1.4091611E-03
         286  8.9437999E-02
         287  8.3550699E-03
         288 -4.7059632E-03
         289  2.3752921E-03
         290 -3.4941770E-03
         291 -1.9002374E-02
         292  5.8619226E-03
         293 -5.6960788E-03
         294  4.2152246E-03
         295  2.9314350E-02
         296 -4.2469673E-02
         297 -6.7979572E-03
         298  1.8232862E-03
         299  1.1028530E-04
         300 -1.0404599E-02
         301  1.5843866E-02
         302 -1.0348863E-03
         303 -1.8039122E-04
         304 -2.0577135E-03
         305  1.5026526E-02
         306 -2.4057647E-02
 Sym= Hole
 Ene= -0.3849401    
 Spin= Alpha
 Occup= 0
           1  7.8188250E-06
           2 -5.6922849E-04
           3  6.4457431E-03
           4 -9.5016398E-03
           5  1.2226877E-04
           6  1.7578417E-03
           7 -1.1046026E-02
           8  1.7480040E-02
           9  3.1196335E-04
          10  2.2081891E-02
          11 -0.1363081    
          12  0.2168616    
          13 -1.6995201E-04
          14 -1.4604150E-03
          15  8.6915027E-03
          16 -1.4072972E-02
          17  1.6160147E-05
          18 -2.8262774E-02
          19  0.1714366    
          20 -0.2726236    
          21  1.0330971E-06
          22  1.5352791E-03
          23 -1.0239318E-02
          24  1.6097410E-02
          25  4.1477181E-04
          26  2.9636640E-03
          27 -2.5857745E-02
          28  4.1275278E-02
          29 -9.9081393E-05
          30  2.3054103E-04
          31 -2.8515272E-03
          32  5.0578173E-03
          33 -1.7363353E-03
          34  3.0545436E-02
          35 -0.1714167    
          36  0.2674592    
          37  2.5886649E-04
          38 -2.6101075E-04
          39  2.2421144E-03
          40 -3.2794024E-03
          41  4.4295322E-03
          42  1.0277637E-02
          43 -9.5270656E-02
          44  0.1529333    
          45 -1.8401910E-03
          46  5.4224121E-04
          47  2.0029817E-03
          48 -2.9449922E-03
          49 -9.9920109E-03
          50 -6.8669957E-03
          51  0.1104958    
          52 -0.1795780    
          53  4.0822024E-03
          54  7.4846357E-05
          55  4.2835507E-04
          56 -5.7626993E-04
          57 -2.5775770E-03
          58 -3.0551005E-02
          59  0.1589278    
          60 -0.2391921    
          61  1.5827897E-03
          62 -1.5908215E-04
          63 -1.9868338E-03
          64  3.5550208E-03
          65 -2.1294691E-03
          66  1.4551786E-02
          67 -1.0582099E-02
          68 -0.1598016    
          69  1.6142926E-03
          70 -2.0394889E-03
          71  2.0716272E-03
          72  3.3125805E-03
          73 -7.6113087E-03
          74 -2.5384396E-02
          75  2.0563282E-02
          76  8.0186144E-02
          77  3.1273011E-03
          78 -2.5660865E-04
          79 -2.7474347E-03
          80 -2.5536169E-03
          81  1.9243793E-03
          82 -1.0411559E-03
          83  7.2901710E-03
          84  0.1477368    
          85  8.9787348E-04
          86 -1.0541094E-03
          87 -1.4246068E-03
          88  2.7655240E-03
          89 -3.9538266E-03
          90 -1.0646026E-02
          91 -7.9274857E-03
          92 -3.8454209E-02
          93  2.0901954E-03
          94  2.0146563E-03
          95  1.5705111E-03
          96  2.2831985E-03
          97  7.0073530E-03
          98 -9.8965690E-03
          99 -3.4824476E-02
         100 -4.7157910E-02
         101 -2.8217009E-03
         102  7.6839933E-04
         103  7.4934447E-04
         104 -3.6961344E-04
         105 -2.4967110E-03
         106 -1.0518911E-03
         107  6.8652043E-03
         108  7.2497884E-03
         109  1.0375555E-03
         110  7.9063507E-04
         111 -1.0941490E-03
         112 -1.0328622E-03
         113 -4.5233224E-05
         114  1.1273645E-02
         115  2.3345586E-02
         116  5.1927056E-02
         117 -1.5838150E-04
         118 -7.0415423E-05
         119 -8.9965535E-05
         120 -1.6051383E-03
         121  1.0677857E-03
         122  3.7326540E-03
         123  5.3028674E-03
         124  9.2706466E-03
         125 -3.7184142E-04
         126 -6.6333590E-04
         127 -2.3381124E-04
         128 -8.7433733E-04
         129 -4.1233553E-03
         130 -2.0670189E-02
         131 -2.9326083E-02
         132 -4.7771346E-02
         133  1.9980276E-03
         134 -2.2964101E-04
         135  8.4181642E-04
         136 -9.0991781E-04
         137 -6.4787624E-04
         138 -1.3089608E-02
         139  3.3837308E-03
         140  5.1413368E-02
         141  1.2927376E-03
         142  3.0114481E-03
         143 -1.1983648E-03
         144  1.1432387E-03
         145  1.4528751E-03
         146  1.5524168E-02
         147  1.3269044E-03
         148 -8.7712243E-02
         149  5.2510685E-04
         150  3.5506743E-04
         151  7.1700306E-05
         152  2.9368751E-04
         153  2.0934930E-03
         154  1.2845522E-02
         155 -1.9379442E-03
         156 -8.1990413E-02
         157 -6.6416367E-04
         158 -5.7970389E-04
         159 -2.5705315E-04
         160  1.6195299E-04
         161  5.4782262E-04
         162 -6.9408272E-03
         163  4.3817777E-03
         164  5.3455517E-02
         165  6.0435134E-04
         166  1.1953127E-03
         167  1.5327740E-03
         168 -7.1887037E-04
         169  2.6108834E-03
         170 -4.3971771E-03
         171  3.8625351E-03
         172  9.9950083E-02
         173 -2.3491129E-03
         174 -7.9319529E-05
         175  2.3830410E-03
         176 -3.6844981E-03
         177  1.4765402E-02
         178  1.8703470E-02
         179  1.7036593E-02
         180 -1.4325741E-02
         181 -7.0899124E-03
         182  1.2654266E-03
         183 -5.6141983E-03
         184  3.3423102E-03
         185  8.5034892E-03
         186  1.0600974E-02
         187 -9.9664524E-02
         188  0.1380459    
         189 -3.3796665E-03
         190 -4.9550302E-04
         191  2.5231524E-03
         192 -1.2708330E-04
         193 -3.1323601E-03
         194  3.3040054E-02
         195 -0.1787244    
         196  0.3012377    
         197  1.0441674E-03
         198 -9.8172529E-04
         199  7.3373871E-04
         200 -1.3743710E-03
         201 -6.9522799E-04
         202  5.3405887E-03
         203 -2.2947168E-02
         204  3.3382427E-02
         205  3.3427286E-04
         206 -6.8248028E-04
         207  2.7330399E-03
         208 -2.9967253E-03
         209 -2.6471115E-04
         210 -4.3451328E-02
         211  0.2555111    
         212 -0.4071352    
         213  4.4589135E-04
         214 -1.3744505E-04
         215 -1.6208751E-03
         216  1.8512785E-03
         217 -6.3805975E-02
         218  1.1481562E-02
         219 -2.4861947E-03
         220 -1.5602024E-02
         221 -1.7631322E-02
         222  3.7446013E-04
         223  2.0452320E-04
         224  3.7363445E-04
         225 -3.0832309E-03
         226  4.8665726E-03
         227  6.3909665E-02
         228 -1.1245060E-02
         229  1.0587161E-03
         230  2.2626800E-02
         231  6.1479658E-03
         232 -1.6225656E-03
         233  5.1307761E-05
         234  2.1467217E-04
         235 -1.7880602E-03
         236  2.8319201E-03
         237  1.0673213E-04
         238  1.3719276E-04
         239  2.8522027E-04
         240 -4.4644819E-04
         241  3.5976333E-04
         242  3.4190228E-03
         243  6.6950754E-04
         244 -1.6326213E-03
         245  7.0878636E-04
         246 -3.7143081E-03
         247 -7.7421818E-04
         248 -9.2500256E-04
         249 -2.8595959E-03
         250  3.7765704E-04
         251 -2.7416434E-04
         252  3.6518658E-03
         253 -2.0306969E-04
         254  5.6820741E-04
         255  5.6923431E-04
         256  9.2442846E-04
         257 -7.3095364E-04
         258 -2.1939754E-04
         259  4.8012254E-04
         260  1.6081708E-03
         261  2.8087536E-03
         262 -2.6196754E-03
         263  2.5524934E-05
         264  9.1153262E-05
         265  9.6166815E-04
         266  1.6149582E-03
         267  3.4654399E-03
         268 -9.2096883E-04
         269 -1.6838175E-03
         270 -2.7081699E-03
         271 -1.4242923E-03
         272 -2.7795346E-03
         273  8.7115035E-04
         274  1.3704688E-03
         275  5.7813351E-04
         276 -3.7534761E-03
         277  1.7317805E-04
         278 -2.8031680E-04
         279  3.6563037E-04
         280 -1.1037263E-05
         281 -1.5774244E-03
         282 -2.6336415E-03
         283  9.3667087E-04
         284 -3.5040604E-04
         285  1.6146669E-05
         286  1.9553739E-03
         287 -1.7642466E-03
         288 -1.2507292E-03
         289 -3.4478626E-03
         290 -1.9467622E-03
         291  2.0603274E-03
         292 -3.7488656E-03
         293  4.1833901E-04
         294 -9.0778357E-04
         295 -1.4721423E-03
         296  3.7420943E-04
         297  4.8097372E-03
         298  3.8282469E-05
         299 -2.5960550E-04
         300 -2.8567684E-03
         301  4.5479145E-03
         302 -6.3832260E-05
         303  2.1357661E-04
         304 -1.0484860E-03
         305  5.8860341E-03
         306 -8.9632198E-03
 Sym= Particle
 Ene= -0.3849401    
 Spin= Alpha
 Occup= 2
           1  4.9967092E-04
           2  3.4661629E-04
           3 -2.3330820E-03
           4  2.9395886E-03
           5 -7.3526381E-04
           6 -1.0727891E-03
           7  5.8067273E-03
           8 -8.9480886E-03
           9 -2.8567979E-04
          10 -8.1820758E-03
          11  4.8258707E-02
          12 -7.7313699E-02
          13  3.7019912E-04
          14  4.0397388E-03
          15 -2.4348689E-02
          16  3.8895141E-02
          17  4.4278635E-04
          18  1.7293353E-02
          19 -0.1059854    
          20  0.1674357    
          21 -8.3444483E-04
          22 -5.0178249E-03
          23  3.2997053E-02
          24 -5.2473783E-02
          25  3.6665716E-04
          26  3.1022619E-02
          27 -0.1925277    
          28  0.3039277    
          29 -3.4931596E-04
          30 -6.9654617E-03
          31  4.8546199E-02
          32 -7.6117888E-02
          33 -2.1234993E-03
          34 -3.4258172E-02
          35  0.2207285    
          36 -0.3521764    
          37  1.4818822E-03
          38  7.8435987E-03
          39 -5.0452672E-02
          40  8.1721723E-02
          41  6.9395849E-04
          42 -8.2445741E-03
          43  5.1232163E-02
          44 -7.8847937E-02
          45 -1.3663135E-03
          46  2.9831387E-03
          47 -1.6130133E-02
          48  2.5316322E-02
          49  2.1574295E-03
          50  3.7493695E-02
          51 -0.2268300    
          52  0.3219984    
          53 -3.1134430E-03
          54 -7.6188403E-03
          55  5.4159280E-02
          56 -7.1604960E-02
          57 -1.5506854E-03
          58 -1.9093441E-02
          59  8.5900255E-02
          60 -0.1375038    
          61 -2.1785384E-03
          62  5.0272257E-03
          63 -2.0245574E-02
          64  3.1828344E-02
          65 -2.6047141E-03
          66  3.8835516E-03
          67  7.3054823E-04
          68 -8.0459684E-02
          69 -1.9422037E-03
          70 -6.8774428E-03
          71  9.5196879E-03
          72  2.8465802E-02
          73 -8.9822477E-03
          74 -1.1412541E-02
          75  1.0355162E-02
          76  7.7708721E-02
          77  8.6299255E-03
          78  5.9135742E-03
          79 -2.2932722E-03
          80 -1.7131902E-02
          81  2.7771331E-03
          82  6.0621942E-03
          83  3.9933571E-03
          84  3.0296547E-03
          85 -1.7599302E-03
          86  4.2525333E-04
          87 -8.6333335E-04
          88 -1.5640495E-03
          89 -1.5715697E-03
          90  3.9850292E-03
          91  1.2742126E-02
          92  2.5059987E-02
          93  2.2988062E-04
          94  4.7505082E-04
          95 -5.3018378E-03
          96 -6.4046141E-03
          97  1.2157352E-03
          98 -1.5319203E-03
          99 -6.0251788E-03
         100 -1.4851239E-02
         101 -1.9624413E-03
         102 -1.2104452E-03
         103  7.4886862E-04
         104  7.0883962E-03
         105 -2.0559478E-04
         106 -2.9360424E-03
         107 -3.7274566E-03
         108 -9.2511149E-03
         109 -8.9858065E-04
         110  4.0659853E-04
         111 -4.0383669E-04
         112  7.6228159E-04
         113  5.5032922E-04
         114  4.0691290E-03
         115  9.4140535E-03
         116  1.8462572E-02
         117 -1.3825480E-03
         118 -6.7331089E-04
         119 -2.4860168E-03
         120 -4.3898858E-03
         121 -4.2619978E-04
         122 -2.9106017E-03
         123 -2.5281254E-03
         124 -6.0194028E-03
         125 -8.8780979E-04
         126  7.0165971E-04
         127  3.5949564E-04
         128  6.7510386E-04
         129  1.8112439E-03
         130 -2.5207924E-03
         131 -8.6838547E-03
         132 -1.5365124E-02
         133 -1.6534982E-03
         134  2.8190364E-03
         135  4.2028157E-03
         136  2.3271558E-03
         137 -2.3035060E-03
         138  5.7968823E-03
         139  1.7935550E-03
         140 -0.1411358    
         141 -1.4740912E-03
         142 -2.4453255E-03
         143 -1.1760566E-03
         144  5.1728100E-02
         145  4.1451748E-03
         146 -2.0470677E-03
         147  3.9669834E-03
         148  2.6754186E-02
         149 -3.5970446E-03
         150  1.2891294E-03
         151 -1.1585074E-03
         152 -8.6551039E-03
         153 -2.7154051E-04
         154 -1.5761925E-02
         155  3.1647843E-03
         156  9.1176942E-02
         157 -7.4598199E-04
         158  5.1327068E-03
         159 -1.1352781E-03
         160 -2.2830745E-02
         161  3.7954182E-03
         162  2.0150827E-02
         163 -3.5360537E-03
         164 -0.1088790    
         165 -1.7841344E-03
         166 -6.0018115E-03
         167  8.0605515E-04
         168  3.1309325E-02
         169 -5.2579325E-03
         170 -1.3728131E-02
         171  9.5904077E-04
         172  8.0744950E-03
         173  3.6305820E-03
         174  9.4238715E-03
         175 -3.8798249E-04
         176 -2.2256118E-03
         177  9.1698654E-03
         178  4.1512511E-05
         179  1.7903034E-02
         180  0.1103667    
         181 -7.3328814E-03
         182 -2.2105752E-03
         183 -9.4509376E-03
         184 -4.2706802E-02
         185  5.6916033E-03
         186 -2.8102372E-02
         187  0.1415469    
         188 -0.2564537    
         189 -5.8035450E-03
         190  8.0005843E-03
         191 -3.3441056E-02
         192  6.4282596E-02
         193 -1.5525952E-03
         194  3.0829044E-02
         195 -0.1774097    
         196  0.2941810    
         197 -3.5905789E-04
         198 -5.4666195E-03
         199  3.6236618E-02
         200 -5.9948958E-02
         201  1.5530358E-03
         202  8.9687025E-03
         203 -5.8690038E-02
         204  8.7381005E-02
         205 -1.7121077E-03
         206 -3.5255020E-03
         207  2.2327693E-02
         208 -3.2238074E-02
         209 -1.0432327E-03
         210 -3.2675002E-02
         211  0.2022354    
         212 -0.3221298    
         213  1.3251779E-04
         214  8.5100364E-03
         215 -5.2689333E-02
         216  8.4078468E-02
         217  2.2390284E-02
         218 -1.4170943E-02
         219  1.0746909E-02
         220  1.3111464E-02
         221  6.0315463E-03
         222 -3.1775358E-04
         223 -4.1175368E-05
         224 -1.0626458E-03
         225  3.7754483E-03
         226 -6.3597439E-03
         227 -2.2858230E-02
         228  1.3484042E-02
         229 -1.0519153E-02
         230 -1.2633680E-02
         231 -7.1180640E-03
         232 -4.0143027E-04
         233  1.1924862E-04
         234  6.8530925E-03
         235 -3.8306329E-02
         236  6.0600035E-02
         237  5.6736922E-04
         238  1.4495451E-04
         239 -6.7513171E-03
         240  4.1162569E-02
         241 -6.7063086E-02
         242 -5.7965391E-03
         243 -6.4865475E-05
         244  1.2012203E-02
         245 -3.1574927E-02
         246  4.9393572E-02
         247 -4.2854517E-04
         248 -6.5757253E-04
         249 -4.2122528E-03
         250  5.5107853E-04
         251 -5.3296518E-04
         252 -6.6253834E-04
         253 -4.3485672E-04
         254 -9.7136293E-04
         255 -1.2400789E-03
         256 -2.8343440E-03
         257 -9.6440740E-04
         258 -4.3647544E-04
         259  1.5643685E-03
         260  2.2159712E-03
         261  5.1152329E-03
         262  1.5946117E-04
         263 -5.8427086E-04
         264 -7.1536301E-04
         265 -3.1901262E-04
         266 -8.3744893E-04
         267 -1.2875993E-03
         268  1.0388954E-04
         269 -2.9287960E-03
         270 -5.8054534E-04
         271 -6.8576075E-03
         272 -5.7243994E-03
         273  2.4435956E-03
         274  1.9911297E-03
         275  5.2172109E-04
         276  5.3262403E-03
         277  7.3919800E-04
         278  9.9584344E-04
         279 -6.5892527E-04
         280  1.9872447E-03
         281  1.9395508E-02
         282  8.0290105E-04
         283  3.5555506E-04
         284  2.7253577E-03
         285 -6.7725504E-04
         286 -2.5397461E-02
         287 -2.0055939E-04
         288  7.9081785E-03
         289  1.3427284E-02
         290  1.2891040E-02
         291  1.0270664E-03
         292 -3.2844197E-03
         293  1.2718870E-04
         294 -8.5466756E-03
         295  3.1986553E-02
         296 -5.4535061E-02
         297  3.9507947E-03
         298 -2.1107732E-03
         299  6.1831977E-03
         300 -2.9339176E-02
         301  5.0222412E-02
         302  1.6416244E-03
         303 -9.8130235E-04
         304 -5.9548272E-03
         305  3.6431555E-02
         306 -5.6622609E-02
