 [Molden Format]
 [Atoms] Angs
C       1      6     -4.36161658      3.96964865      0.00946490
C       2      6     -3.26082958      2.95305301     -0.00267478
C       3      6     -3.25385438      1.89708583      0.89540927
C       4      6     -2.23572049      0.95654299      0.90339337
C       5      6     -2.31191878     -0.16222386      1.90360466
C       6      6     -1.16268195      1.05755744      0.00130050
B       7      5      0.00049482      0.00117315      0.00019021
C       8      6      1.49739846      0.47897585     -0.00170391
C       9      6      2.43122990     -0.05847515     -0.90415036
C      10      6      2.03526155     -1.10770763     -1.90427597
C      11      6      3.74802228      0.37422309     -0.89667472
C      12      6      4.19330758      1.33175301      0.00143680
C      13      6      5.61687952      1.79935630     -0.01141424
C      14      6      3.27601276      1.85974781      0.89681527
C      15      6      1.94989604      1.45647584      0.90116443
C      16      6      1.02055458      2.08495861      1.90081256
C      17      6     -0.33342289     -1.53428123      0.00114323
C      18      6     -1.26872039     -2.07587772     -0.89839109
C      19      6     -1.98417861     -1.20936844     -1.89599316
C      20      6     -1.54948881     -3.43240674     -0.88992154
C      21      6     -0.93731294     -4.29661993      0.00608037
C      22      6     -1.25254770     -5.76147810     -0.01011975
C      23      6     -0.02037485     -3.76508972      0.89814863
C      24      6      0.29069936     -2.41355509      0.90174798
C      25      6      1.30178296     -1.92233979      1.89893350
C      26      6     -1.16793590      2.13471103     -0.90159821
C      27      6     -0.06122821      2.32034099     -1.90093744
C      28      6     -2.20669103      3.05240893     -0.89759819
H      29      1     -5.29101166      3.53125140      0.36646251
H      30      1     -4.10044354      4.79374248      0.67489567
H      31      1     -4.52259064      4.37961421     -0.98524642
H      32      1     -4.06676946      1.80228061      1.60298111
H      33      1     -1.35661583     -0.32387343      2.39613166
H      34      1     -2.58675042     -1.09342339      1.40994083
H      35      1     -3.06067381      0.05525983      2.66265062
H      36      1      2.80597678     -1.22039385     -2.66414693
H      37      1      1.89932461     -2.06905586     -1.41060213
H      38      1      1.09852638     -0.85810535     -2.39576830
H      39      1      4.44785546     -0.04942599     -1.60466099
H      40      1      5.93207562      2.11156507      0.98185348
H      41      1      6.28082685      1.01239301     -0.36256745
H      42      1      5.72259037      2.65329198     -0.68205988
H      43      1      3.60370360      2.60720165      1.60699619
H      44      1      0.40670047      1.33945913      2.39972744
H      45      1      1.58407187      2.63058248      2.65500767
H      46      1      0.34779470      2.78354231      1.40518776
H      47      1     -1.30145849     -0.52555620     -2.39368937
H      48      1     -2.74439678     -0.60812066     -1.39913552
H      49      1     -2.47314447     -1.82147366     -2.65118074
H      50      1     -2.26782440     -3.82932671     -1.59485802
H      51      1     -2.32555797     -5.92317860     -0.09770726
H      52      1     -0.77308745     -6.23828375     -0.86577175
H      53      1     -0.89589797     -6.24711855      0.89507462
H      54      1      0.46760666     -4.42069136      1.60702061
H      55      1      2.24501947     -1.69806591      1.40255608
H      56      1      0.96830696     -1.01281148      2.39174778
H      57      1      1.48762627     -2.67942596      2.65812768
H      58      1      0.84047569      2.67745909     -1.40527409
H      59      1     -0.34741682      3.04988843     -2.65586754
H      60      1      0.18833880      1.38696626     -2.39893754
H      61      1     -2.19405662      3.86845060     -1.60776846
 [GTO]
           1   0
s              4   1.000000
     36.90828018     -0.01198412
      6.35591125     -0.05472052
      0.51072459      0.58055871
      0.19464978      0.47700799
p              4   1.000000
      5.94873357      0.05713170
      1.54241778      0.28574555
      0.54375000      0.55178731
      0.21647624      0.26323149
s              7   1.000000
      0.38350848     -0.19451141
      0.04707223      0.93980764
      0.02222627      0.24680776
     36.90828018      0.00523302
      6.35591125      0.02389443
      0.51072459     -0.25350852
      0.19464978     -0.20829175
p              7   1.000000
      1.83062075     -0.01151596
      0.10124670      0.56591216
      0.03901771      0.59101119
      5.94873357     -0.02396600
      1.54241778     -0.11986653
      0.54375000     -0.23146757
      0.21647624     -0.11042217
 
           2   0
s              4   1.000000
     34.92385741     -0.01198412
      6.01417723     -0.05472053
      0.48326480      0.58055871
      0.18418418      0.47700799
p              4   1.000000
      5.62889200      0.05713170
      1.45948764      0.28574555
      0.51451456      0.55178731
      0.20483711      0.26323149
s              7   1.000000
      0.38350848     -0.19624168
      0.04707223      0.94816766
      0.02222627      0.24900321
     34.92385741      0.00551728
      6.01417723      0.02519237
      0.48326480     -0.26727904
      0.18418418     -0.21960611
p              7   1.000000
      1.83062075     -0.01161214
      0.10124670      0.57063824
      0.03901771      0.59594686
      5.62889200     -0.02527346
      1.45948764     -0.12640582
      0.51451456     -0.24409523
      0.20483711     -0.11644623
 
           3   0
s              4   1.000000
     35.08263298     -0.01198412
      6.04151970     -0.05472052
      0.48546189      0.58055871
      0.18502154      0.47700799
p              4   1.000000
      5.65448283      0.05713170
      1.46612296      0.28574555
      0.51685371      0.55178731
      0.20576837      0.26323149
s              7   1.000000
      0.38350848     -0.19609359
      0.04707223      0.94745214
      0.02222627      0.24881531
     35.08263298      0.00549343
      6.04151970      0.02508347
      0.48546189     -0.26612367
      0.18502154     -0.21865681
p              7   1.000000
      1.83062075     -0.01160391
      0.10124670      0.57023371
      0.03901771      0.59552442
      5.65448283     -0.02516379
      1.46612296     -0.12585730
      0.51685371     -0.24303601
      0.20576837     -0.11594093
 
           4   0
s              4   1.000000
     35.00314178     -0.01198412
      6.02783065     -0.05472052
      0.48436191      0.58055871
      0.18460231      0.47700799
p              4   1.000000
      5.64167074      0.05713170
      1.46280098      0.28574555
      0.51568261      0.55178731
      0.20530213      0.26323149
s              7   1.000000
      0.38350848     -0.19616750
      0.04707223      0.94780928
      0.02222627      0.24890910
     35.00314178      0.00550534
      6.02783065      0.02513788
      0.48436191     -0.26670088
      0.18460231     -0.21913107
p              7   1.000000
      1.83062075     -0.01160801
      0.10124670      0.57043562
      0.03901771      0.59573527
      5.64167074     -0.02521858
      1.46280098     -0.12613134
      0.51568261     -0.24356519
      0.20530213     -0.11619338
 
           5   0
s              4   1.000000
     36.94245839     -0.01198412
      6.36179702     -0.05472052
      0.51119753      0.58055871
      0.19483003      0.47700799
p              4   1.000000
      5.95424228      0.05713170
      1.54384611      0.28574555
      0.54425353      0.55178731
      0.21667671      0.26323149
s              7   1.000000
      0.38350848     -0.19448376
      0.04707223      0.93967409
      0.02222627      0.24677268
     36.94245839      0.00522838
      6.36179702      0.02387322
      0.51119753     -0.25328347
      0.19483003     -0.20810684
p              7   1.000000
      1.83062075     -0.01151443
      0.10124670      0.56583666
      0.03901771      0.59093234
      5.95424228     -0.02394463
      1.54384611     -0.11975963
      0.54425353     -0.23126114
      0.21667671     -0.11032370
 
           6   0
s              4   1.000000
     35.09129660     -0.01198412
      6.04301164     -0.05472052
      0.48558177      0.58055871
      0.18506723      0.47700799
p              4   1.000000
      5.65587919      0.05713170
      1.46648502      0.28574555
      0.51698135      0.55178731
      0.20581918      0.26323149
s              7   1.000000
      0.38350848     -0.19608556
      0.04707223      0.94741335
      0.02222627      0.24880512
     35.09129660      0.00549213
      6.04301164      0.02507755
      0.48558177     -0.26606091
      0.18506723     -0.21860524
p              7   1.000000
      1.83062075     -0.01160346
      0.10124670      0.57021177
      0.03901771      0.59550148
      5.65587919     -0.02515783
      1.46648502     -0.12582750
      0.51698135     -0.24297847
      0.20581918     -0.11591348
 
           7   0
s              4   1.000000
     23.70837890     -0.01198412
      4.08277902     -0.05472052
      0.32806872      0.58055871
      0.12503511      0.47700799
p              4   1.000000
      4.62085623      0.05713170
      1.19811902      0.28574555
      0.42237403      0.55178731
      0.16815438      0.26323149
s              7   1.000000
      0.29139959     -0.20030096
      0.03576669      0.96778063
      0.01688809      0.25415388
     23.70837890      0.00614131
      4.08277902      0.02804176
      0.32806872     -0.29750976
      0.12503511     -0.24444476
p              7   1.000000
      1.39095266     -0.01147998
      0.07692984      0.56414381
      0.02964666      0.58916439
      4.62085623     -0.02346100
      1.19811902     -0.11734076
      0.42237403     -0.22659020
      0.16815438     -0.10809541
 
           8   0
s              4   1.000000
     35.09135102     -0.01198412
      6.04302101     -0.05472052
      0.48558252      0.58055871
      0.18506752      0.47700799
p              4   1.000000
      5.65588796      0.05713170
      1.46648729      0.28574555
      0.51698215      0.55178731
      0.20581950      0.26323149
s              7   1.000000
      0.38350848     -0.19608551
      0.04707223      0.94741310
      0.02222627      0.24880507
     35.09135102      0.00549212
      6.04302101      0.02507752
      0.48558252     -0.26606052
      0.18506752     -0.21860492
p              7   1.000000
      1.83062075     -0.01160346
      0.10124670      0.57021164
      0.03901771      0.59550136
      5.65588796     -0.02515780
      1.46648729     -0.12582731
      0.51698215     -0.24297811
      0.20581950     -0.11591331
 
           9   0
s              4   1.000000
     35.00313564     -0.01198412
      6.02782960     -0.05472053
      0.48436183      0.58055871
      0.18460228      0.47700799
p              4   1.000000
      5.64166975      0.05713170
      1.46280072      0.28574555
      0.51568252      0.55178731
      0.20530210      0.26323149
s              7   1.000000
      0.38350848     -0.19616751
      0.04707223      0.94780931
      0.02222627      0.24890910
     35.00313564      0.00550534
      6.02782960      0.02513788
      0.48436183     -0.26670093
      0.18460228     -0.21913111
p              7   1.000000
      1.83062075     -0.01160801
      0.10124670      0.57043564
      0.03901771      0.59573527
      5.64166975     -0.02521859
      1.46280072     -0.12613136
      0.51568252     -0.24356523
      0.20530210     -0.11619340
 
          10   0
s              4   1.000000
     36.94237849     -0.01198412
      6.36178326     -0.05472053
      0.51119643      0.58055871
      0.19482961      0.47700799
p              4   1.000000
      5.95422940      0.05713170
      1.54384277      0.28574555
      0.54425235      0.55178731
      0.21667624      0.26323149
s              7   1.000000
      0.38350848     -0.19448383
      0.04707223      0.93967439
      0.02222627      0.24677275
     36.94237849      0.00522839
      6.36178326      0.02387327
      0.51119643     -0.25328400
      0.19482961     -0.20810728
p              7   1.000000
      1.83062075     -0.01151443
      0.10124670      0.56583685
      0.03901771      0.59093254
      5.95422940     -0.02394468
      1.54384277     -0.11975988
      0.54425235     -0.23126162
      0.21667624     -0.11032392
 
          11   0
s              4   1.000000
     35.08259741     -0.01198412
      6.04151357     -0.05472052
      0.48546139      0.58055871
      0.18502135      0.47700800
p              4   1.000000
      5.65447709      0.05713170
      1.46612148      0.28574555
      0.51685319      0.55178731
      0.20576816      0.26323149
s              7   1.000000
      0.38350848     -0.19609362
      0.04707223      0.94745229
      0.02222627      0.24881536
     35.08259741      0.00549343
      6.04151357      0.02508349
      0.48546139     -0.26612393
      0.18502135     -0.21865702
p              7   1.000000
      1.83062075     -0.01160391
      0.10124670      0.57023380
      0.03901771      0.59552450
      5.65447709     -0.02516382
      1.46612148     -0.12585742
      0.51685319     -0.24303625
      0.20576816     -0.11594104
 
          12   0
s              4   1.000000
     34.92386650     -0.01198412
      6.01417879     -0.05472052
      0.48326493      0.58055871
      0.18418423      0.47700799
p              4   1.000000
      5.62889346      0.05713170
      1.45948802      0.28574555
      0.51451469      0.55178731
      0.20483716      0.26323149
s              7   1.000000
      0.38350848     -0.19624167
      0.04707223      0.94816761
      0.02222627      0.24900321
     34.92386650      0.00551728
      6.01417879      0.02519236
      0.48326493     -0.26727898
      0.18418423     -0.21960606
p              7   1.000000
      1.83062075     -0.01161214
      0.10124670      0.57063822
      0.03901771      0.59594686
      5.62889346     -0.02527346
      1.45948802     -0.12640579
      0.51451469     -0.24409517
      0.20483716     -0.11644620
 
          13   0
s              4   1.000000
     36.90826515     -0.01198412
      6.35590866     -0.05472053
      0.51072438      0.58055871
      0.19464970      0.47700800
p              4   1.000000
      5.94873114      0.05713170
      1.54241716      0.28574555
      0.54374978      0.55178731
      0.21647616      0.26323149
s              7   1.000000
      0.38350848     -0.19451142
      0.04707223      0.93980769
      0.02222627      0.24680778
     36.90826515      0.00523302
      6.35590866      0.02389444
      0.51072438     -0.25350862
      0.19464970     -0.20829184
p              7   1.000000
      1.83062075     -0.01151597
      0.10124670      0.56591220
      0.03901771      0.59101123
      5.94873114     -0.02396601
      1.54241716     -0.11986657
      0.54374978     -0.23146766
      0.21647616     -0.11042221
 
          14   0
s              4   1.000000
     35.08243208     -0.01198412
      6.04148510     -0.05472052
      0.48545911      0.58055871
      0.18502048      0.47700800
p              4   1.000000
      5.65445045      0.05713170
      1.46611457      0.28574555
      0.51685075      0.55178731
      0.20576719      0.26323149
s              7   1.000000
      0.38350848     -0.19609377
      0.04707223      0.94745304
      0.02222627      0.24881555
     35.08243208      0.00549346
      6.04148510      0.02508361
      0.48545911     -0.26612513
      0.18502048     -0.21865801
p              7   1.000000
      1.83062075     -0.01160392
      0.10124670      0.57023421
      0.03901771      0.59552494
      5.65445045     -0.02516393
      1.46611457     -0.12585799
      0.51685075     -0.24303735
      0.20576719     -0.11594156
 
          15   0
s              4   1.000000
     35.00305312     -0.01198412
      6.02781539     -0.05472052
      0.48436069      0.58055871
      0.18460185      0.47700799
p              4   1.000000
      5.64165645      0.05713170
      1.46279727      0.28574555
      0.51568130      0.55178731
      0.20530161      0.26323149
s              7   1.000000
      0.38350848     -0.19616758
      0.04707223      0.94780968
      0.02222627      0.24890920
     35.00305312      0.00550536
      6.02781539      0.02513794
      0.48436069     -0.26670153
      0.18460185     -0.21913160
p              7   1.000000
      1.83062075     -0.01160802
      0.10124670      0.57043585
      0.03901771      0.59573552
      5.64165645     -0.02521864
      1.46279727     -0.12613164
      0.51568130     -0.24356579
      0.20530161     -0.11619366
 
          16   0
s              4   1.000000
     36.94228471     -0.01198412
      6.36176711     -0.05472052
      0.51119513      0.58055871
      0.19482912      0.47700800
p              4   1.000000
      5.95421428      0.05713170
      1.54383885      0.28574555
      0.54425097      0.55178731
      0.21667569      0.26323149
s              7   1.000000
      0.38350848     -0.19448391
      0.04707223      0.93967475
      0.02222627      0.24677285
     36.94228471      0.00522840
      6.36176711      0.02387333
      0.51119513     -0.25328462
      0.19482912     -0.20810778
p              7   1.000000
      1.83062075     -0.01151444
      0.10124670      0.56583704
      0.03901771      0.59093275
      5.95421428     -0.02394474
      1.54383885     -0.11976017
      0.54425097     -0.23126219
      0.21667569     -0.11032419
 
          17   0
s              4   1.000000
     35.09129365     -0.01198412
      6.04301114     -0.05472052
      0.48558173      0.58055871
      0.18506722      0.47700799
p              4   1.000000
      5.65587872      0.05713170
      1.46648490      0.28574555
      0.51698131      0.55178731
      0.20581917      0.26323149
s              7   1.000000
      0.38350848     -0.19608556
      0.04707223      0.94741336
      0.02222627      0.24880512
     35.09129365      0.00549213
      6.04301114      0.02507756
      0.48558173     -0.26606093
      0.18506722     -0.21860526
p              7   1.000000
      1.83062075     -0.01160346
      0.10124670      0.57021178
      0.03901771      0.59550152
      5.65587872     -0.02515784
      1.46648490     -0.12582751
      0.51698131     -0.24297850
      0.20581917     -0.11591349
 
          18   0
s              4   1.000000
     35.00264490     -0.01198412
      6.02774509     -0.05472052
      0.48435504      0.58055871
      0.18459969      0.47700800
p              4   1.000000
      5.64159066      0.05713170
      1.46278021      0.28574555
      0.51567529      0.55178731
      0.20529922      0.26323149
s              7   1.000000
      0.38350848     -0.19616797
      0.04707223      0.94781152
      0.02222627      0.24890969
     35.00264490      0.00550542
      6.02774509      0.02513822
      0.48435504     -0.26670450
      0.18459969     -0.21913404
p              7   1.000000
      1.83062075     -0.01160804
      0.10124670      0.57043688
      0.03901771      0.59573661
      5.64159066     -0.02521893
      1.46278021     -0.12613305
      0.51567529     -0.24356851
      0.20529922     -0.11619496
 
          19   0
s              4   1.000000
     36.94243394     -0.01198412
      6.36179281     -0.05472052
      0.51119720      0.58055871
      0.19482990      0.47700800
p              4   1.000000
      5.95423834      0.05713170
      1.54384509      0.28574555
      0.54425317      0.55178731
      0.21667656      0.26323149
s              7   1.000000
      0.38350848     -0.19448378
      0.04707223      0.93967418
      0.02222627      0.24677270
     36.94243394      0.00522838
      6.36179281      0.02387323
      0.51119720     -0.25328364
      0.19482990     -0.20810698
p              7   1.000000
      1.83062075     -0.01151443
      0.10124670      0.56583672
      0.03901771      0.59093242
      5.95423834     -0.02394464
      1.54384509     -0.11975970
      0.54425317     -0.23126129
      0.21667656     -0.11032376
 
          20   0
s              4   1.000000
     35.08459487     -0.01198412
      6.04185755     -0.05472053
      0.48548903      0.58055871
      0.18503189      0.47700799
p              4   1.000000
      5.65479904      0.05713170
      1.46620495      0.28574555
      0.51688262      0.55178731
      0.20577988      0.26323149
s              7   1.000000
      0.38350848     -0.19609177
      0.04707223      0.94744335
      0.02222627      0.24881302
     35.08459487      0.00549313
      6.04185755      0.02508213
      0.48548903     -0.26610946
      0.18503189     -0.21864513
p              7   1.000000
      1.83062075     -0.01160380
      0.10124670      0.57022873
      0.03901771      0.59551920
      5.65479904     -0.02516244
      1.46620495     -0.12585055
      0.51688262     -0.24302298
      0.20577988     -0.11593471
 
          21   0
s              4   1.000000
     34.92385917     -0.01198412
      6.01417753     -0.05472052
      0.48326483      0.58055871
      0.18418419      0.47700799
p              4   1.000000
      5.62889228      0.05713170
      1.45948772      0.28574555
      0.51451458      0.55178731
      0.20483712      0.26323149
s              7   1.000000
      0.38350848     -0.19624167
      0.04707223      0.94816764
      0.02222627      0.24900321
     34.92385917      0.00551728
      6.01417753      0.02519237
      0.48326483     -0.26727903
      0.18418419     -0.21960610
p              7   1.000000
      1.83062075     -0.01161214
      0.10124670      0.57063823
      0.03901771      0.59594686
      5.62889228     -0.02527346
      1.45948772     -0.12640581
      0.51451458     -0.24409522
      0.20483712     -0.11644623
 
          22   0
s              4   1.000000
     36.90830800     -0.01198412
      6.35591604     -0.05472053
      0.51072497      0.58055871
      0.19464993      0.47700799
p              4   1.000000
      5.94873805      0.05713170
      1.54241895      0.28574555
      0.54375041      0.55178731
      0.21647641      0.26323149
s              7   1.000000
      0.38350848     -0.19451139
      0.04707223      0.93980752
      0.02222627      0.24680773
     36.90830800      0.00523302
      6.35591604      0.02389441
      0.51072497     -0.25350834
      0.19464993     -0.20829160
p              7   1.000000
      1.83062075     -0.01151596
      0.10124670      0.56591210
      0.03901771      0.59101111
      5.94873805     -0.02396599
      1.54241895     -0.11986644
      0.54375041     -0.23146740
      0.21647641     -0.11042209
 
          23   0
s              4   1.000000
     35.08070577     -0.01198412
      6.04118781     -0.05472053
      0.48543522      0.58055871
      0.18501138      0.47700799
p              4   1.000000
      5.65417221      0.05713170
      1.46604242      0.28574555
      0.51682532      0.55178731
      0.20575707      0.26323149
s              7   1.000000
      0.38350848     -0.19609537
      0.04707223      0.94746078
      0.02222627      0.24881757
     35.08070577      0.00549372
      6.04118781      0.02508479
      0.48543522     -0.26613763
      0.18501138     -0.21866829
p              7   1.000000
      1.83062075     -0.01160400
      0.10124670      0.57023859
      0.03901771      0.59552951
      5.65417221     -0.02516512
      1.46604242     -0.12586393
      0.51682532     -0.24304882
      0.20575707     -0.11594704
 
          24   0
s              4   1.000000
     35.00343873     -0.01198412
      6.02788179     -0.05472052
      0.48436602      0.58055871
      0.18460388      0.47700799
p              4   1.000000
      5.64171860      0.05713170
      1.46281339      0.28574555
      0.51568699      0.55178731
      0.20530387      0.26323149
s              7   1.000000
      0.38350848     -0.19616723
      0.04707223      0.94780795
      0.02222627      0.24890876
     35.00343873      0.00550530
      6.02788179      0.02513767
      0.48436602     -0.26669872
      0.18460388     -0.21912930
p              7   1.000000
      1.83062075     -0.01160800
      0.10124670      0.57043487
      0.03901771      0.59573446
      5.64171860     -0.02521838
      1.46281339     -0.12613031
      0.51568699     -0.24356321
      0.20530387     -0.11619243
 
          25   0
s              4   1.000000
     36.94244761     -0.01198412
      6.36179516     -0.05472052
      0.51119739      0.58055871
      0.19482998      0.47700799
p              4   1.000000
      5.95424054      0.05713170
      1.54384566      0.28574555
      0.54425337      0.55178731
      0.21667665      0.26323149
s              7   1.000000
      0.38350848     -0.19448377
      0.04707223      0.93967413
      0.02222627      0.24677268
     36.94244761      0.00522838
      6.36179516      0.02387322
      0.51119739     -0.25328355
      0.19482998     -0.20810690
p              7   1.000000
      1.83062075     -0.01151443
      0.10124670      0.56583669
      0.03901771      0.59093238
      5.95424054     -0.02394464
      1.54384566     -0.11975966
      0.54425337     -0.23126120
      0.21667665     -0.11032373
 
          26   0
s              4   1.000000
     35.00296862     -0.01198412
      6.02780083     -0.05472052
      0.48435952      0.58055871
      0.18460140      0.47700799
p              4   1.000000
      5.64164283      0.05713170
      1.46279374      0.28574555
      0.51568006      0.55178731
      0.20530112      0.26323149
s              7   1.000000
      0.38350848     -0.19616767
      0.04707223      0.94781006
      0.02222627      0.24890932
     35.00296862      0.00550537
      6.02780083      0.02513799
      0.48435952     -0.26670214
      0.18460140     -0.21913211
p              7   1.000000
      1.83062075     -0.01160802
      0.10124670      0.57043606
      0.03901771      0.59573572
      5.64164283     -0.02521870
      1.46279374     -0.12613193
      0.51568006     -0.24356635
      0.20530112     -0.11619393
 
          27   0
s              4   1.000000
     36.94229565     -0.01198412
      6.36176900     -0.05472052
      0.51119528      0.58055871
      0.19482918      0.47700799
p              4   1.000000
      5.95421605      0.05713170
      1.54383931      0.28574555
      0.54425113      0.55178731
      0.21667575      0.26323149
s              7   1.000000
      0.38350848     -0.19448390
      0.04707223      0.93967471
      0.02222627      0.24677285
     36.94229565      0.00522840
      6.36176900      0.02387332
      0.51119528     -0.25328455
      0.19482918     -0.20810773
p              7   1.000000
      1.83062075     -0.01151444
      0.10124670      0.56583702
      0.03901771      0.59093270
      5.95421605     -0.02394473
      1.54383931     -0.11976013
      0.54425113     -0.23126212
      0.21667575     -0.11032416
 
          28   0
s              4   1.000000
     35.08245912     -0.01198412
      6.04148976     -0.05472052
      0.48545948      0.58055871
      0.18502062      0.47700799
p              4   1.000000
      5.65445480      0.05713170
      1.46611570      0.28574555
      0.51685115      0.55178731
      0.20576735      0.26323149
s              7   1.000000
      0.38350848     -0.19609375
      0.04707223      0.94745292
      0.02222627      0.24881553
     35.08245912      0.00549345
      6.04148976      0.02508359
      0.48545948     -0.26612493
      0.18502062     -0.21865785
p              7   1.000000
      1.83062075     -0.01160391
      0.10124670      0.57023414
      0.03901771      0.59552486
      5.65445480     -0.02516391
      1.46611570     -0.12585790
      0.51685115     -0.24303717
      0.20576735     -0.11594148
 
          29   0
s              4   1.000000
      8.30616557      0.05675242
      1.51992596      0.26014135
      0.42225208      0.53284611
      0.14014167      0.29162544
s              7   1.000000
      0.92936822     -0.06733200
      0.05643440      0.66949100
      0.02166600      0.51464200
      8.30616557     -0.02903016
      1.51992596     -0.13306823
      0.42225208     -0.27256293
      0.14014167     -0.14917306
p              4   1.000000
      0.64737396      0.05713170
      0.16785440      0.28574555
      0.05917387      0.55178731
      0.02355814      0.26323150
 
          30   0
s              4   1.000000
      8.30591482      0.05675242
      1.51988008      0.26014135
      0.42223933      0.53284611
      0.14013744      0.29162544
s              7   1.000000
      0.92936822     -0.06733233
      0.05643440      0.66949421
      0.02166600      0.51464448
      8.30591482     -0.02903083
      1.51988008     -0.13307131
      0.42223933     -0.27256923
      0.14013744     -0.14917651
p              4   1.000000
      0.64737396      0.05713170
      0.16785440      0.28574555
      0.05917387      0.55178731
      0.02355814      0.26323150
 
          31   0
s              4   1.000000
      8.30615757      0.05675242
      1.51992450      0.26014135
      0.42225167      0.53284611
      0.14014153      0.29162544
s              7   1.000000
      0.92936822     -0.06733202
      0.05643440      0.66949109
      0.02166600      0.51464207
      8.30615757     -0.02903018
      1.51992450     -0.13306833
      0.42225167     -0.27256313
      0.14014153     -0.14917317
p              4   1.000000
      0.64737396      0.05713170
      0.16785440      0.28574555
      0.05917387      0.55178731
      0.02355814      0.26323150
 
          32   0
s              4   1.000000
      8.30953939      0.05675242
      1.52054333      0.26014135
      0.42242359      0.53284611
      0.14019859      0.29162544
s              7   1.000000
      0.92936822     -0.06732766
      0.05643440      0.66944782
      0.02166600      0.51460881
      8.30953939     -0.02902113
      1.52054333     -0.13302685
      0.42242359     -0.27247817
      0.14019859     -0.14912667
p              4   1.000000
      0.64737396      0.05713170
      0.16785440      0.28574555
      0.05917387      0.55178731
      0.02355814      0.26323150
 
          33   0
s              4   1.000000
      8.30686467      0.05675242
      1.52005389      0.26014135
      0.42228762      0.53284611
      0.14015346      0.29162544
s              7   1.000000
      0.92936822     -0.06733111
      0.05643440      0.66948204
      0.02166600      0.51463512
      8.30686467     -0.02902829
      1.52005389     -0.13305965
      0.42228762     -0.27254536
      0.14015346     -0.14916344
p              4   1.000000
      0.64737396      0.05713170
      0.16785440      0.28574555
      0.05917387      0.55178731
      0.02355814      0.26323150
 
          34   0
s              4   1.000000
      8.30683191      0.05675242
      1.52004790      0.26014135
      0.42228595      0.53284611
      0.14015291      0.29162544
s              7   1.000000
      0.92936822     -0.06733115
      0.05643440      0.66948247
      0.02166600      0.51463544
      8.30683191     -0.02902837
      1.52004790     -0.13306006
      0.42228595     -0.27254618
      0.14015291     -0.14916389
p              4   1.000000
      0.64737396      0.05713170
      0.16785440      0.28574555
      0.05917387      0.55178731
      0.02355814      0.26323150
 
          35   0
s              4   1.000000
      8.30639624      0.05675242
      1.51996817      0.26014135
      0.42226380      0.53284611
      0.14014556      0.29162544
s              7   1.000000
      0.92936822     -0.06733171
      0.05643440      0.66948804
      0.02166600      0.51463974
      8.30639624     -0.02902954
      1.51996817     -0.13306540
      0.42226380     -0.27255713
      0.14014556     -0.14916988
p              4   1.000000
      0.64737396      0.05713170
      0.16785440      0.28574555
      0.05917387      0.55178731
      0.02355814      0.26323150
 
          36   0
s              4   1.000000
      8.30639417      0.05675242
      1.51996779      0.26014135
      0.42226370      0.53284611
      0.14014552      0.29162544
s              7   1.000000
      0.92936822     -0.06733171
      0.05643440      0.66948807
      0.02166600      0.51463976
      8.30639417     -0.02902954
      1.51996779     -0.13306543
      0.42226370     -0.27255718
      0.14014552     -0.14916991
p              4   1.000000
      0.64737396      0.05713170
      0.16785440      0.28574555
      0.05917387      0.55178731
      0.02355814      0.26323150
 
          37   0
s              4   1.000000
      8.30682661      0.05675242
      1.52004693      0.26014135
      0.42228568      0.53284611
      0.14015282      0.29162544
s              7   1.000000
      0.92936822     -0.06733115
      0.05643440      0.66948254
      0.02166600      0.51463549
      8.30682661     -0.02902839
      1.52004693     -0.13306012
      0.42228568     -0.27254632
      0.14015282     -0.14916396
p              4   1.000000
      0.64737396      0.05713170
      0.16785440      0.28574555
      0.05917387      0.55178731
      0.02355814      0.26323150
 
          38   0
s              4   1.000000
      8.30686376      0.05675242
      1.52005372      0.26014135
      0.42228757      0.53284611
      0.14015345      0.29162544
s              7   1.000000
      0.92936822     -0.06733111
      0.05643440      0.66948205
      0.02166600      0.51463514
      8.30686376     -0.02902829
      1.52005372     -0.13305966
      0.42228757     -0.27254538
      0.14015345     -0.14916345
p              4   1.000000
      0.64737396      0.05713170
      0.16785440      0.28574555
      0.05917387      0.55178731
      0.02355814      0.26323150
 
          39   0
s              4   1.000000
      8.30953811      0.05675242
      1.52054310      0.26014135
      0.42242352      0.53284611
      0.14019857      0.29162544
s              7   1.000000
      0.92936822     -0.06732766
      0.05643440      0.66944783
      0.02166600      0.51460883
      8.30953811     -0.02902113
      1.52054310     -0.13302686
      0.42242352     -0.27247820
      0.14019857     -0.14912669
p              4   1.000000
      0.64737396      0.05713170
      0.16785440      0.28574555
      0.05917387      0.55178731
      0.02355814      0.26323150
 
          40   0
s              4   1.000000
      8.30615972      0.05675242
      1.51992489      0.26014135
      0.42225178      0.53284611
      0.14014157      0.29162544
s              7   1.000000
      0.92936822     -0.06733201
      0.05643440      0.66949107
      0.02166600      0.51464207
      8.30615972     -0.02903017
      1.51992489     -0.13306830
      0.42225178     -0.27256308
      0.14014157     -0.14917314
p              4   1.000000
      0.64737396      0.05713170
      0.16785440      0.28574555
      0.05917387      0.55178731
      0.02355814      0.26323150
 
          41   0
s              4   1.000000
      8.30616311      0.05675242
      1.51992551      0.26014135
      0.42225195      0.53284611
      0.14014163      0.29162544
s              7   1.000000
      0.92936822     -0.06733201
      0.05643440      0.66949103
      0.02166600      0.51464203
      8.30616311     -0.02903016
      1.51992551     -0.13306826
      0.42225195     -0.27256299
      0.14014163     -0.14917309
p              4   1.000000
      0.64737396      0.05713170
      0.16785440      0.28574555
      0.05917387      0.55178731
      0.02355814      0.26323150
 
          42   0
s              4   1.000000
      8.30591410      0.05675242
      1.51987995      0.26014135
      0.42223929      0.53284611
      0.14013743      0.29162544
s              7   1.000000
      0.92936822     -0.06733233
      0.05643440      0.66949422
      0.02166600      0.51464448
      8.30591410     -0.02903083
      1.51987995     -0.13307132
      0.42223929     -0.27256925
      0.14013743     -0.14917652
p              4   1.000000
      0.64737396      0.05713170
      0.16785440      0.28574555
      0.05917387      0.55178731
      0.02355814      0.26323150
 
          43   0
s              4   1.000000
      8.30953907      0.05675242
      1.52054327      0.26014135
      0.42242357      0.53284611
      0.14019859      0.29162544
s              7   1.000000
      0.92936822     -0.06732766
      0.05643440      0.66944782
      0.02166600      0.51460883
      8.30953907     -0.02902113
      1.52054327     -0.13302685
      0.42242357     -0.27247817
      0.14019859     -0.14912667
p              4   1.000000
      0.64737396      0.05713170
      0.16785440      0.28574555
      0.05917387      0.55178731
      0.02355814      0.26323150
 
          44   0
s              4   1.000000
      8.30684453      0.05675242
      1.52005020      0.26014135
      0.42228659      0.53284611
      0.14015312      0.29162543
s              7   1.000000
      0.92936822     -0.06733113
      0.05643440      0.66948231
      0.02166600      0.51463532
      8.30684453     -0.02902834
      1.52005020     -0.13305990
      0.42228659     -0.27254587
      0.14015312     -0.14916372
p              4   1.000000
      0.64737396      0.05713170
      0.16785440      0.28574555
      0.05917387      0.55178731
      0.02355814      0.26323150
 
          45   0
s              4   1.000000
      8.30639655      0.05675242
      1.51996823      0.26014135
      0.42226382      0.53284611
      0.14014556      0.29162544
s              7   1.000000
      0.92936822     -0.06733171
      0.05643440      0.66948804
      0.02166600      0.51463974
      8.30639655     -0.02902954
      1.51996823     -0.13306540
      0.42226382     -0.27255712
      0.14014556     -0.14916988
p              4   1.000000
      0.64737396      0.05713170
      0.16785440      0.28574555
      0.05917387      0.55178731
      0.02355814      0.26323150
 
          46   0
s              4   1.000000
      8.30684120      0.05675242
      1.52004960      0.26014135
      0.42228642      0.53284611
      0.14015307      0.29162544
s              7   1.000000
      0.92936822     -0.06733113
      0.05643440      0.66948235
      0.02166600      0.51463537
      8.30684120     -0.02902835
      1.52004960     -0.13305994
      0.42228642     -0.27254595
      0.14015307     -0.14916377
p              4   1.000000
      0.64737396      0.05713170
      0.16785440      0.28574555
      0.05917387      0.55178731
      0.02355814      0.26323150
 
          47   0
s              4   1.000000
      8.30685657      0.05675242
      1.52005241      0.26014135
      0.42228720      0.53284611
      0.14015333      0.29162544
s              7   1.000000
      0.92936822     -0.06733112
      0.05643440      0.66948215
      0.02166600      0.51463522
      8.30685657     -0.02902831
      1.52005241     -0.13305975
      0.42228720     -0.27254556
      0.14015333     -0.14916355
p              4   1.000000
      0.64737396      0.05713170
      0.16785440      0.28574555
      0.05917387      0.55178731
      0.02355814      0.26323150
 
          48   0
s              4   1.000000
      8.30684094      0.05675242
      1.52004955      0.26014135
      0.42228641      0.53284611
      0.14015306      0.29162544
s              7   1.000000
      0.92936822     -0.06733114
      0.05643440      0.66948235
      0.02166600      0.51463537
      8.30684094     -0.02902835
      1.52004955     -0.13305994
      0.42228641     -0.27254596
      0.14015306     -0.14916377
p              4   1.000000
      0.64737396      0.05713170
      0.16785440      0.28574555
      0.05917387      0.55178731
      0.02355814      0.26323150
 
          49   0
s              4   1.000000
      8.30639811      0.05675242
      1.51996852      0.26014135
      0.42226390      0.53284611
      0.14014559      0.29162544
s              7   1.000000
      0.92936822     -0.06733171
      0.05643440      0.66948802
      0.02166600      0.51463971
      8.30639811     -0.02902953
      1.51996852     -0.13306538
      0.42226390     -0.27255709
      0.14014559     -0.14916986
p              4   1.000000
      0.64737396      0.05713170
      0.16785440      0.28574555
      0.05917387      0.55178731
      0.02355814      0.26323150
 
          50   0
s              4   1.000000
      8.30954344      0.05675242
      1.52054407      0.26014135
      0.42242379      0.53284611
      0.14019866      0.29162544
s              7   1.000000
      0.92936822     -0.06732766
      0.05643440      0.66944777
      0.02166600      0.51460878
      8.30954344     -0.02902112
      1.52054407     -0.13302680
      0.42242379     -0.27247806
      0.14019866     -0.14912661
p              4   1.000000
      0.64737396      0.05713170
      0.16785440      0.28574555
      0.05917387      0.55178731
      0.02355814      0.26323150
 
          51   0
s              4   1.000000
      8.30608008      0.05675242
      1.51991032      0.26014135
      0.42224773      0.53284611
      0.14014023      0.29162543
s              7   1.000000
      0.92936822     -0.06733212
      0.05643440      0.66949209
      0.02166600      0.51464285
      8.30608008     -0.02903039
      1.51991032     -0.13306928
      0.42224773     -0.27256508
      0.14014023     -0.14917423
p              4   1.000000
      0.64737396      0.05713170
      0.16785440      0.28574555
      0.05917387      0.55178731
      0.02355814      0.26323150
 
          52   0
s              4   1.000000
      8.30593729      0.05675242
      1.51988419      0.26014135
      0.42224047      0.53284611
      0.14013782      0.29162544
s              7   1.000000
      0.92936822     -0.06733230
      0.05643440      0.66949392
      0.02166600      0.51464426
      8.30593729     -0.02903077
      1.51988419     -0.13307103
      0.42224047     -0.27256867
      0.14013782     -0.14917620
p              4   1.000000
      0.64737396      0.05713170
      0.16785440      0.28574555
      0.05917387      0.55178731
      0.02355814      0.26323150
 
          53   0
s              4   1.000000
      8.30622047      0.05675242
      1.51993601      0.26014135
      0.42225487      0.53284611
      0.14014259      0.29162544
s              7   1.000000
      0.92936822     -0.06733194
      0.05643440      0.66949029
      0.02166600      0.51464145
      8.30622047     -0.02903001
      1.51993601     -0.13306756
      0.42225487     -0.27256155
      0.14014259     -0.14917230
p              4   1.000000
      0.64737396      0.05713170
      0.16785440      0.28574555
      0.05917387      0.55178731
      0.02355814      0.26323150
 
          54   0
s              4   1.000000
      8.30953564      0.05675242
      1.52054265      0.26014135
      0.42242340      0.53284611
      0.14019853      0.29162544
s              7   1.000000
      0.92936822     -0.06732767
      0.05643440      0.66944787
      0.02166600      0.51460886
      8.30953564     -0.02902114
      1.52054265     -0.13302689
      0.42242340     -0.27247826
      0.14019853     -0.14912672
p              4   1.000000
      0.64737396      0.05713170
      0.16785440      0.28574555
      0.05917387      0.55178731
      0.02355814      0.26323150
 
          55   0
s              4   1.000000
      8.30682651      0.05675242
      1.52004691      0.26014135
      0.42228568      0.53284611
      0.14015282      0.29162544
s              7   1.000000
      0.92936822     -0.06733115
      0.05643440      0.66948254
      0.02166600      0.51463549
      8.30682651     -0.02902839
      1.52004691     -0.13306012
      0.42228568     -0.27254632
      0.14015282     -0.14916397
p              4   1.000000
      0.64737396      0.05713170
      0.16785440      0.28574555
      0.05917387      0.55178731
      0.02355814      0.26323150
 
          56   0
s              4   1.000000
      8.30686691      0.05675242
      1.52005430      0.26014135
      0.42228773      0.53284611
      0.14015350      0.29162544
s              7   1.000000
      0.92936822     -0.06733110
      0.05643440      0.66948202
      0.02166600      0.51463509
      8.30686691     -0.02902828
      1.52005430     -0.13305963
      0.42228773     -0.27254530
      0.14015350     -0.14916341
p              4   1.000000
      0.64737396      0.05713170
      0.16785440      0.28574555
      0.05917387      0.55178731
      0.02355814      0.26323150
 
          57   0
s              4   1.000000
      8.30639602      0.05675242
      1.51996813      0.26014135
      0.42226379      0.53284611
      0.14014556      0.29162544
s              7   1.000000
      0.92936822     -0.06733171
      0.05643440      0.66948804
      0.02166600      0.51463974
      8.30639602     -0.02902954
      1.51996813     -0.13306540
      0.42226379     -0.27255714
      0.14014556     -0.14916989
p              4   1.000000
      0.64737396      0.05713170
      0.16785440      0.28574555
      0.05917387      0.55178731
      0.02355814      0.26323150
 
          58   0
s              4   1.000000
      8.30683900      0.05675242
      1.52004919      0.26014135
      0.42228631      0.53284611
      0.14015303      0.29162544
s              7   1.000000
      0.92936822     -0.06733114
      0.05643440      0.66948237
      0.02166600      0.51463539
      8.30683900     -0.02902835
      1.52004919     -0.13305997
      0.42228631     -0.27254601
      0.14015303     -0.14916380
p              4   1.000000
      0.64737396      0.05713170
      0.16785440      0.28574555
      0.05917387      0.55178731
      0.02355814      0.26323150
 
          59   0
s              4   1.000000
      8.30639677      0.05675242
      1.51996827      0.26014135
      0.42226383      0.53284611
      0.14014557      0.29162544
s              7   1.000000
      0.92936822     -0.06733171
      0.05643440      0.66948804
      0.02166600      0.51463974
      8.30639677     -0.02902954
      1.51996827     -0.13306539
      0.42226383     -0.27255712
      0.14014557     -0.14916988
p              4   1.000000
      0.64737396      0.05713170
      0.16785440      0.28574555
      0.05917387      0.55178731
      0.02355814      0.26323150
 
          60   0
s              4   1.000000
      8.30684794      0.05675242
      1.52005083      0.26014135
      0.42228677      0.53284611
      0.14015318      0.29162544
s              7   1.000000
      0.92936822     -0.06733113
      0.05643440      0.66948226
      0.02166600      0.51463529
      8.30684794     -0.02902833
      1.52005083     -0.13305986
      0.42228677     -0.27254578
      0.14015318     -0.14916367
p              4   1.000000
      0.64737396      0.05713170
      0.16785440      0.28574555
      0.05917387      0.55178731
      0.02355814      0.26323150
 
          61   0
s              4   1.000000
      8.30953894      0.05675242
      1.52054325      0.26014135
      0.42242356      0.53284611
      0.14019858      0.29162544
s              7   1.000000
      0.92936822     -0.06732766
      0.05643440      0.66944783
      0.02166600      0.51460883
      8.30953894     -0.02902113
      1.52054325     -0.13302685
      0.42242356     -0.27247818
      0.14019858     -0.14912667
p              4   1.000000
      0.64737396      0.05713170
      0.16785440      0.28574555
      0.05917387      0.55178731
      0.02355814      0.26323150
 
 [MO]
 Sym= Hole
 Ene= -0.9454185    
 Spin= Alpha
 Occup= 0
           1 -3.4227737E-03
           2  1.7131004E-02
           3  2.8606350E-02
           4  2.7734788E-02
           5  6.1131589E-04
           6  1.1006794E-03
           7  2.2987067E-03
           8  2.5080314E-03
           9  2.2644836E-03
          10 -0.1499345    
          11 -0.1688678    
          12 -0.1918921    
          13 -1.0896461E-03
          14 -2.2908598E-03
          15 -5.2920514E-04
          16 -2.3273912E-03
          17 -5.0452114E-03
          18 -9.0690129E-02
          19 -7.7638686E-02
          20 -0.1055010    
          21  5.9685600E-04
          22 -3.3480115E-03
          23 -4.3063308E-04
          24 -6.7487697E-04
          25  7.2801916E-04
          26  0.1047819    
          27  0.1009788    
          28  0.1299991    
          29  9.1772823E-04
          30  1.7803193E-03
          31  8.1036065E-04
          32  4.3177358E-03
          33  5.6041381E-03
          34 -3.2389067E-02
          35 -1.6544804E-02
          36 -4.1991729E-02
          37 -1.4277596E-03
          38 -2.9844537E-03
          39 -3.8669065E-03
          40 -3.0220277E-03
          41 -2.5282374E-02
          42  0.1631342    
          43  0.2792942    
          44  0.2575257    
          45  6.7762830E-03
          46  1.1680525E-03
          47  1.0623334E-02
          48  4.2174831E-03
          49  2.4595502E-04
          50 -4.4760939E-02
          51 -0.1151419    
          52  1.0906820E-04
          53  1.5020173E-04
          54 -5.8628116E-03
          55 -1.5038777E-02
          56  1.7617762E-05
          57 -4.4652347E-02
          58  3.1344976E-02
          59  0.2872533    
          60 -0.2148843    
          61  1.1884427E-02
          62  8.4089935E-03
          63  1.0278090E-02
          64 -3.5193707E-03
          65  8.3724111E-03
          66 -5.6023251E-02
          67  9.0596020E-02
          68 -8.1013598E-02
          69 -1.3771557E-03
          70 -2.4995443E-03
          71  4.7638672E-04
          72 -3.3726189E-03
          73  4.5842235E-03
          74  2.7106870E-02
          75 -6.5024653E-03
          76  3.3226512E-02
          77 -2.0008823E-03
          78  2.2056752E-03
          79 -2.9974366E-03
          80  4.4178785E-04
          81 -1.0638374E-02
          82  6.6213936E-02
          83 -0.1107243    
          84  0.1117474    
          85  7.2823482E-04
          86  4.8517715E-03
          87 -2.4017948E-03
          88  1.2535814E-04
          89  2.7006797E-03
          90  5.1946163E-02
          91 -0.1815367    
          92  0.1601576    
          93 -1.7039882E-03
          94  2.5934039E-03
          95 -9.2401891E-04
          96  1.9540752E-03
          97 -5.5687255E-03
          98  2.5517687E-03
          99  3.0178066E-02
         100 -2.3179431E-02
         101  6.5252371E-04
         102  6.5205421E-04
         103  2.3661987E-03
         104 -2.1165442E-03
         105 -1.3857543E-02
         106  3.9763421E-02
         107 -1.1742951E-02
         108  2.3983289E-02
         109  4.0625027E-04
         110  3.1334807E-03
         111  3.2761348E-03
         112  1.6998567E-03
         113  2.1273373E-02
         114 -9.0081893E-02
         115  0.1507037    
         116 -0.1856807    
         117 -6.4866673E-03
         118 -4.1998229E-03
         119  8.6586096E-04
         120 -4.5060818E-03
         121 -5.4207090E-03
         122  4.4245217E-02
         123 -5.5990182E-02
         124  4.0751062E-02
         125 -8.7469880E-04
         126  5.7973065E-03
         127 -3.9050686E-03
         128  8.4174108E-03
         129  7.1011014E-02
         130  9.0866871E-02
         131  0.1690147    
         132 -4.3313093E-02
         133 -1.8822340E-02
         134  5.2227969E-03
         135  1.6945524E-02
         136 -7.2555640E-04
         137 -2.4664758E-02
         138  6.6168919E-02
         139 -7.0287913E-02
         140 -0.1087828    
         141  6.9311485E-03
         142  1.5898171E-04
         143 -5.1470809E-03
         144 -1.4605320E-03
         145  1.2719395E-03
         146 -4.0117268E-02
         147  4.8855636E-02
         148  1.2881216E-02
         149  2.2975912E-03
         150 -1.3482099E-03
         151  5.0776787E-03
         152  7.0780539E-03
         153  1.9641584E-02
         154  7.3357128E-02
         155  3.6437668E-02
         156 -5.6894474E-02
         157 -6.5441773E-04
         158  5.9326827E-03
         159  5.0009782E-03
         160  1.5471571E-03
         161 -2.2246351E-03
         162 -3.9404660E-02
         163 -2.8684717E-03
         164  3.2396592E-02
         165  2.3421647E-03
         166  4.1230547E-04
         167  3.2005610E-03
         168  3.2941662E-04
         169  8.0732722E-03
         170  7.7851997E-03
         171  1.7173545E-02
         172 -3.3191030E-03
         173 -3.9645535E-04
         174  8.4339018E-04
         175  2.0321626E-03
         176 -3.7661780E-04
         177  1.9110728E-02
         178 -7.9950117E-02
         179  6.9440961E-02
         180  8.3147146E-02
         181 -8.1848737E-04
         182 -3.5193253E-03
         183  7.0672478E-03
         184 -1.2421514E-03
         185 -2.2085290E-02
         186 -3.5045665E-02
         187 -4.4980943E-02
         188  5.4795317E-02
         189  5.8737630E-03
         190 -1.5203727E-03
         191 -4.4748168E-03
         192 -1.3553647E-04
         193 -8.2224124E-04
         194  4.0772539E-02
         195  3.0899087E-02
         196  2.2768988E-03
         197  2.5542562E-03
         198  1.4456077E-03
         199  3.8165371E-03
         200 -5.2882666E-03
         201  1.6148169E-02
         202  0.1432027    
         203  0.1177127    
         204  0.1895318    
         205 -5.2327332E-03
         206  3.3599394E-03
         207 -8.5933054E-05
         208  5.0858296E-03
         209 -6.3648513E-03
         210 -5.3425208E-02
         211 -3.7186559E-02
         212 -4.6618503E-02
         213 -1.2005043E-04
         214 -6.5207779E-03
         215 -2.1027657E-03
         216 -7.6269535E-03
         217 -8.8535724E-03
         218 -5.5320714E-02
         219 -3.0172806E-02
         220 -5.6638598E-02
         221  1.8089938E-04
         222 -1.2152019E-03
         223  2.0738584E-03
         224 -1.4687406E-03
         225 -4.0391449E-02
         226  4.5187101E-03
         227  1.7992968E-03
         228  2.0417252E-03
         229  2.1832529E-03
         230  8.8140622E-02
         231 -1.0940040E-02
         232  2.8421937E-03
         233  4.1867825E-03
         234  4.3101995E-03
         235 -4.1445628E-02
         236  4.6137925E-03
         237  1.6008021E-03
         238  2.2522868E-03
         239  2.1595662E-03
         240  4.4211289E-03
         241 -1.4827087E-03
         242 -1.4667681E-03
         243 -1.2654351E-03
         244  7.9048431E-04
         245 -5.8843270E-02
         246  3.3353866E-04
         247 -8.4305112E-04
         248 -1.6918441E-03
         249  7.7853695E-04
         250  6.4628638E-02
         251 -7.1804141E-05
         252  4.0963497E-03
         253  8.4703183E-04
         254 -3.5121548E-03
         255 -1.4600074E-02
         256 -3.9452148E-04
         257  7.0018275E-04
         258 -4.5303599E-04
         259  1.4965740E-03
         260 -1.8025283E-03
         261 -1.3735528E-03
         262 -1.2441758E-03
         263  1.4746639E-04
         264 -8.8780280E-04
         265  3.5681825E-02
         266 -8.9938352E-05
         267 -1.6778832E-03
         268  2.0076851E-03
         269  2.3108134E-03
         270 -4.8228338E-02
         271 -1.1938692E-04
         272  3.4928654E-04
         273 -1.0533158E-03
         274 -1.3505114E-03
         275  1.2428686E-02
         276 -1.9617383E-03
         277  5.7323795E-04
         278 -1.9259116E-03
         279 -2.1281426E-03
         280 -3.2763418E-02
         281  3.0707677E-03
         282  1.9923210E-04
         283  2.3131759E-03
         284 -9.1719622E-04
         285 -3.2824285E-02
         286  3.1097122E-03
         287  2.3321170E-04
         288  1.6155464E-03
         289 -1.8029626E-03
         290  7.5075611E-02
         291 -9.8158130E-03
         292 -6.9778785E-04
         293  5.2929390E-03
         294 -4.5738383E-03
         295  2.1428758E-02
         296 -9.5586630E-04
         297 -1.6568032E-03
         298 -1.1486269E-03
         299  2.9571408E-03
         300  5.2696899E-02
         301 -1.5642802E-03
         302  2.2784281E-03
         303 -2.3292922E-03
         304  1.2737105E-03
         305  4.0334187E-02
         306 -2.8283279E-03
         307 -1.9465569E-04
         308 -1.0462739E-03
         309 -1.9594179E-03
         310 -0.1044434    
         311 -1.6391398E-04
         312  3.5274322E-03
         313  5.2262493E-03
         314  4.3286053E-03
         315 -1.2640927E-02
         316  1.1660203E-03
         317 -1.3801733E-03
         318  1.7776689E-03
         319  2.0338008E-03
         320  6.8356723E-02
         321  6.3879314E-05
         322  2.3746276E-03
         323  3.3663784E-03
         324  2.2554819E-03
         325 -3.5306934E-02
         326  3.2660768E-03
         327 -1.5980609E-03
         328 -9.2440104E-04
         329 -1.3967998E-03
         330 -2.7336570E-02
         331  2.0199579E-03
         332  9.4590802E-04
         333 -1.0172694E-03
         334  4.4137919E-03
         335 -1.4161294E-02
         336  3.3025667E-03
         337  3.9142463E-03
         338  1.0952180E-03
         339 -1.2276199E-03
         340  9.5701432E-03
         341  4.2219326E-04
         342 -1.8913930E-03
         343  1.4922967E-03
         344  2.6732895E-03
         345 -7.8413738E-03
         346  2.6553476E-03
         347  5.7600916E-04
         348  1.9826766E-03
         349 -2.5057951E-03
         350 -2.5494708E-02
         351  2.1617275E-03
         352 -1.8185696E-03
         353 -1.2269855E-04
         354 -4.1351570E-03
         355  3.9996184E-02
         356  6.9570517E-05
         357  2.6090705E-04
         358  2.6309250E-03
         359 -9.1988547E-04
         360  7.8586927E-03
         361  8.9746021E-04
         362  1.1428943E-03
         363  9.4916043E-04
         364 -2.0663652E-03
         365 -2.6707267E-02
         366  2.9770939E-03
         367  9.4545283E-04
         368 -1.6457188E-03
         369  8.3874859E-04
         370 -0.1034070    
         371 -1.8345582E-04
         372 -5.7798263E-04
         373  6.2961346E-03
         374 -4.5231585E-03
         375  3.6140539E-02
         376 -2.1402515E-03
         377 -3.6264773E-04
         378 -5.1137357E-04
         379  1.9238510E-03
         380  6.1817806E-02
         381 -1.3898363E-03
         382 -2.9022864E-03
         383 -1.3626382E-03
         384 -7.2395930E-04
         385  1.5083533E-02
         386 -2.9521852E-04
         387  6.5021944E-04
         388 -2.3209006E-03
         389 -1.8575265E-03
 Sym= Particle
 Ene= -0.9454185    
 Spin= Alpha
 Occup= 2
           1  2.9025672E-04
           2 -5.0971599E-04
           3 -2.6800449E-03
           4 -2.7457328E-04
           5 -3.3671258E-04
           6  4.0480192E-03
           7  5.0072023E-03
           8  6.9390507E-03
           9 -8.6441409E-04
          10  8.9674674E-02
          11  9.7310700E-02
          12  0.1299330    
          13 -1.6004579E-04
          14 -1.3872331E-02
          15 -1.5353760E-02
          16 -2.4920339E-02
          17  1.2686399E-02
          18  3.3855247E-03
          19 -2.2331199E-02
          20 -1.6568327E-02
          21 -8.1902035E-03
          22 -1.0967948E-02
          23  5.0716801E-03
          24 -5.6606904E-04
          25 -3.8993374E-02
          26 -0.1444628    
          27 -0.1030600    
          28 -8.5720971E-02
          29  3.3939306E-02
          30  3.5110593E-02
          31  1.6449867E-02
          32  5.3085047E-03
          33 -7.2389641E-03
          34 -2.1235267E-02
          35  7.6909745E-03
          36 -1.5260193E-02
          37  7.9134535E-03
          38 -1.1733650E-03
          39 -4.9127415E-03
          40  2.1897228E-03
          41 -5.3791748E-05
          42  6.0713455E-02
          43  6.7610897E-02
          44  7.0603102E-02
          45 -2.7177241E-04
          46 -1.6339296E-02
          47 -1.7989878E-02
          48 -1.4471985E-02
          49 -1.0105742E-05
          50  1.9951971E-04
          51  3.0245027E-04
          52  0.7272134    
          53 -5.9602186E-05
          54  2.0470135E-05
          55  1.4254923E-06
          56 -8.1206657E-02
          57  1.6136956E-04
          58  2.7177086E-02
          59 -8.7118953E-02
          60  7.0838690E-02
          61  1.4070018E-04
          62 -7.3466795E-03
          63  2.3185279E-02
          64 -1.4451754E-02
          65  3.9060004E-02
          66 -8.8825852E-02
          67  0.1549226    
          68 -8.6707570E-02
          69 -3.4108736E-02
          70  2.5080228E-02
          71 -3.0237367E-02
          72  6.0520330E-03
          73  7.5030299E-03
          74 -2.2420082E-02
          75  1.4965630E-03
          76 -1.5149836E-02
          77 -8.2908897E-03
          78  6.7532435E-04
          79  5.4510627E-03
          80  1.7237421E-03
          81 -1.2795186E-02
          82  1.2503515E-02
          83  1.8125109E-02
          84 -1.5848780E-02
          85  8.3201509E-03
          86 -1.1846505E-02
          87 -2.6307811E-04
          88 -4.1716124E-04
          89  1.0363092E-03
          90  4.1617855E-02
          91 -0.1258228    
          92  0.1298966    
          93  7.8293815E-05
          94 -6.5399799E-03
          95  1.9341737E-02
          96 -2.4643021E-02
          97 -7.1908819E-04
          98  6.8465975E-04
          99  2.9534043E-03
         100 -9.2765084E-04
         101  9.6777489E-04
         102  1.5004396E-03
         103 -6.3852672E-03
         104  7.4418318E-03
         105  1.3111540E-02
         106 -2.2507317E-02
         107  1.5947897E-02
         108 -2.0279359E-02
         109 -7.6431436E-03
         110  1.0269865E-02
         111  3.9631887E-03
         112 -6.0498249E-04
         113 -3.9235119E-02
         114 -1.4778338E-02
         115  0.1709843    
         116 -7.9439722E-02
         117  3.4972362E-02
         118 -3.7030883E-03
         119 -3.6684986E-02
         120  2.6986874E-03
         121 -7.6042302E-03
         122  1.5681790E-02
         123  1.4955086E-02
         124 -1.4555371E-02
         125  7.7417251E-03
         126 -3.1137131E-03
         127  3.3091609E-03
         128  2.2408075E-03
         129 -8.3817693E-05
         130 -8.9948229E-02
         131  1.9628661E-02
         132  7.2350010E-02
         133  5.4716191E-05
         134  2.3268774E-02
         135 -5.0450144E-03
         136 -1.4959137E-02
         137  3.9262544E-02
         138  0.1736042    
         139  7.7132945E-04
         140 -8.2958750E-02
         141 -3.4254946E-02
         142 -3.7266310E-02
         143 -6.8184882E-03
         144  4.7243750E-03
         145  7.1145240E-03
         146  1.2250238E-02
         147  1.8519361E-02
         148 -1.5109698E-02
         149 -7.4409484E-03
         150  4.5385505E-03
         151 -3.4366800E-03
         152  2.2347972E-03
         153 -1.2793583E-02
         154  1.4022728E-02
         155 -2.0921636E-02
         156 -1.9788694E-02
         157  8.1326449E-03
         158  5.1366165E-03
         159  1.0814263E-02
         160  6.6686487E-05
         161  6.9088407E-04
         162 -0.1296805    
         163  2.7432838E-02
         164  0.1309557    
         165 -2.0318695E-04
         166  1.9916747E-02
         167 -4.2309002E-03
         168 -2.4765525E-02
         169 -2.5781678E-04
         170  2.6982471E-03
         171 -1.4349499E-03
         172 -1.6223401E-03
         173  5.4362521E-04
         174 -6.7333151E-03
         175  1.8758649E-03
         176  7.9466533E-03
         177  1.2864869E-02
         178  1.9766230E-02
         179  1.3394517E-02
         180 -1.7084239E-02
         181 -8.0855368E-03
         182 -2.4188231E-04
         183 -1.1955849E-02
         184 -5.7631877E-04
         185 -3.8934272E-02
         186  0.1618251    
         187 -7.3997870E-02
         188 -8.6787581E-02
         189  3.3965923E-02
         190 -3.2402135E-02
         191  2.1961860E-02
         192  5.7630059E-03
         193 -7.3984428E-03
         194  3.5381899E-03
         195 -2.1591341E-02
         196 -1.4725504E-02
         197  7.4696848E-03
         198  6.0929479E-03
         199  1.0196113E-03
         200  1.7436881E-03
         201  3.9214078E-02
         202 -8.4990606E-02
         203 -0.1499141    
         204 -8.0344923E-02
         205 -3.4964032E-02
         206  1.2020622E-02
         207  3.4933913E-02
         208  3.0778826E-03
         209  7.6540913E-03
         210  8.1423735E-03
         211 -2.0195596E-02
         212 -1.4775888E-02
         213 -7.8217546E-03
         214 -4.1420003E-03
         215 -1.5985600E-03
         216  2.4033021E-03
         217 -1.2958092E-02
         218 -2.6372679E-02
         219 -4.1651158E-03
         220 -1.9566603E-02
         221  7.5310087E-03
         222  7.3923739E-03
         223 -8.5073551E-03
         224 -7.4391766E-04
         225  2.0327140E-02
         226 -7.7627380E-03
         227 -5.1022223E-03
         228  3.2703809E-03
         229  2.8811831E-03
         230 -4.4729963E-02
         231  1.6780337E-02
         232  7.0807547E-03
         233 -1.3523963E-02
         234 -3.7714634E-03
         235  2.3868194E-02
         236 -8.8879038E-03
         237 -3.4223536E-03
         238  8.3465502E-03
         239 -3.6464096E-03
         240 -1.7190227E-02
         241  3.1241439E-03
         242 -2.1286290E-04
         243 -8.1216342E-05
         244 -4.1669156E-04
         245  3.4219969E-02
         246 -5.4705520E-03
         247  2.3372170E-02
         248  1.3461134E-03
         249  1.1162671E-03
         250 -3.9606862E-02
         251  1.2272649E-02
         252 -4.0862197E-03
         253  1.4507901E-02
         254 -6.6193676E-04
         255  1.9967318E-02
         256 -8.4541105E-03
         257 -8.9842910E-03
         258 -2.1631175E-03
         259  8.4774308E-03
         260 -2.0245194E-02
         261  8.6075263E-03
         262 -7.7548265E-03
         263  5.7910983E-03
         264  8.1369001E-03
         265  3.9574739E-02
         266 -1.2410530E-02
         267 -9.9398308E-03
         268 -1.1021831E-02
         269 -8.2630414E-04
         270 -3.4312751E-02
         271  5.4036612E-03
         272  2.1121606E-02
         273 -1.0871219E-02
         274  5.7712890E-04
         275  1.7322080E-02
         276 -3.0613232E-03
         277  7.0749404E-04
         278 -2.1805888E-04
         279 -2.7450196E-05
         280 -2.2996223E-02
         281  8.5341670E-03
         282 -6.4841663E-03
         283 -5.0680814E-03
         284 -3.0510947E-03
         285 -2.0333355E-02
         286  7.9214862E-03
         287 -6.2654428E-03
         288 -1.1124392E-03
         289  1.8841923E-03
         290  4.4524729E-02
         291 -1.6423935E-02
         292  1.2613704E-02
         293  9.2782965E-03
         294 -3.4183383E-03
         295 -1.9149611E-02
         296  3.5623205E-03
         297 -3.2555321E-03
         298  7.3885533E-04
         299 -2.9781775E-03
         300  3.3348639E-02
         301 -5.4667932E-03
         302 -1.1908500E-02
         303 -2.1489793E-02
         304  9.3581929E-04
         305  1.9359037E-02
         306 -9.3520777E-03
         307  2.5383409E-03
         308  1.0040982E-02
         309  8.1484355E-03
         310 -3.8343906E-02
         311  1.1231031E-02
         312  1.4687582E-02
         313 -3.6979294E-03
         314 -6.6947454E-04
         315 -3.3405848E-02
         316  5.4139909E-03
         317 -1.9726511E-02
         318 -1.3398092E-02
         319  3.3746441E-04
         320  3.8602151E-02
         321 -1.1782598E-02
         322 -4.2592287E-03
         323  1.3450804E-02
         324  1.4799168E-04
         325 -1.9578477E-02
         326  9.1795558E-03
         327  9.4671724E-03
         328  3.5265430E-03
         329  7.3229396E-03
         330  1.7367810E-02
         331 -2.4738193E-03
         332  1.6795389E-03
         333 -1.2213700E-03
         334 -1.8787690E-03
         335 -3.0033866E-02
         336  1.1644810E-02
         337  4.7398019E-03
         338  8.5146111E-03
         339  8.2008960E-04
         340  4.2905636E-02
         341 -1.6036736E-02
         342 -1.5007395E-03
         343 -1.4340072E-02
         344 -4.3960083E-03
         345 -1.2377895E-02
         346  4.7147027E-03
         347 -1.5816188E-03
         348  5.2668266E-03
         349 -5.2352174E-04
         350 -1.7697170E-02
         351  2.7731003E-03
         352  4.5426184E-04
         353  1.6794616E-03
         354 -4.7873287E-04
         355 -3.9674804E-02
         356  1.2328996E-02
         357 -9.3207601E-03
         358 -1.0451987E-02
         359  3.4618282E-05
         360  3.4161083E-02
         361 -5.8743693E-03
         362 -1.2308883E-02
         363  2.0563316E-02
         364 -3.9431343E-05
         365  2.0388406E-02
         366 -9.7282054E-03
         367  7.6948246E-03
         368 -7.3991367E-03
         369  7.3756310E-03
         370  3.8511515E-02
         371 -1.1143550E-02
         372  1.4770345E-02
         373 -2.3407869E-03
         374 -6.6619081E-04
         375 -1.9490756E-02
         376  9.3334261E-03
         377 -1.3180117E-03
         378 -1.0021524E-02
         379  8.3579477E-03
         380 -3.3503696E-02
         381  5.4389434E-03
         382 -1.7393683E-03
         383  2.4534736E-02
         384  1.0159039E-03
         385  1.8707151E-02
         386 -3.1041389E-03
         387 -3.4283330E-03
         388  8.9962961E-04
         389 -2.4380658E-03
