 [Molden Format]
 [Atoms] Angs
C       1      6     -6.41399178      1.14413625     -1.39399376
C       2      6     -5.82029466      0.36160713     -0.20739010
C       3      6     -6.94098848     -0.09403697      0.74608790
C       4      6     -5.10854307     -0.86475938     -0.74605431
C       5      6     -5.82525329     -1.80359964     -1.47674286
C       6      6     -5.22722534     -2.92505617     -2.02109472
C       7      6     -3.86708039     -3.11329391     -1.85373329
C       8      6     -3.13129721     -2.19627800     -1.13218416
C       9      6     -3.74030629     -1.07942515     -0.55158554
N      10      7     -2.97254145     -0.18118613      0.18028850
C      11      6     -1.60351299     -0.47094415      0.39384441
C      12      6     -1.25545701     -1.52605646      1.26797976
C      13      6      0.05288582     -1.81959150      1.52727108
C      14      6      1.07494061     -1.06841274      0.91240607
N      15      7      2.36611181     -1.29082693      1.22932129
C      16      6      3.28501256     -0.59051397      0.61165711
C      17      6      4.67572606     -0.72009547      1.05863788
C      18      6      5.20068127     -1.96148107      1.41297906
C      19      6      6.51973326     -2.02676497      1.82567057
C      20      6      7.26044234     -0.85549311      1.88287461
C      21      6      6.63597728      0.33241279      1.53136965
N      22      7      5.38059595      0.40759118      1.12929191
C      23      6      2.93911344      0.31442232     -0.44068335
C      24      6      3.97822008      0.88635550     -1.30427317
C      25      6      3.90759666      2.21024651     -1.73306508
C      26      6      4.91387989      2.69296178     -2.55115342
C      27      6      5.94194537      1.83869215     -2.92119231
C      28      6      5.90662622      0.53166177     -2.45736453
N      29      7      4.95659056      0.06071523     -1.67073568
N      30      7      1.68979436      0.61193833     -0.69457382
C      31      6      0.72762509     -0.03540517     -0.00281925
C      32      6     -0.62613097      0.26202569     -0.23592426
C      33      6     -3.52179478      0.97251728      0.72942063
C      34      6     -2.72478182      1.82550589      1.49863679
C      35      6     -3.24291546      2.97651588      2.05479633
C      36      6     -4.57446136      3.29611058      1.85960448
C      37      6     -5.37170448      2.43989549      1.12331971
C      38      6     -4.87695792      1.27279861      0.55527008
H      39      1     -7.10539608      0.52586450     -1.95939477
H      40      1     -6.94862767      2.02438188     -1.04849110
H      41      1     -5.61622890      1.46609190     -2.06134018
H      42      1     -7.64640887     -0.74086513      0.23226263
H      43      1     -7.48600828      0.75895927      1.14006611
H      44      1     -6.51469188     -0.64549202      1.58240528
H      45      1     -6.88357286     -1.65894767     -1.63119619
H      46      1     -5.81562523     -3.63684761     -2.58008759
H      47      1     -3.37308882     -3.96998199     -2.28804664
H      48      1     -2.06746372     -2.34273453     -1.02279350
H      49      1     -2.04917912     -2.08694468      1.73876716
H      50      1      0.33437924     -2.60670992      2.20909405
H      51      1      4.57724607     -2.83915973      1.35201076
H      52      1      6.96236807     -2.97321959      2.09970193
H      53      1      8.29227962     -0.85971177      2.19663812
H      54      1      7.16128678      1.27831137      1.57345638
H      55      1      3.08297117      2.82901787     -1.41716869
H      56      1      4.89612452      3.71640151     -2.89617714
H      57      1      6.74659323      2.17294901     -3.55675579
H      58      1      6.67421407     -0.18260685     -2.72747404
H      59      1     -0.87509085      1.06184776     -0.91638671
H      60      1     -1.68754719      1.58041986      1.66856886
H      61      1     -2.60343085      3.61841459      2.64274538
H      62      1     -4.99145827      4.19646052      2.28474168
H      63      1     -6.41298152      2.69166163      0.99281880
 [GTO]
           1   0
s              4   1.000000
     37.02626064     -0.01198412
      6.37622846     -0.05472052
      0.51235716      0.58055871
      0.19527200      0.47700799
p              4   1.000000
      5.96774920      0.05713170
      1.54734825      0.28574555
      0.54548814      0.55178731
      0.21716823      0.26323149
s              7   1.000000
      0.38350848     -0.19441628
      0.04707223      0.93934800
      0.02222627      0.24668705
     37.02626064      0.00521702
      6.37622846      0.02382136
      0.51235716     -0.25273331
      0.19527200     -0.20765481
p              7   1.000000
      1.83062075     -0.01151068
      0.10124670      0.56565236
      0.03901771      0.59073985
      5.96774920     -0.02389238
      1.54734825     -0.11949829
      0.54548814     -0.23075649
      0.21716823     -0.11008295
 
           2   0
s              4   1.000000
     37.10377645     -0.01198412
      6.38957733     -0.05472052
      0.51342980      0.58055871
      0.19568081      0.47700799
p              4   1.000000
      5.98024290      0.05713170
      1.55058768      0.28574555
      0.54663014      0.55178731
      0.21762288      0.26323149
s              7   1.000000
      0.38350848     -0.19435422
      0.04707223      0.93904814
      0.02222627      0.24660830
     37.10377645      0.00520656
      6.38957733      0.02377359
      0.51342980     -0.25222648
      0.19568081     -0.20723838
p              7   1.000000
      1.83062075     -0.01150723
      0.10124670      0.56548285
      0.03901771      0.59056286
      5.98024290     -0.02384424
      1.55058768     -0.11925753
      0.54663014     -0.23029158
      0.21762288     -0.10986116
 
           3   0
s              4   1.000000
     37.02590726     -0.01198412
      6.37616761     -0.05472052
      0.51235227      0.58055871
      0.19527013      0.47700799
p              4   1.000000
      5.96769224      0.05713170
      1.54733349      0.28574555
      0.54548294      0.55178731
      0.21716616      0.26323149
s              7   1.000000
      0.38350848     -0.19441656
      0.04707223      0.93934938
      0.02222627      0.24668742
     37.02590726      0.00521707
      6.37616761      0.02382158
      0.51235227     -0.25273563
      0.19527013     -0.20765671
p              7   1.000000
      1.83062075     -0.01151069
      0.10124670      0.56565313
      0.03901771      0.59074066
      5.96769224     -0.02389260
      1.54733349     -0.11949939
      0.54548294     -0.23075861
      0.21716616     -0.11008396
 
           4   0
s              4   1.000000
     35.25612635     -0.01198412
      6.07139669     -0.05472052
      0.48786263      0.58055871
      0.18593652      0.47700799
p              4   1.000000
      5.68244582      0.05713170
      1.47337335      0.28574555
      0.51940970      0.55178731
      0.20678595      0.26323149
s              7   1.000000
      0.38350848     -0.19593379
      0.04707223      0.94668009
      0.02222627      0.24861256
     35.25612635      0.00546760
      6.07139669      0.02496553
      0.48786263     -0.26487235
      0.18593652     -0.21762868
p              7   1.000000
      1.83062075     -0.01159502
      0.10124670      0.56979722
      0.03901771      0.59506856
      5.68244582     -0.02504501
      1.47337335     -0.12526320
      0.51940970     -0.24188878
      0.20678595     -0.11539363
 
           5   0
s              4   1.000000
     35.03425485     -0.01198412
      6.03318858     -0.05472052
      0.48479245      0.58055871
      0.18476640      0.47700800
p              4   1.000000
      5.64668543      0.05713170
      1.46410121      0.28574555
      0.51614098      0.55178731
      0.20548462      0.26323149
s              7   1.000000
      0.38350848     -0.19613852
      0.04707223      0.94766923
      0.02222627      0.24887232
     35.03425485      0.00550067
      6.03318858      0.02511655
      0.48479245     -0.26647467
      0.18476640     -0.21894520
p              7   1.000000
      1.83062075     -0.01160640
      0.10124670      0.57035645
      0.03901771      0.59565258
      5.64668543     -0.02519711
      1.46410121     -0.12602394
      0.51614098     -0.24335780
      0.20548462     -0.11609444
 
           6   0
s              4   1.000000
     34.91096359     -0.01198412
      6.01195681     -0.05472052
      0.48308638      0.58055871
      0.18411618      0.47700800
p              4   1.000000
      5.62681382      0.05713170
      1.45894880      0.28574555
      0.51432460      0.55178731
      0.20476149      0.26323149
s              7   1.000000
      0.38350848     -0.19625378
      0.04707223      0.94822614
      0.02222627      0.24901857
     34.91096359      0.00551922
      6.01195681      0.02520125
      0.48308638     -0.26737330
      0.18411618     -0.21968356
p              7   1.000000
      1.83062075     -0.01161281
      0.10124670      0.57067130
      0.03901771      0.59598141
      5.62681382     -0.02528241
      1.45894880     -0.12645057
      0.51432460     -0.24418164
      0.20476149     -0.11648745
 
           7   0
s              4   1.000000
     34.91868608     -0.01198412
      6.01328668     -0.05472052
      0.48319324      0.58055871
      0.18415691      0.47700799
p              4   1.000000
      5.62805850      0.05713170
      1.45927153      0.28574555
      0.51443837      0.55178730
      0.20480678      0.26323149
s              7   1.000000
      0.38350848     -0.19624653
      0.04707223      0.94819111
      0.02222627      0.24900938
     34.91868608      0.00551806
      6.01328668      0.02519593
      0.48319324     -0.26731684
      0.18415691     -0.21963716
p              7   1.000000
      1.83062075     -0.01161241
      0.10124670      0.57065149
      0.03901771      0.59596073
      5.62805850     -0.02527705
      1.45927153     -0.12642376
      0.51443837     -0.24412988
      0.20480678     -0.11646276
 
           8   0
s              4   1.000000
     35.04357387     -0.01198412
      6.03479340     -0.05472052
      0.48492140      0.58055871
      0.18481555      0.47700800
p              4   1.000000
      5.64818743      0.05713170
      1.46449066      0.28574555
      0.51627828      0.55178731
      0.20553928      0.26323149
s              7   1.000000
      0.38350848     -0.19612985
      0.04707223      0.94762736
      0.02222627      0.24886133
     35.04357387      0.00549928
      6.03479340      0.02511017
      0.48492140     -0.26640698
      0.18481555     -0.21888959
p              7   1.000000
      1.83062075     -0.01160592
      0.10124670      0.57033277
      0.03901771      0.59562786
      5.64818743     -0.02519069
      1.46449066     -0.12599181
      0.51627828     -0.24329575
      0.20553928     -0.11606484
 
           9   0
s              4   1.000000
     35.26149419     -0.01198412
      6.07232108     -0.05472052
      0.48793691      0.58055871
      0.18596483      0.47700799
p              4   1.000000
      5.68331098      0.05713170
      1.47359767      0.28574555
      0.51948878      0.55178731
      0.20681743      0.26323149
s              7   1.000000
      0.38350848     -0.19592889
      0.04707223      0.94665636
      0.02222627      0.24860634
     35.26149419      0.00546680
      6.07232108      0.02496189
      0.48793691     -0.26483381
      0.18596483     -0.21759702
p              7   1.000000
      1.83062075     -0.01159475
      0.10124670      0.56978380
      0.03901771      0.59505456
      5.68331098     -0.02504135
      1.47359767     -0.12524490
      0.51948878     -0.24185345
      0.20681743     -0.11537678
 
          10   0
s              4   1.000000
     61.19274598     -0.01198412
     10.53789721     -0.05472052
      0.84676500      0.58055871
      0.32272310      0.47700799
p              4   1.000000
      7.21290989      0.05713170
      1.87019983      0.28574555
      0.65930331      0.55178731
      0.26248001      0.26323149
s              7   1.000000
      0.47894987     -0.18778557
      0.05878681      0.90731089
      0.02775758      0.23827362
     61.19274598      0.00397027
     10.53789721      0.01812858
      0.84676500     -0.19233562
      0.32272310     -0.15802989
p              7   1.000000
      2.28619608     -0.01156626
      0.12644335      0.56838397
      0.04872781      0.59359263
      7.21290989     -0.02465712
      1.87019983     -0.12332316
      0.65930331     -0.23814249
      0.26248001     -0.11360646
 
          11   0
s              4   1.000000
     35.22485149     -0.01198412
      6.06601090     -0.05472053
      0.48742986      0.58055871
      0.18577158      0.47700799
p              4   1.000000
      5.67740505      0.05713170
      1.47206635      0.28574555
      0.51894894      0.55178731
      0.20660252      0.26323149
s              7   1.000000
      0.38350848     -0.19596244
      0.04707223      0.94681851
      0.02222627      0.24864893
     35.22485149      0.00547224
      6.06601090      0.02498671
      0.48742986     -0.26509706
      0.18577158     -0.21781331
p              7   1.000000
      1.83062075     -0.01159662
      0.10124670      0.56987548
      0.03901771      0.59515028
      5.67740505     -0.02506634
      1.47206635     -0.12536989
      0.51894894     -0.24209481
      0.20660252     -0.11549192
 
          12   0
s              4   1.000000
     34.99902153     -0.01198412
      6.02712111     -0.05472052
      0.48430490      0.58055871
      0.18458058      0.47700799
p              4   1.000000
      5.64100666      0.05713170
      1.46262879      0.28574555
      0.51562191      0.55178731
      0.20527797      0.26323149
s              7   1.000000
      0.38350848     -0.19617135
      0.04707223      0.94782786
      0.02222627      0.24891398
     34.99902153      0.00550596
      6.02712111      0.02514070
      0.48430490     -0.26673087
      0.18458058     -0.21915571
p              7   1.000000
      1.83062075     -0.01160823
      0.10124670      0.57044612
      0.03901771      0.59574624
      5.64100666     -0.02522143
      1.46262879     -0.12614557
      0.51562191     -0.24359268
      0.20527797     -0.11620649
 
          13   0
s              4   1.000000
     34.97553782     -0.01198412
      6.02307702     -0.05472052
      0.48397994      0.58055871
      0.18445673      0.47700799
p              4   1.000000
      5.63722164      0.05713170
      1.46164739      0.28574555
      0.51527594      0.55178731
      0.20514023      0.26323149
s              7   1.000000
      0.38350848     -0.19619328
      0.04707223      0.94793381
      0.02222627      0.24894181
     34.97553782      0.00550949
      6.02307702      0.02515682
      0.48397994     -0.26690190
      0.18445673     -0.21929623
p              7   1.000000
      1.83062075     -0.01160945
      0.10124670      0.57050603
      0.03901771      0.59580878
      5.63722164     -0.02523766
      1.46164739     -0.12622677
      0.51527594     -0.24374948
      0.20514023     -0.11628129
 
          14   0
s              4   1.000000
     35.28784301     -0.01198412
      6.07685856     -0.05472052
      0.48830151      0.58055871
      0.18610379      0.47700799
p              4   1.000000
      5.68755778      0.05713170
      1.47469880      0.28574555
      0.51987696      0.55178731
      0.20697198      0.26323149
s              7   1.000000
      0.38350848     -0.19590481
      0.04707223      0.94654004
      0.02222627      0.24857578
     35.28784301      0.00546290
      6.07685856      0.02494408
      0.48830151     -0.26464483
      0.18610379     -0.21744174
p              7   1.000000
      1.83062075     -0.01159341
      0.10124670      0.56971805
      0.03901771      0.59498587
      5.68755778     -0.02502341
      1.47469880     -0.12515517
      0.51987696     -0.24168018
      0.20697198     -0.11529413
 
          15   0
s              4   1.000000
     57.30693612     -0.01198412
      9.86872859     -0.05472053
      0.79299445      0.58055871
      0.30222981      0.47700799
p              4   1.000000
      6.75488180      0.05713170
      1.75143998      0.28574555
      0.61743679      0.55178731
      0.24581223      0.26323149
s              7   1.000000
      0.47894987     -0.18906585
      0.05878681      0.91349670
      0.02775758      0.23989811
     57.30693612      0.00423600
      9.86872859      0.01934193
      0.79299445     -0.20520871
      0.30222981     -0.16860688
p              7   1.000000
      2.28619608     -0.01168725
      0.12644335      0.57432939
      0.04872781      0.59980175
      6.75488180     -0.02625645
      1.75143998     -0.13132226
      0.61743679     -0.25358911
      0.24581223     -0.12097531
 
          16   0
s              4   1.000000
     35.30684418     -0.01198412
      6.08013072     -0.05472052
      0.48856445      0.58055871
      0.18620400      0.47700800
p              4   1.000000
      5.69062032      0.05713170
      1.47549287      0.28574555
      0.52015690      0.55178731
      0.20708342      0.26323149
s              7   1.000000
      0.38350848     -0.19588748
      0.04707223      0.94645631
      0.02222627      0.24855379
     35.30684418      0.00546009
      6.08013072      0.02493125
      0.48856445     -0.26450872
      0.18620400     -0.21732991
p              7   1.000000
      1.83062075     -0.01159245
      0.10124670      0.56967069
      0.03901771      0.59493643
      5.69062032     -0.02501049
      1.47549287     -0.12509055
      0.52015690     -0.24155538
      0.20708342     -0.11523459
 
          17   0
s              4   1.000000
     35.28378628     -0.01198412
      6.07615996     -0.05472053
      0.48824538      0.58055871
      0.18608240      0.47700799
p              4   1.000000
      5.68690394      0.05713170
      1.47452927      0.28574555
      0.51981720      0.55178731
      0.20694818      0.26323149
s              7   1.000000
      0.38350848     -0.19590851
      0.04707223      0.94655794
      0.02222627      0.24858048
     35.28378628      0.00546350
      6.07615996      0.02494682
      0.48824538     -0.26467391
      0.18608240     -0.21746564
p              7   1.000000
      1.83062075     -0.01159362
      0.10124670      0.56972816
      0.03901771      0.59499643
      5.68690394     -0.02502617
      1.47452927     -0.12516898
      0.51981720     -0.24170684
      0.20694818     -0.11530684
 
          18   0
s              4   1.000000
     34.99591795     -0.01198412
      6.02658665     -0.05472053
      0.48426195      0.58055871
      0.18456422      0.47700799
p              4   1.000000
      5.64050643      0.05713170
      1.46249909      0.28574555
      0.51557619      0.55178731
      0.20525976      0.26323149
s              7   1.000000
      0.38350848     -0.19617424
      0.04707223      0.94784184
      0.02222627      0.24891766
     34.99591795      0.00550643
      6.02658665      0.02514283
      0.48426195     -0.26675346
      0.18456422     -0.21917427
p              7   1.000000
      1.83062075     -0.01160839
      0.10124670      0.57045403
      0.03901771      0.59575449
      5.64050643     -0.02522357
      1.46249909     -0.12615630
      0.51557619     -0.24361339
      0.20525976     -0.11621637
 
          19   0
s              4   1.000000
     34.93807120     -0.01198412
      6.01662496     -0.05472052
      0.48346149      0.58055871
      0.18425914      0.47700799
p              4   1.000000
      5.63118292      0.05713170
      1.46008164      0.28574555
      0.51472396      0.55178731
      0.20492048      0.26323149
s              7   1.000000
      0.38350848     -0.19622835
      0.04707223      0.94810325
      0.02222627      0.24898630
     34.93807120      0.00551513
      6.01662496      0.02518258
      0.48346149     -0.26717521
      0.18425914     -0.21952079
p              7   1.000000
      1.83062075     -0.01161140
      0.10124670      0.57060182
      0.03901771      0.59590883
      5.63118292     -0.02526361
      1.46008164     -0.12635653
      0.51472396     -0.24400004
      0.20492048     -0.11640082
 
          20   0
s              4   1.000000
     34.90435400     -0.01198412
      6.01081858     -0.05472052
      0.48299492      0.58055871
      0.18408132      0.47700799
p              4   1.000000
      5.62574851      0.05713170
      1.45867258      0.28574555
      0.51422722      0.55178731
      0.20472272      0.26323149
s              7   1.000000
      0.38350848     -0.19625999
      0.04707223      0.94825614
      0.02222627      0.24902647
     34.90435400      0.00552022
      6.01081858      0.02520581
      0.48299492     -0.26742164
      0.18408132     -0.21972327
p              7   1.000000
      1.83062075     -0.01161316
      0.10124670      0.57068826
      0.03901771      0.59599913
      5.62574851     -0.02528700
      1.45867258     -0.12647352
      0.51422722     -0.24422596
      0.20472272     -0.11650859
 
          21   0
s              4   1.000000
     35.07014887     -0.01198412
      6.03936983     -0.05472052
      0.48528913      0.58055871
      0.18495570      0.47700799
p              4   1.000000
      5.65247068      0.05713170
      1.46560124      0.28574555
      0.51666979      0.55178731
      0.20569515      0.26323149
s              7   1.000000
      0.38350848     -0.19610517
      0.04707223      0.94750808
      0.02222627      0.24883001
     35.07014887      0.00549530
      6.03936983      0.02509200
      0.48528913     -0.26621416
      0.18495570     -0.21873116
p              7   1.000000
      1.83062075     -0.01160455
      0.10124670      0.57026534
      0.03901771      0.59555743
      5.65247068     -0.02517238
      1.46560124     -0.12590026
      0.51666979     -0.24311898
      0.20569515     -0.11598051
 
          22   0
s              4   1.000000
     57.21076391     -0.01198412
      9.85216694     -0.05472052
      0.79166365      0.58055871
      0.30172261      0.47700799
p              4   1.000000
      6.74354579      0.05713170
      1.74850073      0.28574555
      0.61640061      0.55178731
      0.24539971      0.26323149
s              7   1.000000
      0.47894987     -0.18910058
      0.05878681      0.91366449
      0.02775758      0.23994218
     57.21076391      0.00424300
      9.85216694      0.01937390
      0.79166365     -0.20554785
      0.30172261     -0.16888553
p              7   1.000000
      2.28619608     -0.01169052
      0.12644335      0.57449027
      0.04872781      0.59996973
      6.74354579     -0.02629860
      1.74850073     -0.13153308
      0.61640061     -0.25399619
      0.24539971     -0.12116951
 
          23   0
s              4   1.000000
     35.30680141     -0.01198412
      6.08012335     -0.05472052
      0.48856385      0.58055871
      0.18620378      0.47700799
p              4   1.000000
      5.69061342      0.05713170
      1.47549109      0.28574555
      0.52015627      0.55178730
      0.20708317      0.26323149
s              7   1.000000
      0.38350848     -0.19588752
      0.04707223      0.94645649
      0.02222627      0.24855384
     35.30680141      0.00546010
      6.08012335      0.02493128
      0.48856385     -0.26450902
      0.18620378     -0.21733016
p              7   1.000000
      1.83062075     -0.01159245
      0.10124670      0.56967080
      0.03901771      0.59493655
      5.69061342     -0.02501052
      1.47549109     -0.12509069
      0.52015627     -0.24155566
      0.20708317     -0.11523472
 
          24   0
s              4   1.000000
     35.28494106     -0.01198412
      6.07635882     -0.05472052
      0.48826136      0.58055871
      0.18608849      0.47700799
p              4   1.000000
      5.68709006      0.05713170
      1.47457753      0.28574555
      0.51983421      0.55178731
      0.20695496      0.26323149
s              7   1.000000
      0.38350848     -0.19590746
      0.04707223      0.94655284
      0.02222627      0.24857914
     35.28494106      0.00546333
      6.07635882      0.02494604
      0.48826136     -0.26466563
      0.18608849     -0.21745884
p              7   1.000000
      1.83062075     -0.01159356
      0.10124670      0.56972528
      0.03901771      0.59499343
      5.68709006     -0.02502538
      1.47457753     -0.12516505
      0.51983421     -0.24169925
      0.20695496     -0.11530322
 
          25   0
s              4   1.000000
     34.99454481     -0.01198412
      6.02635018     -0.05472052
      0.48424295      0.58055871
      0.18455698      0.47700799
p              4   1.000000
      5.64028512      0.05713170
      1.46244171      0.28574555
      0.51555596      0.55178731
      0.20525171      0.26323149
s              7   1.000000
      0.38350848     -0.19617553
      0.04707223      0.94784803
      0.02222627      0.24891929
     34.99454481      0.00550663
      6.02635018      0.02514377
      0.48424295     -0.26676345
      0.18455698     -0.21918248
p              7   1.000000
      1.83062075     -0.01160846
      0.10124670      0.57045753
      0.03901771      0.59575817
      5.64028512     -0.02522452
      1.46244171     -0.12616104
      0.51555596     -0.24362256
      0.20525171     -0.11622074
 
          26   0
s              4   1.000000
     34.93855349     -0.01198412
      6.01670802     -0.05472052
      0.48346816      0.58055871
      0.18426168      0.47700800
p              4   1.000000
      5.63126065      0.05713170
      1.46010180      0.28574555
      0.51473107      0.55178731
      0.20492331      0.26323149
s              7   1.000000
      0.38350848     -0.19622789
      0.04707223      0.94810107
      0.02222627      0.24898574
     34.93855349      0.00551506
      6.01670802      0.02518225
      0.48346816     -0.26717169
      0.18426168     -0.21951790
p              7   1.000000
      1.83062075     -0.01161137
      0.10124670      0.57060059
      0.03901771      0.59590754
      5.63126065     -0.02526327
      1.46010180     -0.12635485
      0.51473107     -0.24399681
      0.20492331     -0.11639928
 
          27   0
s              4   1.000000
     34.90427477     -0.01198412
      6.01080494     -0.05472052
      0.48299382      0.58055871
      0.18408090      0.47700799
p              4   1.000000
      5.62573574      0.05713170
      1.45866927      0.28574555
      0.51422606      0.55178731
      0.20472225      0.26323149
s              7   1.000000
      0.38350848     -0.19626006
      0.04707223      0.94825650
      0.02222627      0.24902656
     34.90427477      0.00552023
      6.01080494      0.02520586
      0.48299382     -0.26742222
      0.18408090     -0.21972375
p              7   1.000000
      1.83062075     -0.01161316
      0.10124670      0.57068847
      0.03901771      0.59599933
      5.62573574     -0.02528705
      1.45866927     -0.12647379
      0.51422606     -0.24422649
      0.20472225     -0.11650885
 
          28   0
s              4   1.000000
     35.07003308     -0.01198412
      6.03934989     -0.05472052
      0.48528753      0.58055871
      0.18495509      0.47700799
p              4   1.000000
      5.65245202      0.05713170
      1.46559641      0.28574555
      0.51666809      0.55178731
      0.20569447      0.26323149
s              7   1.000000
      0.38350848     -0.19610527
      0.04707223      0.94750861
      0.02222627      0.24883015
     35.07003308      0.00549531
      6.03934989      0.02509208
      0.48528753     -0.26621500
      0.18495509     -0.21873185
p              7   1.000000
      1.83062075     -0.01160456
      0.10124670      0.57026562
      0.03901771      0.59555775
      5.65245202     -0.02517246
      1.46559641     -0.12590066
      0.51666809     -0.24311974
      0.20569447     -0.11598087
 
          29   0
s              4   1.000000
     57.21273421     -0.01198412
      9.85250625     -0.05472052
      0.79169092      0.58055871
      0.30173300      0.47700799
p              4   1.000000
      6.74377803      0.05713170
      1.74856094      0.28574555
      0.61642184      0.55178731
      0.24540816      0.26323149
s              7   1.000000
      0.47894987     -0.18909986
      0.05878681      0.91366105
      0.02775758      0.23994127
     57.21273421      0.00424285
      9.85250625      0.01937324
      0.79169092     -0.20554089
      0.30173300     -0.16887981
p              7   1.000000
      2.28619608     -0.01169046
      0.12644335      0.57448697
      0.04872781      0.59996630
      6.74377803     -0.02629774
      1.74856094     -0.13152875
      0.61642184     -0.25398784
      0.24540816     -0.12116552
 
          30   0
s              4   1.000000
     57.31108294     -0.01198412
      9.86944271     -0.05472052
      0.79305183      0.58055871
      0.30225168      0.47700799
p              4   1.000000
      6.75537059      0.05713170
      1.75156672      0.28574555
      0.61748147      0.55178731
      0.24583001      0.26323149
s              7   1.000000
      0.47894987     -0.18906435
      0.05878681      0.91348949
      0.02775758      0.23989621
     57.31108294      0.00423570
      9.86944271      0.01934056
      0.79305183     -0.20519411
      0.30225168     -0.16859489
p              7   1.000000
      2.28619608     -0.01168711
      0.12644335      0.57432248
      0.04872781      0.59979451
      6.75537059     -0.02625464
      1.75156672     -0.13131319
      0.61748147     -0.25357158
      0.24583001     -0.12096695
 
          31   0
s              4   1.000000
     35.28783722     -0.01198412
      6.07685756     -0.05472052
      0.48830143      0.58055871
      0.18610376      0.47700799
p              4   1.000000
      5.68755685      0.05713170
      1.47469856      0.28574555
      0.51987688      0.55178731
      0.20697194      0.26323149
s              7   1.000000
      0.38350848     -0.19590481
      0.04707223      0.94654007
      0.02222627      0.24857580
     35.28783722      0.00546290
      6.07685756      0.02494409
      0.48830143     -0.26464487
      0.18610376     -0.21744178
p              7   1.000000
      1.83062075     -0.01159341
      0.10124670      0.56971806
      0.03901771      0.59498587
      5.68755685     -0.02502341
      1.47469856     -0.12515519
      0.51987688     -0.24168022
      0.20697194     -0.11529414
 
          32   0
s              4   1.000000
     35.07325788     -0.01198412
      6.03990523     -0.05472053
      0.48533216      0.58055871
      0.18497210      0.47700799
p              4   1.000000
      5.65297178      0.05713170
      1.46573117      0.28574555
      0.51671559      0.55178731
      0.20571338      0.26323149
s              7   1.000000
      0.38350848     -0.19610228
      0.04707223      0.94749415
      0.02222627      0.24882635
     35.07325788      0.00549483
      6.03990523      0.02508987
      0.48533216     -0.26619162
      0.18497210     -0.21871264
p              7   1.000000
      1.83062075     -0.01160439
      0.10124670      0.57025745
      0.03901771      0.59554922
      5.65297178     -0.02517024
      1.46573117     -0.12588956
      0.51671559     -0.24309831
      0.20571338     -0.11597065
 
          33   0
s              4   1.000000
     35.25257711     -0.01198412
      6.07078548     -0.05472053
      0.48781352      0.58055871
      0.18591781      0.47700799
p              4   1.000000
      5.68187376      0.05713170
      1.47322502      0.28574555
      0.51935741      0.55178731
      0.20676513      0.26323149
s              7   1.000000
      0.38350848     -0.19593704
      0.04707223      0.94669578
      0.02222627      0.24861668
     35.25257711      0.00546812
      6.07078548      0.02496793
      0.48781352     -0.26489783
      0.18591781     -0.21764962
p              7   1.000000
      1.83062075     -0.01159520
      0.10124670      0.56980608
      0.03901771      0.59507782
      5.68187376     -0.02504743
      1.47322502     -0.12527529
      0.51935741     -0.24191214
      0.20676513     -0.11540478
 
          34   0
s              4   1.000000
     35.03987846     -0.01198412
      6.03415701     -0.05472052
      0.48487026      0.58055871
      0.18479606      0.47700799
p              4   1.000000
      5.64759182      0.05713170
      1.46433623      0.28574555
      0.51622383      0.55178731
      0.20551760      0.26323149
s              7   1.000000
      0.38350848     -0.19613329
      0.04707223      0.94764396
      0.02222627      0.24886569
     35.03987846      0.00549983
      6.03415701      0.02511270
      0.48487026     -0.26643382
      0.18479606     -0.21891164
p              7   1.000000
      1.83062075     -0.01160611
      0.10124670      0.57034215
      0.03901771      0.59563765
      5.64759182     -0.02519323
      1.46433623     -0.12600455
      0.51622383     -0.24332036
      0.20551760     -0.11607657
 
          35   0
s              4   1.000000
     34.91922650     -0.01198412
      6.01337975     -0.05472052
      0.48320072      0.58055871
      0.18415976      0.47700799
p              4   1.000000
      5.62814560      0.05713170
      1.45929411      0.28574555
      0.51444633      0.55178731
      0.20480995      0.26323149
s              7   1.000000
      0.38350848     -0.19624602
      0.04707223      0.94818865
      0.02222627      0.24900875
     34.91922650      0.00551798
      6.01337975      0.02519556
      0.48320072     -0.26731289
      0.18415976     -0.21963392
p              7   1.000000
      1.83062075     -0.01161238
      0.10124670      0.57065011
      0.03901771      0.59595928
      5.62814560     -0.02527668
      1.45929411     -0.12642189
      0.51444633     -0.24412626
      0.20480995     -0.11646103
 
          36   0
s              4   1.000000
     34.91060084     -0.01198412
      6.01189434     -0.05472052
      0.48308136      0.58055871
      0.18411426      0.47700799
p              4   1.000000
      5.62675535      0.05713170
      1.45893364      0.28574555
      0.51431925      0.55178731
      0.20475936      0.26323149
s              7   1.000000
      0.38350848     -0.19625412
      0.04707223      0.94822779
      0.02222627      0.24901901
     34.91060084      0.00551928
      6.01189434      0.02520150
      0.48308136     -0.26737595
      0.18411426     -0.21968573
p              7   1.000000
      1.83062075     -0.01161283
      0.10124670      0.57067223
      0.03901771      0.59598238
      5.62675535     -0.02528266
      1.45893364     -0.12645183
      0.51431925     -0.24418407
      0.20475936     -0.11648861
 
          37   0
s              4   1.000000
     35.03541823     -0.01198412
      6.03338892     -0.05472052
      0.48480854      0.58055871
      0.18477254      0.47700799
p              4   1.000000
      5.64687294      0.05713170
      1.46414983      0.28574555
      0.51615812      0.55178731
      0.20549144      0.26323149
s              7   1.000000
      0.38350848     -0.19613743
      0.04707223      0.94766401
      0.02222627      0.24887096
     35.03541823      0.00550050
      6.03338892      0.02511576
      0.48480854     -0.26646622
      0.18477254     -0.21893826
p              7   1.000000
      1.83062075     -0.01160634
      0.10124670      0.57035349
      0.03901771      0.59564951
      5.64687294     -0.02519631
      1.46414983     -0.12601993
      0.51615812     -0.24335006
      0.20549144     -0.11609074
 
          38   0
s              4   1.000000
     35.25674711     -0.01198412
      6.07150359     -0.05472052
      0.48787122      0.58055871
      0.18593980      0.47700799
p              4   1.000000
      5.68254587      0.05713170
      1.47339929      0.28574555
      0.51941884      0.55178730
      0.20678959      0.26323149
s              7   1.000000
      0.38350848     -0.19593323
      0.04707223      0.94667734
      0.02222627      0.24861185
     35.25674711      0.00546751
      6.07150359      0.02496511
      0.48787122     -0.26486789
      0.18593980     -0.21762502
p              7   1.000000
      1.83062075     -0.01159499
      0.10124670      0.56979567
      0.03901771      0.59506694
      5.68254587     -0.02504458
      1.47339929     -0.12526108
      0.51941884     -0.24188469
      0.20678959     -0.11539169
 
          39   0
s              4   1.000000
      8.30639754      0.05675242
      1.51996841      0.26014135
      0.42226387      0.53284611
      0.14014558      0.29162544
s              7   1.000000
      0.92936822     -0.06733171
      0.05643440      0.66948803
      0.02166600      0.51463971
      8.30639754     -0.02902954
      1.51996841     -0.13306538
      0.42226387     -0.27255710
      0.14014558     -0.14916987
p              4   1.000000
      0.64737396      0.05713170
      0.16785440      0.28574555
      0.05917387      0.55178731
      0.02355814      0.26323150
 
          40   0
s              4   1.000000
      8.30638594      0.05675242
      1.51996629      0.26014135
      0.42226328      0.53284611
      0.14014539      0.29162544
s              7   1.000000
      0.92936822     -0.06733172
      0.05643440      0.66948817
      0.02166600      0.51463984
      8.30638594     -0.02902957
      1.51996629     -0.13306553
      0.42226328     -0.27255739
      0.14014539     -0.14917003
p              4   1.000000
      0.64737396      0.05713170
      0.16785440      0.28574555
      0.05917387      0.55178731
      0.02355814      0.26323150
 
          41   0
s              4   1.000000
      8.30622845      0.05675242
      1.51993747      0.26014135
      0.42225527      0.53284611
      0.14014273      0.29162544
s              7   1.000000
      0.92936822     -0.06733192
      0.05643440      0.66949019
      0.02166600      0.51464138
      8.30622845     -0.02902999
      1.51993747     -0.13306746
      0.42225527     -0.27256135
      0.14014273     -0.14917219
p              4   1.000000
      0.64737396      0.05713170
      0.16785440      0.28574555
      0.05917387      0.55178731
      0.02355814      0.26323150
 
          42   0
s              4   1.000000
      8.30639383      0.05675242
      1.51996773      0.26014135
      0.42226368      0.53284611
      0.14014552      0.29162544
s              7   1.000000
      0.92936822     -0.06733171
      0.05643440      0.66948808
      0.02166600      0.51463976
      8.30639383     -0.02902955
      1.51996773     -0.13306543
      0.42226368     -0.27255719
      0.14014552     -0.14916992
p              4   1.000000
      0.64737396      0.05713170
      0.16785440      0.28574555
      0.05917387      0.55178731
      0.02355814      0.26323150
 
          43   0
s              4   1.000000
      8.30639971      0.05675242
      1.51996881      0.26014135
      0.42226398      0.53284611
      0.14014562      0.29162543
s              7   1.000000
      0.92936822     -0.06733170
      0.05643440      0.66948800
      0.02166600      0.51463969
      8.30639971     -0.02902953
      1.51996881     -0.13306536
      0.42226398     -0.27255704
      0.14014562     -0.14916984
p              4   1.000000
      0.64737396      0.05713170
      0.16785440      0.28574555
      0.05917387      0.55178731
      0.02355814      0.26323150
 
          44   0
s              4   1.000000
      8.30622858      0.05675242
      1.51993749      0.26014135
      0.42225528      0.53284611
      0.14014273      0.29162544
s              7   1.000000
      0.92936822     -0.06733192
      0.05643440      0.66949019
      0.02166600      0.51464138
      8.30622858     -0.02902999
      1.51993749     -0.13306746
      0.42225528     -0.27256135
      0.14014273     -0.14917219
p              4   1.000000
      0.64737396      0.05713170
      0.16785440      0.28574555
      0.05917387      0.55178731
      0.02355814      0.26323150
 
          45   0
s              4   1.000000
      8.30993615      0.05675242
      1.52061593      0.26014135
      0.42244376      0.53284611
      0.14020529      0.29162544
s              7   1.000000
      0.92936822     -0.06732715
      0.05643440      0.66944274
      0.02166600      0.51460491
      8.30993615     -0.02902007
      1.52061593     -0.13302198
      0.42244376     -0.27246820
      0.14020529     -0.14912121
p              4   1.000000
      0.64737396      0.05713170
      0.16785440      0.28574555
      0.05917387      0.55178731
      0.02355814      0.26323150
 
          46   0
s              4   1.000000
      8.30882211      0.05675242
      1.52041208      0.26014135
      0.42238712      0.53284611
      0.14018649      0.29162544
s              7   1.000000
      0.92936822     -0.06732859
      0.05643440      0.66945699
      0.02166600      0.51461586
      8.30882211     -0.02902305
      1.52041208     -0.13303564
      0.42238712     -0.27249618
      0.14018649     -0.14913653
p              4   1.000000
      0.64737396      0.05713170
      0.16785440      0.28574555
      0.05917387      0.55178731
      0.02355814      0.26323150
 
          47   0
s              4   1.000000
      8.30891333      0.05675242
      1.52042877      0.26014135
      0.42239176      0.53284611
      0.14018803      0.29162544
s              7   1.000000
      0.92936822     -0.06732847
      0.05643440      0.66945583
      0.02166600      0.51461497
      8.30891333     -0.02902280
      1.52042877     -0.13303452
      0.42239176     -0.27249389
      0.14018803     -0.14913527
p              4   1.000000
      0.64737396      0.05713170
      0.16785440      0.28574555
      0.05917387      0.55178731
      0.02355814      0.26323150
 
          48   0
s              4   1.000000
      8.31076579      0.05675242
      1.52076775      0.26014135
      0.42248593      0.53284611
      0.14021928      0.29162544
s              7   1.000000
      0.92936822     -0.06732609
      0.05643440      0.66943214
      0.02166600      0.51459676
      8.31076579     -0.02901785
      1.52076775     -0.13301181
      0.42248593     -0.27244737
      0.14021928     -0.14910981
p              4   1.000000
      0.64737396      0.05713170
      0.16785440      0.28574555
      0.05917387      0.55178731
      0.02355814      0.26323150
 
          49   0
s              4   1.000000
      8.30946970      0.05675242
      1.52053058      0.26014135
      0.42242005      0.53284611
      0.14019741      0.29162544
s              7   1.000000
      0.92936822     -0.06732775
      0.05643440      0.66944872
      0.02166600      0.51460950
      8.30946970     -0.02902131
      1.52053058     -0.13302770
      0.42242005     -0.27247992
      0.14019741     -0.14912763
p              4   1.000000
      0.64737396      0.05713170
      0.16785440      0.28574555
      0.05917387      0.55178731
      0.02355814      0.26323150
 
          50   0
s              4   1.000000
      8.30918509      0.05675242
      1.52047850      0.26014135
      0.42240558      0.53284611
      0.14019261      0.29162544
s              7   1.000000
      0.92936822     -0.06732812
      0.05643440      0.66945235
      0.02166600      0.51461231
      8.30918509     -0.02902208
      1.52047850     -0.13303119
      0.42240558     -0.27248707
      0.14019261     -0.14913154
p              4   1.000000
      0.64737396      0.05713170
      0.16785440      0.28574555
      0.05917387      0.55178731
      0.02355814      0.26323150
 
          51   0
s              4   1.000000
      8.30924069      0.05675242
      1.52048867      0.26014135
      0.42240840      0.53284611
      0.14019355      0.29162544
s              7   1.000000
      0.92936822     -0.06732805
      0.05643440      0.66945164
      0.02166600      0.51461176
      8.30924069     -0.02902193
      1.52048867     -0.13303051
      0.42240840     -0.27248567
      0.14019355     -0.14913077
p              4   1.000000
      0.64737396      0.05713170
      0.16785440      0.28574555
      0.05917387      0.55178731
      0.02355814      0.26323150
 
          52   0
s              4   1.000000
      8.30863906      0.05675242
      1.52037858      0.26014135
      0.42237782      0.53284611
      0.14018340      0.29162544
s              7   1.000000
      0.92936822     -0.06732882
      0.05643440      0.66945935
      0.02166600      0.51461768
      8.30863906     -0.02902354
      1.52037858     -0.13303789
      0.42237782     -0.27250078
      0.14018340     -0.14913905
p              4   1.000000
      0.64737396      0.05713170
      0.16785440      0.28574555
      0.05917387      0.55178731
      0.02355814      0.26323150
 
          53   0
s              4   1.000000
      8.30864850      0.05675242
      1.52038031      0.26014135
      0.42237830      0.53284611
      0.14018356      0.29162544
s              7   1.000000
      0.92936822     -0.06732881
      0.05643440      0.66945922
      0.02166600      0.51461758
      8.30864850     -0.02902351
      1.52038031     -0.13303777
      0.42237830     -0.27250054
      0.14018356     -0.14913891
p              4   1.000000
      0.64737396      0.05713170
      0.16785440      0.28574555
      0.05917387      0.55178731
      0.02355814      0.26323150
 
          54   0
s              4   1.000000
      8.30891532      0.05675242
      1.52042913      0.26014135
      0.42239186      0.53284611
      0.14018806      0.29162544
s              7   1.000000
      0.92936822     -0.06732847
      0.05643440      0.66945581
      0.02166600      0.51461494
      8.30891532     -0.02902280
      1.52042913     -0.13303450
      0.42239186     -0.27249384
      0.14018806     -0.14913525
p              4   1.000000
      0.64737396      0.05713170
      0.16785440      0.28574555
      0.05917387      0.55178731
      0.02355814      0.26323150
 
          55   0
s              4   1.000000
      8.30923098      0.05675242
      1.52048690      0.26014135
      0.42240791      0.53284611
      0.14019339      0.29162544
s              7   1.000000
      0.92936822     -0.06732806
      0.05643440      0.66945177
      0.02166600      0.51461186
      8.30923098     -0.02902195
      1.52048690     -0.13303063
      0.42240791     -0.27248591
      0.14019339     -0.14913091
p              4   1.000000
      0.64737396      0.05713170
      0.16785440      0.28574555
      0.05917387      0.55178731
      0.02355814      0.26323150
 
          56   0
s              4   1.000000
      8.30864387      0.05675242
      1.52037946      0.26014135
      0.42237806      0.53284611
      0.14018348      0.29162544
s              7   1.000000
      0.92936822     -0.06732881
      0.05643440      0.66945927
      0.02166600      0.51461763
      8.30864387     -0.02902352
      1.52037946     -0.13303783
      0.42237806     -0.27250066
      0.14018348     -0.14913897
p              4   1.000000
      0.64737396      0.05713170
      0.16785440      0.28574555
      0.05917387      0.55178731
      0.02355814      0.26323150
 
          57   0
s              4   1.000000
      8.30865046      0.05675242
      1.52038067      0.26014135
      0.42237840      0.53284611
      0.14018359      0.29162544
s              7   1.000000
      0.92936822     -0.06732881
      0.05643440      0.66945919
      0.02166600      0.51461755
      8.30865046     -0.02902351
      1.52038067     -0.13303775
      0.42237840     -0.27250049
      0.14018359     -0.14913889
p              4   1.000000
      0.64737396      0.05713170
      0.16785440      0.28574555
      0.05917387      0.55178731
      0.02355814      0.26323150
 
          58   0
s              4   1.000000
      8.30891762      0.05675242
      1.52042955      0.26014135
      0.42239198      0.53284611
      0.14018810      0.29162544
s              7   1.000000
      0.92936822     -0.06732846
      0.05643440      0.66945577
      0.02166600      0.51461494
      8.30891762     -0.02902279
      1.52042955     -0.13303447
      0.42239198     -0.27249378
      0.14018810     -0.14913522
p              4   1.000000
      0.64737396      0.05713170
      0.16785440      0.28574555
      0.05917387      0.55178731
      0.02355814      0.26323150
 
          59   0
s              4   1.000000
      8.30956092      0.05675242
      1.52054727      0.26014135
      0.42242468      0.53284611
      0.14019895      0.29162544
s              7   1.000000
      0.92936822     -0.06732763
      0.05643440      0.66944754
      0.02166600      0.51460861
      8.30956092     -0.02902107
      1.52054727     -0.13302658
      0.42242468     -0.27247762
      0.14019895     -0.14912637
p              4   1.000000
      0.64737396      0.05713170
      0.16785440      0.28574555
      0.05917387      0.55178731
      0.02355814      0.26323150
 
          60   0
s              4   1.000000
      8.31073000      0.05675242
      1.52076120      0.26014135
      0.42248411      0.53284611
      0.14021868      0.29162544
s              7   1.000000
      0.92936822     -0.06732613
      0.05643440      0.66943260
      0.02166600      0.51459710
      8.31073000     -0.02901794
      1.52076120     -0.13301225
      0.42248411     -0.27244827
      0.14021868     -0.14911030
p              4   1.000000
      0.64737396      0.05713170
      0.16785440      0.28574555
      0.05917387      0.55178731
      0.02355814      0.26323150
 
          61   0
s              4   1.000000
      8.30891694      0.05675242
      1.52042943      0.26014135
      0.42239194      0.53284611
      0.14018809      0.29162544
s              7   1.000000
      0.92936822     -0.06732846
      0.05643440      0.66945578
      0.02166600      0.51461494
      8.30891694     -0.02902279
      1.52042943     -0.13303448
      0.42239194     -0.27249380
      0.14018809     -0.14913523
p              4   1.000000
      0.64737396      0.05713170
      0.16785440      0.28574555
      0.05917387      0.55178731
      0.02355814      0.26323150
 
          62   0
s              4   1.000000
      8.30882270      0.05675242
      1.52041219      0.26014135
      0.42238715      0.53284611
      0.14018650      0.29162544
s              7   1.000000
      0.92936822     -0.06732859
      0.05643440      0.66945699
      0.02166600      0.51461586
      8.30882270     -0.02902305
      1.52041219     -0.13303564
      0.42238715     -0.27249617
      0.14018650     -0.14913652
p              4   1.000000
      0.64737396      0.05713170
      0.16785440      0.28574555
      0.05917387      0.55178731
      0.02355814      0.26323150
 
          63   0
s              4   1.000000
      8.30995797      0.05675242
      1.52061993      0.26014135
      0.42244487      0.53284611
      0.14020565      0.29162544
s              7   1.000000
      0.92936822     -0.06732712
      0.05643440      0.66944247
      0.02166600      0.51460471
      8.30995797     -0.02902001
      1.52061993     -0.13302172
      0.42244487     -0.27246765
      0.14020565     -0.14912091
p              4   1.000000
      0.64737396      0.05713170
      0.16785440      0.28574555
      0.05917387      0.55178731
      0.02355814      0.26323150
 
 [MO]
 Sym= Hole
 Ene=  -1.023487    
 Spin= Alpha
 Occup= 0
           1 -4.2262204E-02
           2 -3.7593380E-02
           3  4.2435810E-02
           4 -6.0959868E-02
           5  2.4372170E-02
           6  6.6246269E-03
           7 -5.9104604E-03
           8  8.9545101E-03
           9 -1.5173142E-04
          10 -7.9253502E-03
          11 -2.4361262E-02
          12  2.6572246E-02
          13  2.4906438E-04
          14  2.0986779E-03
          15  5.0086943E-03
          16 -4.9381340E-03
          17  4.2028893E-02
          18  6.4044617E-02
          19  2.2155719E-02
          20 -4.6978157E-02
          21 -2.4147380E-02
          22 -1.0291044E-02
          23 -2.7631740E-03
          24  6.3533173E-03
          25 -6.4737798E-04
          26  5.2631468E-02
          27  0.1312219    
          28 -0.2169045    
          29  4.1418985E-04
          30 -5.4074442E-03
          31 -1.0929449E-02
          32  2.0912237E-02
          33 -1.7582352E-03
          34 -4.4195056E-03
          35 -7.1165031E-03
          36  8.0005210E-03
          37 -1.3503825E-04
          38  6.5085667E-05
          39  2.5343751E-03
          40 -3.8673047E-03
          41 -1.5665204E-03
          42 -4.7372263E-02
          43 -0.1254482    
          44  0.2072840    
          45  1.6046509E-04
          46  3.2635452E-03
          47  9.0906024E-03
          48 -1.5609925E-02
          49  8.8874175E-04
          50 -1.3015841E-03
          51 -1.0880954E-02
          52  1.8485229E-02
          53 -7.0235354E-04
          54  1.4821126E-03
          55  4.9161245E-03
          56 -8.9096073E-03
          57 -3.8173452E-03
          58  2.9493706E-02
          59  0.1483763    
          60 -0.2246192    
          61  8.3065807E-04
          62 -4.1121668E-03
          63 -1.1450171E-02
          64  1.0841781E-02
          65 -1.0571769E-02
          66  8.1322109E-03
          67  3.7070937E-02
          68 -9.1459855E-02
          69  4.7628563E-03
          70 -6.7289546E-03
          71 -1.1286790E-02
          72  2.3343973E-02
          73 -3.4532647E-03
          74 -0.1229644    
          75 -0.2658428    
          76  0.4669341    
          77  1.6511207E-03
          78  1.4482259E-02
          79  3.7484247E-02
          80 -4.1903749E-02
          81  9.1674307E-04
          82  8.1462031E-03
          83 -6.8989672E-02
          84 -0.1642518    
          85 -1.8539805E-03
          86 -1.2265637E-03
          87 -8.7307105E-03
          88  1.4559741E-02
          89 -5.0678797E-02
          90  3.1044120E-02
          91 -0.1226149    
          92 -1.9123353E-03
          93  2.7089154E-02
          94 -1.2133099E-02
          95  1.0823864E-02
          96 -3.2252134E-03
          97  1.9736223E-02
          98 -1.7838502E-02
          99  8.7619081E-02
         100  6.6333808E-02
         101 -9.4804307E-03
         102 -5.3913327E-04
         103 -2.4559819E-03
         104  3.0907933E-04
         105  5.9993821E-03
         106 -4.6005566E-03
         107  9.8154917E-02
         108  0.1522707    
         109 -7.4131293E-03
         110 -3.6283103E-03
         111 -1.6762421E-04
         112 -7.9087559E-03
         113 -2.5977766E-02
         114 -9.2610465E-03
         115 -8.0902810E-04
         116 -5.8736943E-02
         117  1.0618318E-02
         118 -2.8446303E-03
         119 -4.2506792E-03
         120  1.5117343E-03
         121  5.6041121E-03
         122  2.2092868E-02
         123 -0.1377292    
         124 -9.8768577E-02
         125 -6.5911915E-03
         126  2.1801230E-03
         127  7.0757233E-03
         128  8.1674039E-04
         129  4.7656167E-03
         130 -1.6338749E-02
         131  1.5179652E-02
         132  1.5415934E-02
         133 -6.5366342E-03
         134  3.0595078E-03
         135 -1.1290711E-03
         136 -2.0603021E-03
         137 -1.1125556E-02
         138 -6.1136447E-03
         139 -9.8606693E-03
         140  6.0769562E-02
         141  3.7658776E-03
         142  7.5090490E-04
         143  2.8206205E-03
         144 -1.5174052E-03
         145  4.7533102E-03
         146 -7.8575416E-03
         147  3.3467859E-03
         148  3.0811441E-03
         149 -1.3333515E-03
         150 -2.6181497E-05
         151  1.1387522E-03
         152  6.9439574E-04
         153 -1.0400751E-03
         154  1.6013896E-02
         155 -1.2491841E-02
         156 -4.9596447E-02
         157  5.1692361E-04
         158 -1.3912881E-03
         159  1.6028181E-03
         160  1.7144292E-03
         161 -1.3467756E-03
         162  7.3486478E-03
         163  7.7104446E-04
         164 -2.0691862E-02
         165  4.3906405E-04
         166 -1.9178805E-03
         167 -7.3535257E-04
         168  2.3297211E-03
         169  2.1773621E-03
         170 -1.5318423E-02
         171 -1.6690891E-02
         172  4.0513370E-02
         173  3.6128590E-04
         174 -4.2199995E-03
         175  1.3006948E-03
         176 -1.3764336E-03
         177 -8.8419346E-03
         178 -3.0942741E-03
         179 -4.0077291E-02
         180 -5.0562773E-02
         181 -2.1339615E-03
         182  3.4611793E-03
         183  1.4639295E-03
         184  4.3549794E-03
         185  6.0493592E-03
         186 -6.5304250E-03
         187  3.5945719E-04
         188  9.5616411E-03
         189 -5.1474734E-03
         190  2.1444350E-03
         191  7.1875378E-04
         192 -5.8555458E-04
         193  2.2906526E-03
         194  9.4501544E-03
         195  1.0451754E-03
         196  1.5275421E-02
         197 -3.2658472E-03
         198 -1.4596309E-04
         199  1.2859674E-03
         200 -2.4916377E-04
         201  2.7371207E-04
         202 -1.3867546E-03
         203  8.7678473E-04
         204 -1.4353824E-04
         205 -1.1651533E-04
         206 -4.4397532E-04
         207 -4.3150713E-04
         208  8.6178938E-05
         209  5.9270016E-05
         210 -8.1959357E-03
         211 -5.8399886E-03
         212 -1.3570582E-02
         213  8.5696825E-05
         214 -1.2071336E-04
         215  2.7356402E-04
         216  9.1499073E-04
         217  2.4245731E-03
         218 -4.8391055E-03
         219 -8.2471862E-04
         220  1.1403367E-03
         221 -1.4629510E-03
         222  9.7065087E-04
         223  6.8524200E-04
         224 -3.0772237E-04
         225 -3.6912283E-03
         226  1.4809500E-02
         227  6.1500067E-04
         228  1.1195364E-02
         229  1.6909810E-03
         230 -7.6151453E-04
         231  2.6638608E-04
         232 -1.5606447E-03
         233  4.5194519E-03
         234 -2.3140116E-03
         235  4.3336116E-02
         236  8.8197455E-02
         237  4.2991005E-04
         238 -3.5655475E-03
         239 -3.2518746E-03
         240 -3.0965079E-03
         241 -1.8123383E-02
         242  2.4920195E-02
         243  5.3467330E-02
         244  3.5989217E-02
         245  9.2876883E-04
         246 -4.6611861E-03
         247  5.3029571E-04
         248  2.6358024E-03
         249  5.0763834E-02
         250 -6.6067569E-02
         251 -0.1818327    
         252 -0.1232768    
         253 -2.8854998E-02
         254  1.9099042E-02
         255  5.2218577E-03
         256  5.4904362E-03
         257  1.1983038E-02
         258  3.4470003E-02
         259  3.5150293E-02
         260 -9.7996280E-02
         261 -6.3460972E-03
         262 -4.3996098E-03
         263 -1.0596237E-02
         264  2.4646444E-02
         265  7.4828528E-03
         266  8.9027293E-02
         267  0.1415714    
         268 -0.2272534    
         269 -3.2846988E-03
         270 -1.7993957E-03
         271 -1.1340851E-02
         272  1.0355934E-02
         273 -1.5675216E-03
         274 -6.5578041E-03
         275 -6.1078109E-03
         276  1.3726358E-02
         277  1.2911150E-03
         278  3.2643923E-03
         279  3.4904468E-03
         280 -9.6113728E-03
         281  2.2052203E-03
         282 -5.6951370E-02
         283 -0.1279010    
         284  0.2109873    
         285 -8.5390329E-06
         286  4.7746040E-03
         287  8.5202465E-03
         288 -1.5210169E-02
         289  2.5836271E-03
         290 -2.4130892E-03
         291 -1.4608080E-02
         292  1.7357193E-02
         293  1.7075879E-04
         294  2.3183632E-03
         295  1.8141504E-03
         296 -3.3748122E-03
         297 -8.8242919E-04
         298  5.1331975E-02
         299  0.1303721    
         300 -0.2149388    
         301  4.0756457E-04
         302 -3.1095878E-03
         303 -1.1417106E-02
         304  2.1376513E-02
         305  1.8358609E-02
         306  1.4233210E-03
         307 -4.3359338E-03
         308 -3.3108937E-03
         309 -7.3836097E-03
         310  2.2327363E-02
         311  1.2054247E-03
         312 -3.0812013E-03
         313  9.0954937E-03
         314  5.5913377E-04
         315  9.2900330E-03
         316  5.8965501E-03
         317  1.3151619E-02
         318  2.4092875E-03
         319 -6.5340307E-03
         320 -2.1278366E-02
         321 -1.0406279E-03
         322  5.8822217E-03
         323  7.4151494E-03
         324  1.6080224E-03
         325 -1.8654816E-02
         326 -1.1641940E-03
         327  4.6218564E-03
         328 -4.9144062E-03
         329 -6.2322947E-03
         330 -9.3097249E-03
         331 -5.5121183E-03
         332 -8.9012897E-03
         333  6.7155929E-03
         334 -9.8527251E-03
         335  2.9087260E-03
         336 -6.7748775E-04
         337 -1.3928029E-03
         338 -1.0918282E-03
         339  2.2794732E-03
         340  8.2070631E-04
         341 -3.1870007E-04
         342 -4.4674692E-03
         343 -1.2061757E-02
         344  1.9299097E-02
         345  5.8972002E-03
         346 -1.2712383E-03
         347 -6.5597799E-04
         348 -2.3959076E-03
         349  4.0669832E-03
         350 -4.6623405E-03
         351  1.0926548E-03
         352  7.2949836E-03
         353  7.1289702E-03
         354 -1.6536539E-02
         355  2.6352497E-02
         356  7.9664337E-03
         357 -1.7418258E-02
         358  1.1670243E-02
         359 -6.9600726E-03
         360 -3.7449464E-02
         361  9.3548163E-04
         362  2.0880948E-04
         363 -3.4356515E-03
         364 -9.9247300E-05
         365  3.0221541E-03
         366  1.1060719E-03
         367 -7.9960201E-04
         368 -1.9933512E-03
         369  1.0678778E-04
         370 -7.7053835E-03
         371  1.2630507E-03
         372  3.3949141E-04
         373  6.9787196E-04
         374 -7.6085002E-05
         375  1.3936277E-03
         376  6.3608494E-04
         377  6.2607951E-04
         378 -1.8718264E-04
         379 -3.7562980E-03
         380  8.4337573E-03
         381 -7.5426244E-04
         382  1.7967208E-03
         383 -2.0967466E-04
         384 -4.1450327E-04
         385 -2.7881979E-03
         386  6.3364430E-05
         387  1.4786394E-03
         388 -2.4032666E-04
         389  1.6015789E-03
         390  1.5068406E-03
         391  8.0788555E-04
         392 -4.5911950E-04
         393 -7.0354599E-04
         394 -1.0113754E-04
         395  8.6305675E-04
         396  4.0503612E-04
         397 -9.7261596E-04
         398 -4.0553798E-04
         399 -8.2547165E-04
         400 -4.0255599E-03
         401  8.3789317E-04
         402 -8.0095313E-04
         403  2.9595767E-04
         404  1.9768189E-04
         405 -2.9998681E-02
         406 -6.1132046E-03
         407  2.1368884E-02
         408  1.2249015E-03
         409 -1.6940327E-03
         410  5.1784553E-03
         411  1.1846796E-04
         412  2.6888881E-04
         413  7.4849227E-03
         414 -1.6032208E-02
         415 -6.0372492E-03
         416  2.2119100E-03
         417 -1.3895611E-03
         418 -2.9774013E-03
         419  3.6550534E-03
         420 -1.1176121E-03
         421  7.8282529E-04
         422 -5.1076291E-03
         423 -1.2006964E-02
         424  1.8898582E-02
         425 -4.3810965E-03
         426  1.2243420E-03
         427  7.2579784E-04
         428 -1.2989558E-03
         429  2.5724922E-03
 Sym= Particle
 Ene=  -1.023487    
 Spin= Alpha
 Occup= 2
           1  5.1999758E-03
           2  3.6921657E-03
           3 -4.8487484E-03
           4  6.9452883E-03
           5 -4.3221572E-03
           6 -2.0260648E-03
           7  3.1986653E-03
           8 -1.0721718E-03
           9 -7.3635380E-04
          10  2.9618939E-04
          11  9.3089910E-03
          12  4.0780813E-03
          13  6.0083275E-04
          14 -1.0847956E-03
          15 -2.8050346E-03
          16  2.2494746E-04
          17 -5.0919731E-03
          18 -6.3709607E-03
          19 -3.2690156E-03
          20  3.8882561E-03
          21  3.8352669E-03
          22  1.4183240E-03
          23  1.6301844E-03
          24  6.9146205E-05
          25 -8.6998958E-03
          26 -2.1690106E-02
          27 -2.1669004E-02
          28  3.4480412E-02
          29  5.2647484E-03
          30  7.7496893E-03
          31  7.1447524E-03
          32 -8.1687579E-03
          33  5.7738996E-03
          34  4.0935045E-03
          35  8.0166785E-03
          36 -9.6999772E-04
          37 -3.4474740E-03
          38 -1.8383939E-03
          39 -1.0083481E-03
          40  2.6680753E-03
          41  3.2332025E-03
          42  9.9492976E-03
          43  1.7191911E-02
          44 -2.9356090E-02
          45 -3.7676007E-03
          46 -5.2729100E-03
          47 -3.1138074E-03
          48  6.4838151E-03
          49 -3.6619764E-03
          50 -7.0158420E-03
          51 -1.5424265E-02
          52  1.5487046E-02
          53  9.6058601E-04
          54 -1.0380560E-03
          55  4.3573445E-03
          56 -2.9353346E-04
          57  9.6475398E-03
          58  1.8666884E-02
          59 -1.7013518E-02
          60  1.9791998E-02
          61 -9.2577441E-03
          62 -1.2658181E-02
          63  3.4936198E-03
          64 -8.0166645E-03
          65  2.7430007E-02
          66  2.9785389E-02
          67  3.9059658E-02
          68  7.4166297E-03
          69 -2.1463402E-02
          70 -1.8371005E-02
          71 -5.8345515E-03
          72 -5.4912698E-03
          73 -1.4711691E-03
          74  1.0470525E-02
          75  1.9302240E-02
          76 -3.7311673E-02
          77  3.0781475E-03
          78  1.1085226E-04
          79  2.5803929E-03
          80  1.5095723E-02
          81  9.8891533E-04
          82  6.2288139E-03
          83  0.2331290    
          84  0.2822321    
          85  3.7436138E-03
          86 -2.0891964E-03
          87 -7.4592255E-02
          88 -9.3732558E-02
          89  2.6784284E-04
          90 -3.1715562E-03
          91  0.1354370    
          92  0.1554044    
          93  3.4795604E-03
          94  3.3343735E-03
          95 -2.8127680E-02
          96 -3.1957120E-02
          97  9.9795128E-05
          98  5.4004756E-03
          99 -0.2596120    
         100 -0.3015436    
         101  1.8945915E-03
         102 -3.7802940E-03
         103  5.9990745E-02
         104  6.7400642E-02
         105  5.3289412E-03
         106  3.1490312E-03
         107  1.9225208E-02
         108  1.2781434E-02
         109 -2.5063562E-03
         110 -3.3452420E-03
         111 -2.4675631E-03
         112 -1.5653443E-03
         113 -4.3078549E-03
         114 -2.6378972E-02
         115  0.2358817    
         116  0.2339228    
         117  3.9868038E-03
         118  6.9166156E-03
         119 -3.7796721E-02
         120 -3.9916947E-02
         121  3.8170973E-03
         122  3.8161829E-02
         123 -0.2194084    
         124 -0.1998476    
         125 -5.7683146E-04
         126 -1.1432837E-02
         127  5.9331760E-02
         128  5.7824329E-02
         129 -3.8401061E-04
         130  1.4473624E-02
         131 -4.8037930E-03
         132 -5.4385703E-02
         133  3.0401931E-04
         134 -8.0857966E-03
         135 -1.2915542E-02
         136  5.5556553E-03
         137 -1.3508500E-02
         138 -1.7010972E-02
         139 -1.2636145E-02
         140  9.0908766E-02
         141  1.0593090E-02
         142 -6.6939072E-04
         143  1.0662152E-02
         144 -1.6600111E-02
         145  4.2599412E-03
         146 -1.1413468E-02
         147  5.4333778E-03
         148  2.3649547E-02
         149 -2.9201165E-03
         150  7.1602792E-04
         151 -9.1495150E-04
         152 -8.5170317E-04
         153  6.4459228E-04
         154  2.5698097E-02
         155 -1.6668471E-02
         156 -8.6898729E-02
         157 -1.5619124E-03
         158 -2.8947135E-03
         159  3.6815454E-03
         160  1.2084458E-02
         161 -6.5418957E-03
         162  1.1044548E-02
         163  4.3174185E-04
         164 -9.9696580E-04
         165  1.9876356E-03
         166 -1.0814129E-03
         167 -9.4908598E-04
         168  2.8974956E-03
         169  1.3465523E-02
         170 -3.5715982E-02
         171 -1.2405264E-02
         172  7.7675767E-02
         173 -1.1254633E-02
         174  1.5850954E-02
         175 -5.2117840E-03
         176 -1.6526144E-02
         177 -3.9605023E-03
         178 -2.0149553E-02
         179 -0.1964256    
         180 -0.1646022    
         181  3.4162836E-04
         182  8.1314780E-03
         183  5.6756478E-02
         184  5.1315516E-02
         185  3.7583205E-04
         186 -2.7235301E-02
         187 -1.2423743E-02
         188 -4.3466486E-02
         189 -1.0478341E-03
         190  1.3790539E-02
         191 -6.4897630E-03
         192  3.3324792E-03
         193  1.1602567E-02
         194  4.3631412E-02
         195 -1.2498293E-03
         196  6.9204666E-02
         197 -9.3956897E-03
         198 -8.3620213E-03
         199  9.3295388E-03
         200 -1.3103599E-02
         201 -3.4437620E-03
         202  1.3809211E-02
         203  8.9619039E-03
         204  1.7270710E-02
         205  2.6246971E-03
         206 -7.3621841E-04
         207 -1.0582731E-03
         208 -1.2044070E-03
         209 -7.4723002E-04
         210 -4.0736709E-02
         211 -2.5796901E-02
         212 -6.6239126E-02
         213  1.7403433E-03
         214  4.8812320E-03
         215  4.6323161E-03
         216  1.0163208E-02
         217  6.2682284E-03
         218 -8.1045972E-03
         219 -2.5813188E-03
         220  5.0297040E-03
         221 -2.0370006E-03
         222  1.3186878E-03
         223 -7.1031664E-04
         224  6.2545785E-04
         225 -1.1874800E-02
         226  5.2872475E-02
         227  4.3822220E-03
         228  5.2446619E-02
         229  1.0062084E-02
         230 -1.6077828E-02
         231 -1.1527453E-02
         232 -1.0168547E-02
         233  1.2563359E-03
         234  1.7499747E-02
         235  0.2523794    
         236  0.2436549    
         237 -1.2341450E-03
         238 -7.0413603E-03
         239 -4.4200312E-02
         240 -4.2740367E-02
         241 -5.8053136E-03
         242 -8.0672177E-03
         243 -3.2272309E-02
         244 -4.0836681E-02
         245  5.9609148E-03
         246  1.0611560E-03
         247  1.0459078E-02
         248  1.0375003E-02
         249 -3.2994663E-03
         250  2.8284453E-03
         251 -0.2856008    
         252 -0.3386805    
         253  5.4932269E-03
         254 -2.9796977E-03
         255  7.6702334E-02
         256  8.7066360E-02
         257 -2.8123293E-02
         258 -1.2241127E-02
         259  5.5325102E-02
         260 -1.2228267E-02
         261  2.4627578E-02
         262  1.2576690E-02
         263 -2.3051234E-02
         264  6.1268751E-03
         265  2.0704726E-03
         266 -1.1069626E-02
         267 -2.3799013E-02
         268  3.1314451E-02
         269  2.8527764E-05
         270  2.5601741E-03
         271  1.3930126E-03
         272 -2.9320889E-03
         273 -7.3996448E-04
         274  2.2613995E-03
         275  9.4005074E-03
         276 -1.0880891E-02
         277 -6.5665651E-04
         278  1.6489343E-03
         279  7.3374651E-04
         280  2.0790943E-03
         281 -5.8975641E-04
         282  7.6549249E-03
         283  1.6214523E-02
         284 -2.7065068E-02
         285  1.0576524E-03
         286  6.2492234E-04
         287 -1.8026633E-03
         288  3.7359616E-03
         289 -5.5135442E-03
         290 -8.2744136E-03
         291 -7.7065127E-03
         292  2.7451256E-02
         293  2.1329632E-03
         294  1.6263495E-03
         295  4.0241014E-03
         296 -6.1044763E-03
         297  9.3473839E-03
         298  1.0115600E-02
         299 -1.2566185E-02
         300  1.3439069E-02
         301 -4.7483537E-03
         302 -4.2377519E-03
         303  6.1771455E-03
         304 -3.6336898E-03
         305 -4.5016280E-04
         306 -2.3316077E-03
         307 -9.0491108E-04
         308  1.1321565E-03
         309  4.2525629E-04
         310 -4.3216259E-03
         311 -1.3526336E-04
         312  9.2896383E-04
         313 -1.7786464E-03
         314  9.0842025E-04
         315 -5.7519792E-04
         316 -1.6394438E-03
         317 -1.7558919E-04
         318  1.8823765E-03
         319  1.2426490E-03
         320  3.5449346E-03
         321 -1.3728993E-03
         322 -2.4997091E-03
         323 -1.5849032E-04
         324  1.0481395E-03
         325  1.0447291E-03
         326  1.3839161E-03
         327  7.9993246E-04
         328  1.4951626E-03
         329  1.6487768E-03
         330  8.9895667E-04
         331  3.7164401E-04
         332  4.2685372E-04
         333  5.0682138E-04
         334  1.3392642E-03
         335 -6.6773933E-03
         336 -4.3869921E-04
         337 -5.8208185E-05
         338  2.0130926E-03
         339 -9.2905812E-04
         340 -3.1679382E-03
         341 -2.8422617E-03
         342 -1.1982556E-03
         343  2.8531228E-03
         344 -5.7905656E-03
         345 -7.1928655E-03
         346 -5.1746506E-04
         347 -5.0520716E-04
         348 -3.7983814E-03
         349  3.8413336E-03
         350 -2.8489884E-03
         351  3.4316245E-04
         352  1.3185530E-03
         353 -1.0768232E-02
         354 -1.6790846E-02
         355  1.0869813E-03
         356  8.3810568E-04
         357  1.8098189E-03
         358  1.6092850E-02
         359  1.9887792E-02
         360  2.6467166E-04
         361  1.1933495E-03
         362 -2.5574369E-03
         363 -3.6983736E-02
         364 -4.5368250E-02
         365  2.8819961E-03
         366 -1.6985845E-03
         367  8.2170069E-03
         368  9.5232722E-04
         369  1.1061413E-02
         370 -9.1602365E-03
         371 -1.9523902E-04
         372  2.1736465E-05
         373 -6.4220553E-04
         374  3.8686139E-03
         375 -2.4086919E-03
         376 -1.8549731E-03
         377  5.6847217E-03
         378 -2.7233905E-03
         379 -1.2723241E-02
         380  1.0220475E-02
         381 -4.5352746E-03
         382  3.5708512E-03
         383  3.6126953E-03
         384  3.3655555E-03
         385 -2.5953222E-03
         386  3.4297139E-03
         387 -6.0103671E-03
         388 -2.3348441E-03
         389  1.4159493E-02
         390  8.4158573E-03
         391  6.5835880E-04
         392  1.0706049E-03
         393 -7.0975558E-04
         394  3.3125677E-03
         395  2.6112925E-03
         396  2.1402757E-03
         397 -7.5923381E-03
         398 -4.6692332E-03
         399 -8.5081961E-03
         400 -8.7679196E-03
         401  4.6339175E-03
         402 -3.1592140E-03
         403  2.5144811E-03
         404  4.5894724E-03
         405  3.2158988E-03
         406  1.9132852E-03
         407 -2.1508506E-03
         408 -4.0415984E-02
         409 -5.1218387E-02
         410  3.2271768E-03
         411 -3.8535318E-03
         412 -2.0340472E-02
         413 -1.9193906E-02
         414  2.0751812E-02
         415  2.7768922E-03
         416  9.8558923E-04
         417  1.3202543E-03
         418  1.9259944E-03
         419 -4.3312288E-03
         420 -4.9356790E-04
         421  1.6709962E-03
         422  2.6941733E-03
         423  2.4019480E-03
         424 -5.2558938E-03
         425  6.7028021E-03
         426 -1.2312011E-03
         427 -9.8911545E-04
         428 -1.7688990E-03
         429  4.5950823E-03
