 [Molden Format]
 [Atoms] Angs
O       1      8      4.13751048     -0.02416780      2.23991913
C       2      6      3.35871217     -0.02215930      1.31166327
C       3      6      1.89527609     -0.03550194      1.49236003
C       4      6      1.36723852     -0.06799861      2.76584616
C       5      6     -0.01711167     -0.07713293      2.95707493
C       6      6     -0.86853223     -0.05175983      1.88327398
C       7      6     -0.36365204     -0.01657318      0.56714487
C       8      6     -1.20179160      0.01184637     -0.57998920
N       9      7     -2.61624231      0.00763152     -0.43028749
C      10      6     -3.24375567      1.23517859     -0.21879705
C      11      6     -2.47654835      2.39127991     -0.07087052
C      12      6     -3.06508892      3.62561573      0.14041112
C      13      6     -4.43977462      3.73894428      0.22199882
C      14      6     -5.21722326      2.60384686      0.07495125
C      15      6     -4.63253840      1.36920443     -0.15374886
S      16     16     -5.73557863      0.00718084     -0.40806303
C      17      6     -4.63294010     -1.36922770     -0.24666903
C      18      6     -5.21767580     -2.61641673     -0.10142154
C      19      6     -4.44017152     -3.75872204     -0.02980374
C      20      6     -3.06535146     -3.64001761     -0.10106915
C      21      6     -2.47678388     -2.39424927     -0.22851947
C      22      6     -3.24416022     -1.23112836     -0.30168463
C      23      6     -0.66088710      0.04300176     -1.84333209
C      24      6      0.72381005      0.04764757     -2.02386106
C      25      6      1.56938331      0.02259072     -0.93538514
C      26      6      1.04028287     -0.00968045      0.37168080
C      27      6      3.02842208      0.02352230     -1.14826109
O      28      8      3.53316843      0.03133269     -2.24988083
N      29      7      3.81075572      0.00396930     -0.00150544
C      30      6      5.23353512      0.01091067     -0.19324314
C      31      6      5.98147461     -1.09075815      0.18915918
C      32      6      7.35255871     -1.07774504      0.00559509
C      33      6      7.96824392      0.02375048     -0.56390283
C      34      6      7.21310518      1.11893395     -0.94736419
C      35      6      5.84258717      1.11905974     -0.75931735
H      36      1      2.04437008     -0.08602174      3.60648003
H      37      1     -0.41380553     -0.10394931      3.96038860
H      38      1     -1.93747645     -0.05844488      2.03604871
H      39      1     -1.40118665      2.32715575     -0.13059929
H      40      1     -2.43711126      4.49732481      0.24254925
H      41      1     -4.90676953      4.69616710      0.39082773
H      42      1     -6.29396413      2.66199705      0.12136034
H      43      1     -6.29444879     -2.67762147     -0.05983905
H      44      1     -4.90720989     -4.72515161      0.07394936
H      45      1     -2.43732446     -4.51648630     -0.05584719
H      46      1     -1.40127617     -2.32580948     -0.28085758
H      47      1     -1.31834661      0.06355072     -2.69931679
H      48      1      1.15150094      0.07088967     -3.01460075
H      49      1      5.49240365     -1.94546611      0.63122186
H      50      1      7.93964397     -1.93276400      0.30544690
H      51      1      9.03821234      0.02863418     -0.70923835
H      52      1      7.69126201      1.97888380     -1.39176292
H      53      1      5.24563293      1.96866146     -1.05419992
 [GTO]
           1   0
s              4   1.000000
     73.05828900     -0.01198412
     12.58124190     -0.05472052
      1.01095647      0.58055871
      0.38530053      0.47700799
p              4   1.000000
      7.53397379      0.05713170
      1.95344691      0.28574555
      0.68865048      0.55178731
      0.27416362      0.26323149
s              7   1.000000
      0.57971233     -0.18804111
      0.07115450      0.90854553
      0.03359728      0.23859784
     73.05828900      0.00402456
     12.58124190      0.01837649
      1.01095647     -0.19496579
      0.38530053     -0.16019093
p              7   1.000000
      2.76717072     -0.01185769
      0.15304476      0.58270518
      0.05897927      0.60854898
      7.53397379     -0.02838226
      1.95344691     -0.14195453
      0.68865048     -0.27412048
      0.27416362     -0.13076985
 
           2   0
s              4   1.000000
     35.04638782     -0.01198412
      6.03527798     -0.05472052
      0.48496034      0.58055871
      0.18483039      0.47700800
p              4   1.000000
      5.64864097      0.05713170
      1.46460826      0.28574555
      0.51631973      0.55178731
      0.20555578      0.26323149
s              7   1.000000
      0.38350848     -0.19612723
      0.04707223      0.94761471
      0.02222627      0.24885801
     35.04638782      0.00549885
      6.03527798      0.02510825
      0.48496034     -0.26638655
      0.18483039     -0.21887281
p              7   1.000000
      1.83062075     -0.01160578
      0.10124670      0.57032562
      0.03901771      0.59562038
      5.64864097     -0.02518875
      1.46460826     -0.12598211
      0.51631973     -0.24327703
      0.20555578     -0.11605590
 
           3   0
s              4   1.000000
     35.15770836     -0.01198412
      6.05444830     -0.05472052
      0.48650075      0.58055871
      0.18541748      0.47700800
p              4   1.000000
      5.66658319      0.05713170
      1.46926040      0.28574555
      0.51795976      0.55178731
      0.20620870      0.26323149
s              7   1.000000
      0.38350848     -0.19602418
      0.04707223      0.94711681
      0.02222627      0.24872724
     35.15770836      0.00548222
      6.05444830      0.02503230
      0.48650075     -0.26558077
      0.18541748     -0.21821074
p              7   1.000000
      1.83062075     -0.01160005
      0.10124670      0.57004412
      0.03901771      0.59532643
      5.66658319     -0.02511226
      1.46926040     -0.12559954
      0.51795976     -0.24253828
      0.20620870     -0.11570348
 
           4   0
s              4   1.000000
     35.00390227     -0.01198412
      6.02796162     -0.05472052
      0.48437244      0.58055871
      0.18460632      0.47700799
p              4   1.000000
      5.64179332      0.05713170
      1.46283276      0.28574555
      0.51569381      0.55178731
      0.20530659      0.26323149
s              7   1.000000
      0.38350848     -0.19616679
      0.04707223      0.94780585
      0.02222627      0.24890820
     35.00390227      0.00550523
      6.02796162      0.02513735
      0.48437244     -0.26669535
      0.18460632     -0.21912653
p              7   1.000000
      1.83062075     -0.01160798
      0.10124670      0.57043369
      0.03901771      0.59573325
      5.64179332     -0.02521806
      1.46283276     -0.12612871
      0.51569381     -0.24356012
      0.20530659     -0.11619096
 
           5   0
s              4   1.000000
     34.90414300     -0.01198412
      6.01078224     -0.05472052
      0.48299200      0.58055871
      0.18408021      0.47700800
p              4   1.000000
      5.62571450      0.05713170
      1.45866377      0.28574555
      0.51422411      0.55178731
      0.20472148      0.26323149
s              7   1.000000
      0.38350848     -0.19626019
      0.04707223      0.94825710
      0.02222627      0.24902671
     34.90414300      0.00552025
      6.01078224      0.02520596
      0.48299200     -0.26742319
      0.18408021     -0.21972454
p              7   1.000000
      1.83062075     -0.01161317
      0.10124670      0.57068881
      0.03901771      0.59599969
      5.62571450     -0.02528715
      1.45866377     -0.12647425
      0.51422411     -0.24422738
      0.20472148     -0.11650927
 
           6   0
s              4   1.000000
     34.99822664     -0.01198412
      6.02698422     -0.05472053
      0.48429390      0.58055871
      0.18457639      0.47700799
p              4   1.000000
      5.64087854      0.05713170
      1.46259557      0.28574555
      0.51561020      0.55178731
      0.20527330      0.26323149
s              7   1.000000
      0.38350848     -0.19617209
      0.04707223      0.94783144
      0.02222627      0.24891493
     34.99822664      0.00550608
      6.02698422      0.02514125
      0.48429390     -0.26673665
      0.18457639     -0.21916046
p              7   1.000000
      1.83062075     -0.01160827
      0.10124670      0.57044815
      0.03901771      0.59574834
      5.64087854     -0.02522198
      1.46259557     -0.12614832
      0.51561020     -0.24359799
      0.20527330     -0.11620902
 
           7   0
s              4   1.000000
     35.22479564     -0.01198412
      6.06600128     -0.05472052
      0.48742909      0.58055871
      0.18577129      0.47700799
p              4   1.000000
      5.67739605      0.05713170
      1.47206402      0.28574555
      0.51894812      0.55178731
      0.20660219      0.26323149
s              7   1.000000
      0.38350848     -0.19596250
      0.04707223      0.94681876
      0.02222627      0.24864897
     35.22479564      0.00547224
      6.06600128      0.02498675
      0.48742909     -0.26509747
      0.18577129     -0.21781364
p              7   1.000000
      1.83062075     -0.01159662
      0.10124670      0.56987562
      0.03901771      0.59515044
      5.67739605     -0.02506638
      1.47206402     -0.12537008
      0.51894812     -0.24209517
      0.20660219     -0.11549210
 
           8   0
s              4   1.000000
     35.31929847     -0.01198412
      6.08227545     -0.05472052
      0.48873679      0.58055871
      0.18626969      0.47700799
p              4   1.000000
      5.69262765      0.05713170
      1.47601334      0.28574555
      0.52034038      0.55178731
      0.20715647      0.26323149
s              7   1.000000
      0.38350848     -0.19587613
      0.04707223      0.94640148
      0.02222627      0.24853939
     35.31929847      0.00545825
      6.08227545      0.02492285
      0.48873679     -0.26441957
      0.18626969     -0.21725667
p              7   1.000000
      1.83062075     -0.01159182
      0.10124670      0.56963970
      0.03901771      0.59490407
      5.69262765     -0.02500203
      1.47601334     -0.12504822
      0.52034038     -0.24147365
      0.20715647     -0.11519560
 
           9   0
s              4   1.000000
     61.20183078     -0.01198412
     10.53946168     -0.05472052
      0.84689072      0.58055871
      0.32277101      0.47700800
p              4   1.000000
      7.21398073      0.05713170
      1.87047748      0.28574555
      0.65940119      0.55178731
      0.26251898      0.26323149
s              7   1.000000
      0.47894987     -0.18778284
      0.05878681      0.90729768
      0.02775758      0.23827015
     61.20183078      0.00396968
     10.53946168      0.01812591
      0.84689072     -0.19230730
      0.32277101     -0.15800662
p              7   1.000000
      2.28619608     -0.01156601
      0.12644335      0.56837124
      0.04872781      0.59357933
      7.21398073     -0.02465360
      1.87047748     -0.12330557
      0.65940119     -0.23810852
      0.26251898     -0.11359025
 
          10   0
s              4   1.000000
     35.32046150     -0.01198412
      6.08247573     -0.05472053
      0.48875288      0.58055871
      0.18627582      0.47700800
p              4   1.000000
      5.69281510      0.05713170
      1.47606195      0.28574555
      0.52035751      0.55178731
      0.20716329      0.26323149
s              7   1.000000
      0.38350848     -0.19587507
      0.04707223      0.94639637
      0.02222627      0.24853805
     35.32046150      0.00545808
      6.08247573      0.02492207
      0.48875288     -0.26441125
      0.18627582     -0.21724983
p              7   1.000000
      1.83062075     -0.01159176
      0.10124670      0.56963681
      0.03901771      0.59490103
      5.69281510     -0.02500124
      1.47606195     -0.12504427
      0.52035751     -0.24146602
      0.20716329     -0.11519196
 
          11   0
s              4   1.000000
     35.05747814     -0.01198412
      6.03718782     -0.05472053
      0.48511380      0.58055871
      0.18488888      0.47700799
p              4   1.000000
      5.65042847      0.05713170
      1.46507173      0.28574555
      0.51648312      0.55178731
      0.20562083      0.26323149
s              7   1.000000
      0.38350848     -0.19611693
      0.04707223      0.94756492
      0.02222627      0.24884492
     35.05747814      0.00549719
      6.03718782      0.02510066
      0.48511380     -0.26630606
      0.18488888     -0.21880667
p              7   1.000000
      1.83062075     -0.01160520
      0.10124670      0.57029746
      0.03901771      0.59559101
      5.65042847     -0.02518111
      1.46507173     -0.12594389
      0.51648312     -0.24320323
      0.20562083     -0.11602070
 
          12   0
s              4   1.000000
     34.92094162     -0.01198412
      6.01367510     -0.05472052
      0.48322445      0.58055871
      0.18416880      0.47700799
p              4   1.000000
      5.62842204      0.05713170
      1.45936579      0.28574555
      0.51447160      0.55178731
      0.20482001      0.26323149
s              7   1.000000
      0.38350848     -0.19624441
      0.04707223      0.94818087
      0.02222627      0.24900670
     34.92094162      0.00551772
      6.01367510      0.02519438
      0.48322445     -0.26730035
      0.18416880     -0.21962362
p              7   1.000000
      1.83062075     -0.01161229
      0.10124670      0.57064571
      0.03901771      0.59595467
      5.62842204     -0.02527549
      1.45936579     -0.12641593
      0.51447160     -0.24411477
      0.20482001     -0.11645555
 
          13   0
s              4   1.000000
     34.91495518     -0.01198412
      6.01264419     -0.05472052
      0.48314162      0.58055871
      0.18413723      0.47700800
p              4   1.000000
      5.62745717      0.05713170
      1.45911561      0.28574555
      0.51438341      0.55178731
      0.20478490      0.26323149
s              7   1.000000
      0.38350848     -0.19625003
      0.04707223      0.94820803
      0.02222627      0.24901382
     34.91495518      0.00551862
      6.01264419      0.02519850
      0.48314162     -0.26734411
      0.18413723     -0.21965957
p              7   1.000000
      1.83062075     -0.01161260
      0.10124670      0.57066106
      0.03901771      0.59597073
      5.62745717     -0.02527964
      1.45911561     -0.12643671
      0.51438341     -0.24415489
      0.20478490     -0.11647469
 
          14   0
s              4   1.000000
     35.17769338     -0.01198412
      6.05788988     -0.05472052
      0.48677730      0.58055871
      0.18552288      0.47700799
p              4   1.000000
      5.66980429      0.05713170
      1.47009559      0.28574555
      0.51825419      0.55178731
      0.20632592      0.26323149
s              7   1.000000
      0.38350848     -0.19600577
      0.04707223      0.94702786
      0.02222627      0.24870389
     35.17769338      0.00547925
      6.05788988      0.02501871
      0.48677730     -0.26543661
      0.18552288     -0.21809230
p              7   1.000000
      1.83062075     -0.01159902
      0.10124670      0.56999383
      0.03901771      0.59527387
      5.66980429     -0.02509857
      1.47009559     -0.12553110
      0.51825419     -0.24240611
      0.20632592     -0.11564043
 
          15   0
s              4   1.000000
     35.03966458     -0.01198412
      6.03412018     -0.05472053
      0.48486730      0.58055871
      0.18479493      0.47700799
p              4   1.000000
      5.64755735      0.05713170
      1.46432729      0.28574555
      0.51622068      0.55178730
      0.20551635      0.26323149
s              7   1.000000
      0.38350848     -0.19613348
      0.04707223      0.94764492
      0.02222627      0.24886593
     35.03966458      0.00549986
      6.03412018      0.02511285
      0.48486730     -0.26643537
      0.18479493     -0.21891292
p              7   1.000000
      1.83062075     -0.01160612
      0.10124670      0.57034270
      0.03901771      0.59563822
      5.64755735     -0.02519338
      1.46432729     -0.12600528
      0.51622068     -0.24332178
      0.20551635     -0.11607725
 
          16   0
s              4   1.000000
     12.18374923     -0.03295496
      3.43186292     -0.17245169
      0.61538639      0.75185111
      0.30277262      0.35896273
p              4   1.000000
      7.03533715     -0.01434249
      0.72703146      0.27551776
      0.32859338      0.58467508
      0.15884929      0.21449865
s              7   1.000000
      0.16124732     -0.33765964
      0.03162593      1.06543708
      0.01560824      0.12669984
     12.18374923      0.00423558
      3.43186292      0.02216458
      0.61538639     -0.09663265
      0.30277262     -0.04613615
p              7   1.000000
      0.34551743     -0.06468681
      0.05282782      0.69488466
      0.02597475      0.41378856
      7.03533715      0.00469385
      0.72703146     -0.09016829
      0.32859338     -0.19134575
      0.15884929     -0.07019866
 
          17   0
s              4   1.000000
     35.03956854     -0.01198412
      6.03410364     -0.05472052
      0.48486597      0.58055871
      0.18479442      0.47700799
p              4   1.000000
      5.64754187      0.05713170
      1.46432327      0.28574555
      0.51621927      0.55178730
      0.20551579      0.26323149
s              7   1.000000
      0.38350848     -0.19613357
      0.04707223      0.94764535
      0.02222627      0.24886606
     35.03956854      0.00549988
      6.03410364      0.02511291
      0.48486597     -0.26643607
      0.18479442     -0.21891349
p              7   1.000000
      1.83062075     -0.01160613
      0.10124670      0.57034294
      0.03901771      0.59563850
      5.64754187     -0.02519345
      1.46432327     -0.12600561
      0.51621927     -0.24332242
      0.20551579     -0.11607756
 
          18   0
s              4   1.000000
     35.17747624     -0.01198412
      6.05785249     -0.05472053
      0.48677430      0.58055871
      0.18552173      0.47700799
p              4   1.000000
      5.66976930      0.05713170
      1.47008651      0.28574555
      0.51825099      0.55178731
      0.20632465      0.26323149
s              7   1.000000
      0.38350848     -0.19600597
      0.04707223      0.94702883
      0.02222627      0.24870416
     35.17747624      0.00547928
      6.05785249      0.02501886
      0.48677430     -0.26543818
      0.18552173     -0.21809359
p              7   1.000000
      1.83062075     -0.01159904
      0.10124670      0.56999438
      0.03901771      0.59527448
      5.66976930     -0.02509872
      1.47008651     -0.12553184
      0.51825099     -0.24240755
      0.20632465     -0.11564112
 
          19   0
s              4   1.000000
     34.91498462     -0.01198412
      6.01264926     -0.05472053
      0.48314202      0.58055871
      0.18413738      0.47700799
p              4   1.000000
      5.62746191      0.05713170
      1.45911684      0.28574555
      0.51438384      0.55178731
      0.20478507      0.26323149
s              7   1.000000
      0.38350848     -0.19625000
      0.04707223      0.94820789
      0.02222627      0.24901379
     34.91498462      0.00551862
      6.01264926      0.02519848
      0.48314202     -0.26734390
      0.18413738     -0.21965939
p              7   1.000000
      1.83062075     -0.01161260
      0.10124670      0.57066099
      0.03901771      0.59597065
      5.62746191     -0.02527962
      1.45911684     -0.12643661
      0.51438384     -0.24415469
      0.20478507     -0.11647459
 
          20   0
s              4   1.000000
     34.92089138     -0.01198412
      6.01366645     -0.05472052
      0.48322376      0.58055871
      0.18416853      0.47700799
p              4   1.000000
      5.62841394      0.05713170
      1.45936369      0.28574555
      0.51447086      0.55178731
      0.20481972      0.26323149
s              7   1.000000
      0.38350848     -0.19624446
      0.04707223      0.94818110
      0.02222627      0.24900675
     34.92089138      0.00551772
      6.01366645      0.02519441
      0.48322376     -0.26730072
      0.18416853     -0.21962392
p              7   1.000000
      1.83062075     -0.01161229
      0.10124670      0.57064584
      0.03901771      0.59595483
      5.62841394     -0.02527552
      1.45936369     -0.12641611
      0.51447086     -0.24411510
      0.20481972     -0.11645571
 
          21   0
s              4   1.000000
     35.05752914     -0.01198412
      6.03719661     -0.05472053
      0.48511451      0.58055871
      0.18488915      0.47700799
p              4   1.000000
      5.65043668      0.05713170
      1.46507386      0.28574555
      0.51648387      0.55178731
      0.20562113      0.26323149
s              7   1.000000
      0.38350848     -0.19611688
      0.04707223      0.94756470
      0.02222627      0.24884487
     35.05752914      0.00549719
      6.03719661      0.02510063
      0.48511451     -0.26630569
      0.18488915     -0.21880637
p              7   1.000000
      1.83062075     -0.01160520
      0.10124670      0.57029734
      0.03901771      0.59559085
      5.65043668     -0.02518107
      1.46507386     -0.12594372
      0.51648387     -0.24320289
      0.20562113     -0.11602054
 
          22   0
s              4   1.000000
     35.32100829     -0.01198412
      6.08256990     -0.05472052
      0.48876044      0.58055871
      0.18627870      0.47700799
p              4   1.000000
      5.69290323      0.05713170
      1.47608480      0.28574555
      0.52036557      0.55178731
      0.20716650      0.26323149
s              7   1.000000
      0.38350848     -0.19587457
      0.04707223      0.94639395
      0.02222627      0.24853741
     35.32100829      0.00545800
      6.08256990      0.02492170
      0.48876044     -0.26440734
      0.18627870     -0.21724661
p              7   1.000000
      1.83062075     -0.01159173
      0.10124670      0.56963545
      0.03901771      0.59489962
      5.69290323     -0.02500086
      1.47608480     -0.12504241
      0.52036557     -0.24146244
      0.20716650     -0.11519025
 
          23   0
s              4   1.000000
     34.99406584     -0.01198412
      6.02626770     -0.05472052
      0.48423632      0.58055871
      0.18455445      0.47700799
p              4   1.000000
      5.64020792      0.05713170
      1.46242169      0.28574555
      0.51554890      0.55178731
      0.20524890      0.26323149
s              7   1.000000
      0.38350848     -0.19617597
      0.04707223      0.94785020
      0.02222627      0.24891985
     34.99406584      0.00550671
      6.02626770      0.02514410
      0.48423632     -0.26676694
      0.18455445     -0.21918535
p              7   1.000000
      1.83062075     -0.01160849
      0.10124670      0.57045875
      0.03901771      0.59575943
      5.64020792     -0.02522485
      1.46242169     -0.12616270
      0.51554890     -0.24362576
      0.20524890     -0.11622227
 
          24   0
s              4   1.000000
     35.00298116     -0.01198412
      6.02780299     -0.05472052
      0.48435969      0.58055871
      0.18460147      0.47700799
p              4   1.000000
      5.64164485      0.05713170
      1.46279427      0.28574555
      0.51568024      0.55178731
      0.20530119      0.26323149
s              7   1.000000
      0.38350848     -0.19616765
      0.04707223      0.94781000
      0.02222627      0.24890930
     35.00298116      0.00550537
      6.02780299      0.02513798
      0.48435969     -0.26670205
      0.18460147     -0.21913203
p              7   1.000000
      1.83062075     -0.01160802
      0.10124670      0.57043604
      0.03901771      0.59573572
      5.64164485     -0.02521869
      1.46279427     -0.12613189
      0.51568024     -0.24356627
      0.20530119     -0.11619388
 
          25   0
s              4   1.000000
     35.15539594     -0.01198412
      6.05405008     -0.05472053
      0.48646876      0.58055871
      0.18540528      0.47700799
p              4   1.000000
      5.66621048      0.05713170
      1.46916377      0.28574555
      0.51792569      0.55178731
      0.20619514      0.26323149
s              7   1.000000
      0.38350848     -0.19602632
      0.04707223      0.94712710
      0.02222627      0.24872995
     35.15539594      0.00548257
      6.05405008      0.02503387
      0.48646876     -0.26559746
      0.18540528     -0.21822446
p              7   1.000000
      1.83062075     -0.01160017
      0.10124670      0.57004994
      0.03901771      0.59533249
      5.66621048     -0.02511384
      1.46916377     -0.12560747
      0.51792569     -0.24255358
      0.20619514     -0.11571078
 
          26   0
s              4   1.000000
     35.32807659     -0.01198412
      6.08378712     -0.05472053
      0.48885825      0.58055871
      0.18631598      0.47700799
p              4   1.000000
      5.69404248      0.05713170
      1.47638019      0.28574555
      0.52046970      0.55178731
      0.20720796      0.26323149
s              7   1.000000
      0.38350848     -0.19586814
      0.04707223      0.94636287
      0.02222627      0.24852925
     35.32807659      0.00545695
      6.08378712      0.02491693
      0.48885825     -0.26435678
      0.18631598     -0.21720507
p              7   1.000000
      1.83062075     -0.01159137
      0.10124670      0.56961787
      0.03901771      0.59488125
      5.69404248     -0.02499606
      1.47638019     -0.12501841
      0.52046970     -0.24141608
      0.20720796     -0.11516813
 
          27   0
s              4   1.000000
     35.04740404     -0.01198412
      6.03545298     -0.05472052
      0.48497440      0.58055871
      0.18483575      0.47700799
p              4   1.000000
      5.64880476      0.05713170
      1.46465072      0.28574555
      0.51633470      0.55178731
      0.20556174      0.26323149
s              7   1.000000
      0.38350848     -0.19612629
      0.04707223      0.94761016
      0.02222627      0.24885682
     35.04740404      0.00549870
      6.03545298      0.02510755
      0.48497440     -0.26637918
      0.18483575     -0.21886674
p              7   1.000000
      1.83062075     -0.01160572
      0.10124670      0.57032304
      0.03901771      0.59561771
      5.64880476     -0.02518805
      1.46465072     -0.12597860
      0.51633470     -0.24327026
      0.20556174     -0.11605268
 
          28   0
s              4   1.000000
     73.05860595     -0.01198412
     12.58129648     -0.05472053
      1.01096085      0.58055871
      0.38530221      0.47700799
p              4   1.000000
      7.53400648      0.05713170
      1.95345538      0.28574555
      0.68865347      0.55178731
      0.27416481      0.26323149
s              7   1.000000
      0.57971233     -0.18804103
      0.07115450      0.90854514
      0.03359728      0.23859775
     73.05860595      0.00402454
     12.58129648      0.01837641
      1.01096085     -0.19496495
      0.38530221     -0.16019024
p              7   1.000000
      2.76717072     -0.01185768
      0.15304476      0.58270470
      0.05897927      0.60854850
      7.53400648     -0.02838214
      1.95345538     -0.14195394
      0.68865347     -0.27411935
      0.27416481     -0.13076931
 
          29   0
s              4   1.000000
     61.09261904     -0.01198412
     10.52065452     -0.05472052
      0.84537948      0.58055871
      0.32219505      0.47700799
p              4   1.000000
      7.20110772      0.05713170
      1.86713970      0.28574555
      0.65822452      0.55178731
      0.26205052      0.26323149
s              7   1.000000
      0.47894987     -0.18781578
      0.05878681      0.90745684
      0.02775758      0.23831195
     61.09261904      0.00397672
     10.52065452      0.01815805
      0.84537948     -0.19264823
      0.32219505     -0.15828673
p              7   1.000000
      2.28619608     -0.01156913
      0.12644335      0.56852460
      0.04872781      0.59373951
      7.20110772     -0.02469595
      1.86713970     -0.12351737
      0.65822452     -0.23851750
      0.26205052     -0.11378536
 
          30   0
s              4   1.000000
     35.24957184     -0.01198412
      6.07026795     -0.05472052
      0.48777193      0.58055871
      0.18590196      0.47700799
p              4   1.000000
      5.68138938      0.05713170
      1.47309943      0.28574555
      0.51931313      0.55178731
      0.20674751      0.26323149
s              7   1.000000
      0.38350848     -0.19593979
      0.04707223      0.94670908
      0.02222627      0.24862016
     35.24957184      0.00546857
      6.07026795      0.02496996
      0.48777193     -0.26491941
      0.18590196     -0.21766735
p              7   1.000000
      1.83062075     -0.01159536
      0.10124670      0.56981360
      0.03901771      0.59508567
      5.68138938     -0.02504948
      1.47309943     -0.12528554
      0.51931313     -0.24193193
      0.20674751     -0.11541422
 
          31   0
s              4   1.000000
     35.00402732     -0.01198412
      6.02798315     -0.05472052
      0.48437417      0.58055871
      0.18460698      0.47700800
p              4   1.000000
      5.64181347      0.05713170
      1.46283799      0.28574555
      0.51569566      0.55178730
      0.20530733      0.26323149
s              7   1.000000
      0.38350848     -0.19616668
      0.04707223      0.94780530
      0.02222627      0.24890805
     35.00402732      0.00550521
      6.02798315      0.02513727
      0.48437417     -0.26669444
      0.18460698     -0.21912578
p              7   1.000000
      1.83062075     -0.01160797
      0.10124670      0.57043337
      0.03901771      0.59573293
      5.64181347     -0.02521797
      1.46283799     -0.12612828
      0.51569566     -0.24355929
      0.20530733     -0.11619055
 
          32   0
s              4   1.000000
     34.92892007     -0.01198412
      6.01504906     -0.05472052
      0.48333486      0.58055871
      0.18421088      0.47700799
p              4   1.000000
      5.62970797      0.05713170
      1.45969921      0.28574555
      0.51458914      0.55178731
      0.20486681      0.26323149
s              7   1.000000
      0.38350848     -0.19623693
      0.04707223      0.94814471
      0.02222627      0.24899719
     34.92892007      0.00551651
      6.01504906      0.02518888
      0.48333486     -0.26724205
      0.18421088     -0.21957571
p              7   1.000000
      1.83062075     -0.01161187
      0.10124670      0.57062526
      0.03901771      0.59593331
      5.62970797     -0.02526995
      1.45969921     -0.12638826
      0.51458914     -0.24406132
      0.20486681     -0.11643005
 
          33   0
s              4   1.000000
     34.92211749     -0.01198412
      6.01387760     -0.05472052
      0.48324072      0.58055871
      0.18417500      0.47700799
p              4   1.000000
      5.62861156      0.05713170
      1.45941493      0.28574555
      0.51448892      0.55178731
      0.20482691      0.26323149
s              7   1.000000
      0.38350848     -0.19624331
      0.04707223      0.94817554
      0.02222627      0.24900528
     34.92211749      0.00551754
      6.01387760      0.02519357
      0.48324072     -0.26729176
      0.18417500     -0.21961656
p              7   1.000000
      1.83062075     -0.01161223
      0.10124670      0.57064270
      0.03901771      0.59595155
      5.62861156     -0.02527467
      1.45941493     -0.12641185
      0.51448892     -0.24410689
      0.20482691     -0.11645179
 
          34   0
s              4   1.000000
     34.92889768     -0.01198412
      6.01504520     -0.05472052
      0.48333455      0.58055871
      0.18421076      0.47700799
p              4   1.000000
      5.62970437      0.05713170
      1.45969828      0.28574555
      0.51458881      0.55178731
      0.20486667      0.26323149
s              7   1.000000
      0.38350848     -0.19623695
      0.04707223      0.94814480
      0.02222627      0.24899722
     34.92889768      0.00551652
      6.01504520      0.02518890
      0.48333455     -0.26724222
      0.18421076     -0.21957585
p              7   1.000000
      1.83062075     -0.01161187
      0.10124670      0.57062532
      0.03901771      0.59593339
      5.62970437     -0.02526997
      1.45969828     -0.12638833
      0.51458881     -0.24406147
      0.20486667     -0.11643013
 
          35   0
s              4   1.000000
     35.00418084     -0.01198412
      6.02800959     -0.05472053
      0.48437629      0.58055871
      0.18460779      0.47700799
p              4   1.000000
      5.64183821      0.05713170
      1.46284440      0.28574555
      0.51569792      0.55178731
      0.20530823      0.26323149
s              7   1.000000
      0.38350848     -0.19616653
      0.04707223      0.94780460
      0.02222627      0.24890788
     35.00418084      0.00550519
      6.02800959      0.02513716
      0.48437629     -0.26669332
      0.18460779     -0.21912486
p              7   1.000000
      1.83062075     -0.01160796
      0.10124670      0.57043298
      0.03901771      0.59573252
      5.64183821     -0.02521787
      1.46284440     -0.12612775
      0.51569792     -0.24355826
      0.20530823     -0.11619007
 
          36   0
s              4   1.000000
      8.30944794      0.05675242
      1.52052660      0.26014135
      0.42241894      0.53284611
      0.14019705      0.29162544
s              7   1.000000
      0.92936822     -0.06732778
      0.05643440      0.66944900
      0.02166600      0.51460973
      8.30944794     -0.02902137
      1.52052660     -0.13302797
      0.42241894     -0.27248046
      0.14019705     -0.14912792
p              4   1.000000
      0.64737396      0.05713170
      0.16785440      0.28574555
      0.05917387      0.55178731
      0.02355814      0.26323150
 
          37   0
s              4   1.000000
      8.30904234      0.05675242
      1.52045238      0.26014135
      0.42239832      0.53284611
      0.14019021      0.29162544
s              7   1.000000
      0.92936822     -0.06732830
      0.05643440      0.66945418
      0.02166600      0.51461370
      8.30904234     -0.02902246
      1.52045238     -0.13303294
      0.42239832     -0.27249065
      0.14019021     -0.14913350
p              4   1.000000
      0.64737396      0.05713170
      0.16785440      0.28574555
      0.05917387      0.55178731
      0.02355814      0.26323150
 
          38   0
s              4   1.000000
      8.30999954      0.05675242
      1.52062753      0.26014135
      0.42244698      0.53284611
      0.14020636      0.29162544
s              7   1.000000
      0.92936822     -0.06732707
      0.05643440      0.66944193
      0.02166600      0.51460428
      8.30999954     -0.02901990
      1.52062753     -0.13302121
      0.42244698     -0.27246661
      0.14020636     -0.14912034
p              4   1.000000
      0.64737396      0.05713170
      0.16785440      0.28574555
      0.05917387      0.55178731
      0.02355814      0.26323150
 
          39   0
s              4   1.000000
      8.31096755      0.05675242
      1.52080467      0.26014135
      0.42249619      0.53284611
      0.14022269      0.29162544
s              7   1.000000
      0.92936822     -0.06732583
      0.05643440      0.66942956
      0.02166600      0.51459477
      8.31096755     -0.02901731
      1.52080467     -0.13300934
      0.42249619     -0.27244230
      0.14022269     -0.14910704
p              4   1.000000
      0.64737396      0.05713170
      0.16785440      0.28574555
      0.05917387      0.55178731
      0.02355814      0.26323150
 
          40   0
s              4   1.000000
      8.30903888      0.05675242
      1.52045174      0.26014135
      0.42239814      0.53284611
      0.14019015      0.29162543
s              7   1.000000
      0.92936822     -0.06732831
      0.05643440      0.66945422
      0.02166600      0.51461375
      8.30903888     -0.02902247
      1.52045174     -0.13303299
      0.42239814     -0.27249074
      0.14019015     -0.14913355
p              4   1.000000
      0.64737396      0.05713170
      0.16785440      0.28574555
      0.05917387      0.55178731
      0.02355814      0.26323150
 
          41   0
s              4   1.000000
      8.30889805      0.05675242
      1.52042597      0.26014135
      0.42239098      0.53284611
      0.14018777      0.29162544
s              7   1.000000
      0.92936822     -0.06732849
      0.05643440      0.66945603
      0.02166600      0.51461512
      8.30889805     -0.02902284
      1.52042597     -0.13303471
      0.42239098     -0.27249428
      0.14018777     -0.14913549
p              4   1.000000
      0.64737396      0.05713170
      0.16785440      0.28574555
      0.05917387      0.55178731
      0.02355814      0.26323150
 
          42   0
s              4   1.000000
      8.31093922      0.05675242
      1.52079948      0.26014135
      0.42249475      0.53284611
      0.14022221      0.29162544
s              7   1.000000
      0.92936822     -0.06732586
      0.05643440      0.66942992
      0.02166600      0.51459507
      8.31093922     -0.02901738
      1.52079948     -0.13300969
      0.42249475     -0.27244301
      0.14022221     -0.14910743
p              4   1.000000
      0.64737396      0.05713170
      0.16785440      0.28574555
      0.05917387      0.55178731
      0.02355814      0.26323150
 
          43   0
s              4   1.000000
      8.31093635      0.05675242
      1.52079896      0.26014135
      0.42249460      0.53284611
      0.14022216      0.29162544
s              7   1.000000
      0.92936822     -0.06732587
      0.05643440      0.66942996
      0.02166600      0.51459509
      8.31093635     -0.02901739
      1.52079896     -0.13300972
      0.42249460     -0.27244309
      0.14022216     -0.14910747
p              4   1.000000
      0.64737396      0.05713170
      0.16785440      0.28574555
      0.05917387      0.55178731
      0.02355814      0.26323150
 
          44   0
s              4   1.000000
      8.30889773      0.05675242
      1.52042592      0.26014135
      0.42239097      0.53284611
      0.14018776      0.29162544
s              7   1.000000
      0.92936822     -0.06732849
      0.05643440      0.66945603
      0.02166600      0.51461512
      8.30889773     -0.02902284
      1.52042592     -0.13303472
      0.42239097     -0.27249428
      0.14018776     -0.14913549
p              4   1.000000
      0.64737396      0.05713170
      0.16785440      0.28574555
      0.05917387      0.55178731
      0.02355814      0.26323150
 
          45   0
s              4   1.000000
      8.30903830      0.05675242
      1.52045164      0.26014135
      0.42239811      0.53284611
      0.14019014      0.29162544
s              7   1.000000
      0.92936822     -0.06732831
      0.05643440      0.66945423
      0.02166600      0.51461375
      8.30903830     -0.02902247
      1.52045164     -0.13303299
      0.42239811     -0.27249075
      0.14019014     -0.14913355
p              4   1.000000
      0.64737396      0.05713170
      0.16785440      0.28574555
      0.05917387      0.55178731
      0.02355814      0.26323150
 
          46   0
s              4   1.000000
      8.31095893      0.05675242
      1.52080309      0.26014135
      0.42249575      0.53284611
      0.14022254      0.29162544
s              7   1.000000
      0.92936822     -0.06732584
      0.05643440      0.66942967
      0.02166600      0.51459487
      8.31095893     -0.02901733
      1.52080309     -0.13300945
      0.42249575     -0.27244252
      0.14022254     -0.14910715
p              4   1.000000
      0.64737396      0.05713170
      0.16785440      0.28574555
      0.05917387      0.55178731
      0.02355814      0.26323150
 
          47   0
s              4   1.000000
      8.30946514      0.05675242
      1.52052974      0.26014135
      0.42241981      0.53284611
      0.14019734      0.29162544
s              7   1.000000
      0.92936822     -0.06732776
      0.05643440      0.66944877
      0.02166600      0.51460955
      8.30946514     -0.02902133
      1.52052974     -0.13302776
      0.42241981     -0.27248003
      0.14019734     -0.14912769
p              4   1.000000
      0.64737396      0.05713170
      0.16785440      0.28574555
      0.05917387      0.55178731
      0.02355814      0.26323150
 
          48   0
s              4   1.000000
      8.30949851      0.05675242
      1.52053585      0.26014135
      0.42242151      0.53284611
      0.14019790      0.29162544
s              7   1.000000
      0.92936822     -0.06732772
      0.05643440      0.66944834
      0.02166600      0.51460923
      8.30949851     -0.02902124
      1.52053585     -0.13302735
      0.42242151     -0.27247919
      0.14019790     -0.14912723
p              4   1.000000
      0.64737396      0.05713170
      0.16785440      0.28574555
      0.05917387      0.55178731
      0.02355814      0.26323150
 
          49   0
s              4   1.000000
      8.30931889      0.05675242
      1.52050298      0.26014135
      0.42241238      0.53284611
      0.14019487      0.29162544
s              7   1.000000
      0.92936822     -0.06732795
      0.05643440      0.66945064
      0.02166600      0.51461099
      8.30931889     -0.02902172
      1.52050298     -0.13302955
      0.42241238     -0.27248370
      0.14019487     -0.14912970
p              4   1.000000
      0.64737396      0.05713170
      0.16785440      0.28574555
      0.05917387      0.55178731
      0.02355814      0.26323150
 
          50   0
s              4   1.000000
      8.30890899      0.05675242
      1.52042798      0.26014135
      0.42239154      0.53284611
      0.14018796      0.29162544
s              7   1.000000
      0.92936822     -0.06732847
      0.05643440      0.66945589
      0.02166600      0.51461502
      8.30890899     -0.02902281
      1.52042798     -0.13303458
      0.42239154     -0.27249400
      0.14018796     -0.14913533
p              4   1.000000
      0.64737396      0.05713170
      0.16785440      0.28574555
      0.05917387      0.55178731
      0.02355814      0.26323150
 
          51   0
s              4   1.000000
      8.30884775      0.05675242
      1.52041677      0.26014135
      0.42238843      0.53284611
      0.14018692      0.29162544
s              7   1.000000
      0.92936822     -0.06732855
      0.05643440      0.66945667
      0.02166600      0.51461561
      8.30884775     -0.02902298
      1.52041677     -0.13303533
      0.42238843     -0.27249554
      0.14018692     -0.14913617
p              4   1.000000
      0.64737396      0.05713170
      0.16785440      0.28574555
      0.05917387      0.55178731
      0.02355814      0.26323150
 
          52   0
s              4   1.000000
      8.30890906      0.05675242
      1.52042799      0.26014135
      0.42239154      0.53284611
      0.14018796      0.29162544
s              7   1.000000
      0.92936822     -0.06732847
      0.05643440      0.66945588
      0.02166600      0.51461502
      8.30890906     -0.02902281
      1.52042799     -0.13303458
      0.42239154     -0.27249400
      0.14018796     -0.14913533
p              4   1.000000
      0.64737396      0.05713170
      0.16785440      0.28574555
      0.05917387      0.55178731
      0.02355814      0.26323150
 
          53   0
s              4   1.000000
      8.30932051      0.05675242
      1.52050328      0.26014135
      0.42241246      0.53284611
      0.14019490      0.29162544
s              7   1.000000
      0.92936822     -0.06732794
      0.05643440      0.66945062
      0.02166600      0.51461097
      8.30932051     -0.02902171
      1.52050328     -0.13302953
      0.42241246     -0.27248366
      0.14019490     -0.14912968
p              4   1.000000
      0.64737396      0.05713170
      0.16785440      0.28574555
      0.05917387      0.55178731
      0.02355814      0.26323150
 
 [MO]
 Sym= Hole
 Ene= -0.9635960    
 Spin= Alpha
 Occup= 0
           1 -1.1778414E-03
           2  4.9232687E-03
           3 -1.9292619E-04
           4 -1.0049391E-03
           5  1.2858240E-03
           6 -2.3611328E-03
           7  2.1677435E-04
           8  1.6359480E-04
           9  4.0582777E-03
          10 -5.7108873E-03
          11  6.4493914E-04
          12  1.0399916E-03
          13 -7.3781289E-04
          14  1.7270481E-04
          15  3.2136330E-05
          16  4.2651439E-04
          17 -7.3486208E-03
          18  7.6438901E-03
          19  4.8024557E-04
          20  1.0621501E-02
          21  1.8148380E-03
          22  2.4148298E-05
          23 -1.1739706E-04
          24 -6.5363412E-05
          25 -1.1187671E-03
          26  1.8259471E-03
          27 -6.3970400E-04
          28  3.4318719E-04
          29  9.5344341E-04
          30 -1.9673035E-03
          31  2.5567806E-06
          32  2.1553531E-03
          33 -2.7909160E-03
          34  4.1285418E-03
          35 -7.6791079E-04
          36  4.6377098E-03
          37 -1.4137218E-04
          38 -1.1534946E-03
          39  3.2208957E-06
          40  4.6125837E-03
          41  2.5452115E-04
          42  1.0274061E-02
          43  1.0703412E-03
          44 -9.8276781E-03
          45  3.4661007E-03
          46 -1.2249253E-02
          47  3.0447130E-05
          48 -5.0493795E-03
          49 -4.2768370E-02
          50  4.7028091E-02
          51 -9.8951850E-06
          52  5.5481222E-02
          53  2.5509464E-02
          54 -2.2784846E-02
          55 -7.4150375E-06
          56 -8.9932112E-03
          57  7.8604007E-03
          58 -1.2666082E-02
          59 -4.8935798E-04
          60 -1.8332029E-02
          61 -8.6018816E-03
          62  7.2992560E-03
          63 -4.9843389E-04
          64  2.0251200E-02
          65 -3.5319787E-02
          66  6.8821229E-02
          67 -1.5689818E-02
          68  0.4705859    
          69  1.4498059E-02
          70 -1.2235912E-02
          71  2.2551995E-03
          72 -6.9469333E-02
          73  1.6355501E-02
          74 -1.5561795E-02
          75  8.4119774E-03
          76 -0.1933031    
          77 -1.8136568E-02
          78  5.5620624E-03
          79  8.6378688E-03
          80  3.3248667E-02
          81 -1.1672173E-02
          82  1.5807730E-03
          83  4.9574111E-02
          84 -0.2161383    
          85  4.5154612E-03
          86 -1.7108759E-03
          87 -5.4761418E-03
          88  1.1083195E-02
          89  4.0788469E-03
          90  9.2044342E-03
          91 -2.8911300E-02
          92  0.1558482    
          93 -5.8247719E-04
          94 -1.5976094E-03
          95  1.2965349E-03
          96 -2.0491904E-02
          97  4.7397697E-03
          98  9.4759138E-03
          99 -4.1917220E-02
         100  0.2406328    
         101 -1.5124836E-03
         102 -1.0915297E-03
         103  4.0195147E-03
         104 -2.7056433E-02
         105 -9.5964456E-03
         106 -6.6658719E-03
         107  3.1175589E-02
         108 -0.1203059    
         109  7.0136413E-03
         110 -1.4953854E-04
         111 -7.1630548E-03
         112  7.3293210E-03
         113  1.0877154E-02
         114  1.3977734E-03
         115  3.3865146E-02
         116 -0.2692203    
         117 -1.2680938E-02
         118 -6.2475498E-03
         119  2.0423648E-03
         120  5.4875430E-02
         121 -1.8709099E-02
         122 -8.9192383E-02
         123 -1.5651144E-02
         124  0.4591942    
         125 -2.1064519E-03
         126  9.7621847E-03
         127  2.0077005E-03
         128 -5.9053920E-02
         129  1.1131939E-02
         130  1.6291619E-03
         131 -1.5472996E-02
         132 -0.2707199    
         133 -1.2812076E-02
         134 -6.2652030E-03
         135 -5.7892101E-03
         136  5.4582551E-02
         137 -9.7052930E-03
         138 -6.6617671E-03
         139 -2.3264691E-02
         140 -0.1220311    
         141  7.0879823E-03
         142 -1.2842684E-04
         143  6.7065833E-03
         144  7.7729723E-03
         145  4.7349823E-03
         146  9.0695890E-03
         147  2.5731718E-02
         148  0.2427532    
         149 -1.5006210E-03
         150 -1.0551419E-03
         151 -2.1758510E-03
         152 -2.7266918E-02
         153  4.1338550E-03
         154  8.8585708E-03
         155  1.8508924E-02
         156  0.1573307    
         157 -6.2431674E-04
         158 -1.5361349E-03
         159  5.6031473E-05
         160 -2.0563887E-02
         161 -1.1735111E-02
         162  2.1558560E-03
         163 -3.5237808E-02
         164 -0.2188334    
         165  4.5234980E-03
         166 -1.7918679E-03
         167  4.7755400E-03
         168  1.1328288E-02
         169  1.6239759E-02
         170 -1.5443828E-02
         171  4.0624379E-03
         172 -0.1933120    
         173 -1.8072646E-02
         174  5.5308770E-03
         175 -1.0792615E-02
         176  3.2538865E-02
         177  4.3064345E-02
         178 -3.4653824E-02
         179  8.0114411E-04
         180  5.0253566E-02
         181 -3.0575715E-02
         182  1.9907463E-02
         183  2.9800105E-05
         184 -1.3618292E-02
         185 -1.3564793E-02
         186  1.7002178E-02
         187  1.0276039E-03
         188 -4.2260112E-03
         189  5.6153354E-03
         190 -5.9364955E-03
         191 -1.3096703E-04
         192  4.2623673E-03
         193  1.8140139E-03
         194  7.3073141E-04
         195 -1.9884850E-03
         196  9.0960227E-03
         197 -6.6123338E-04
         198 -6.8535056E-04
         199  3.0913780E-04
         200 -2.1657629E-03
         201  1.2996789E-02
         202 -1.8704250E-02
         203  1.3523430E-04
         204 -1.2899976E-03
         205 -5.9394352E-03
         206  5.5920142E-03
         207 -5.1856598E-05
         208  2.2746229E-03
         209 -7.4115663E-04
         210  5.4925604E-04
         211 -6.0262083E-04
         212 -4.0266715E-04
         213  8.0535951E-04
         214  4.6531379E-04
         215  5.2500913E-05
         216  2.2574726E-03
         217  4.9693845E-05
         218  5.4022629E-04
         219  1.0304950E-03
         220  9.4110228E-04
         221 -7.0446945E-04
         222  2.2387172E-03
         223 -1.6329996E-04
         224 -1.7830486E-04
         225 -1.0799518E-03
         226  1.2013196E-03
         227  4.7827646E-04
         228 -4.4077719E-04
         229  1.3116524E-03
         230 -1.6580101E-03
         231 -6.2691041E-05
         232  1.0550985E-03
         233 -1.2139798E-06
         234 -1.2081759E-03
         235 -1.7238913E-04
         236  1.5816442E-05
         237  4.4012521E-04
         238 -5.2287820E-04
         239  5.6734643E-05
         240  7.2608353E-04
         241 -1.4871298E-04
         242  1.1090122E-05
         243 -4.9287552E-04
         244  3.3088826E-04
         245  3.6242622E-04
         246 -1.2882218E-04
         247  1.9829122E-04
         248  4.8163856E-04
         249  1.5699376E-04
         250  1.0358646E-04
         251 -3.2039164E-04
         252 -1.1312413E-04
         253  1.0476428E-04
         254  7.9922429E-05
         255  1.3608918E-04
         256 -2.2782993E-05
         257 -9.0283982E-05
         258 -1.2488896E-04
         259 -9.2880000E-05
         260 -1.1387483E-04
         261 -2.2321481E-05
         262 -3.7784303E-05
         263 -1.7174871E-05
         264 -2.9325078E-05
         265  2.8337855E-04
         266 -5.4550619E-04
         267  5.6897479E-06
         268  2.4681684E-04
         269  3.4572171E-05
         270 -7.2141018E-05
         271 -1.2295962E-04
         272  1.4348356E-05
         273 -1.8615063E-04
         274  6.8061758E-04
         275  4.7755896E-04
         276 -2.4116835E-04
         277  2.9501398E-04
         278  2.1408878E-04
         279 -7.2464369E-05
         280  4.4750918E-06
         281  9.0654081E-05
         282  3.2943424E-03
         283 -3.8990516E-03
         284 -8.7083441E-05
         285 -9.1752998E-04
         286  8.8301394E-03
         287 -4.3497913E-04
         288  7.0366768E-05
         289 -1.1217584E-04
         290  1.4796164E-03
         291  7.7690589E-03
         292 -4.8471734E-04
         293 -4.0445314E-03
         294  5.1383098E-04
         295 -2.4305740E-02
         296  3.1665270E-03
         297  3.4495280E-03
         298 -1.6516218E-03
         299  2.3701350E-04
         300 -1.9565471E-02
         301 -5.0777793E-03
         302  2.0351359E-03
         303 -6.9378148E-04
         304 -1.9783517E-03
         305  1.4615702E-02
         306 -3.2157309E-03
         307  9.0950698E-04
         308  1.2698885E-03
         309 -2.9242276E-03
         310  2.0219572E-02
         311  2.0266843E-03
         312  5.9022247E-03
         313 -3.2967422E-03
         314 -9.8534981E-03
         315 -2.7601173E-04
         316  2.0226666E-03
         317  5.9503075E-03
         318 -3.2653664E-03
         319  9.8655969E-03
         320  3.9022864E-04
         321 -3.2529153E-03
         322  9.2083990E-04
         323  1.2477660E-03
         324  1.5552827E-03
         325  2.0370949E-02
         326 -5.1527401E-03
         327  2.0288494E-03
         328 -7.3124369E-04
         329  9.8036823E-04
         330  1.4702884E-02
         331  3.1266981E-03
         332  3.3766218E-03
         333 -1.6941229E-03
         334  1.1491162E-03
         335 -1.9578867E-02
         336 -9.8087480E-03
         337 -6.8389755E-03
         338  2.0061998E-02
         339  3.1125412E-04
         340 -9.5931496E-03
         341  1.4727473E-02
         342 -2.3522167E-03
         343 -3.2645819E-04
         344  1.0037033E-04
         345  7.7069912E-04
         346  2.4525312E-04
         347  6.1814644E-04
         348 -2.4505172E-04
         349  4.5701783E-04
         350  4.6947598E-04
         351  2.2843876E-04
         352  1.0024069E-04
         353 -4.3375335E-06
         354 -1.2423247E-05
         355 -1.3716222E-04
         356 -1.0470703E-04
         357 -1.3794711E-04
         358  3.0385099E-05
         359  4.9208909E-05
         360 -8.8617417E-05
         361 -3.1515732E-04
         362 -1.0102473E-04
         363  1.5775971E-04
         364  3.8185903E-05
         365 -2.2308272E-05
         366 -1.9132943E-04
         367  5.6632536E-05
         368 -9.5569507E-05
         369 -9.0647860E-05
         370  5.4469951E-05
 Sym= Particle
 Ene= -0.9635960    
 Spin= Alpha
 Occup= 2
           1 -1.3784121E-04
           2 -2.4671654E-05
           3 -3.6504804E-03
           4  5.0611838E-05
           5  2.5291703E-05
           6 -5.2614498E-04
           7  1.8005181E-04
           8 -2.0788507E-04
           9  3.7696544E-04
          10  7.6731238E-05
          11  4.4600382E-03
          12 -2.9327592E-04
          13 -3.7972550E-04
          14 -4.0125541E-04
          15 -1.4364106E-03
          16  1.4112631E-04
          17 -1.6516882E-04
          18 -2.8170113E-04
          19  3.9411616E-04
          20  3.3920663E-04
          21  1.4357601E-04
          22 -2.6563857E-05
          23  3.3397360E-03
          24 -2.4505405E-04
          25 -7.0820737E-05
          26 -1.0590498E-04
          27 -5.8082594E-03
          28 -8.1038699E-05
          29  2.0478650E-04
          30  9.6135198E-05
          31  4.8094876E-03
          32 -7.3980540E-05
          33  9.4740491E-05
          34 -8.0916136E-05
          35  4.4440734E-03
          36  6.1889805E-05
          37 -1.6372027E-04
          38  1.4186465E-05
          39  2.6019956E-03
          40  1.9711129E-04
          41 -9.5070682E-05
          42  9.2944196E-05
          43  1.3664099E-02
          44  3.8090599E-04
          45  4.8081380E-05
          46  3.6780617E-05
          47 -1.9027399E-02
          48 -4.4308105E-04
          49 -6.0673268E-05
          50 -3.6113034E-04
          51  1.0728111E-02
          52  5.7551928E-04
          53  1.6762102E-04
          54  5.8235682E-04
          55 -1.7894367E-02
          56 -9.5441594E-04
          57  1.4055258E-04
          58 -2.7259310E-07
          59 -1.2421283E-02
          60 -2.2175255E-04
          61  2.8260405E-05
          62  5.6856901E-05
          63  9.6987020E-03
          64  2.9102826E-04
          65 -1.4687135E-04
          66 -6.6652356E-06
          67 -5.6171054E-03
          68 -2.9175557E-04
          69  2.1188750E-04
          70  1.1197340E-05
          71 -6.6909968E-05
          72  1.6883455E-04
          73  2.2717039E-03
          74  8.7087266E-03
          75 -1.8399123E-02
          76  9.6242949E-02
          77 -3.1843639E-03
          78 -1.5419122E-03
          79  7.7914526E-03
          80 -4.0311303E-02
          81  5.2642776E-04
          82 -1.6264569E-02
          83  5.5006675E-02
          84 -0.3734393    
          85 -8.5048686E-04
          86  6.1198385E-03
          87 -1.6337991E-02
          88  0.1160767    
          89  5.9918378E-04
          90  1.3238381E-02
          91 -4.1402776E-02
          92  0.2723922    
          93 -1.7677188E-03
          94 -2.9341104E-03
          95  1.1606578E-02
          96 -7.4646041E-02
          97  3.5916865E-03
          98  2.0048886E-03
          99 -1.9725665E-02
         100  0.1113990    
         101 -4.3460396E-03
         102  2.7851970E-04
         103  6.3749370E-03
         104 -2.9059857E-02
         105 -2.2607397E-03
         106 -1.8829683E-02
         107  6.4731732E-02
         108 -0.3814416    
         109 -1.7930893E-03
         110  7.4243192E-03
         111 -1.9790091E-02
         112  0.1197958    
         113  1.1009437E-02
         114 -5.4382654E-03
         115 -6.5253705E-02
         116  0.2924210    
         117 -1.0960017E-02
         118  3.1689326E-03
         119  2.6858073E-02
         120 -0.1096809    
         121 -2.5113730E-04
         122 -1.5542233E-04
         123 -1.7876567E-02
         124 -8.1762549E-04
         125  3.8267419E-04
         126 -6.7816800E-05
         127  3.4595053E-03
         128  8.8267399E-05
         129 -1.0935995E-02
         130  5.0846818E-03
         131 -4.5147739E-02
         132 -0.2956646    
         133  1.1178127E-02
         134 -2.8364900E-03
         135  1.9324280E-02
         136  0.1109868    
         137  2.2762907E-03
         138  1.8520962E-02
         139  3.8952343E-02
         140  0.3846506    
         141  1.8766575E-03
         142 -7.3914300E-03
         143 -1.1656422E-02
         144 -0.1208550    
         145 -3.4920683E-03
         146 -1.8127940E-03
         147 -1.2079621E-02
         148 -0.1125479    
         149  4.3026553E-03
         150 -4.3305568E-04
         151  4.1793687E-03
         152  2.9531006E-02
         153 -5.5158342E-04
         154 -1.2476866E-02
         155 -2.3202520E-02
         156 -0.2742828    
         157  1.8230876E-03
         158  2.7928003E-03
         159  6.6370489E-03
         160  7.5112388E-02
         161 -6.2615826E-04
         162  1.5072177E-02
         163  3.0083451E-02
         164  0.3761063    
         165  1.0541892E-03
         166 -5.4778010E-03
         167 -8.4922267E-03
         168 -0.1168621    
         169 -1.9182526E-03
         170 -8.3722332E-03
         171 -1.2035858E-02
         172 -9.7319834E-02
         173  2.9971397E-03
         174  1.4727146E-03
         175  5.5344976E-03
         176  4.0951509E-02
         177 -5.9529328E-05
         178  1.0852340E-04
         179 -3.2752177E-03
         180  1.2175582E-04
         181  3.7943453E-05
         182  7.2245981E-05
         183  1.5051513E-02
         184  2.4330994E-04
         185  6.2685831E-05
         186 -2.0081416E-05
         187 -6.2875729E-04
         188 -8.2880608E-05
         189 -1.4826977E-04
         190  2.7479389E-05
         191 -1.4660193E-03
         192  1.8243403E-05
         193  9.1049711E-05
         194  2.9410690E-04
         195 -5.6437533E-03
         196 -1.9065021E-04
         197 -7.6748838E-05
         198 -3.7697100E-04
         199  1.4758706E-03
         200  8.8871740E-05
         201  2.5070319E-04
         202 -1.8239141E-04
         203  5.8599487E-03
         204  1.1792652E-04
         205 -2.7415194E-04
         206  3.8885442E-05
         207  8.5861800E-04
         208  6.9687165E-05
         209 -3.2864188E-04
         210 -3.9009916E-04
         211 -3.5008157E-03
         212 -3.7913377E-04
         213  1.3691530E-04
         214  5.4435275E-04
         215  5.0660525E-04
         216 -1.0080844E-04
         217  1.5454755E-04
         218  1.8648529E-05
         219  3.1636741E-03
         220  1.8204009E-04
         221 -3.0004354E-05
         222  1.5112005E-04
         223 -1.8483622E-03
         224 -4.0217279E-04
         225  1.0652169E-05
         226 -2.6540467E-04
         227  9.5487927E-04
         228 -9.4706920E-05
         229 -7.8013611E-05
         230  3.9479430E-04
         231  2.4515274E-04
         232 -2.8629293E-04
         233  3.9694019E-04
         234 -5.9335295E-04
         235 -1.7427892E-03
         236 -4.1131051E-03
         237 -5.4259098E-04
         238  2.6349511E-04
         239  4.2225936E-04
         240  1.3499445E-03
         241 -4.7236554E-05
         242  4.3068785E-04
         243  9.8259153E-04
         244  2.0056632E-03
         245  1.1801954E-04
         246 -3.7944934E-04
         247 -3.1317733E-04
         248 -3.9472850E-04
         249 -9.9922174E-05
         250  2.5037196E-04
         251  6.1341398E-04
         252  1.5924985E-03
         253  1.9665028E-04
         254 -1.7065955E-04
         255 -5.4525441E-05
         256 -5.0968485E-04
         257  9.8252589E-05
         258 -5.6034001E-04
         259 -1.6508974E-03
         260 -3.6767451E-03
         261 -8.9392255E-05
         262  2.2671041E-04
         263  4.3367594E-04
         264  9.2055305E-04
         265  5.6172608E-05
         266  1.3192502E-04
         267  9.5362129E-04
         268  2.1110817E-03
         269  1.7159253E-05
         270  3.1694293E-05
         271 -2.7009458E-04
         272 -5.4740754E-04
         273 -3.8508541E-04
         274  4.8808538E-04
         275  9.2424615E-04
         276  1.6415378E-03
         277  3.9983925E-04
         278 -3.0588018E-04
         279 -4.0604977E-04
         280 -7.5335870E-04
         281  1.6523738E-04
         282 -2.8412685E-06
         283 -8.1106118E-06
         284 -6.5946690E-04
         285  1.2518543E-04
         286  1.1713174E-04
         287  6.7592984E-05
         288 -1.8364628E-04
         289  3.0650371E-03
         290  9.9839126E-05
         291  4.1513992E-04
         292 -2.7251779E-04
         293 -3.3136058E-04
         294 -1.8511018E-02
         295 -2.4675680E-04
         296 -1.7588779E-03
         297  7.5189699E-04
         298 -2.5863966E-03
         299  1.1811417E-02
         300 -7.9830565E-02
         301 -1.4998078E-04
         302 -1.0569213E-03
         303  3.6021965E-03
         304 -1.0773208E-02
         305  6.7251511E-02
         306 -3.5090065E-03
         307 -6.8837806E-04
         308  1.7773515E-03
         309 -5.1696664E-03
         310  2.7743103E-02
         311 -4.1669896E-03
         312 -1.3080741E-04
         313 -1.4369574E-03
         314  1.4997251E-02
         315 -9.1891155E-02
         316  4.0282118E-03
         317  4.9145299E-04
         318  1.3365486E-03
         319  8.9890976E-03
         320  9.2423931E-02
         321  3.6182194E-03
         322  8.3477603E-04
         323 -1.6937179E-03
         324 -3.4472076E-03
         325 -2.7813409E-02
         326  2.3667811E-04
         327  1.4628206E-03
         328 -3.1384954E-03
         329 -6.1784191E-03
         330 -6.7894876E-02
         331  2.0523542E-03
         332 -6.8282004E-04
         333  2.6513280E-03
         334  6.2574772E-03
         335  8.0413088E-02
         336  3.3938934E-04
         337 -4.1275751E-04
         338 -2.0776368E-05
         339  1.0681910E-02
         340  1.9484569E-05
         341  2.1717495E-05
         342  6.7254434E-05
         343  1.3118154E-04
         344 -3.2834294E-03
         345 -1.0709086E-04
         346  1.5936965E-04
         347  1.3386361E-04
         348  3.4493958E-05
         349  1.5663376E-04
         350  1.1972433E-03
         351  9.3244409E-05
         352  5.9607519E-05
         353  8.7734115E-05
         354  2.5199130E-04
         355  5.3424144E-04
         356 -1.9111058E-05
         357  9.8331009E-05
         358 -2.4540132E-04
         359 -5.8176706E-04
         360 -1.1356445E-03
         361 -9.3251419E-06
         362  5.9073878E-05
         363  2.7424981E-05
         364  3.8289494E-04
         365  7.8445295E-04
         366  3.0643094E-04
         367 -2.7902465E-04
         368  1.1763014E-04
         369  2.4076950E-04
         370  7.5755983E-05
