 [Molden Format]
 [Atoms] Angs
O       1      8      2.35757621     -1.30749160      2.38698097
P       2     15      2.28720454     -1.16742969      0.92707040
C       3      6      3.82612160     -0.57997640      0.16248916
C       4      6      3.86373420      0.08589824     -1.05512885
C       5      6      5.07764894      0.50731264     -1.56666829
C       6      6      6.25040041      0.26112990     -0.87022496
C       7      6      6.21271457     -0.40126846      0.34606934
C       8      6      5.00015354     -0.82008077      0.86284550
C       9      6      1.74689926     -2.67676195      0.07301849
C      10      6      1.62094217     -2.74618206     -1.30813966
C      11      6      1.13689878     -3.90173157     -1.89275392
C      12      6      0.78160129     -4.98480223     -1.10318665
C      13      6      0.91319299     -4.91716516      0.27413215
C      14      6      1.39547419     -3.76159094      0.86300353
C      15      6      1.00984738      0.05380089      0.46149574
N      16      7      1.35106600      1.32030186      0.36253095
C      17      6      0.33321091      2.15978000      0.14017671
C      18      6      0.65130250      3.57341179     -0.04299690
C      19      6      1.94395037      4.02565216      0.22046681
C      20      6      2.25504280      5.36066830      0.05136635
C      21      6      1.28580168      6.25145185     -0.38395069
C      22      6      0.00172269      5.80435748     -0.65502891
C      23      6     -0.31819390      4.47124457     -0.48673793
N      24      7     -0.93407694      1.77855496      0.06432356
C      25      6     -1.17440677      0.47378600      0.19953997
N      26      7     -2.45866913      0.03719739      0.13050965
C      27      6     -2.86756810     -1.29863114      0.01468852
C      28      6     -2.12194281     -2.46482429     -0.01767808
C      29      6     -2.79961858     -3.66368274     -0.16587770
C      30      6     -4.18377849     -3.71082858     -0.27968862
C      31      6     -4.93267760     -2.54941300     -0.24868788
C      32      6     -4.27200017     -1.33923782     -0.10156845
C      33      6     -4.74134369      0.02103528     -0.03098641
C      34      6     -6.01101889      0.57738907     -0.06536849
C      35      6     -6.13457140      1.94860725      0.05719059
C      36      6     -5.01097250      2.74939290      0.22433477
C      37      6     -3.73503086      2.21156373      0.25928241
C      38      6     -3.60462069      0.84107962      0.11599713
N      39      7     -0.20862553     -0.43548718      0.37898700
H      40      1      2.94761018      0.29341240     -1.58864031
H      41      1      5.11047810      1.03302158     -2.51007238
H      42      1      7.19536991      0.59315135     -1.27492825
H      43      1      7.12699216     -0.58662136      0.89053298
H      44      1      4.93980504     -1.32535714      1.81609742
H      45      1      1.89868982     -1.89885125     -1.91825564
H      46      1      1.03248181     -3.95979019     -2.96645502
H      47      1      0.40141513     -5.88376874     -1.56640708
H      48      1      0.63693107     -5.76228403      0.88766038
H      49      1      1.50234218     -3.67635591      1.93466092
H      50      1      2.68307176      3.31603590      0.55877034
H      51      1      3.25538668      5.71067872      0.25903607
H      52      1      1.53173713      7.29512610     -0.51466899
H      53      1     -0.75005891      6.49907251     -0.99972559
H      54      1     -1.30972412      4.10794297     -0.70681949
H      55      1     -1.05086366     -2.44747193      0.07723183
H      56      1     -2.23046733     -4.58091176     -0.19088777
H      57      1     -4.67727802     -4.66477789     -0.39163762
H      58      1     -6.00806186     -2.57761647     -0.33644980
H      59      1     -6.88052598     -0.05161435     -0.17997232
H      60      1     -7.11332111      2.40398274      0.03213818
H      61      1     -5.13309188      3.81673762      0.33383311
H      62      1     -2.87143558      2.83682770      0.40361222
 [GTO]
           1   0
s              4   1.000000
     72.79144306     -0.01198412
     12.53528882     -0.05472053
      1.00726394      0.58055871
      0.38389322      0.47700799
p              4   1.000000
      7.50645590      0.05713170
      1.94631193      0.28574555
      0.68613518      0.55178731
      0.27316224      0.26323149
s              7   1.000000
      0.57971233     -0.18811037
      0.07115450      0.90888016
      0.03359728      0.23868572
     72.79144306      0.00403916
     12.53528882      0.01844316
      1.00726394     -0.19567316
      0.38389322     -0.16077213
p              7   1.000000
      2.76717072     -0.01186587
      0.15304476      0.58310700
      0.05897927      0.60896866
      7.50645590     -0.02848100
      1.94631193     -0.14244837
      0.68613518     -0.27507412
      0.27316224     -0.13122478
 
           2   0
s              4   1.000000
      4.48017102     -0.03295496
      1.26195414     -0.17245169
      0.22628800      0.75185111
      0.11133462      0.35896273
p              4   1.000000
      8.15645426     -0.01434249
      0.84288766      0.27551776
      0.38095642      0.58467508
      0.18416274      0.21449865
s              7   1.000000
      0.13262137     -0.35457001
      0.02601144      1.11879533
      0.01283734      0.13304512
      4.48017102      0.01145797
      1.26195414      0.05995897
      0.22628800     -0.26140782
      0.11133462     -0.12480618
p              7   1.000000
      0.28417832     -0.06291349
      0.04344939      0.67583515
      0.02136350      0.40244502
      8.15645426      0.00311719
      0.84288766     -0.05988091
      0.38095642     -0.12707303
      0.18416274     -0.04661904
 
           3   0
s              4   1.000000
     34.97679734     -0.01198412
      6.02329392     -0.05472052
      0.48399737      0.58055871
      0.18446338      0.47700799
p              4   1.000000
      5.63742465      0.05713170
      1.46170003      0.28574555
      0.51529449      0.55178731
      0.20514762      0.26323149
s              7   1.000000
      0.38350848     -0.19619210
      0.04707223      0.94792813
      0.02222627      0.24894033
     34.97679734      0.00550930
      6.02329392      0.02515596
      0.48399737     -0.26689272
      0.18446338     -0.21928869
p              7   1.000000
      1.83062075     -0.01160938
      0.10124670      0.57050281
      0.03901771      0.59580542
      5.63742465     -0.02523679
      1.46170003     -0.12622241
      0.51529449     -0.24374106
      0.20514762     -0.11627727
 
           4   0
s              4   1.000000
     35.16994900     -0.01198412
      6.05655624     -0.05472053
      0.48667014      0.58055871
      0.18548203      0.47700800
p              4   1.000000
      5.66855608      0.05713170
      1.46977195      0.28574555
      0.51814009      0.55178731
      0.20628050      0.26323149
s              7   1.000000
      0.38350848     -0.19601290
      0.04707223      0.94706232
      0.02222627      0.24871293
     35.16994900      0.00548040
      6.05655624      0.02502397
      0.48667014     -0.26549246
      0.18548203     -0.21813818
p              7   1.000000
      1.83062075     -0.01159942
      0.10124670      0.57001331
      0.03901771      0.59529422
      5.66855608     -0.02510387
      1.46977195     -0.12555761
      0.51814009     -0.24245731
      0.20628050     -0.11566486
 
           5   0
s              4   1.000000
     34.92577654     -0.01198412
      6.01450772     -0.05472053
      0.48329136      0.58055871
      0.18419430      0.47700800
p              4   1.000000
      5.62920131      0.05713170
      1.45956784      0.28574555
      0.51454283      0.55178731
      0.20484837      0.26323149
s              7   1.000000
      0.38350848     -0.19623987
      0.04707223      0.94815895
      0.02222627      0.24900095
     34.92577654      0.00551699
      6.01450772      0.02519105
      0.48329136     -0.26726502
      0.18419430     -0.21959458
p              7   1.000000
      1.83062075     -0.01161204
      0.10124670      0.57063331
      0.03901771      0.59594172
      5.62920131     -0.02527213
      1.45956784     -0.12639916
      0.51454283     -0.24408238
      0.20484837     -0.11644010
 
           6   0
s              4   1.000000
     34.92480207     -0.01198412
      6.01433991     -0.05472052
      0.48327787      0.58055871
      0.18418916      0.47700799
p              4   1.000000
      5.62904425      0.05713170
      1.45952712      0.28574555
      0.51452847      0.55178731
      0.20484265      0.26323149
s              7   1.000000
      0.38350848     -0.19624079
      0.04707223      0.94816337
      0.02222627      0.24900209
     34.92480207      0.00551713
      6.01433991      0.02519172
      0.48327787     -0.26727214
      0.18418916     -0.21960044
p              7   1.000000
      1.83062075     -0.01161209
      0.10124670      0.57063582
      0.03901771      0.59594435
      5.62904425     -0.02527281
      1.45952712     -0.12640254
      0.51452847     -0.24408890
      0.20484265     -0.11644321
 
           7   0
s              4   1.000000
     34.92043861     -0.01198412
      6.01358848     -0.05472052
      0.48321749      0.58055871
      0.18416615      0.47700800
p              4   1.000000
      5.62834096      0.05713170
      1.45934477      0.28574555
      0.51446419      0.55178730
      0.20481706      0.26323149
s              7   1.000000
      0.38350848     -0.19624488
      0.04707223      0.94818315
      0.02222627      0.24900728
     34.92043861      0.00551779
      6.01358848      0.02519472
      0.48321749     -0.26730403
      0.18416615     -0.21962664
p              7   1.000000
      1.83062075     -0.01161232
      0.10124670      0.57064700
      0.03901771      0.59595604
      5.62834096     -0.02527583
      1.45934477     -0.12641768
      0.51446419     -0.24411814
      0.20481706     -0.11645716
 
           8   0
s              4   1.000000
     35.28628965     -0.01198412
      6.07659106     -0.05472052
      0.48828002      0.58055871
      0.18609560      0.47700799
p              4   1.000000
      5.68730742      0.05713170
      1.47463389      0.28574555
      0.51985408      0.55178731
      0.20696287      0.26323149
s              7   1.000000
      0.38350848     -0.19590623
      0.04707223      0.94654690
      0.02222627      0.24857758
     35.28628965      0.00546313
      6.07659106      0.02494513
      0.48828002     -0.26465597
      0.18609560     -0.21745090
p              7   1.000000
      1.83062075     -0.01159349
      0.10124670      0.56972192
      0.03901771      0.59498991
      5.68730742     -0.02502447
      1.47463389     -0.12516046
      0.51985408     -0.24169039
      0.20696287     -0.11529899
 
           9   0
s              4   1.000000
     34.98560587     -0.01198412
      6.02481082     -0.05472052
      0.48411926      0.58055871
      0.18450983      0.47700799
p              4   1.000000
      5.63884437      0.05713170
      1.46206814      0.28574555
      0.51542426      0.55178731
      0.20519928      0.26323149
s              7   1.000000
      0.38350848     -0.19618387
      0.04707223      0.94788836
      0.02222627      0.24892987
     34.98560587      0.00550798
      6.02481082      0.02514991
      0.48411926     -0.26682855
      0.18450983     -0.21923596
p              7   1.000000
      1.83062075     -0.01160892
      0.10124670      0.57048033
      0.03901771      0.59578196
      5.63884437     -0.02523070
      1.46206814     -0.12619195
      0.51542426     -0.24368223
      0.20519928     -0.11624921
 
          10   0
s              4   1.000000
     35.17809442     -0.01198412
      6.05795895     -0.05472053
      0.48678285      0.58055871
      0.18552499      0.47700799
p              4   1.000000
      5.66986893      0.05713170
      1.47011235      0.28574555
      0.51826010      0.55178731
      0.20632827      0.26323149
s              7   1.000000
      0.38350848     -0.19600540
      0.04707223      0.94702608
      0.02222627      0.24870343
     35.17809442      0.00547919
      6.05795895      0.02501844
      0.48678285     -0.26543372
      0.18552499     -0.21808993
p              7   1.000000
      1.83062075     -0.01159900
      0.10124670      0.56999282
      0.03901771      0.59527282
      5.66986893     -0.02509830
      1.47011235     -0.12552973
      0.51826010     -0.24240346
      0.20632827     -0.11563917
 
          11   0
s              4   1.000000
     34.92659055     -0.01198412
      6.01464790     -0.05472053
      0.48330262      0.58055871
      0.18419859      0.47700799
p              4   1.000000
      5.62933251      0.05713170
      1.45960186      0.28574555
      0.51455482      0.55178731
      0.20485314      0.26323149
s              7   1.000000
      0.38350848     -0.19623911
      0.04707223      0.94815526
      0.02222627      0.24899997
     34.92659055      0.00551687
      6.01464790      0.02519049
      0.48330262     -0.26725907
      0.18419859     -0.21958970
p              7   1.000000
      1.83062075     -0.01161200
      0.10124670      0.57063123
      0.03901771      0.59593958
      5.62933251     -0.02527157
      1.45960186     -0.12639634
      0.51455482     -0.24407692
      0.20485314     -0.11643749
 
          12   0
s              4   1.000000
     34.92720947     -0.01198412
      6.01475448     -0.05472053
      0.48331119      0.58055871
      0.18420186      0.47700800
p              4   1.000000
      5.62943227      0.05713170
      1.45962773      0.28574555
      0.51456394      0.55178731
      0.20485677      0.26323149
s              7   1.000000
      0.38350848     -0.19623853
      0.04707223      0.94815245
      0.02222627      0.24899924
     34.92720947      0.00551677
      6.01475448      0.02519006
      0.48331119     -0.26725455
      0.18420186     -0.21958599
p              7   1.000000
      1.83062075     -0.01161196
      0.10124670      0.57062964
      0.03901771      0.59593792
      5.62943227     -0.02527114
      1.45962773     -0.12639419
      0.51456394     -0.24407278
      0.20485677     -0.11643552
 
          13   0
s              4   1.000000
     34.92328552     -0.01198412
      6.01407874     -0.05472052
      0.48325689      0.58055871
      0.18418116      0.47700799
p              4   1.000000
      5.62879982      0.05713170
      1.45946374      0.28574555
      0.51450613      0.55178731
      0.20483376      0.26323149
s              7   1.000000
      0.38350848     -0.19624221
      0.04707223      0.94817025
      0.02222627      0.24900390
     34.92328552      0.00551736
      6.01407874      0.02519276
      0.48325689     -0.26728322
      0.18418116     -0.21960954
p              7   1.000000
      1.83062075     -0.01161217
      0.10124670      0.57063970
      0.03901771      0.59594840
      5.62879982     -0.02527386
      1.45946374     -0.12640780
      0.51450613     -0.24409906
      0.20483376     -0.11644806
 
          14   0
s              4   1.000000
     35.27543671     -0.01198412
      6.07472209     -0.05472052
      0.48812984      0.58055871
      0.18603836      0.47700800
p              4   1.000000
      5.68555818      0.05713170
      1.47418034      0.28574555
      0.51969419      0.55178731
      0.20689921      0.26323149
s              7   1.000000
      0.38350848     -0.19591614
      0.04707223      0.94659479
      0.02222627      0.24859016
     35.27543671      0.00546474
      6.07472209      0.02495247
      0.48812984     -0.26473378
      0.18603836     -0.21751483
p              7   1.000000
      1.83062075     -0.01159404
      0.10124670      0.56974899
      0.03901771      0.59501819
      5.68555818     -0.02503185
      1.47418034     -0.12519741
      0.51969419     -0.24176173
      0.20689921     -0.11533303
 
          15   0
s              4   1.000000
     35.36599849     -0.01198412
      6.09031758     -0.05472052
      0.48938300      0.58055871
      0.18651598      0.47700800
p              4   1.000000
      5.70015458      0.05713170
      1.47796496      0.28574555
      0.52102839      0.55178731
      0.20743038      0.26323149
s              7   1.000000
      0.38350848     -0.19583368
      0.04707223      0.94619637
      0.02222627      0.24848554
     35.36599849      0.00545136
      6.09031758      0.02489139
      0.48938300     -0.26408583
      0.18651598     -0.21698246
p              7   1.000000
      1.83062075     -0.01158946
      0.10124670      0.56952374
      0.03901771      0.59478294
      5.70015458     -0.02497034
      1.47796496     -0.12488976
      0.52102839     -0.24116766
      0.20743038     -0.11504962
 
          16   0
s              4   1.000000
     57.66696094     -0.01198412
      9.93072785     -0.05472052
      0.79797635      0.58055871
      0.30412854      0.47700799
p              4   1.000000
      6.79731864      0.05713170
      1.76244322      0.28574555
      0.62131577      0.55178731
      0.24735652      0.26323149
s              7   1.000000
      0.47894987     -0.18893724
      0.05878681      0.91287533
      0.02775758      0.23973492
     57.66696094      0.00420998
      9.93072785      0.01922315
      0.79797635     -0.20394845
      0.30412854     -0.16757141
p              7   1.000000
      2.28619608     -0.01167512
      0.12644335      0.57373345
      0.04872781      0.59917938
      6.79731864     -0.02609983
      1.76244322     -0.13053892
      0.62131577     -0.25207643
      0.24735652     -0.12025368
 
          17   0
s              4   1.000000
     35.47061342     -0.01198412
      6.10833314     -0.05472052
      0.49083063      0.58055871
      0.18706770      0.47700800
p              4   1.000000
      5.71701601      0.05713170
      1.48233688      0.28574555
      0.52256962      0.55178731
      0.20804397      0.26323149
s              7   1.000000
      0.38350848     -0.19573912
      0.04707223      0.94573950
      0.02222627      0.24836555
     35.47061342      0.00543599
      6.10833314      0.02482121
      0.49083063     -0.26334120
      0.18706770     -0.21637063
p              7   1.000000
      1.83062075     -0.01158420
      0.10124670      0.56926545
      0.03901771      0.59451322
      5.71701601     -0.02489965
      1.48233688     -0.12453620
      0.52256962     -0.24048491
      0.20804397     -0.11472392
 
          18   0
s              4   1.000000
     35.13298702     -0.01198412
      6.05019108     -0.05472052
      0.48615867      0.58055871
      0.18528710      0.47700799
p              4   1.000000
      5.66259869      0.05713170
      1.46822728      0.28574555
      0.51759555      0.55178731
      0.20606371      0.26323149
s              7   1.000000
      0.38350848     -0.19604699
      0.04707223      0.94722701
      0.02222627      0.24875620
     35.13298702      0.00548591
      6.05019108      0.02504913
      0.48615867     -0.26575930
      0.18528710     -0.21835743
p              7   1.000000
      1.83062075     -0.01160132
      0.10124670      0.57010642
      0.03901771      0.59539148
      5.66259869     -0.02512920
      1.46822728     -0.12568431
      0.51759555     -0.24270196
      0.20606371     -0.11578157
 
          19   0
s              4   1.000000
     35.02343950     -0.01198412
      6.03132609     -0.05472052
      0.48464279      0.58055871
      0.18470936      0.47700799
p              4   1.000000
      5.64494225      0.05713170
      1.46364923      0.28574555
      0.51598165      0.55178731
      0.20542119      0.26323149
s              7   1.000000
      0.38350848     -0.19614859
      0.04707223      0.94771788
      0.02222627      0.24888509
     35.02343950      0.00550230
      6.03132609      0.02512396
      0.48464279     -0.26655326
      0.18470936     -0.21900978
p              7   1.000000
      1.83062075     -0.01160696
      0.10124670      0.57038395
      0.03901771      0.59568131
      5.64494225     -0.02520457
      1.46364923     -0.12606125
      0.51598165     -0.24342986
      0.20542119     -0.11612881
 
          20   0
s              4   1.000000
     34.91604150     -0.01198412
      6.01283126     -0.05472052
      0.48315665      0.58055871
      0.18414296      0.47700800
p              4   1.000000
      5.62763226      0.05713170
      1.45916101      0.28574555
      0.51439941      0.55178730
      0.20479127      0.26323149
s              7   1.000000
      0.38350848     -0.19624901
      0.04707223      0.94820310
      0.02222627      0.24901252
     34.91604150      0.00551846
      6.01283126      0.02519775
      0.48315665     -0.26733617
      0.18414296     -0.21965305
p              7   1.000000
      1.83062075     -0.01161255
      0.10124670      0.57065828
      0.03901771      0.59596781
      5.62763226     -0.02527889
      1.45916101     -0.12643294
      0.51439941     -0.24414760
      0.20479127     -0.11647121
 
          21   0
s              4   1.000000
     34.92167070     -0.01198412
      6.01380066     -0.05472052
      0.48323454      0.58055871
      0.18417264      0.47700800
p              4   1.000000
      5.62853955      0.05713170
      1.45939626      0.28574555
      0.51448234      0.55178731
      0.20482429      0.26323149
s              7   1.000000
      0.38350848     -0.19624373
      0.04707223      0.94817757
      0.02222627      0.24900582
     34.92167070      0.00551761
      6.01380066      0.02519388
      0.48323454     -0.26729502
      0.18417264     -0.21961924
p              7   1.000000
      1.83062075     -0.01161225
      0.10124670      0.57064384
      0.03901771      0.59595272
      5.62853955     -0.02527498
      1.45939626     -0.12641341
      0.51448234     -0.24410988
      0.20482429     -0.11645322
 
          22   0
s              4   1.000000
     34.91642318     -0.01198412
      6.01289699     -0.05472052
      0.48316193      0.58055871
      0.18414497      0.47700799
p              4   1.000000
      5.62769378      0.05713170
      1.45917696      0.28574555
      0.51440503      0.55178731
      0.20479351      0.26323149
s              7   1.000000
      0.38350848     -0.19624865
      0.04707223      0.94820137
      0.02222627      0.24901209
     34.91642318      0.00551840
      6.01289699      0.02519749
      0.48316193     -0.26733338
      0.18414497     -0.21965076
p              7   1.000000
      1.83062075     -0.01161253
      0.10124670      0.57065729
      0.03901771      0.59596676
      5.62769378     -0.02527862
      1.45917696     -0.12643162
      0.51440503     -0.24414505
      0.20479351     -0.11646999
 
          23   0
s              4   1.000000
     35.01323669     -0.01198412
      6.02956908     -0.05472052
      0.48450160      0.58055871
      0.18465555      0.47700800
p              4   1.000000
      5.64329780      0.05713170
      1.46322285      0.28574555
      0.51583133      0.55178731
      0.20536134      0.26323149
s              7   1.000000
      0.38350848     -0.19615809
      0.04707223      0.94776381
      0.02222627      0.24889716
     35.01323669      0.00550383
      6.02956908      0.02513095
      0.48450160     -0.26662744
      0.18465555     -0.21907073
p              7   1.000000
      1.83062075     -0.01160749
      0.10124670      0.57040991
      0.03901771      0.59570841
      5.64329780     -0.02521161
      1.46322285     -0.12609647
      0.51583133     -0.24349787
      0.20536134     -0.11616126
 
          24   0
s              4   1.000000
     57.36819405     -0.01198412
      9.87927772     -0.05472052
      0.79384212      0.58055871
      0.30255288      0.47700799
p              4   1.000000
      6.76210239      0.05713170
      1.75331218      0.28574555
      0.61809680      0.55178731
      0.24607499      0.26323149
s              7   1.000000
      0.47894987     -0.18904381
      0.05878681      0.91339023
      0.02775758      0.23987015
     57.36819405      0.00423155
      9.87927772      0.01932163
      0.79384212     -0.20499324
      0.30255288     -0.16842985
p              7   1.000000
      2.28619608     -0.01168517
      0.12644335      0.57422729
      0.04872781      0.59969511
      6.76210239     -0.02622967
      1.75331218     -0.13118833
      0.61809680     -0.25333047
      0.24607499     -0.12085192
 
          25   0
s              4   1.000000
     35.49572994     -0.01198412
      6.11265841     -0.05472053
      0.49117818      0.58055871
      0.18720016      0.47700800
p              4   1.000000
      5.72106419      0.05713170
      1.48338652      0.28574555
      0.52293965      0.55178731
      0.20819129      0.26323149
s              7   1.000000
      0.38350848     -0.19571653
      0.04707223      0.94563034
      0.02222627      0.24833688
     35.49572994      0.00543231
      6.11265841      0.02480442
      0.49117818     -0.26316303
      0.18720016     -0.21622425
p              7   1.000000
      1.83062075     -0.01158295
      0.10124670      0.56920375
      0.03901771      0.59444877
      5.72106419     -0.02488274
      1.48338652     -0.12445160
      0.52293965     -0.24032155
      0.20819129     -0.11464598
 
          26   0
s              4   1.000000
     61.45125082     -0.01198412
     10.58241388     -0.05472052
      0.85034211      0.58055871
      0.32408643      0.47700800
p              4   1.000000
      7.24338036      0.05713170
      1.87810037      0.28574555
      0.66208850      0.55178731
      0.26358884      0.26323149
s              7   1.000000
      0.47894987     -0.18770821
      0.05878681      0.90693710
      0.02775758      0.23817545
     61.45125082      0.00395370
     10.58241388      0.01805292
      0.85034211     -0.19153291
      0.32408643     -0.15737036
p              7   1.000000
      2.28619608     -0.01155893
      0.12644335      0.56802372
      0.04872781      0.59321639
      7.24338036     -0.02455742
      1.87810037     -0.12282450
      0.66208850     -0.23717955
      0.26358884     -0.11314709
 
          27   0
s              4   1.000000
     35.58495515     -0.01198412
      6.12802373     -0.05472053
      0.49241285      0.58055871
      0.18767073      0.47700799
p              4   1.000000
      5.73544517      0.05713170
      1.48711529      0.28574555
      0.52425416      0.55178731
      0.20871461      0.26323149
s              7   1.000000
      0.38350848     -0.19563662
      0.04707223      0.94524424
      0.02222627      0.24823548
     35.58495515      0.00541929
      6.12802373      0.02474494
      0.49241285     -0.26253201
      0.18767073     -0.21570578
p              7   1.000000
      1.83062075     -0.01157850
      0.10124670      0.56898546
      0.03901771      0.59422080
      5.73544517     -0.02482283
      1.48711529     -0.12415197
      0.52425416     -0.23974296
      0.20871461     -0.11436997
 
          28   0
s              4   1.000000
     34.95778082     -0.01198412
      6.02001912     -0.05472053
      0.48373422      0.58055871
      0.18436309      0.47700800
p              4   1.000000
      5.63435964      0.05713170
      1.46090532      0.28574555
      0.51501433      0.55178731
      0.20503608      0.26323149
s              7   1.000000
      0.38350848     -0.19620988
      0.04707223      0.94801406
      0.02222627      0.24896287
     34.95778082      0.00551216
      6.02001912      0.02516902
      0.48373422     -0.26703137
      0.18436309     -0.21940261
p              7   1.000000
      1.83062075     -0.01161037
      0.10124670      0.57055139
      0.03901771      0.59585620
      5.63435964     -0.02524995
      1.46090532     -0.12628823
      0.51501433     -0.24386817
      0.20503608     -0.11633791
 
          29   0
s              4   1.000000
     34.94239884     -0.01198412
      6.01737022     -0.05472052
      0.48352137      0.58055871
      0.18428196      0.47700800
p              4   1.000000
      5.63188043      0.05713170
      1.46026250      0.28574555
      0.51478772      0.55178731
      0.20494586      0.26323149
s              7   1.000000
      0.38350848     -0.19622429
      0.04707223      0.94808366
      0.02222627      0.24898115
     34.94239884      0.00551448
      6.01737022      0.02517960
      0.48352137     -0.26714361
      0.18428196     -0.21949484
p              7   1.000000
      1.83062075     -0.01161117
      0.10124670      0.57059074
      0.03901771      0.59589726
      5.63188043     -0.02526061
      1.46026250     -0.12634152
      0.51478772     -0.24397108
      0.20494586     -0.11638700
 
          30   0
s              4   1.000000
     34.92166083     -0.01198412
      6.01379896     -0.05472052
      0.48323441      0.58055871
      0.18417259      0.47700799
p              4   1.000000
      5.62853796      0.05713170
      1.45939584      0.28574555
      0.51448220      0.55178731
      0.20482423      0.26323149
s              7   1.000000
      0.38350848     -0.19624374
      0.04707223      0.94817761
      0.02222627      0.24900585
     34.92166083      0.00551761
      6.01379896      0.02519388
      0.48323441     -0.26729510
      0.18417259     -0.21961930
p              7   1.000000
      1.83062075     -0.01161225
      0.10124670      0.57064387
      0.03901771      0.59595276
      5.62853796     -0.02527499
      1.45939584     -0.12641344
      0.51448220     -0.24410995
      0.20482423     -0.11645325
 
          31   0
s              4   1.000000
     34.94323635     -0.01198412
      6.01751444     -0.05472053
      0.48353296      0.58055871
      0.18428638      0.47700800
p              4   1.000000
      5.63201542      0.05713170
      1.46029750      0.28574555
      0.51480006      0.55178731
      0.20495077      0.26323149
s              7   1.000000
      0.38350848     -0.19622351
      0.04707223      0.94807985
      0.02222627      0.24898015
     34.94323635      0.00551436
      6.01751444      0.02517903
      0.48353296     -0.26713750
      0.18428638     -0.21948981
p              7   1.000000
      1.83062075     -0.01161113
      0.10124670      0.57058860
      0.03901771      0.59589503
      5.63201542     -0.02526003
      1.46029750     -0.12633862
      0.51480006     -0.24396547
      0.20495077     -0.11638433
 
          32   0
s              4   1.000000
     35.41117425     -0.01198412
      6.09809722     -0.05472052
      0.49000813      0.58055871
      0.18675423      0.47700799
p              4   1.000000
      5.70743584      0.05713170
      1.47985289      0.28574555
      0.52169394      0.55178731
      0.20769535      0.26323149
s              7   1.000000
      0.38350848     -0.19579276
      0.04707223      0.94599863
      0.02222627      0.24843360
     35.41117425      0.00544471
      6.09809722      0.02486104
      0.49000813     -0.26376377
      0.18675423     -0.21671784
p              7   1.000000
      1.83062075     -0.01158718
      0.10124670      0.56941196
      0.03901771      0.59466622
      5.70743584     -0.02493977
      1.47985289     -0.12473684
      0.52169394     -0.24087237
      0.20769535     -0.11490875
 
          33   0
s              4   1.000000
     35.40891082     -0.01198412
      6.09770744     -0.05472052
      0.48997681      0.58055871
      0.18674229      0.47700800
p              4   1.000000
      5.70707102      0.05713170
      1.47975830      0.28574555
      0.52166059      0.55178731
      0.20768207      0.26323149
s              7   1.000000
      0.38350848     -0.19579480
      0.04707223      0.94600853
      0.02222627      0.24843621
     35.40891082      0.00544505
      6.09770744      0.02486256
      0.48997681     -0.26377989
      0.18674229     -0.21673108
p              7   1.000000
      1.83062075     -0.01158730
      0.10124670      0.56941755
      0.03901771      0.59467205
      5.70707102     -0.02494130
      1.47975830     -0.12474450
      0.52166059     -0.24088715
      0.20768207     -0.11491580
 
          34   0
s              4   1.000000
     34.94297656     -0.01198412
      6.01746970     -0.05472052
      0.48352937      0.58055871
      0.18428501      0.47700799
p              4   1.000000
      5.63197354      0.05713170
      1.46028664      0.28574555
      0.51479623      0.55178731
      0.20494925      0.26323149
s              7   1.000000
      0.38350848     -0.19622375
      0.04707223      0.94808103
      0.02222627      0.24898047
     34.94297656      0.00551439
      6.01746970      0.02517921
      0.48352937     -0.26713940
      0.18428501     -0.21949137
p              7   1.000000
      1.83062075     -0.01161114
      0.10124670      0.57058926
      0.03901771      0.59589572
      5.63197354     -0.02526021
      1.46028664     -0.12633952
      0.51479623     -0.24396721
      0.20494925     -0.11638516
 
          35   0
s              4   1.000000
     34.92203357     -0.01198412
      6.01386315     -0.05472052
      0.48323956      0.58055871
      0.18417456      0.47700800
p              4   1.000000
      5.62859804      0.05713170
      1.45941142      0.28574555
      0.51448769      0.55178731
      0.20482641      0.26323149
s              7   1.000000
      0.38350848     -0.19624339
      0.04707223      0.94817592
      0.02222627      0.24900538
     34.92203357      0.00551755
      6.01386315      0.02519363
      0.48323956     -0.26729237
      0.18417456     -0.21961706
p              7   1.000000
      1.83062075     -0.01161223
      0.10124670      0.57064291
      0.03901771      0.59595175
      5.62859804     -0.02527473
      1.45941142     -0.12641215
      0.51448769     -0.24410745
      0.20482641     -0.11645206
 
          36   0
s              4   1.000000
     34.93846265     -0.01198412
      6.01669237     -0.05472052
      0.48346690      0.58055871
      0.18426120      0.47700799
p              4   1.000000
      5.63124601      0.05713170
      1.46009800      0.28574555
      0.51472973      0.55178731
      0.20492277      0.26323149
s              7   1.000000
      0.38350848     -0.19622798
      0.04707223      0.94810147
      0.02222627      0.24898583
     34.93846265      0.00551507
      6.01669237      0.02518231
      0.48346690     -0.26717235
      0.18426120     -0.21951845
p              7   1.000000
      1.83062075     -0.01161138
      0.10124670      0.57060082
      0.03901771      0.59590782
      5.63124601     -0.02526334
      1.46009800     -0.12635517
      0.51472973     -0.24399742
      0.20492277     -0.11639957
 
          37   0
s              4   1.000000
     34.95301808     -0.01198412
      6.01919894     -0.05472052
      0.48366832      0.58055871
      0.18433797      0.47700800
p              4   1.000000
      5.63359200      0.05713170
      1.46070628      0.28574555
      0.51494417      0.55178731
      0.20500815      0.26323149
s              7   1.000000
      0.38350848     -0.19621434
      0.04707223      0.94803559
      0.02222627      0.24896853
     34.95301808      0.00551288
      6.01919894      0.02517230
      0.48366832     -0.26706611
      0.18433797     -0.21943115
p              7   1.000000
      1.83062075     -0.01161062
      0.10124670      0.57056357
      0.03901771      0.59586890
      5.63359200     -0.02525325
      1.46070628     -0.12630473
      0.51494417     -0.24390002
      0.20500815     -0.11635311
 
          38   0
s              4   1.000000
     35.58643232     -0.01198412
      6.12827811     -0.05472053
      0.49243329      0.58055871
      0.18767852      0.47700799
p              4   1.000000
      5.73568325      0.05713170
      1.48717702      0.28574555
      0.52427592      0.55178731
      0.20872328      0.26323149
s              7   1.000000
      0.38350848     -0.19563530
      0.04707223      0.94523787
      0.02222627      0.24823382
     35.58643232      0.00541907
      6.12827811      0.02474396
      0.49243329     -0.26252159
      0.18767852     -0.21569721
p              7   1.000000
      1.83062075     -0.01157843
      0.10124670      0.56898186
      0.03901771      0.59421704
      5.73568325     -0.02482184
      1.48717702     -0.12414703
      0.52427592     -0.23973340
      0.20872328     -0.11436541
 
          39   0
s              4   1.000000
     57.87020095     -0.01198412
      9.96572746     -0.05472052
      0.80078872      0.58055871
      0.30520040      0.47700799
p              4   1.000000
      6.82127494      0.05713170
      1.76865473      0.28574555
      0.62350552      0.55178731
      0.24822829      0.26323149
s              7   1.000000
      0.47894987     -0.18886561
      0.05878681      0.91252920
      0.02775758      0.23964402
     57.87020095      0.00419543
      9.96572746      0.01915670
      0.80078872     -0.20324343
      0.30520040     -0.16699214
p              7   1.000000
      2.28619608     -0.01166837
      0.12644335      0.57340138
      0.04872781      0.59883255
      6.82127494     -0.02601222
      1.76865473     -0.13010073
      0.62350552     -0.25123027
      0.24822829     -0.11985002
 
          40   0
s              4   1.000000
      8.31094000      0.05675242
      1.52079963      0.26014135
      0.42249479      0.53284611
      0.14022222      0.29162544
s              7   1.000000
      0.92936822     -0.06732586
      0.05643440      0.66942991
      0.02166600      0.51459504
      8.31094000     -0.02901738
      1.52079963     -0.13300968
      0.42249479     -0.27244300
      0.14022222     -0.14910742
p              4   1.000000
      0.64737396      0.05713170
      0.16785440      0.28574555
      0.05917387      0.55178731
      0.02355814      0.26323150
 
          41   0
s              4   1.000000
      8.30887308      0.05675242
      1.52042140      0.26014135
      0.42238971      0.53284611
      0.14018735      0.29162544
s              7   1.000000
      0.92936822     -0.06732852
      0.05643440      0.66945634
      0.02166600      0.51461537
      8.30887308     -0.02902291
      1.52042140     -0.13303502
      0.42238971     -0.27249490
      0.14018735     -0.14913583
p              4   1.000000
      0.64737396      0.05713170
      0.16785440      0.28574555
      0.05917387      0.55178731
      0.02355814      0.26323150
 
          42   0
s              4   1.000000
      8.30881979      0.05675242
      1.52041165      0.26014135
      0.42238701      0.53284611
      0.14018645      0.29162544
s              7   1.000000
      0.92936822     -0.06732859
      0.05643440      0.66945703
      0.02166600      0.51461589
      8.30881979     -0.02902305
      1.52041165     -0.13303567
      0.42238701     -0.27249624
      0.14018645     -0.14913656
p              4   1.000000
      0.64737396      0.05713170
      0.16785440      0.28574555
      0.05917387      0.55178731
      0.02355814      0.26323150
 
          43   0
s              4   1.000000
      8.30882614      0.05675242
      1.52041282      0.26014135
      0.42238733      0.53284611
      0.14018656      0.29162544
s              7   1.000000
      0.92936822     -0.06732858
      0.05643440      0.66945695
      0.02166600      0.51461584
      8.30882614     -0.02902304
      1.52041282     -0.13303559
      0.42238733     -0.27249608
      0.14018656     -0.14913647
p              4   1.000000
      0.64737396      0.05713170
      0.16785440      0.28574555
      0.05917387      0.55178731
      0.02355814      0.26323150
 
          44   0
s              4   1.000000
      8.31201926      0.05675242
      1.52099712      0.26014135
      0.42254965      0.53284611
      0.14024043      0.29162544
s              7   1.000000
      0.92936822     -0.06732447
      0.05643440      0.66941611
      0.02166600      0.51458443
      8.31201926     -0.02901450
      1.52099712     -0.13299645
      0.42254965     -0.27241590
      0.14024043     -0.14909259
p              4   1.000000
      0.64737396      0.05713170
      0.16785440      0.28574555
      0.05917387      0.55178731
      0.02355814      0.26323150
 
          45   0
s              4   1.000000
      8.31088128      0.05675242
      1.52078888      0.26014135
      0.42249180      0.53284611
      0.14022123      0.29162544
s              7   1.000000
      0.92936822     -0.06732594
      0.05643440      0.66943066
      0.02166600      0.51459564
      8.31088128     -0.02901754
      1.52078888     -0.13301040
      0.42249180     -0.27244447
      0.14022123     -0.14910822
p              4   1.000000
      0.64737396      0.05713170
      0.16785440      0.28574555
      0.05917387      0.55178731
      0.02355814      0.26323150
 
          46   0
s              4   1.000000
      8.30889257      0.05675242
      1.52042497      0.26014135
      0.42239071      0.53284611
      0.14018768      0.29162544
s              7   1.000000
      0.92936822     -0.06732849
      0.05643440      0.66945610
      0.02166600      0.51461517
      8.30889257     -0.02902286
      1.52042497     -0.13303478
      0.42239071     -0.27249441
      0.14018768     -0.14913556
p              4   1.000000
      0.64737396      0.05713170
      0.16785440      0.28574555
      0.05917387      0.55178731
      0.02355814      0.26323150
 
          47   0
s              4   1.000000
      8.30884976      0.05675242
      1.52041714      0.26014135
      0.42238853      0.53284611
      0.14018696      0.29162544
s              7   1.000000
      0.92936822     -0.06732855
      0.05643440      0.66945664
      0.02166600      0.51461559
      8.30884976     -0.02902297
      1.52041714     -0.13303530
      0.42238853     -0.27249549
      0.14018696     -0.14913615
p              4   1.000000
      0.64737396      0.05713170
      0.16785440      0.28574555
      0.05917387      0.55178731
      0.02355814      0.26323150
 
          48   0
s              4   1.000000
      8.30885560      0.05675242
      1.52041821      0.26014135
      0.42238883      0.53284611
      0.14018705      0.29162544
s              7   1.000000
      0.92936822     -0.06732854
      0.05643440      0.66945657
      0.02166600      0.51461554
      8.30885560     -0.02902296
      1.52041821     -0.13303523
      0.42238883     -0.27249534
      0.14018705     -0.14913607
p              4   1.000000
      0.64737396      0.05713170
      0.16785440      0.28574555
      0.05917387      0.55178731
      0.02355814      0.26323150
 
          49   0
s              4   1.000000
      8.31194755      0.05675242
      1.52098400      0.26014135
      0.42254601      0.53284611
      0.14023922      0.29162544
s              7   1.000000
      0.92936822     -0.06732457
      0.05643440      0.66941703
      0.02166600      0.51458515
      8.31194755     -0.02901469
      1.52098400     -0.13299733
      0.42254601     -0.27241770
      0.14023922     -0.14909357
p              4   1.000000
      0.64737396      0.05713170
      0.16785440      0.28574555
      0.05917387      0.55178731
      0.02355814      0.26323150
 
          50   0
s              4   1.000000
      8.30991178      0.05675242
      1.52061147      0.26014135
      0.42244252      0.53284611
      0.14020487      0.29162544
s              7   1.000000
      0.92936822     -0.06732718
      0.05643440      0.66944306
      0.02166600      0.51460515
      8.30991178     -0.02902013
      1.52061147     -0.13302228
      0.42244252     -0.27246881
      0.14020487     -0.14912155
p              4   1.000000
      0.64737396      0.05713170
      0.16785440      0.28574555
      0.05917387      0.55178731
      0.02355814      0.26323150
 
          51   0
s              4   1.000000
      8.30889029      0.05675242
      1.52042455      0.26014135
      0.42239059      0.53284611
      0.14018764      0.29162544
s              7   1.000000
      0.92936822     -0.06732850
      0.05643440      0.66945612
      0.02166600      0.51461519
      8.30889029     -0.02902286
      1.52042455     -0.13303481
      0.42239059     -0.27249447
      0.14018764     -0.14913559
p              4   1.000000
      0.64737396      0.05713170
      0.16785440      0.28574555
      0.05917387      0.55178731
      0.02355814      0.26323150
 
          52   0
s              4   1.000000
      8.30878280      0.05675242
      1.52040489      0.26014135
      0.42238513      0.53284611
      0.14018583      0.29162544
s              7   1.000000
      0.92936822     -0.06732864
      0.05643440      0.66945750
      0.02166600      0.51461626
      8.30878280     -0.02902315
      1.52040489     -0.13303613
      0.42238513     -0.27249717
      0.14018583     -0.14913707
p              4   1.000000
      0.64737396      0.05713170
      0.16785440      0.28574555
      0.05917387      0.55178731
      0.02355814      0.26323150
 
          53   0
s              4   1.000000
      8.30887544      0.05675242
      1.52042184      0.26014135
      0.42238983      0.53284611
      0.14018739      0.29162544
s              7   1.000000
      0.92936822     -0.06732852
      0.05643440      0.66945632
      0.02166600      0.51461534
      8.30887544     -0.02902290
      1.52042184     -0.13303499
      0.42238983     -0.27249484
      0.14018739     -0.14913580
p              4   1.000000
      0.64737396      0.05713170
      0.16785440      0.28574555
      0.05917387      0.55178731
      0.02355814      0.26323150
 
          54   0
s              4   1.000000
      8.30979707      0.05675242
      1.52059048      0.26014135
      0.42243669      0.53284611
      0.14020294      0.29162544
s              7   1.000000
      0.92936822     -0.06732733
      0.05643440      0.66944453
      0.02166600      0.51460630
      8.30979707     -0.02902044
      1.52059048     -0.13302369
      0.42243669     -0.27247169
      0.14020294     -0.14912313
p              4   1.000000
      0.64737396      0.05713170
      0.16785440      0.28574555
      0.05917387      0.55178731
      0.02355814      0.26323150
 
          55   0
s              4   1.000000
      8.31159634      0.05675242
      1.52091973      0.26014135
      0.42252815      0.53284611
      0.14023330      0.29162544
s              7   1.000000
      0.92936822     -0.06732502
      0.05643440      0.66942153
      0.02166600      0.51458861
      8.31159634     -0.02901563
      1.52091973     -0.13300163
      0.42252815     -0.27242652
      0.14023330     -0.14909840
p              4   1.000000
      0.64737396      0.05713170
      0.16785440      0.28574555
      0.05917387      0.55178731
      0.02355814      0.26323150
 
          56   0
s              4   1.000000
      8.30930442      0.05675242
      1.52050033      0.26014135
      0.42241164      0.53284611
      0.14019463      0.29162544
s              7   1.000000
      0.92936822     -0.06732797
      0.05643440      0.66945083
      0.02166600      0.51461112
      8.30930442     -0.02902176
      1.52050033     -0.13302973
      0.42241164     -0.27248407
      0.14019463     -0.14912990
p              4   1.000000
      0.64737396      0.05713170
      0.16785440      0.28574555
      0.05917387      0.55178731
      0.02355814      0.26323150
 
          57   0
s              4   1.000000
      8.30892190      0.05675242
      1.52043034      0.26014135
      0.42239220      0.53284611
      0.14018817      0.29162544
s              7   1.000000
      0.92936822     -0.06732846
      0.05643440      0.66945572
      0.02166600      0.51461489
      8.30892190     -0.02902278
      1.52043034     -0.13303442
      0.42239220     -0.27249367
      0.14018817     -0.14913516
p              4   1.000000
      0.64737396      0.05713170
      0.16785440      0.28574555
      0.05917387      0.55178731
      0.02355814      0.26323150
 
          58   0
s              4   1.000000
      8.30895540      0.05675242
      1.52043647      0.26014135
      0.42239390      0.53284611
      0.14018874      0.29162544
s              7   1.000000
      0.92936822     -0.06732841
      0.05643440      0.66945530
      0.02166600      0.51461457
      8.30895540     -0.02902269
      1.52043647     -0.13303401
      0.42239390     -0.27249283
      0.14018874     -0.14913470
p              4   1.000000
      0.64737396      0.05713170
      0.16785440      0.28574555
      0.05917387      0.55178731
      0.02355814      0.26323150
 
          59   0
s              4   1.000000
      8.30895645      0.05675242
      1.52043666      0.26014135
      0.42239395      0.53284611
      0.14018876      0.29162544
s              7   1.000000
      0.92936822     -0.06732841
      0.05643440      0.66945527
      0.02166600      0.51461455
      8.30895645     -0.02902269
      1.52043666     -0.13303400
      0.42239395     -0.27249281
      0.14018876     -0.14913468
p              4   1.000000
      0.64737396      0.05713170
      0.16785440      0.28574555
      0.05917387      0.55178731
      0.02355814      0.26323150
 
          60   0
s              4   1.000000
      8.30891857      0.05675242
      1.52042973      0.26014135
      0.42239203      0.53284611
      0.14018812      0.29162544
s              7   1.000000
      0.92936822     -0.06732846
      0.05643440      0.66945576
      0.02166600      0.51461492
      8.30891857     -0.02902279
      1.52042973     -0.13303446
      0.42239203     -0.27249376
      0.14018812     -0.14913520
p              4   1.000000
      0.64737396      0.05713170
      0.16785440      0.28574555
      0.05917387      0.55178731
      0.02355814      0.26323150
 
          61   0
s              4   1.000000
      8.30903907      0.05675242
      1.52045178      0.26014135
      0.42239815      0.53284611
      0.14019015      0.29162544
s              7   1.000000
      0.92936822     -0.06732831
      0.05643440      0.66945422
      0.02166600      0.51461373
      8.30903907     -0.02902247
      1.52045178     -0.13303298
      0.42239815     -0.27249073
      0.14019015     -0.14913354
p              4   1.000000
      0.64737396      0.05713170
      0.16785440      0.28574555
      0.05917387      0.55178731
      0.02355814      0.26323150
 
          62   0
s              4   1.000000
      8.31060683      0.05675242
      1.52073866      0.26014135
      0.42247785      0.53284611
      0.14021660      0.29162544
s              7   1.000000
      0.92936822     -0.06732629
      0.05643440      0.66943418
      0.02166600      0.51459832
      8.31060683     -0.02901827
      1.52073866     -0.13301376
      0.42247785     -0.27245136
      0.14021660     -0.14911200
p              4   1.000000
      0.64737396      0.05713170
      0.16785440      0.28574555
      0.05917387      0.55178731
      0.02355814      0.26323150
 
 [MO]
 Sym= Hole
 Ene= -0.8826703    
 Spin= Alpha
 Occup= 0
           1  5.7811607E-03
           2 -0.1787018    
           3  0.1668699    
           4  1.4262940E-02
           5 -5.6304042E-03
           6  1.3794510E-02
           7 -1.7585125E-02
           8  4.7682896E-03
           9 -5.5928037E-02
          10  0.1351639    
          11 -0.1292430    
          12  2.6357865E-02
          13  3.6589004E-02
          14 -2.7933080E-02
          15  3.6569279E-02
          16 -5.0468924E-03
          17  3.0774262E-02
          18 -6.1155181E-02
          19 -1.7176555E-02
          20  1.8625032E-02
          21 -1.0618281E-02
          22  3.2444999E-03
          23  4.6136230E-03
          24 -7.0448965E-03
          25 -5.8782445E-03
          26  1.3302591E-02
          27  1.0065194E-02
          28  8.5642310E-03
          29  6.8369210E-03
          30 -1.9814470E-03
          31 -1.8908683E-03
          32  3.4372720E-03
          33  4.5482912E-03
          34 -1.0976590E-02
          35 -1.4051598E-02
          36 -3.9694589E-03
          37 -6.9514301E-04
          38  2.5054538E-03
          39 -4.6999045E-03
          40 -4.4256574E-04
          41 -6.1827747E-04
          42  5.7125338E-03
          43 -1.5037147E-02
          44 -4.0086308E-03
          45 -1.1842190E-03
          46  4.4896294E-04
          47  1.4710872E-04
          48 -5.0893688E-04
          49  6.6992780E-03
          50 -1.3735464E-02
          51  4.7337948E-03
          52  8.1050629E-03
          53 -2.7666916E-03
          54 -9.2589261E-04
          55 -8.3920971E-04
          56 -1.1573181E-03
          57 -1.0769732E-02
          58  2.2482140E-02
          59  1.4682523E-02
          60  2.5033437E-02
          61 -1.1694791E-03
          62  5.2182665E-03
          63 -3.1221178E-03
          64 -5.9052273E-03
          65  2.6575856E-02
          66  4.6255738E-03
          67  5.1294588E-02
          68  2.0922566E-02
          69 -1.3115266E-02
          70 -2.6916054E-03
          71 -9.5930519E-03
          72 -4.2507942E-03
          73 -2.2405379E-03
          74 -3.2210447E-02
          75  8.7850206E-03
          76 -2.2132869E-03
          77 -2.3730164E-03
          78  3.5800508E-03
          79 -6.2983204E-03
          80  1.0809271E-03
          81  2.9139370E-03
          82  3.4004180E-03
          83  6.4015235E-03
          84  2.4414284E-03
          85 -1.8736264E-03
          86  2.8060382E-04
          87 -1.6368900E-03
          88  2.1369311E-03
          89  6.5206835E-04
          90  2.6823157E-02
          91 -1.1536733E-02
          92 -8.3469896E-04
          93 -4.9327989E-04
          94 -1.4618647E-03
          95  1.1111697E-03
          96  7.9736701E-04
          97  4.4011874E-03
          98  9.7059123E-03
          99  5.6361929E-03
         100  2.6164076E-03
         101 -7.6035416E-04
         102  1.1840743E-03
         103  1.0501434E-03
         104 -1.5125367E-03
         105 -6.3085286E-03
         106 -3.1479739E-02
         107 -2.9342056E-03
         108  1.1424830E-02
         109 -4.0697851E-04
         110  5.3686713E-04
         111 -3.6692331E-03
         112 -4.3005580E-03
         113 -0.1105208    
         114 -0.1134458    
         115  5.4176122E-02
         116 -3.0811969E-02
         117  5.6064494E-02
         118  1.5419594E-02
         119  6.8787877E-03
         120  1.5445013E-02
         121  0.1964875    
         122  0.4091351    
         123 -3.1120673E-02
         124 -2.8759601E-02
         125 -6.7225307E-02
         126 -9.4404956E-03
         127 -7.8223888E-03
         128  7.5748060E-03
         129 -5.1532052E-03
         130 -0.1804300    
         131  6.7958891E-02
         132 -2.9663401E-02
         133  2.1871750E-03
         134  6.4718649E-02
         135 -5.5025020E-03
         136  1.2251136E-02
         137  1.9954564E-02
         138  3.7516661E-02
         139 -6.7081824E-02
         140 -8.5798465E-02
         141 -9.4121424E-03
         142  1.9988135E-02
         143 -1.5628333E-03
         144  2.4073920E-03
         145 -3.2188620E-03
         146 -3.2294936E-02
         147  1.6779475E-02
         148 -1.5277318E-02
         149  1.3008546E-02
         150 -9.8118745E-03
         151 -8.7595712E-03
         152 -1.4946741E-03
         153  3.6940670E-03
         154 -2.0893838E-02
         155  5.0358167E-03
         156  9.7201318E-02
         157  7.4298546E-04
         158 -8.8746537E-04
         159  3.1035608E-03
         160  3.6948486E-03
         161  6.4498256E-04
         162 -3.9490689E-02
         163  2.0651417E-02
         164  8.4105119E-02
         165  5.7272019E-04
         166  2.6766376E-05
         167 -5.0472701E-04
         168  3.5186615E-03
         169  3.5098293E-03
         170  1.0418113E-02
         171 -1.0215774E-02
         172 -1.1373986E-02
         173  5.7018851E-04
         174  3.0310586E-04
         175 -6.8465285E-03
         176  2.1323131E-03
         177 -6.4169834E-03
         178 -1.7685328E-02
         179 -3.5563610E-03
         180 -0.1257394    
         181 -1.0056992E-02
         182 -2.9036195E-03
         183  9.4165523E-03
         184 -3.9890530E-03
         185 -0.2038555    
         186  0.3585491    
         187 -0.2562513    
         188  0.2129595    
         189  7.7901244E-02
         190 -2.0306766E-02
         191  1.2129351E-02
         192 -1.3625702E-02
         193  6.7228163E-03
         194 -4.8027083E-02
         195  0.1355494    
         196  2.3213890E-03
         197 -1.3680085E-02
         198  1.4952553E-02
         199 -5.7700854E-02
         200  1.1801820E-02
         201  4.2102229E-02
         202  7.2391398E-02
         203  1.9943150E-02
         204 -0.2057079    
         205 -2.3094432E-02
         206 -1.3372024E-02
         207 -7.5228177E-03
         208  1.0903405E-02
         209  2.0471516E-03
         210 -3.9520412E-04
         211 -2.3258214E-03
         212  4.2932056E-02
         213  4.6595884E-03
         214  7.9694241E-03
         215  1.0341293E-02
         216 -1.1816068E-02
         217 -1.0396355E-02
         218 -2.2636404E-02
         219 -1.5904134E-02
         220  0.1184910    
         221  1.1903076E-02
         222  3.2162373E-03
         223  8.7948991E-03
         224 -2.8449951E-03
         225  2.2727686E-03
         226  1.2709060E-03
         227  1.4021182E-03
         228  2.0739127E-02
         229 -2.6886640E-04
         230 -2.2115726E-03
         231 -4.6031466E-03
         232  8.8035449E-04
         233 -1.7535421E-03
         234  6.5675327E-03
         235  7.5329533E-03
         236 -9.9455014E-02
         237  9.4785268E-04
         238 -6.1523938E-04
         239 -1.7761950E-03
         240  2.8249510E-03
         241 -2.9360471E-04
         242  4.6078810E-03
         243  5.2561401E-03
         244 -5.8905061E-02
         245  6.0289842E-04
         246 -2.0538929E-03
         247 -1.1557923E-03
         248  4.1051339E-03
         249  3.1531984E-03
         250 -6.4442498E-03
         251 -5.3953272E-03
         252  8.1966393E-02
         253  1.8326024E-03
         254  2.2215422E-03
         255  3.6460832E-03
         256 -3.3036438E-03
         257  9.0486221E-03
         258  1.5247767E-02
         259  4.3793102E-03
         260  8.0300599E-02
         261 -1.1616077E-04
         262  6.1965142E-03
         263  3.8865658E-03
         264 -3.7241993E-03
         265 -3.8747666E-03
         266 -7.2747353E-03
         267  8.7405518E-03
         268 -5.0702550E-02
         269  1.8687376E-03
         270  1.0911295E-03
         271 -9.8992616E-04
         272  3.6431982E-03
         273  4.7300924E-03
         274  1.6035469E-02
         275  1.4881553E-02
         276 -9.0079449E-02
         277 -5.9832050E-04
         278  4.1539303E-04
         279 -2.1613338E-03
         280  2.0776892E-03
         281 -1.1890415E-02
         282 -2.6246654E-02
         283  3.3715600E-03
         284  1.4186201E-02
         285  4.2627072E-03
         286  8.2884273E-03
         287 -4.0092929E-03
         288 -5.4931652E-04
         289  2.6974672E-02
         290  4.0372934E-02
         291  5.6585544E-03
         292  0.1141565    
         293 -1.8837530E-02
         294 -2.6691335E-03
         295  4.6958533E-04
         296 -3.1375003E-03
         297 -1.4990080E-02
         298 -3.8276676E-02
         299  8.2792742E-03
         300  2.4835179E-02
         301 -3.8607328E-03
         302 -3.2786604E-03
         303 -4.6200836E-03
         304 -1.1324671E-02
         305  0.1016697    
         306  0.1299769    
         307 -0.1514889    
         308  0.1063582    
         309 -3.1731106E-02
         310 -8.2287303E-04
         311  6.4075766E-03
         312 -7.9999501E-03
         313 -2.4562677E-02
         314  6.9846655E-03
         315 -3.1921149E-03
         316  7.6278509E-03
         317  1.1582902E-02
         318 -2.9766357E-03
         319 -3.2180520E-03
         320  2.1185607E-03
         321 -2.2888309E-03
         322 -2.6100641E-03
         323  3.6963718E-03
         324 -3.2893401E-03
         325  1.2727759E-03
         326  1.6253408E-03
         327 -1.1179654E-03
         328 -1.4221254E-02
         329 -5.7738926E-04
         330  4.3596933E-04
         331  1.3762953E-03
         332 -1.4692120E-04
         333 -6.1957021E-03
         334 -4.9782079E-03
         335  1.4881590E-02
         336  6.1731361E-04
         337 -4.2693233E-03
         338 -1.2128097E-02
         339 -1.5926801E-03
         340  2.5263177E-03
         341 -6.0363263E-03
         342 -3.0366362E-03
         343 -5.2568195E-03
         344 -1.5107379E-03
         345  6.3619394E-05
         346 -1.1415252E-03
         347 -1.3780795E-03
         348  1.4821651E-03
         349 -1.7482591E-03
         350 -2.2784167E-04
         351 -1.4658164E-03
         352 -6.3970126E-04
         353 -9.4034532E-03
         354  5.0689053E-04
         355  5.2774191E-04
         356 -5.6519604E-04
         357 -6.4304780E-04
         358 -6.7693400E-03
         359 -1.4898058E-03
         360 -7.5886650E-03
         361 -6.7572938E-03
         362 -2.9787251E-03
         363 -3.4426812E-02
         364  1.3170903E-02
         365 -1.7589249E-02
         366 -2.1094143E-02
         367 -7.0692548E-03
         368  9.3323905E-03
         369 -1.2636161E-03
         370  3.7645272E-03
         371 -2.3404165E-04
         372 -2.1891422E-03
         373  2.9552043E-03
         374  2.2350022E-04
         375  3.2250583E-03
         376 -1.1477000E-03
         377 -2.4287701E-03
         378 -2.0972468E-02
         379  3.1584627E-03
         380  4.1022240E-03
         381 -1.0471436E-03
         382  1.6563738E-03
         383  2.1409016E-02
         384 -9.4694281E-03
         385 -7.0693293E-03
         386  2.4203872E-02
         387 -2.8713092E-03
         388 -3.8605870E-03
         389  8.6423066E-03
         390  9.3110139E-03
         391  1.5610590E-02
         392  6.8689417E-03
         393  2.0877030E-03
         394 -1.5574525E-03
         395 -1.7894091E-03
         396  5.0509459E-04
         397 -5.7220506E-04
         398  1.5243524E-03
         399  1.0333360E-03
         400  1.7718093E-03
         401  2.4416978E-03
         402 -4.4322899E-03
         403  4.9431651E-04
         404  8.8561804E-04
         405  1.2038073E-03
         406  9.8072656E-04
         407 -1.0919243E-03
         408  1.0375489E-02
         409 -3.3162264E-04
         410 -3.0767024E-04
         411 -1.2764548E-03
         412 -8.9750713E-04
         413 -9.9734915E-03
         414  1.1222906E-03
         415 -1.1253988E-03
         416 -4.2832442E-04
         417 -4.1610035E-03
         418 -3.4155918E-03
         419  3.2605354E-03
         420  4.0053838E-04
         421 -2.9804532E-03
         422 -1.5142579E-03
         423  3.6404207E-02
         424 -1.4508163E-02
         425 -3.2225762E-02
         426  1.7603409E-02
         427  1.5056898E-02
 Sym= Particle
 Ene= -0.8826703    
 Spin= Alpha
 Occup= 2
           1 -6.2659252E-03
           2  1.1861042E-02
           3 -1.8881069E-02
           4  2.4082297E-02
           5  8.2329065E-03
           6 -2.4193432E-04
           7  1.1260153E-02
           8 -6.9433907E-03
           9  6.0020648E-03
          10 -1.1965304E-02
          11  1.5143956E-02
          12  9.2809312E-03
          13  2.2345989E-03
          14  7.3800241E-03
          15  7.8808202E-04
          16  8.7173572E-03
          17  5.6589395E-03
          18 -9.7092837E-03
          19  1.8533563E-03
          20  7.1636108E-03
          21 -6.7236447E-03
          22  6.7730006E-03
          23 -2.5621259E-03
          24  9.3115661E-03
          25  6.4166808E-03
          26 -1.0414992E-02
          27  5.8582518E-04
          28 -8.9038033E-03
          29 -1.3697767E-02
          30  1.7268410E-02
          31 -5.4317666E-03
          32  2.2713229E-04
          33 -1.1057787E-03
          34  1.5891650E-03
          35  5.6759780E-03
          36  1.7592675E-03
          37 -4.8036324E-03
          38  2.2473356E-03
          39  4.5283654E-04
          40 -7.3953590E-04
          41  1.7145314E-03
          42 -2.0489707E-03
          43  2.8880774E-03
          44  1.4097489E-04
          45 -3.4348788E-03
          46  1.5990689E-03
          47  9.6994371E-04
          48  1.2263037E-03
          49  1.2379038E-03
          50 -5.8161595E-04
          51 -5.3046271E-03
          52 -2.0290585E-03
          53 -1.9745268E-03
          54  1.2606211E-03
          55  4.8920419E-04
          56 -3.7892177E-04
          57 -1.1291810E-03
          58  1.4967902E-03
          59 -6.8151712E-04
          60 -1.1463348E-03
          61  1.9377508E-03
          62 -3.6278875E-03
          63  5.3544925E-04
          64 -3.5631499E-04
          65  8.5119857E-03
          66  5.7008085E-03
          67  1.3513988E-02
          68  8.1605287E-03
          69 -3.6514194E-03
          70 -6.0448302E-03
          71 -2.3984793E-03
          72 -7.9358174E-03
          73 -2.1750610E-03
          74  3.8866007E-03
          75 -1.4894725E-03
          76 -3.4407792E-03
          77  6.5350356E-03
          78 -8.2998723E-03
          79  1.0252446E-02
          80  6.1994856E-03
          81  4.2203206E-04
          82  4.7343620E-03
          83 -9.4054133E-04
          84  1.2407800E-04
          85  2.7032332E-03
          86  2.4422912E-03
          87  2.5542141E-03
          88  3.3880631E-03
          89 -4.2969844E-04
          90 -2.7411317E-03
          91  1.0876528E-03
          92  4.8540186E-04
          93  8.2406378E-04
          94  1.7789104E-03
          95 -2.3255525E-03
          96  1.3038161E-03
          97  1.9235725E-03
          98 -1.0188544E-03
          99  2.7141329E-03
         100  1.6710126E-03
         101 -6.5699787E-06
         102 -1.1712960E-03
         103  1.2751083E-03
         104  2.1905543E-03
         105 -2.6643155E-03
         106  1.9681370E-03
         107 -4.5781252E-03
         108  2.1713143E-03
         109  2.2834388E-03
         110  9.9761435E-04
         111  1.1872908E-03
         112 -1.3402081E-03
         113 -1.5004890E-02
         114 -4.0291104E-02
         115  3.7213828E-02
         116  0.2519480    
         117  1.0194330E-02
         118  1.8239364E-02
         119 -1.7155320E-03
         120 -7.5243570E-02
         121  8.7160971E-03
         122 -1.5873380E-02
         123  2.4479777E-02
         124  0.2357067    
         125 -2.4975028E-03
         126  9.7444411E-03
         127 -6.1298795E-03
         128 -6.7646623E-02
         129 -5.1634265E-03
         130  5.2042779E-02
         131 -7.8396015E-02
         132 -0.5435626    
         133  4.6605193E-03
         134 -1.0007712E-02
         135  2.3584938E-02
         136  0.1912485    
         137  1.6516841E-03
         138  5.3310357E-02
         139 -4.1692678E-02
         140 -0.1942015    
         141 -6.2474125E-04
         142 -9.0360008E-03
         143  6.9428599E-03
         144  3.1715278E-02
         145  6.4685494E-03
         146 -7.8635596E-02
         147  4.3123562E-02
         148  0.2362980    
         149 -3.8194389E-03
         150  2.0654345E-02
         151 -1.0286186E-02
         152 -5.2341238E-02
         153 -1.6888906E-03
         154 -1.3027121E-02
         155  1.1573229E-02
         156  4.9654759E-02
         157  8.2153146E-04
         158  5.2907137E-04
         159 -1.1445760E-03
         160 -3.3486388E-03
         161  4.3094853E-05
         162  6.3951083E-02
         163 -4.5504570E-02
         164 -0.2426805    
         165 -9.0504771E-05
         166 -8.1414720E-03
         167  6.6252220E-03
         168  3.6169250E-02
         169  2.6438939E-03
         170 -1.2166189E-02
         171  5.5989791E-03
         172  4.1814730E-02
         173 -1.6935186E-03
         174  6.4442813E-04
         175 -7.0501126E-05
         176 -2.3402160E-03
         177 -5.4623415E-03
         178 -8.1427284E-02
         179  5.3727694E-02
         180  0.2361262    
         181  2.9406198E-03
         182  1.9920787E-02
         183 -1.1955366E-02
         184 -5.1529661E-02
         185  2.4255230E-03
         186 -2.5207615E-02
         187  4.2602088E-02
         188  0.2984709    
         189 -1.7117885E-03
         190  9.3859555E-03
         191 -1.6158294E-02
         192 -8.8609882E-02
         193 -4.2589628E-03
         194 -1.8713331E-02
         195  2.2429759E-02
         196  0.1920007    
         197 -3.8371762E-04
         198  7.7293674E-03
         199 -3.3518590E-03
         200 -7.0908226E-02
         201  3.2070151E-03
         202  4.9999966E-03
         203  5.0942143E-03
         204 -6.4521879E-02
         205 -3.9405059E-03
         206 -5.1729861E-03
         207 -1.1531280E-03
         208  2.1708898E-02
         209  4.2909081E-03
         210  6.1267810E-03
         211  7.7356161E-03
         212 -3.1190272E-02
         213 -4.9584247E-03
         214 -1.6352400E-03
         215 -6.5787341E-03
         216 -8.3769718E-03
         217 -4.7492096E-03
         218 -1.2375426E-02
         219 -6.2935827E-03
         220  6.7775920E-02
         221  3.4696944E-03
         222  7.0579648E-03
         223  3.4330315E-03
         224 -2.7491616E-02
         225  2.0687571E-03
         226  2.2556456E-03
         227  2.9951318E-03
         228 -5.5486138E-04
         229  2.8911396E-04
         230 -1.1440512E-03
         231 -7.6448108E-04
         232  1.1540960E-02
         233 -5.3648063E-04
         234  2.1319282E-03
         235  3.6739765E-03
         236 -4.6599593E-02
         237  1.6163826E-03
         238  7.1971992E-04
         239 -3.9347878E-04
         240  1.2289506E-02
         241  8.0661448E-06
         242 -2.2518786E-03
         243 -1.5567102E-03
         244  2.6328463E-02
         245  1.4463504E-03
         246  1.6721151E-03
         247  9.7719813E-04
         248 -5.7712994E-03
         249  7.5244752E-05
         250 -4.1490570E-03
         251  3.7807727E-04
         252  1.8114947E-02
         253 -4.0517662E-05
         254  8.5689477E-04
         255 -5.0185004E-04
         256 -2.6598398E-03
         257 -5.2295643E-04
         258 -1.2429261E-03
         259 -9.6934981E-04
         260  1.3148475E-02
         261  8.2876923E-04
         262 -2.6010873E-04
         263  4.0854019E-04
         264 -3.2242080E-03
         265 -8.4147928E-04
         266 -3.3162355E-03
         267 -3.9667026E-03
         268  4.2842913E-02
         269  1.9428411E-03
         270  1.6088447E-03
         271  2.1919480E-03
         272 -1.1479536E-02
         273 -1.3399808E-03
         274  2.4357289E-03
         275  3.8687633E-03
         276 -5.3085569E-02
         277  2.5840991E-03
         278  1.1867303E-03
         279  1.9138229E-04
         280  8.2973633E-03
         281  1.5348034E-03
         282  4.6153059E-03
         283 -5.5645931E-05
         284 -1.4361783E-02
         285  1.6370022E-03
         286 -7.0621393E-04
         287 -3.1623690E-04
         288  7.2422781E-04
         289 -7.1562231E-03
         290 -1.6252080E-02
         291 -1.7454756E-02
         292  7.2666913E-02
         293  8.2234964E-03
         294  1.0241377E-02
         295  5.8885384E-03
         296 -1.0279409E-02
         297 -1.7303765E-03
         298 -1.7454604E-03
         299  1.0337549E-02
         300 -5.7006121E-02
         301  1.5856763E-03
         302 -6.8142317E-04
         303  1.4094565E-03
         304  2.3070345E-02
         305  8.6708097E-03
         306  4.3472748E-02
         307 -3.6222674E-02
         308 -0.4057399    
         309 -7.4103349E-03
         310 -1.0083059E-02
         311  1.2352299E-02
         312  9.9113636E-02
         313 -2.3823367E-03
         314 -9.5537947E-03
         315  2.0150721E-02
         316 -7.2900746E-03
         317 -2.0953713E-02
         318 -2.7919679E-03
         319 -1.5738193E-03
         320  1.0644487E-03
         321  3.1832114E-03
         322 -1.5067363E-03
         323 -1.3066184E-03
         324 -1.6318044E-03
         325  1.0835932E-03
         326  1.7189932E-03
         327  1.4628138E-03
         328 -2.6018912E-04
         329 -1.7143893E-03
         330  1.8798384E-03
         331 -1.8249352E-03
         332 -4.5455675E-04
         333 -3.8222936E-03
         334  3.5922474E-03
         335 -5.2264142E-03
         336 -7.7999267E-04
         337 -2.0685438E-04
         338 -3.9215852E-03
         339  3.1588355E-03
         340 -9.4234254E-03
         341 -2.1858248E-03
         342  3.3407409E-03
         343 -2.7452577E-03
         344 -7.7345362E-04
         345  3.9046728E-03
         346 -2.8972568E-03
         347 -2.6156887E-04
         348  6.3989073E-04
         349 -1.0912898E-03
         350 -4.9207651E-04
         351 -2.7954686E-03
         352 -1.3465481E-03
         353 -2.7246347E-03
         354  1.2009455E-03
         355 -2.2410802E-03
         356  2.9811012E-03
         357  1.2535682E-03
         358 -3.0551625E-03
         359  1.4240647E-03
         360  4.5489669E-03
         361 -1.8432413E-03
         362  2.1042973E-03
         363 -2.6904540E-03
         364  3.1356988E-03
         365 -1.1439779E-02
         366 -8.2008226E-04
         367  4.3269791E-02
         368  3.6519088E-03
         369 -1.2634412E-03
         370 -1.6997509E-03
         371  1.1270974E-03
         372  5.7411296E-03
         373 -8.5511332E-05
         374 -5.9268864E-06
         375  1.1504503E-02
         376 -7.6710978E-03
         377 -4.1753318E-02
         378 -6.0908664E-03
         379  2.1445910E-03
         380 -9.1217173E-04
         381 -5.9559062E-04
         382  4.7115446E-03
         383 -2.2546545E-04
         384 -2.6105789E-03
         385 -1.0277208E-02
         386  1.8371550E-02
         387  4.6090547E-02
         388 -1.2459031E-05
         389  1.5364923E-03
         390  9.2606908E-03
         391  1.0809967E-02
         392 -2.1958191E-02
         393  5.3382677E-04
         394  6.6222332E-04
         395 -7.4306893E-04
         396  4.5419359E-04
         397  3.8605595E-03
         398  5.1441783E-04
         399  1.0393820E-03
         400  1.4067730E-03
         401  9.7938080E-04
         402 -9.6142804E-03
         403 -1.3783363E-03
         404  1.6505281E-03
         405 -2.7321905E-04
         406 -7.5604796E-05
         407  7.6139979E-03
         408  5.3673307E-04
         409  1.3691961E-03
         410 -5.6317350E-04
         411 -6.6808215E-04
         412  1.2859607E-02
         413  1.4599048E-03
         414  1.7194985E-03
         415  2.0833719E-03
         416  1.2046144E-03
         417 -9.0696895E-03
         418  3.7174926E-03
         419  2.7239393E-04
         420  1.4120416E-03
         421 -4.6191161E-04
         422 -1.0428441E-02
         423  5.5950070E-03
         424  4.3057487E-03
         425  1.8527592E-02
         426 -5.2911164E-03
         427  3.8815003E-02
 Sym= Hole
 Ene= -9.1674790E-02
 Spin= Alpha
 Occup= 0
           1 -3.6214627E-03
           2  8.3685115E-02
           3 -7.5421371E-02
           4 -4.6011405E-03
           5  2.5320421E-03
           6 -7.1674944E-03
           7  5.6497748E-03
           8 -2.7942478E-03
           9  2.4567060E-02
          10 -5.7678223E-02
          11  5.3941108E-02
          12 -1.1924002E-02
          13 -1.4777365E-02
          14  1.0533335E-02
          15 -1.6099986E-02
          16  4.2876317E-03
          17 -1.2629692E-02
          18  2.5646621E-02
          19  2.8832047E-03
          20 -1.0560802E-02
          21  5.7038735E-03
          22 -2.2205238E-03
          23 -1.3179237E-03
          24 -8.6294947E-04
          25 -5.1110960E-04
          26 -2.7866234E-04
          27 -8.1575122E-03
          28 -3.3083104E-03
          29  1.7961062E-03
          30 -5.1698359E-03
          31  2.7476840E-03
          32 -1.5438437E-03
          33 -9.1074000E-04
          34  2.9802928E-03
          35  2.4837847E-03
          36  8.2922052E-04
          37  1.5848103E-03
          38 -2.3528899E-03
          39  8.3708344E-04
          40  1.4704651E-04
          41 -5.1000272E-04
          42 -1.9349791E-03
          43  8.5330736E-03
          44  3.4016643E-03
          45  1.3090902E-03
          46 -2.6239935E-04
          47 -3.3459847E-04
          48 -1.7707508E-04
          49 -2.8263249E-03
          50  4.9158297E-03
          51  1.6366146E-03
          52 -1.1439822E-03
          53  1.7352917E-03
          54  3.0225172E-04
          55  2.8325582E-04
          56  5.3862412E-04
          57  3.9474824E-03
          58 -8.4753688E-03
          59 -6.8958029E-03
          60 -1.0871735E-02
          61  9.7114878E-04
          62 -1.7833863E-03
          63  6.5421069E-04
          64  2.2768576E-03
          65 -1.1092034E-02
          66 -5.6412304E-03
          67 -2.1136880E-02
          68 -1.0081569E-02
          69  4.0201279E-03
          70  2.4267377E-03
          71  2.1856111E-03
          72  3.1857044E-03
          73  2.6082611E-03
          74  8.5227266E-03
          75  1.4848661E-04
          76  2.0072018E-03
          77 -3.7356007E-03
          78  5.5767101E-04
          79 -8.5289089E-04
          80 -2.1864120E-03
          81 -1.3078396E-03
          82 -5.9961420E-03
          83 -1.8918306E-03
          84 -1.1394421E-03
          85 -1.7071782E-03
          86 -1.0984737E-03
          87  1.9790443E-04
          88 -1.5267453E-03
          89  1.2981975E-04
          90 -8.5609546E-03
          91  4.0869438E-03
          92 -2.1061448E-04
          93 -6.2175299E-04
          94  4.6116762E-05
          95  3.2622385E-04
          96 -1.1370702E-03
          97 -1.8960414E-03
          98 -3.9341114E-04
          99 -4.0557999E-03
         100 -1.5792851E-03
         101  5.5918418E-04
         102 -4.0771617E-04
         103 -1.9924776E-04
         104 -5.3359359E-04
         105  2.7090402E-03
         106  1.1784349E-02
         107  2.0899640E-03
         108 -5.0075995E-03
         109  1.1163717E-03
         110 -8.3385926E-04
         111  2.1827335E-03
         112  1.2147282E-03
         113  4.4127669E-02
         114  4.3490790E-02
         115 -2.4564378E-02
         116  3.7513059E-02
         117 -2.3377160E-02
         118 -6.6076862E-03
         119 -2.3538123E-03
         120 -1.4596069E-03
         121 -7.2376288E-02
         122 -0.1252217    
         123 -1.8866142E-03
         124 -0.1847568    
         125  2.3953758E-02
         126 -3.4623159E-04
         127  3.3703684E-03
         128  1.2885028E-02
         129  2.4195313E-03
         130  6.2776029E-02
         131 -2.6421681E-02
         132  3.3198029E-02
         133 -1.4968646E-03
         134 -2.6594648E-02
         135  3.4255977E-03
         136  2.0285086E-03
         137 -1.2247127E-02
         138 -7.7491580E-03
         139  3.0587491E-02
         140  1.8219316E-02
         141  5.5964729E-03
         142 -7.3495512E-03
         143 -1.3803868E-03
         144  4.5664879E-04
         145  2.5596092E-03
         146  1.2408504E-02
         147 -9.2302691E-03
         148 -2.2747344E-03
         149 -5.3698318E-03
         150  3.5360681E-03
         151  3.2320304E-03
         152 -3.1442905E-03
         153 -2.2124592E-03
         154  4.7179111E-03
         155  2.1403958E-03
         156 -2.3976039E-02
         157 -3.2035459E-04
         158  3.2301247E-04
         159 -1.1914100E-03
         160 -5.3195684E-04
         161 -9.0570938E-05
         162  1.0095583E-02
         163 -5.0766175E-03
         164 -1.6770022E-02
         165 -8.0937357E-04
         166  2.0970052E-04
         167  5.4922636E-04
         168 -1.4314350E-03
         169 -2.4815861E-03
         170 -2.1854700E-03
         171  5.9875869E-03
         172  7.8851980E-04
         173 -3.8370609E-04
         174  4.2865206E-05
         175  2.4265924E-03
         176 -2.2426806E-03
         177  4.8327316E-03
         178  9.4387680E-03
         179 -4.6716137E-03
         180  3.1147826E-02
         181  1.7379152E-03
         182  1.3898906E-03
         183 -2.5405579E-03
         184  3.7629537E-03
         185  7.3930562E-02
         186 -0.1531680    
         187  0.1456626    
         188  0.1258301    
         189 -2.7445581E-02
         190  5.5097104E-03
         191 -1.1037149E-02
         192 -1.7379738E-02
         193  3.3955160E-04
         194  2.5798103E-02
         195 -7.0252828E-02
         196 -7.0729502E-02
         197  2.2199175E-03
         198 -6.6863606E-03
         199  3.0053983E-02
         200 -3.6663827E-03
         201 -1.9876171E-02
         202 -7.0156935E-03
         203  2.5785062E-02
         204 -0.4144236    
         205  9.8973755E-03
         206  4.8209201E-03
         207  2.8591021E-04
         208  2.9004084E-02
         209 -1.8288820E-03
         210 -1.0203325E-02
         211 -1.1343478E-02
         212  0.1255178    
         213 -2.9595003E-03
         214 -2.0531274E-03
         215 -3.5481532E-03
         216 -2.0859448E-02
         217  7.9389233E-03
         218 -1.1525637E-02
         219 -1.4965600E-02
         220  0.2587013    
         221 -6.9206487E-03
         222 -1.5435169E-03
         223 -2.9829144E-03
         224 -5.7005449E-03
         225 -1.8962162E-03
         226 -2.5765062E-03
         227 -3.4954995E-03
         228  6.3663684E-03
         229  7.0607633E-04
         230  1.1221041E-03
         231  3.0025537E-03
         232  1.8369963E-03
         233  1.5409110E-03
         234  2.2205623E-02
         235  2.1762520E-02
         236 -0.2710659    
         237 -7.3643774E-04
         238 -2.3233084E-04
         239  5.1954895E-04
         240  5.0123651E-03
         241  4.9813214E-04
         242  1.2973669E-02
         243  1.2029748E-02
         244 -0.1584351    
         245 -2.9918781E-04
         246  3.5650766E-04
         247  5.6873982E-05
         248  7.7682477E-03
         249 -1.5075294E-03
         250 -1.9785153E-02
         251 -1.4051415E-02
         252  0.2004304    
         253 -3.4128208E-04
         254  7.9797889E-04
         255 -4.1962831E-04
         256 -8.5890209E-03
         257 -7.5923521E-03
         258 -2.6347887E-02
         259 -2.5192106E-02
         260  0.1922438    
         261  1.4140717E-03
         262 -1.6842324E-03
         263 -9.6571707E-04
         264 -8.5247224E-03
         265  2.4795677E-03
         266  2.0371489E-02
         267  1.8529577E-02
         268 -0.2208735    
         269 -8.2636636E-04
         270 -9.3259045E-04
         271  2.1913109E-04
         272  6.1803525E-03
         273 -1.9719379E-03
         274  1.8709304E-02
         275  2.8683450E-02
         276 -0.3305319    
         277  7.2157854E-04
         278  3.8345013E-05
         279  1.0586387E-03
         280  4.2673885E-03
         281  6.0065468E-03
         282  1.2112367E-02
         283 -2.7921530E-03
         284  1.1879141E-02
         285 -2.1854222E-03
         286 -3.7014384E-03
         287  1.7120668E-03
         288  2.5741232E-03
         289 -1.3004618E-02
         290 -4.9842685E-02
         291 -5.2465484E-02
         292  0.3140741    
         293  8.4199784E-03
         294  2.1437439E-03
         295  2.2186460E-03
         296 -4.8827571E-03
         297  7.5379852E-03
         298  8.4710075E-03
         299 -1.9910438E-02
         300  0.1801144    
         301  9.8631928E-05
         302  1.6751623E-03
         303  4.7489814E-03
         304 -1.8808585E-02
         305 -4.1245755E-02
         306 -7.8971393E-02
         307  0.1037629    
         308  0.1612902    
         309  1.2021814E-02
         310  5.4470701E-03
         311 -7.6826597E-03
         312 -1.7836591E-02
         313  8.1445975E-03
         314  1.2723497E-03
         315 -4.9112411E-03
         316  3.2509440E-03
         317  1.5475200E-03
         318  1.7053657E-03
         319  1.7002448E-03
         320 -1.1445030E-03
         321 -7.0510915E-04
         322  1.3075779E-03
         323 -6.5669749E-04
         324  1.6690989E-03
         325 -8.3125499E-04
         326 -4.0324562E-04
         327  3.4925182E-04
         328  5.7546999E-03
         329  7.6686480E-04
         330 -6.9319375E-04
         331 -1.7083616E-05
         332  5.6159948E-05
         333  2.9643811E-03
         334  2.0919135E-03
         335 -6.1494345E-03
         336 -4.1787067E-04
         337  1.9246191E-03
         338  6.8127308E-03
         339 -1.6002908E-03
         340  3.9145839E-03
         341  1.1645943E-03
         342 -1.5060036E-03
         343  2.8295412E-03
         344  4.6488622E-04
         345 -2.3908340E-04
         346  6.5033894E-04
         347  3.7864255E-04
         348 -6.4629223E-04
         349  1.1384496E-03
         350  2.7418774E-04
         351  5.7140703E-04
         352  3.7125879E-04
         353  4.3020989E-03
         354  1.0503992E-04
         355  6.6272466E-04
         356  1.0509801E-04
         357 -1.1080672E-04
         358  3.1562580E-03
         359  2.0765353E-03
         360  1.4064892E-03
         361  4.2864173E-03
         362  4.2488394E-04
         363  1.3237791E-02
         364 -7.0184427E-03
         365  8.3754342E-03
         366  1.0054310E-02
         367 -5.0912425E-03
         368 -2.5765502E-03
         369 -7.3944866E-05
         370 -1.4364918E-03
         371  6.7964499E-04
         372  2.7072413E-03
         373 -2.0683892E-03
         374 -5.2601390E-04
         375 -1.0399418E-03
         376  7.7992934E-04
         377  1.1710249E-03
         378  8.5793789E-03
         379 -1.5784038E-03
         380 -1.6426500E-03
         381  7.5369276E-04
         382 -2.4496906E-03
         383 -6.9753793E-03
         384  7.9611136E-04
         385  2.7281267E-03
         386 -3.3871459E-03
         387  7.6511293E-03
         388  3.3611758E-03
         389 -3.6974703E-03
         390 -7.8087472E-03
         391 -1.0344292E-02
         392  9.6567711E-03
         393 -9.9838304E-04
         394  1.2484016E-03
         395  5.7579199E-04
         396 -3.0887959E-04
         397  2.7580126E-03
         398 -1.8541265E-03
         399 -3.7597990E-04
         400 -1.8148283E-04
         401 -3.2677007E-04
         402 -7.0997565E-03
         403 -1.3099068E-03
         404  4.0829778E-05
         405 -3.3235038E-04
         406 -2.7760799E-04
         407 -2.1038356E-03
         408 -5.4793949E-03
         409  4.4882079E-04
         410 -9.1431699E-05
         411  9.1569690E-04
         412  1.1718101E-03
         413  4.8659951E-03
         414  2.9480417E-04
         415  1.6985449E-03
         416  8.2542381E-04
         417 -4.8095388E-03
         418  5.3131916E-03
         419 -1.5516180E-03
         420 -3.2953458E-04
         421  1.1526725E-04
         422  2.5711374E-03
         423 -1.8665191E-02
         424  7.3985099E-03
         425  1.8888248E-02
         426 -7.7282852E-03
         427  5.5524656E-03
 Sym= Particle
 Ene= -9.1674790E-02
 Spin= Alpha
 Occup= 2
           1  4.7015361E-03
           2 -9.4824731E-03
           3  1.0688166E-02
           4 -2.1419749E-02
           5 -8.3716651E-03
           6  8.5028429E-03
           7 -4.0759826E-03
           8  6.7337435E-03
           9 -4.5335405E-03
          10  7.4943723E-03
          11 -6.9631175E-03
          12 -7.5075226E-03
          13  6.5428513E-04
          14 -3.3877459E-03
          15  2.7148924E-03
          16 -7.6079587E-03
          17 -5.9625725E-03
          18  9.1305748E-03
          19  3.8003717E-03
          20 -3.4641346E-03
          21  3.0227068E-03
          22 -3.2487784E-03
          23 -2.1640175E-04
          24  2.0067780E-03
          25  1.2888222E-03
          26  3.8686304E-04
          27 -8.9441589E-04
          28  1.4132622E-03
          29 -2.5979527E-03
          30  4.7295867E-03
          31 -2.7215884E-03
          32  4.6921510E-04
          33 -8.3140132E-04
          34  1.5417261E-05
          35  4.1682366E-03
          36  2.0964064E-03
          37 -1.0728319E-03
          38  2.5942950E-03
          39  1.0583341E-03
          40 -1.6801275E-03
          41  2.1384667E-04
          42  2.6500714E-04
          43 -1.5903952E-03
          44 -1.2092075E-03
          45 -6.0035120E-04
          46 -4.7282319E-04
          47  8.6205377E-04
          48  5.2688282E-04
          49 -1.1932959E-03
          50  1.5382810E-03
          51 -2.0235642E-03
          52 -1.9836153E-03
          53 -6.4460321E-05
          54  3.1376811E-04
          55  9.2480250E-04
          56  2.0097751E-04
          57  1.8490169E-03
          58 -3.0786158E-03
          59  3.4725219E-03
          60  9.9799829E-04
          61 -2.4732943E-03
          62  2.4490480E-03
          63  4.6390097E-04
          64  5.8798282E-04
          65 -6.4808591E-03
          66 -3.9152768E-03
          67 -9.1250930E-03
          68 -5.2922368E-03
          69  5.4521686E-03
          70 -3.7603906E-05
          71  5.9194784E-03
          72 -2.5651022E-03
          73 -8.2278682E-04
          74 -1.6745143E-03
          75 -1.5766852E-03
          76  2.9339364E-03
          77  2.4648940E-03
          78  2.1787595E-03
          79  4.1405614E-03
          80 -5.3817348E-04
          81 -7.5294345E-04
          82  3.4952299E-03
          83 -1.6830022E-03
          84  2.3317379E-04
          85  8.9944905E-04
          86  2.7683231E-03
          87  1.3374056E-04
          88 -1.3595411E-03
          89 -4.1045286E-04
          90 -1.5819435E-03
          91  1.0494188E-03
          92  4.5365383E-04
          93  1.2045865E-03
          94  1.0253852E-03
          95  1.2749777E-04
          96  1.1249926E-04
          97 -2.1722959E-03
          98 -2.0015093E-03
          99 -6.1779731E-04
         100 -1.2185302E-03
         101  1.8592065E-03
         102  1.7647402E-03
         103 -8.4279751E-04
         104  8.8265579E-04
         105  1.7294378E-03
         106  4.9390383E-03
         107  8.3434884E-04
         108 -1.6695514E-03
         109 -7.6788355E-04
         110 -2.0569314E-03
         111 -1.5135433E-03
         112  1.3969913E-04
         113  9.8518142E-03
         114  3.6955439E-02
         115 -3.2902148E-02
         116 -0.2114049    
         117 -4.0744436E-03
         118 -1.0709151E-02
         119  9.8881852E-03
         120  6.1873913E-02
         121 -5.0289501E-03
         122 -2.1584976E-02
         123  1.9958779E-02
         124  0.1414073    
         125  3.1285959E-03
         126  8.7913787E-03
         127 -5.4982197E-03
         128 -3.1558678E-02
         129  6.8046787E-04
         130 -3.6047250E-03
         131  1.0264316E-02
         132  7.0689768E-02
         133  3.8493229E-03
         134 -5.8404688E-04
         135 -6.4079328E-03
         136 -4.1213907E-02
         137 -2.6433440E-03
         138 -3.7528763E-03
         139  6.8657952E-03
         140  2.3047773E-02
         141  4.0535410E-03
         142 -1.1757043E-03
         143 -6.1865599E-04
         144 -8.2593644E-03
         145 -1.3959513E-03
         146  7.3146131E-03
         147 -3.8017551E-03
         148 -2.5562892E-02
         149  1.4593345E-03
         150 -1.0000046E-03
         151  1.8502416E-03
         152  1.4588470E-02
         153  5.5369159E-04
         154  1.2803413E-03
         155 -2.2316091E-03
         156 -5.7512522E-03
         157  1.5747180E-04
         158  1.5237472E-03
         159  8.8002715E-05
         160 -2.4193216E-03
         161 -3.0735441E-04
         162 -4.5477622E-03
         163  3.2355885E-03
         164  1.7535688E-02
         165  9.4859907E-04
         166 -2.5912675E-05
         167 -9.6587673E-06
         168 -2.7070020E-04
         169 -6.5897207E-04
         170 -2.1330877E-03
         171  2.4132167E-03
         172  9.1612050E-03
         173  1.5885902E-03
         174 -1.6433981E-04
         175 -8.7797217E-04
         176 -3.4422206E-03
         177  1.2011278E-03
         178  9.6675148E-03
         179 -7.2342511E-03
         180 -3.0039720E-02
         181  1.0993395E-03
         182 -3.7133521E-03
         183 -9.5111510E-04
         184 -1.5853344E-03
         185 -7.0693134E-04
         186  1.8108359E-02
         187 -2.2393495E-02
         188 -0.2357812    
         189  1.5569228E-03
         190 -5.8221053E-03
         191  7.9163052E-03
         192  8.1164725E-02
         193  4.0641413E-03
         194 -2.0373302E-02
         195  2.7594715E-02
         196  0.2684982    
         197  3.9114943E-03
         198  8.1944950E-03
         199 -8.7269926E-03
         200 -0.1288773    
         201 -5.0241761E-03
         202  1.7368651E-04
         203  2.9661157E-03
         204 -6.1750349E-02
         205  5.0564753E-03
         206  1.3115325E-03
         207  3.7306927E-03
         208  5.8849892E-03
         209  5.6117275E-03
         210  6.2789693E-03
         211  1.0648080E-02
         212 -3.4617979E-02
         213 -2.9182578E-03
         214 -4.4274358E-03
         215 -3.5352746E-03
         216  7.5276378E-03
         217 -3.0709903E-03
         218 -2.4575368E-02
         219 -2.4736499E-02
         220  0.2896573    
         221  1.7278157E-03
         222  6.2061893E-03
         223  4.1280845E-03
         224 -7.7648640E-02
         225  4.3182416E-04
         226  1.6624974E-02
         227  1.8029016E-02
         228 -0.2062294    
         229 -3.3507947E-04
         230 -3.7068732E-03
         231 -5.6627640E-03
         232  4.7663707E-02
         233 -3.0776311E-04
         234  1.0019709E-02
         235  1.0691871E-02
         236 -0.1266699    
         237 -2.7123475E-05
         238 -3.2154575E-03
         239 -4.1693537E-03
         240  3.4593139E-02
         241 -1.2080368E-04
         242 -2.5746247E-02
         243 -2.5098493E-02
         244  0.3253404    
         245  6.0268806E-04
         246  6.7372825E-03
         247  6.9743977E-03
         248 -8.7630130E-02
         249 -1.9705063E-03
         250  1.0182086E-02
         251  1.3226747E-02
         252 -0.1665650    
         253  2.2550540E-03
         254 -2.3963356E-03
         255 -2.9573517E-03
         256  3.4871012E-02
         257 -1.1410741E-03
         258  1.1208703E-02
         259  1.6171914E-02
         260 -0.1936702    
         261  2.7890631E-03
         262 -2.1323147E-03
         263 -4.9655298E-03
         264  4.8876449E-02
         265 -1.4208322E-03
         266 -2.7097501E-02
         267 -3.7239827E-02
         268  0.4142359    
         269  1.2140403E-03
         270  6.4785923E-03
         271  9.7304229E-03
         272 -0.1162242    
         273  5.0055853E-04
         274  1.4980548E-02
         275  1.7524531E-02
         276 -0.1892268    
         277  1.4189148E-04
         278 -5.6906757E-03
         279 -4.2221621E-03
         280  5.0989270E-02
         281 -2.8628579E-03
         282  1.5990857E-02
         283  2.6420550E-02
         284 -0.2425416    
         285  3.3101854E-03
         286 -4.5627160E-03
         287 -6.1971229E-03
         288  6.9519401E-02
         289  1.8015252E-03
         290 -2.7731720E-02
         291 -4.5714062E-02
         292  0.4027504    
         293  1.1370961E-03
         294  6.5396177E-03
         295  1.4025176E-02
         296 -0.1188727    
         297 -2.6081048E-03
         298  3.4048217E-03
         299  1.4755964E-02
         300 -0.1265469    
         301  5.8917175E-03
         302  2.5659481E-03
         303 -7.4980631E-03
         304  3.8521420E-02
         305 -7.1567977E-03
         306 -3.2492329E-03
         307  2.7220433E-03
         308 -2.5783498E-03
         309  4.6807127E-03
         310  2.4500578E-03
         311 -1.9882178E-04
         312  1.5602433E-02
         313  6.3325820E-04
         314 -1.7629351E-03
         315  6.0795736E-04
         316 -1.2130293E-02
         317 -2.2480763E-03
         318  2.2877723E-03
         319 -1.2160371E-03
         320  5.3429231E-04
         321  2.8889540E-03
         322 -1.5345905E-03
         323 -7.0096256E-04
         324  4.7346146E-04
         325 -6.6063332E-04
         326 -9.7146223E-04
         327  1.3936951E-04
         328  1.2207250E-03
         329 -2.6023237E-04
         330  1.2903053E-03
         331 -8.2770037E-04
         332 -8.0575835E-04
         333  2.1417930E-03
         334 -2.8690945E-03
         335  2.8525530E-03
         336  7.1230263E-04
         337 -6.9175134E-05
         338  2.1875571E-03
         339  2.1765763E-03
         340 -4.7776257E-03
         341  5.3753178E-03
         342  3.8431780E-03
         343  1.8477439E-03
         344 -5.1076961E-05
         345  2.2175522E-03
         346  8.5458928E-04
         347 -1.3727373E-03
         348 -6.4553687E-04
         349  1.0950174E-03
         350 -2.0287312E-03
         351  1.9565674E-03
         352  8.0151466E-04
         353  2.2071260E-03
         354 -1.1643330E-03
         355  9.5760979E-04
         356 -2.2855496E-03
         357  4.3828061E-04
         358  1.7853642E-03
         359 -2.6681290E-03
         360 -4.5243831E-04
         361 -3.8396402E-03
         362 -1.0434076E-03
         363  1.6359341E-03
         364  5.6570658E-04
         365 -9.5755880E-04
         366 -2.3759196E-03
         367  1.0343260E-02
         368  7.9184989E-05
         369  7.6512422E-04
         370 -5.6001131E-04
         371 -1.0207325E-03
         372 -1.6740757E-03
         373  4.0525713E-04
         374  2.9254175E-04
         375 -1.5111193E-04
         376 -5.5852009E-04
         377  1.8170917E-03
         378  1.2129066E-03
         379 -2.1939963E-04
         380 -1.6237745E-03
         381  4.8080721E-04
         382  6.2095802E-03
         383 -4.9071660E-04
         384 -2.4232166E-03
         385  1.4922138E-02
         386 -8.1502926E-03
         387 -1.6916184E-02
         388  1.0967597E-04
         389 -1.7888889E-03
         390 -2.3571800E-03
         391 -7.5312406E-03
         392  5.8943015E-02
         393 -3.7564390E-04
         394 -1.2650953E-03
         395  5.0549433E-03
         396  2.5791756E-03
         397 -4.8917592E-02
         398  5.4952648E-04
         399 -1.6417222E-03
         400  1.4758011E-03
         401  8.6226827E-04
         402 -3.1095929E-02
         403 -1.6638141E-03
         404  1.3960223E-05
         405 -6.8277386E-03
         406 -5.6893658E-03
         407  7.9711616E-02
         408  7.5752172E-04
         409 -9.3917479E-04
         410 -7.7057630E-03
         411 -9.6217971E-03
         412  9.7079262E-02
         413 -4.1420762E-06
         414 -7.3807326E-04
         415  2.0694018E-03
         416  5.5554216E-03
         417 -4.8421197E-02
         418  1.4393124E-03
         419  6.4855383E-04
         420  4.9373233E-03
         421  9.4607202E-03
         422 -5.0411843E-02
         423  5.4202531E-04
         424 -1.5265256E-03
         425 -1.8264553E-02
         426 -4.5758635E-03
         427  7.1814716E-02
