 [Molden Format]
 [Atoms] Angs
C       1      6     -7.57295179      0.21619613     -1.32589082
C       2      6     -6.71447195     -0.01287365     -0.06844574
C       3      6     -7.61517017     -0.25858731      1.15588618
C       4      6     -5.84978529     -1.23807450     -0.29310301
C       5      6     -6.45704537     -2.46031448     -0.54963643
C       6      6     -5.72595737     -3.60605255     -0.79978557
C       7      6     -4.34502434     -3.53407597     -0.81784278
C       8      6     -3.71629990     -2.33328793     -0.56479702
C       9      6     -4.45280625     -1.18043598     -0.27615816
N      10      7     -3.79259688      0.01475145     -0.01349085
C      11      6     -2.37969065      0.02622023      0.01415590
C      12      6     -1.66341835      0.68353109     -0.98206063
C      13      6     -0.28435671      0.69621591     -0.95342699
C      14      6      0.40307352      0.03695258      0.06324717
C      15      6      1.87039163      0.02872729      0.08570677
C      16      6      2.60691249      1.21957687      0.00855096
C      17      6      1.92716822      2.45376207     -0.07687993
N      18      7      1.36327128      3.45067351     -0.14460113
C      19      6      4.01575132      1.14800291      0.00083465
C      20      6      4.86427114      2.33676666     -0.10919077
C      21      6      4.59660734      3.52976905      0.55862809
C      22      6      5.45771486      4.59895521      0.38364042
C      23      6      6.56229401      4.43293420     -0.43898490
N      24      7      6.83233766      3.30034348     -1.06664037
C      25      6      6.01194483      2.28480175     -0.90657560
N      26      7      4.65205471     -0.01044931      0.06449809
C      27      6      3.98560857     -1.14884637      0.17399708
C      28      6      4.79795034     -2.36355620      0.25552462
C      29      6      4.45529191     -3.45486077      1.05142312
C      30      6      5.28466096     -4.56243985      1.05724095
C      31      6      6.43425383     -4.53338882      0.28111488
N      32      7      6.77539350     -3.49751044     -0.46740419
C      33      6      5.98453422     -2.44663499     -0.48016141
C      34      6      2.57562678     -1.17999259      0.17790612
C      35      6      1.86344182     -2.39876205      0.15069903
N      36      7      1.27560935     -3.38171602      0.08353231
C      37      6     -0.31553309     -0.62592255      1.05610964
C      38      6     -1.69452834     -0.62346602      1.03703090
C      39      6     -4.48444157      1.19718889      0.22194978
C      40      6     -3.78099654      2.36415625      0.53522821
C      41      6     -4.44116871      3.55292706      0.76372750
C      42      6     -5.82167138      3.59847267      0.69598641
C      43      6     -6.52125645      2.43890891      0.42061148
C      44      6     -5.88202255      1.22836680      0.18767464
H      45      1     -8.20154903     -0.64604936     -1.52994843
H      46      1     -6.92920664      0.38297598     -2.18760220
H      47      1     -8.21521867      1.08402983     -1.20473010
H      48      1     -8.23668085     -1.13770357      1.01031621
H      49      1     -8.26649285      0.59194530      1.33650384
H      50      1     -7.00134568     -0.41471907      2.04113312
H      51      1     -7.53455971     -2.52483199     -0.55853418
H      52      1     -6.23047851     -4.54075502     -0.99098608
H      53      1     -3.75150787     -4.40984437     -1.03257760
H      54      1     -2.63877025     -2.28961643     -0.59915670
H      55      1     -2.19603588      1.18313967     -1.77692991
H      56      1      0.26343476      1.19298517     -1.74047495
H      57      1      3.74837085      3.61428867      1.22174711
H      58      1      5.28012289      5.53643446      0.88621632
H      59      1      7.26946715      5.23570258     -0.59890269
H      60      1      6.26058936      1.37776354     -1.44009870
H      61      1      3.57259238     -3.43081355      1.67358387
H      62      1      5.04896770     -5.42380826      1.66182558
H      63      1      7.11948963     -5.37015175      0.26103317
H      64      1      6.29067947     -1.62168836     -1.10838259
H      65      1      0.20810277     -1.12083430      1.86096342
H      66      1     -2.25153674     -1.12860951      1.81148166
H      67      1     -2.70465662      2.34049397      0.60724491
H      68      1     -3.87287439      4.44041389      0.99796316
H      69      1     -6.35047752      4.52349587      0.86761602
H      70      1     -7.59939417      2.48301341      0.39001593
 [GTO]
           1   0
s              4   1.000000
     37.02828111     -0.01198412
      6.37657640     -0.05472052
      0.51238512      0.58055871
      0.19528265      0.47700799
p              4   1.000000
      5.96807485      0.05713170
      1.54743269      0.28574555
      0.54551791      0.55178731
      0.21718008      0.26323149
s              7   1.000000
      0.38350848     -0.19441466
      0.04707223      0.93934017
      0.02222627      0.24668498
     37.02828111      0.00521675
      6.37657640      0.02382011
      0.51238512     -0.25272007
      0.19528265     -0.20764393
p              7   1.000000
      1.83062075     -0.01151059
      0.10124670      0.56564792
      0.03901771      0.59073524
      5.96807485     -0.02389112
      1.54743269     -0.11949200
      0.54551791     -0.23074435
      0.21718008     -0.11007716
 
           2   0
s              4   1.000000
     37.10658653     -0.01198412
      6.39006125     -0.05472052
      0.51346869      0.58055871
      0.19569563      0.47700799
p              4   1.000000
      5.98069582      0.05713170
      1.55070512      0.28574555
      0.54667154      0.55178731
      0.21763936      0.26323149
s              7   1.000000
      0.38350848     -0.19435197
      0.04707223      0.93903731
      0.02222627      0.24660545
     37.10658653      0.00520618
      6.39006125      0.02377186
      0.51346869     -0.25220815
      0.19569563     -0.20722332
p              7   1.000000
      1.83062075     -0.01150710
      0.10124670      0.56547672
      0.03901771      0.59055646
      5.98069582     -0.02384250
      1.55070512     -0.11924882
      0.54667154     -0.23027476
      0.21763936     -0.10985314
 
           3   0
s              4   1.000000
     37.02802456     -0.01198412
      6.37653222     -0.05472053
      0.51238157      0.58055871
      0.19528130      0.47700799
p              4   1.000000
      5.96803350      0.05713170
      1.54742197      0.28574555
      0.54551413      0.55178731
      0.21717858      0.26323149
s              7   1.000000
      0.38350848     -0.19441486
      0.04707223      0.93934116
      0.02222627      0.24668525
     37.02802456      0.00521678
      6.37653222      0.02382027
      0.51238157     -0.25272176
      0.19528130     -0.20764532
p              7   1.000000
      1.83062075     -0.01151060
      0.10124670      0.56564849
      0.03901771      0.59073581
      5.96803350     -0.02389128
      1.54742197     -0.11949280
      0.54551413     -0.23074589
      0.21717858     -0.11007789
 
           4   0
s              4   1.000000
     35.26010965     -0.01198412
      6.07208265     -0.05472053
      0.48791775      0.58055871
      0.18595753      0.47700800
p              4   1.000000
      5.68308783      0.05713170
      1.47353981      0.28574555
      0.51946838      0.55178731
      0.20680931      0.26323149
s              7   1.000000
      0.38350848     -0.19593015
      0.04707223      0.94666249
      0.02222627      0.24860795
     35.26010965      0.00546701
      6.07208265      0.02496283
      0.48791775     -0.26484375
      0.18595753     -0.21760519
p              7   1.000000
      1.83062075     -0.01159482
      0.10124670      0.56978727
      0.03901771      0.59505816
      5.68308783     -0.02504229
      1.47353981     -0.12524962
      0.51946838     -0.24186256
      0.20680931     -0.11538113
 
           5   0
s              4   1.000000
     35.03620585     -0.01198412
      6.03352456     -0.05472053
      0.48481944      0.58055871
      0.18477669      0.47700799
p              4   1.000000
      5.64699988      0.05713170
      1.46418275      0.28574555
      0.51616973      0.55178731
      0.20549606      0.26323149
s              7   1.000000
      0.38350848     -0.19613670
      0.04707223      0.94766047
      0.02222627      0.24887003
     35.03620585      0.00550038
      6.03352456      0.02511522
      0.48481944     -0.26646049
      0.18477669     -0.21893356
p              7   1.000000
      1.83062075     -0.01160630
      0.10124670      0.57035149
      0.03901771      0.59564740
      5.64699988     -0.02519577
      1.46418275     -0.12601721
      0.51616973     -0.24334481
      0.20549606     -0.11608824
 
           6   0
s              4   1.000000
     34.91184717     -0.01198412
      6.01210897     -0.05472052
      0.48309861      0.58055871
      0.18412084      0.47700799
p              4   1.000000
      5.62695623      0.05713170
      1.45898573      0.28574555
      0.51433762      0.55178731
      0.20476667      0.26323149
s              7   1.000000
      0.38350848     -0.19625295
      0.04707223      0.94822214
      0.02222627      0.24901752
     34.91184717      0.00551909
      6.01210897      0.02520064
      0.48309861     -0.26736684
      0.18412084     -0.21967824
p              7   1.000000
      1.83062075     -0.01161276
      0.10124670      0.57066904
      0.03901771      0.59597902
      5.62695623     -0.02528180
      1.45898573     -0.12644750
      0.51433762     -0.24417572
      0.20476667     -0.11648463
 
           7   0
s              4   1.000000
     34.92091399     -0.01198412
      6.01367035     -0.05472052
      0.48322407      0.58055871
      0.18416865      0.47700799
p              4   1.000000
      5.62841759      0.05713170
      1.45936463      0.28574555
      0.51447119      0.55178731
      0.20481985      0.26323149
s              7   1.000000
      0.38350848     -0.19624444
      0.04707223      0.94818100
      0.02222627      0.24900672
     34.92091399      0.00551772
      6.01367035      0.02519440
      0.48322407     -0.26730055
      0.18416865     -0.21962379
p              7   1.000000
      1.83062075     -0.01161229
      0.10124670      0.57064578
      0.03901771      0.59595475
      5.62841759     -0.02527550
      1.45936463     -0.12641603
      0.51447119     -0.24411495
      0.20481985     -0.11645564
 
           8   0
s              4   1.000000
     35.04302548     -0.01198412
      6.03469896     -0.05472052
      0.48491381      0.58055871
      0.18481266      0.47700799
p              4   1.000000
      5.64809904      0.05713170
      1.46446774      0.28574555
      0.51627020      0.55178731
      0.20553606      0.26323149
s              7   1.000000
      0.38350848     -0.19613036
      0.04707223      0.94762981
      0.02222627      0.24886199
     35.04302548      0.00549936
      6.03469896      0.02511055
      0.48491381     -0.26641097
      0.18481266     -0.21889286
p              7   1.000000
      1.83062075     -0.01160595
      0.10124670      0.57033415
      0.03901771      0.59562932
      5.64809904     -0.02519106
      1.46446774     -0.12599370
      0.51627020     -0.24329941
      0.20553606     -0.11606658
 
           9   0
s              4   1.000000
     35.25982574     -0.01198412
      6.07203375     -0.05472053
      0.48791382      0.58055871
      0.18595603      0.47700799
p              4   1.000000
      5.68304207      0.05713170
      1.47352795      0.28574555
      0.51946420      0.55178731
      0.20680765      0.26323149
s              7   1.000000
      0.38350848     -0.19593041
      0.04707223      0.94666373
      0.02222627      0.24860827
     35.25982574      0.00546705
      6.07203375      0.02496302
      0.48791382     -0.26484579
      0.18595603     -0.21760686
p              7   1.000000
      1.83062075     -0.01159484
      0.10124670      0.56978798
      0.03901771      0.59505889
      5.68304207     -0.02504249
      1.47352795     -0.12525059
      0.51946420     -0.24186443
      0.20680765     -0.11538202
 
          10   0
s              4   1.000000
     61.19064205     -0.01198412
     10.53753489     -0.05472052
      0.84673589      0.58055871
      0.32271201      0.47700799
p              4   1.000000
      7.21266189      0.05713170
      1.87013553      0.28574555
      0.65928064      0.55178731
      0.26247098      0.26323149
s              7   1.000000
      0.47894987     -0.18778621
      0.05878681      0.90731395
      0.02775758      0.23827442
     61.19064205      0.00397040
     10.53753489      0.01812920
      0.84673589     -0.19234218
      0.32271201     -0.15803528
p              7   1.000000
      2.28619608     -0.01156632
      0.12644335      0.56838692
      0.04872781      0.59359570
      7.21266189     -0.02465793
      1.87013553     -0.12332724
      0.65928064     -0.23815036
      0.26247098     -0.11361021
 
          11   0
s              4   1.000000
     35.24090180     -0.01198412
      6.06877490     -0.05472053
      0.48765196      0.58055871
      0.18585623      0.47700799
p              4   1.000000
      5.67999198      0.05713170
      1.47273710      0.28574555
      0.51918540      0.55178731
      0.20669666      0.26323149
s              7   1.000000
      0.38350848     -0.19594773
      0.04707223      0.94674744
      0.02222627      0.24863026
     35.24090180      0.00546985
      6.06877490      0.02497583
      0.48765196     -0.26498169
      0.18585623     -0.21771852
p              7   1.000000
      1.83062075     -0.01159580
      0.10124670      0.56983530
      0.03901771      0.59510833
      5.67999198     -0.02505539
      1.47273710     -0.12531511
      0.51918540     -0.24198903
      0.20669666     -0.11544146
 
          12   0
s              4   1.000000
     35.01272393     -0.01198412
      6.02948078     -0.05472052
      0.48449451      0.58055871
      0.18465285      0.47700799
p              4   1.000000
      5.64321516      0.05713170
      1.46320142      0.28574555
      0.51582378      0.55178731
      0.20535834      0.26323149
s              7   1.000000
      0.38350848     -0.19615857
      0.04707223      0.94776611
      0.02222627      0.24889777
     35.01272393      0.00550390
      6.02948078      0.02513130
      0.48449451     -0.26663117
      0.18465285     -0.21907380
p              7   1.000000
      1.83062075     -0.01160752
      0.10124670      0.57041122
      0.03901771      0.59570979
      5.64321516     -0.02521197
      1.46320142     -0.12609824
      0.51582378     -0.24350129
      0.20535834     -0.11616288
 
          13   0
s              4   1.000000
     35.02335735     -0.01198412
      6.03131194     -0.05472052
      0.48464165      0.58055871
      0.18470893      0.47700800
p              4   1.000000
      5.64492901      0.05713170
      1.46364580      0.28574555
      0.51598044      0.55178731
      0.20542070      0.26323149
s              7   1.000000
      0.38350848     -0.19614866
      0.04707223      0.94771826
      0.02222627      0.24888519
     35.02335735      0.00550231
      6.03131194      0.02512402
      0.48464165     -0.26655386
      0.18470893     -0.21901027
p              7   1.000000
      1.83062075     -0.01160697
      0.10124670      0.57038416
      0.03901771      0.59568151
      5.64492901     -0.02520463
      1.46364580     -0.12606154
      0.51598044     -0.24343041
      0.20542070     -0.11612907
 
          14   0
s              4   1.000000
     35.13204911     -0.01198412
      6.05002956     -0.05472053
      0.48614569      0.58055871
      0.18528216      0.47700799
p              4   1.000000
      5.66244753      0.05713170
      1.46818809      0.28574555
      0.51758173      0.55178731
      0.20605821      0.26323149
s              7   1.000000
      0.38350848     -0.19604786
      0.04707223      0.94723120
      0.02222627      0.24875730
     35.13204911      0.00548605
      6.05002956      0.02504976
      0.48614569     -0.26576608
      0.18528216     -0.21836300
p              7   1.000000
      1.83062075     -0.01160136
      0.10124670      0.57010880
      0.03901771      0.59539395
      5.66244753     -0.02512985
      1.46818809     -0.12568752
      0.51758173     -0.24270817
      0.20605821     -0.11578453
 
          15   0
s              4   1.000000
     35.30605572     -0.01198412
      6.07999494     -0.05472052
      0.48855354      0.58055871
      0.18619985      0.47700800
p              4   1.000000
      5.69049324      0.05713170
      1.47545992      0.28574555
      0.52014528      0.55178731
      0.20707880      0.26323149
s              7   1.000000
      0.38350848     -0.19588820
      0.04707223      0.94645978
      0.02222627      0.24855472
     35.30605572      0.00546021
      6.07999494      0.02493178
      0.48855354     -0.26451436
      0.18619985     -0.21733455
p              7   1.000000
      1.83062075     -0.01159249
      0.10124670      0.56967266
      0.03901771      0.59493849
      5.69049324     -0.02501102
      1.47545992     -0.12509323
      0.52014528     -0.24156056
      0.20707880     -0.11523706
 
          16   0
s              4   1.000000
     35.10145217     -0.01198412
      6.04476052     -0.05472052
      0.48572230      0.58055871
      0.18512079      0.47700799
p              4   1.000000
      5.65751603      0.05713170
      1.46690943      0.28574555
      0.51713097      0.55178731
      0.20587875      0.26323149
s              7   1.000000
      0.38350848     -0.19607615
      0.04707223      0.94736791
      0.02222627      0.24879320
     35.10145217      0.00549061
      6.04476052      0.02507062
      0.48572230     -0.26598738
      0.18512079     -0.21854483
p              7   1.000000
      1.83062075     -0.01160294
      0.10124670      0.57018608
      0.03901771      0.59547466
      5.65751603     -0.02515085
      1.46690943     -0.12579259
      0.51713097     -0.24291106
      0.20587875     -0.11588132
 
          17   0
s              4   1.000000
     32.76317490     -0.01198412
      5.64208982     -0.05472053
      0.45336599      0.58055871
      0.17278900      0.47700800
p              4   1.000000
      5.28064156      0.05713170
      1.36919150      0.28574555
      0.48268237      0.55178731
      0.19216417      0.26323149
s              7   1.000000
      0.38350848     -0.19844940
      0.04707223      0.95883455
      0.02222627      0.25180450
     32.76317490      0.00586334
      5.64208982      0.02677251
      0.45336599     -0.28404355
      0.17278900     -0.23338043
p              7   1.000000
      1.83062075     -0.01173487
      0.10124670      0.57666964
      0.03901771      0.60224577
      5.28064156     -0.02686420
      1.36919150     -0.13436194
      0.48268237     -0.25945885
      0.19216417     -0.12377549
 
          18   0
s              4   1.000000
     53.07884717     -0.01198412
      9.14061669     -0.05472052
      0.73448755      0.58055871
      0.27993139      0.47700800
p              4   1.000000
      6.25650860      0.05713170
      1.62221926      0.28574555
      0.57188249      0.55178731
      0.22767627      0.26323149
s              7   1.000000
      0.47894987     -0.19075737
      0.05878681      0.92166949
      0.02775758      0.24204441
     53.07884717      0.00456591
      9.14061669      0.02084833
      0.73448755     -0.22119091
      0.27993139     -0.18173843
p              7   1.000000
      2.28619608     -0.01184630
      0.12644335      0.58214527
      0.04872781      0.60796426
      6.25650860     -0.02824421
      1.62221926     -0.14126410
      0.57188249     -0.27278722
      0.22767627     -0.13013382
 
          19   0
s              4   1.000000
     35.27724985     -0.01198412
      6.07503433     -0.05472053
      0.48815493      0.58055871
      0.18604793      0.47700799
p              4   1.000000
      5.68585042      0.05713170
      1.47425611      0.28574555
      0.51972090      0.55178731
      0.20690985      0.26323149
s              7   1.000000
      0.38350848     -0.19591448
      0.04707223      0.94658678
      0.02222627      0.24858806
     35.27724985      0.00546447
      6.07503433      0.02495124
      0.48815493     -0.26472078
      0.18604793     -0.21750415
p              7   1.000000
      1.83062075     -0.01159395
      0.10124670      0.56974447
      0.03901771      0.59501346
      5.68585042     -0.02503062
      1.47425611     -0.12519123
      0.51972090     -0.24174981
      0.20690985     -0.11532734
 
          20   0
s              4   1.000000
     35.11777642     -0.01198412
      6.04757169     -0.05472052
      0.48594819      0.58055871
      0.18520688      0.47700800
p              4   1.000000
      5.66014711      0.05713170
      1.46759163      0.28574555
      0.51737146      0.55178731
      0.20597449      0.26323149
s              7   1.000000
      0.38350848     -0.19606105
      0.04707223      0.94729493
      0.02222627      0.24877404
     35.11777642      0.00548818
      6.04757169      0.02505949
      0.48594819     -0.26586926
      0.18520688     -0.21844778
p              7   1.000000
      1.83062075     -0.01160210
      0.10124670      0.57014482
      0.03901771      0.59543157
      5.66014711     -0.02513964
      1.46759163     -0.12573651
      0.51737146     -0.24280277
      0.20597449     -0.11582966
 
          21   0
s              4   1.000000
     35.02896345     -0.01198412
      6.03227736     -0.05472053
      0.48471922      0.58055871
      0.18473849      0.47700800
p              4   1.000000
      5.64583258      0.05713170
      1.46388008      0.28574555
      0.51606303      0.55178730
      0.20545358      0.26323149
s              7   1.000000
      0.38350848     -0.19614344
      0.04707223      0.94769303
      0.02222627      0.24887858
     35.02896345      0.00550147
      6.03227736      0.02512018
      0.48471922     -0.26651311
      0.18473849     -0.21897680
p              7   1.000000
      1.83062075     -0.01160668
      0.10124670      0.57036990
      0.03901771      0.59566662
      5.64583258     -0.02520076
      1.46388008     -0.12604219
      0.51606303     -0.24339305
      0.20545358     -0.11611125
 
          22   0
s              4   1.000000
     34.90500437     -0.01198412
      6.01093058     -0.05472052
      0.48300392      0.58055871
      0.18408475      0.47700799
p              4   1.000000
      5.62585334      0.05713170
      1.45869976      0.28574555
      0.51423681      0.55178730
      0.20472653      0.26323149
s              7   1.000000
      0.38350848     -0.19625938
      0.04707223      0.94825320
      0.02222627      0.24902569
     34.90500437      0.00552012
      6.01093058      0.02520536
      0.48300392     -0.26741689
      0.18408475     -0.21971936
p              7   1.000000
      1.83062075     -0.01161312
      0.10124670      0.57068660
      0.03901771      0.59599739
      5.62585334     -0.02528655
      1.45869976     -0.12647126
      0.51423681     -0.24422160
      0.20472653     -0.11650651
 
          23   0
s              4   1.000000
     35.07531374     -0.01198412
      6.04025926     -0.05472052
      0.48536061      0.58055871
      0.18498294      0.47700799
p              4   1.000000
      5.65330314      0.05713170
      1.46581709      0.28574555
      0.51674588      0.55178731
      0.20572544      0.26323149
s              7   1.000000
      0.38350848     -0.19610037
      0.04707223      0.94748493
      0.02222627      0.24882394
     35.07531374      0.00549452
      6.04025926      0.02508847
      0.48536061     -0.26617672
      0.18498294     -0.21870039
p              7   1.000000
      1.83062075     -0.01160428
      0.10124670      0.57025225
      0.03901771      0.59554376
      5.65330314     -0.02516883
      1.46581709     -0.12588248
      0.51674588     -0.24308465
      0.20572544     -0.11596413
 
          24   0
s              4   1.000000
     56.98121488     -0.01198412
      9.81263670     -0.05472052
      0.78848723      0.58055871
      0.30051200      0.47700800
p              4   1.000000
      6.71648839      0.05713170
      1.74148515      0.28574555
      0.61392740      0.55178731
      0.24441508      0.26323149
s              7   1.000000
      0.47894987     -0.18918411
      0.05878681      0.91406812
      0.02775758      0.24004817
     56.98121488      0.00425980
      9.81263670      0.01945060
      0.78848723     -0.20636161
      0.30051200     -0.16955415
p              7   1.000000
      2.28619608     -0.01169840
      0.12644335      0.57487719
      0.04872781      0.60037383
      6.71648839     -0.02639974
      1.74148515     -0.13203894
      0.61392740     -0.25497304
      0.24441508     -0.12163552
 
          25   0
s              4   1.000000
     35.17784777     -0.01198412
      6.05791647     -0.05472053
      0.48677944      0.58055871
      0.18552369      0.47700799
p              4   1.000000
      5.66982918      0.05713170
      1.47010204      0.28574555
      0.51825646      0.55178731
      0.20632683      0.26323149
s              7   1.000000
      0.38350848     -0.19600563
      0.04707223      0.94702718
      0.02222627      0.24870372
     35.17784777      0.00547922
      6.05791647      0.02501861
      0.48677944     -0.26543550
      0.18552369     -0.21809139
p              7   1.000000
      1.83062075     -0.01159902
      0.10124670      0.56999345
      0.03901771      0.59527347
      5.66982918     -0.02509847
      1.47010204     -0.12553057
      0.51825646     -0.24240509
      0.20632683     -0.11563995
 
          26   0
s              4   1.000000
     57.41196819     -0.01198412
      9.88681599     -0.05472052
      0.79444785      0.58055871
      0.30278374      0.47700799
p              4   1.000000
      6.76726214      0.05713170
      1.75465002      0.28574555
      0.61856843      0.55178731
      0.24626275      0.26323149
s              7   1.000000
      0.47894987     -0.18902810
      0.05878681      0.91331433
      0.02775758      0.23985022
     57.41196819      0.00422838
      9.88681599      0.01930714
      0.79444785     -0.20483953
      0.30278374     -0.16830355
p              7   1.000000
      2.28619608     -0.01168369
      0.12644335      0.57415451
      0.04872781      0.59961908
      6.76726214     -0.02621057
      1.75465002     -0.13109279
      0.61856843     -0.25314597
      0.24626275     -0.12076391
 
          27   0
s              4   1.000000
     35.27729823     -0.01198412
      6.07504266     -0.05472052
      0.48815560      0.58055871
      0.18604818      0.47700799
p              4   1.000000
      5.68585822      0.05713170
      1.47425813      0.28574555
      0.51972161      0.55178731
      0.20691013      0.26323149
s              7   1.000000
      0.38350848     -0.19591444
      0.04707223      0.94658657
      0.02222627      0.24858801
     35.27729823      0.00546446
      6.07504266      0.02495121
      0.48815560     -0.26472043
      0.18604818     -0.21750386
p              7   1.000000
      1.83062075     -0.01159395
      0.10124670      0.56974435
      0.03901771      0.59501334
      5.68585822     -0.02503059
      1.47425813     -0.12519107
      0.51972161     -0.24174949
      0.20691013     -0.11532719
 
          28   0
s              4   1.000000
     35.11712286     -0.01198412
      6.04745914     -0.05472052
      0.48593915      0.58055871
      0.18520344      0.47700799
p              4   1.000000
      5.66004177      0.05713170
      1.46756431      0.28574555
      0.51736183      0.55178731
      0.20597066      0.26323149
s              7   1.000000
      0.38350848     -0.19606165
      0.04707223      0.94729785
      0.02222627      0.24877480
     35.11712286      0.00548827
      6.04745914      0.02505994
      0.48593915     -0.26587399
      0.18520344     -0.21845167
p              7   1.000000
      1.83062075     -0.01160213
      0.10124670      0.57014647
      0.03901771      0.59543331
      5.66004177     -0.02514009
      1.46756431     -0.12573876
      0.51736183     -0.24280711
      0.20597066     -0.11583173
 
          29   0
s              4   1.000000
     35.03086686     -0.01198412
      6.03260514     -0.05472052
      0.48474556      0.58055871
      0.18474853      0.47700799
p              4   1.000000
      5.64613936      0.05713170
      1.46395963      0.28574555
      0.51609107      0.55178731
      0.20546475      0.26323149
s              7   1.000000
      0.38350848     -0.19614167
      0.04707223      0.94768448
      0.02222627      0.24887632
     35.03086686      0.00550118
      6.03260514      0.02511887
      0.48474556     -0.26649928
      0.18474853     -0.21896543
p              7   1.000000
      1.83062075     -0.01160658
      0.10124670      0.57036506
      0.03901771      0.59566156
      5.64613936     -0.02519945
      1.46395963     -0.12603563
      0.51609107     -0.24338037
      0.20546475     -0.11610520
 
          30   0
s              4   1.000000
     34.90443834     -0.01198412
      6.01083310     -0.05472052
      0.48299609      0.58055871
      0.18408176      0.47700799
p              4   1.000000
      5.62576210      0.05713170
      1.45867611      0.28574555
      0.51422847      0.55178731
      0.20472321      0.26323149
s              7   1.000000
      0.38350848     -0.19625991
      0.04707223      0.94825576
      0.02222627      0.24902637
     34.90443834      0.00552021
      6.01083310      0.02520575
      0.48299609     -0.26742103
      0.18408176     -0.21972277
p              7   1.000000
      1.83062075     -0.01161315
      0.10124670      0.57068805
      0.03901771      0.59599888
      5.62576210     -0.02528694
      1.45867611     -0.12647322
      0.51422847     -0.24422540
      0.20472321     -0.11650832
 
          31   0
s              4   1.000000
     35.07551892     -0.01198412
      6.04029460     -0.05472052
      0.48536344      0.58055871
      0.18498402      0.47700799
p              4   1.000000
      5.65333621      0.05713170
      1.46582566      0.28574555
      0.51674891      0.55178731
      0.20572664      0.26323149
s              7   1.000000
      0.38350848     -0.19610018
      0.04707223      0.94748402
      0.02222627      0.24882369
     35.07551892      0.00549449
      6.04029460      0.02508833
      0.48536344     -0.26617523
      0.18498402     -0.21869918
p              7   1.000000
      1.83062075     -0.01160427
      0.10124670      0.57025173
      0.03901771      0.59554323
      5.65333621     -0.02516869
      1.46582566     -0.12588178
      0.51674891     -0.24308328
      0.20572664     -0.11596348
 
          32   0
s              4   1.000000
     56.98080673     -0.01198412
      9.81256641     -0.05472052
      0.78848158      0.58055871
      0.30050985      0.47700799
p              4   1.000000
      6.71644028      0.05713170
      1.74147267      0.28574555
      0.61392301      0.55178731
      0.24441333      0.26323149
s              7   1.000000
      0.47894987     -0.18918426
      0.05878681      0.91406885
      0.02775758      0.24004835
     56.98080673      0.00425983
      9.81256641      0.01945074
      0.78848158     -0.20636306
      0.30050985     -0.16955534
p              7   1.000000
      2.28619608     -0.01169841
      0.12644335      0.57487789
      0.04872781      0.60037454
      6.71644028     -0.02639992
      1.74147267     -0.13203984
      0.61392301     -0.25497478
      0.24441333     -0.12163635
 
          33   0
s              4   1.000000
     35.17727835     -0.01198412
      6.05781841     -0.05472052
      0.48677156      0.58055871
      0.18552069      0.47700799
p              4   1.000000
      5.66973740      0.05713170
      1.47007825      0.28574555
      0.51824807      0.55178731
      0.20632349      0.26323149
s              7   1.000000
      0.38350848     -0.19600616
      0.04707223      0.94702970
      0.02222627      0.24870438
     35.17727835      0.00547931
      6.05781841      0.02501899
      0.48677156     -0.26543961
      0.18552069     -0.21809476
p              7   1.000000
      1.83062075     -0.01159905
      0.10124670      0.56999487
      0.03901771      0.59527497
      5.66973740     -0.02509886
      1.47007825     -0.12553252
      0.51824807     -0.24240886
      0.20632349     -0.11564174
 
          34   0
s              4   1.000000
     35.10837288     -0.01198412
      6.04595232     -0.05472052
      0.48581807      0.58055871
      0.18515729      0.47700800
p              4   1.000000
      5.65863148      0.05713170
      1.46719865      0.28574555
      0.51723292      0.55178731
      0.20591934      0.26323149
s              7   1.000000
      0.38350848     -0.19606975
      0.04707223      0.94733696
      0.02222627      0.24878506
     35.10837288      0.00548958
      6.04595232      0.02506590
      0.48581807     -0.26593729
      0.18515729     -0.21850368
p              7   1.000000
      1.83062075     -0.01160258
      0.10124670      0.57016858
      0.03901771      0.59545641
      5.65863148     -0.02514610
      1.46719865     -0.12576881
      0.51723292     -0.24286514
      0.20591934     -0.11585941
 
          35   0
s              4   1.000000
     32.76772612     -0.01198412
      5.64287358     -0.05472052
      0.45342897      0.58055871
      0.17281300      0.47700800
p              4   1.000000
      5.28137511      0.05713170
      1.36938170      0.28574555
      0.48274943      0.55178731
      0.19219086      0.26323149
s              7   1.000000
      0.38350848     -0.19844434
      0.04707223      0.95881010
      0.02222627      0.25179809
     32.76772612      0.00586256
      5.64287358      0.02676897
      0.45342897     -0.28400605
      0.17281300     -0.23334963
p              7   1.000000
      1.83062075     -0.01173459
      0.10124670      0.57665582
      0.03901771      0.60223133
      5.28137511     -0.02686065
      1.36938170     -0.13434415
      0.48274943     -0.25942450
      0.19219086     -0.12375910
 
          36   0
s              4   1.000000
     53.07870239     -0.01198412
      9.14059176     -0.05472053
      0.73448555      0.58055871
      0.27993062      0.47700799
p              4   1.000000
      6.25649153      0.05713170
      1.62221483      0.28574555
      0.57188093      0.55178731
      0.22767565      0.26323149
s              7   1.000000
      0.47894987     -0.19075743
      0.05878681      0.92166981
      0.02775758      0.24204449
     53.07870239      0.00456592
      9.14059176      0.02084839
      0.73448555     -0.22119149
      0.27993062     -0.18173891
p              7   1.000000
      2.28619608     -0.01184630
      0.12644335      0.58214556
      0.04872781      0.60796457
      6.25649153     -0.02824429
      1.62221483     -0.14126446
      0.57188093     -0.27278793
      0.22767565     -0.13013415
 
          37   0
s              4   1.000000
     35.02636037     -0.01198412
      6.03182909     -0.05472052
      0.48468320      0.58055871
      0.18472477      0.47700799
p              4   1.000000
      5.64541302      0.05713170
      1.46377130      0.28574555
      0.51602468      0.55178731
      0.20543832      0.26323149
s              7   1.000000
      0.38350848     -0.19614587
      0.04707223      0.94770475
      0.02222627      0.24888166
     35.02636037      0.00550186
      6.03182909      0.02512196
      0.48468320     -0.26653203
      0.18472477     -0.21899234
p              7   1.000000
      1.83062075     -0.01160681
      0.10124670      0.57037652
      0.03901771      0.59567354
      5.64541302     -0.02520256
      1.46377130     -0.12605117
      0.51602468     -0.24341040
      0.20543832     -0.11611952
 
          38   0
s              4   1.000000
     35.01295277     -0.01198412
      6.02952019     -0.05472052
      0.48449767      0.58055871
      0.18465406      0.47700799
p              4   1.000000
      5.64325204      0.05713170
      1.46321099      0.28574555
      0.51582715      0.55178731
      0.20535968      0.26323149
s              7   1.000000
      0.38350848     -0.19615836
      0.04707223      0.94776509
      0.02222627      0.24889750
     35.01295277      0.00550387
      6.02952019      0.02513115
      0.48449767     -0.26662951
      0.18465406     -0.21907243
p              7   1.000000
      1.83062075     -0.01160751
      0.10124670      0.57041063
      0.03901771      0.59570918
      5.64325204     -0.02521181
      1.46321099     -0.12609745
      0.51582715     -0.24349976
      0.20535968     -0.11616216
 
          39   0
s              4   1.000000
     35.25881133     -0.01198412
      6.07185906     -0.05472053
      0.48789978      0.58055871
      0.18595068      0.47700799
p              4   1.000000
      5.68287857      0.05713170
      1.47348555      0.28574555
      0.51944926      0.55178731
      0.20680170      0.26323149
s              7   1.000000
      0.38350848     -0.19593134
      0.04707223      0.94666822
      0.02222627      0.24860944
     35.25881133      0.00546720
      6.07185906      0.02496371
      0.48789978     -0.26485307
      0.18595068     -0.21761284
p              7   1.000000
      1.83062075     -0.01159489
      0.10124670      0.56979051
      0.03901771      0.59506156
      5.68287857     -0.02504318
      1.47348555     -0.12525404
      0.51944926     -0.24187110
      0.20680170     -0.11538521
 
          40   0
s              4   1.000000
     35.04279739     -0.01198412
      6.03465968     -0.05472052
      0.48491065      0.58055871
      0.18481145      0.47700799
p              4   1.000000
      5.64806228      0.05713170
      1.46445821      0.28574555
      0.51626684      0.55178731
      0.20553472      0.26323149
s              7   1.000000
      0.38350848     -0.19613057
      0.04707223      0.94763084
      0.02222627      0.24886225
     35.04279739      0.00549939
      6.03465968      0.02511071
      0.48491065     -0.26641262
      0.18481145     -0.21889423
p              7   1.000000
      1.83062075     -0.01160596
      0.10124670      0.57033474
      0.03901771      0.59562993
      5.64806228     -0.02519122
      1.46445821     -0.12599448
      0.51626684     -0.24330092
      0.20553472     -0.11606730
 
          41   0
s              4   1.000000
     34.92081061     -0.01198412
      6.01365255     -0.05472053
      0.48322264      0.58055871
      0.18416811      0.47700799
p              4   1.000000
      5.62840092      0.05713170
      1.45936031      0.28574555
      0.51446967      0.55178731
      0.20481924      0.26323149
s              7   1.000000
      0.38350848     -0.19624453
      0.04707223      0.94818147
      0.02222627      0.24900684
     34.92081061      0.00551774
      6.01365255      0.02519447
      0.48322264     -0.26730131
      0.18416811     -0.21962440
p              7   1.000000
      1.83062075     -0.01161230
      0.10124670      0.57064604
      0.03901771      0.59595503
      5.62840092     -0.02527558
      1.45936031     -0.12641639
      0.51446967     -0.24411565
      0.20481924     -0.11645597
 
          42   0
s              4   1.000000
     34.91186274     -0.01198412
      6.01211165     -0.05472052
      0.48309882      0.58055871
      0.18412092      0.47700799
p              4   1.000000
      5.62695874      0.05713170
      1.45898638      0.28574555
      0.51433785      0.55178731
      0.20476676      0.26323149
s              7   1.000000
      0.38350848     -0.19625294
      0.04707223      0.94822205
      0.02222627      0.24901750
     34.91186274      0.00551909
      6.01211165      0.02520063
      0.48309882     -0.26736673
      0.18412092     -0.21967815
p              7   1.000000
      1.83062075     -0.01161276
      0.10124670      0.57066900
      0.03901771      0.59597898
      5.62695874     -0.02528179
      1.45898638     -0.12644744
      0.51433785     -0.24417561
      0.20476676     -0.11648458
 
          43   0
s              4   1.000000
     35.03619040     -0.01198412
      6.03352190     -0.05472052
      0.48481923      0.58055871
      0.18477661      0.47700800
p              4   1.000000
      5.64699739      0.05713170
      1.46418210      0.28574555
      0.51616950      0.55178731
      0.20549597      0.26323149
s              7   1.000000
      0.38350848     -0.19613672
      0.04707223      0.94766054
      0.02222627      0.24887005
     35.03619040      0.00550038
      6.03352190      0.02511523
      0.48481923     -0.26646061
      0.18477661     -0.21893365
p              7   1.000000
      1.83062075     -0.01160630
      0.10124670      0.57035152
      0.03901771      0.59564744
      5.64699739     -0.02519578
      1.46418210     -0.12601726
      0.51616950     -0.24334492
      0.20549597     -0.11608829
 
          44   0
s              4   1.000000
     35.26010565     -0.01198412
      6.07208196     -0.05472052
      0.48791769      0.58055871
      0.18595751      0.47700800
p              4   1.000000
      5.68308718      0.05713170
      1.47353964      0.28574555
      0.51946832      0.55178731
      0.20680929      0.26323149
s              7   1.000000
      0.38350848     -0.19593016
      0.04707223      0.94666250
      0.02222627      0.24860795
     35.26010565      0.00546701
      6.07208196      0.02496283
      0.48791769     -0.26484378
      0.18595751     -0.21760521
p              7   1.000000
      1.83062075     -0.01159482
      0.10124670      0.56978728
      0.03901771      0.59505816
      5.68308718     -0.02504230
      1.47353964     -0.12524963
      0.51946832     -0.24186258
      0.20680929     -0.11538114
 
          45   0
s              4   1.000000
      8.30639154      0.05675242
      1.51996731      0.26014135
      0.42226356      0.53284611
      0.14014548      0.29162544
s              7   1.000000
      0.92936822     -0.06733171
      0.05643440      0.66948810
      0.02166600      0.51463979
      8.30639154     -0.02902955
      1.51996731     -0.13306546
      0.42226356     -0.27255725
      0.14014548     -0.14916995
p              4   1.000000
      0.64737396      0.05713170
      0.16785440      0.28574555
      0.05917387      0.55178731
      0.02355814      0.26323150
 
          46   0
s              4   1.000000
      8.30627015      0.05675242
      1.51994510      0.26014135
      0.42225739      0.53284611
      0.14014343      0.29162544
s              7   1.000000
      0.92936822     -0.06733187
      0.05643440      0.66948965
      0.02166600      0.51464098
      8.30627015     -0.02902988
      1.51994510     -0.13306695
      0.42225739     -0.27256030
      0.14014343     -0.14917162
p              4   1.000000
      0.64737396      0.05713170
      0.16785440      0.28574555
      0.05917387      0.55178731
      0.02355814      0.26323150
 
          47   0
s              4   1.000000
      8.30638228      0.05675242
      1.51996562      0.26014135
      0.42226309      0.53284611
      0.14014532      0.29162544
s              7   1.000000
      0.92936822     -0.06733173
      0.05643440      0.66948822
      0.02166600      0.51463986
      8.30638228     -0.02902958
      1.51996562     -0.13306557
      0.42226309     -0.27255748
      0.14014532     -0.14917008
p              4   1.000000
      0.64737396      0.05713170
      0.16785440      0.28574555
      0.05917387      0.55178731
      0.02355814      0.26323150
 
          48   0
s              4   1.000000
      8.30638336      0.05675242
      1.51996582      0.26014135
      0.42226315      0.53284611
      0.14014534      0.29162544
s              7   1.000000
      0.92936822     -0.06733172
      0.05643440      0.66948821
      0.02166600      0.51463986
      8.30638336     -0.02902957
      1.51996582     -0.13306556
      0.42226315     -0.27255746
      0.14014534     -0.14917006
p              4   1.000000
      0.64737396      0.05713170
      0.16785440      0.28574555
      0.05917387      0.55178731
      0.02355814      0.26323150
 
          49   0
s              4   1.000000
      8.30639049      0.05675242
      1.51996712      0.26014135
      0.42226351      0.53284611
      0.14014546      0.29162544
s              7   1.000000
      0.92936822     -0.06733172
      0.05643440      0.66948811
      0.02166600      0.51463979
      8.30639049     -0.02902955
      1.51996712     -0.13306547
      0.42226351     -0.27255728
      0.14014546     -0.14916997
p              4   1.000000
      0.64737396      0.05713170
      0.16785440      0.28574555
      0.05917387      0.55178731
      0.02355814      0.26323150
 
          50   0
s              4   1.000000
      8.30626599      0.05675242
      1.51994434      0.26014135
      0.42225718      0.53284611
      0.14014336      0.29162544
s              7   1.000000
      0.92936822     -0.06733188
      0.05643440      0.66948971
      0.02166600      0.51464101
      8.30626599     -0.02902989
      1.51994434     -0.13306700
      0.42225718     -0.27256040
      0.14014336     -0.14917167
p              4   1.000000
      0.64737396      0.05713170
      0.16785440      0.28574555
      0.05917387      0.55178731
      0.02355814      0.26323150
 
          51   0
s              4   1.000000
      8.30993610      0.05675242
      1.52061592      0.26014135
      0.42244375      0.53284611
      0.14020528      0.29162544
s              7   1.000000
      0.92936822     -0.06732715
      0.05643440      0.66944274
      0.02166600      0.51460491
      8.30993610     -0.02902007
      1.52061592     -0.13302198
      0.42244375     -0.27246820
      0.14020528     -0.14912121
p              4   1.000000
      0.64737396      0.05713170
      0.16785440      0.28574555
      0.05917387      0.55178731
      0.02355814      0.26323150
 
          52   0
s              4   1.000000
      8.30885474      0.05675242
      1.52041805      0.26014135
      0.42238878      0.53284611
      0.14018704      0.29162544
s              7   1.000000
      0.92936822     -0.06732854
      0.05643440      0.66945658
      0.02166600      0.51461554
      8.30885474     -0.02902296
      1.52041805     -0.13303524
      0.42238878     -0.27249536
      0.14018704     -0.14913608
p              4   1.000000
      0.64737396      0.05713170
      0.16785440      0.28574555
      0.05917387      0.55178731
      0.02355814      0.26323150
 
          53   0
s              4   1.000000
      8.30899283      0.05675242
      1.52044332      0.26014135
      0.42239580      0.53284611
      0.14018937      0.29162544
s              7   1.000000
      0.92936822     -0.06732837
      0.05643440      0.66945481
      0.02166600      0.51461420
      8.30899283     -0.02902259
      1.52044332     -0.13303355
      0.42239580     -0.27249189
      0.14018937     -0.14913418
p              4   1.000000
      0.64737396      0.05713170
      0.16785440      0.28574555
      0.05917387      0.55178731
      0.02355814      0.26323150
 
          54   0
s              4   1.000000
      8.31084844      0.05675242
      1.52078287      0.26014135
      0.42249013      0.53284611
      0.14022068      0.29162544
s              7   1.000000
      0.92936822     -0.06732598
      0.05643440      0.66943109
      0.02166600      0.51459596
      8.31084844     -0.02901763
      1.52078287     -0.13301080
      0.42249013     -0.27244529
      0.14022068     -0.14910868
p              4   1.000000
      0.64737396      0.05713170
      0.16785440      0.28574555
      0.05917387      0.55178731
      0.02355814      0.26323150
 
          55   0
s              4   1.000000
      8.30951192      0.05675242
      1.52053831      0.26014135
      0.42242219      0.53284611
      0.14019813      0.29162544
s              7   1.000000
      0.92936822     -0.06732770
      0.05643440      0.66944817
      0.02166600      0.51460908
      8.30951192     -0.02902120
      1.52053831     -0.13302718
      0.42242219     -0.27247886
      0.14019813     -0.14912704
p              4   1.000000
      0.64737396      0.05713170
      0.16785440      0.28574555
      0.05917387      0.55178731
      0.02355814      0.26323150
 
          56   0
s              4   1.000000
      8.30980241      0.05675242
      1.52059146      0.26014135
      0.42243696      0.53284611
      0.14020303      0.29162544
s              7   1.000000
      0.92936822     -0.06732733
      0.05643440      0.66944445
      0.02166600      0.51460622
      8.30980241     -0.02902042
      1.52059146     -0.13302362
      0.42243696     -0.27247156
      0.14020303     -0.14912305
p              4   1.000000
      0.64737396      0.05713170
      0.16785440      0.28574555
      0.05917387      0.55178731
      0.02355814      0.26323150
 
          57   0
s              4   1.000000
      8.30971953      0.05675242
      1.52057630      0.26014135
      0.42243274      0.53284611
      0.14020163      0.29162544
s              7   1.000000
      0.92936822     -0.06732743
      0.05643440      0.66944552
      0.02166600      0.51460704
      8.30971953     -0.02902065
      1.52057630     -0.13302464
      0.42243274     -0.27247364
      0.14020163     -0.14912419
p              4   1.000000
      0.64737396      0.05713170
      0.16785440      0.28574555
      0.05917387      0.55178731
      0.02355814      0.26323150
 
          58   0
s              4   1.000000
      8.30875485      0.05675242
      1.52039977      0.26014135
      0.42238370      0.53284611
      0.14018536      0.29162544
s              7   1.000000
      0.92936822     -0.06732867
      0.05643440      0.66945785
      0.02166600      0.51461653
      8.30875485     -0.02902323
      1.52039977     -0.13303647
      0.42238370     -0.27249787
      0.14018536     -0.14913745
p              4   1.000000
      0.64737396      0.05713170
      0.16785440      0.28574555
      0.05917387      0.55178731
      0.02355814      0.26323150
 
          59   0
s              4   1.000000
      8.30882010      0.05675242
      1.52041171      0.26014135
      0.42238702      0.53284611
      0.14018645      0.29162544
s              7   1.000000
      0.92936822     -0.06732859
      0.05643440      0.66945702
      0.02166600      0.51461589
      8.30882010     -0.02902305
      1.52041171     -0.13303567
      0.42238702     -0.27249623
      0.14018645     -0.14913655
p              4   1.000000
      0.64737396      0.05713170
      0.16785440      0.28574555
      0.05917387      0.55178731
      0.02355814      0.26323150
 
          60   0
s              4   1.000000
      8.30955046      0.05675242
      1.52054536      0.26014135
      0.42242415      0.53284611
      0.14019878      0.29162544
s              7   1.000000
      0.92936822     -0.06732765
      0.05643440      0.66944768
      0.02166600      0.51460871
      8.30955046     -0.02902110
      1.52054536     -0.13302671
      0.42242415     -0.27247789
      0.14019878     -0.14912651
p              4   1.000000
      0.64737396      0.05713170
      0.16785440      0.28574555
      0.05917387      0.55178731
      0.02355814      0.26323150
 
          61   0
s              4   1.000000
      8.30972609      0.05675242
      1.52057749      0.26014135
      0.42243308      0.53284611
      0.14020174      0.29162544
s              7   1.000000
      0.92936822     -0.06732742
      0.05643440      0.66944543
      0.02166600      0.51460699
      8.30972609     -0.02902063
      1.52057749     -0.13302456
      0.42243308     -0.27247348
      0.14020174     -0.14912410
p              4   1.000000
      0.64737396      0.05713170
      0.16785440      0.28574555
      0.05917387      0.55178731
      0.02355814      0.26323150
 
          62   0
s              4   1.000000
      8.30875132      0.05675242
      1.52039912      0.26014135
      0.42238352      0.53284611
      0.14018529      0.29162543
s              7   1.000000
      0.92936822     -0.06732868
      0.05643440      0.66945790
      0.02166600      0.51461656
      8.30875132     -0.02902324
      1.52039912     -0.13303651
      0.42238352     -0.27249796
      0.14018529     -0.14913750
p              4   1.000000
      0.64737396      0.05713170
      0.16785440      0.28574555
      0.05917387      0.55178731
      0.02355814      0.26323150
 
          63   0
s              4   1.000000
      8.30881937      0.05675242
      1.52041158      0.26014135
      0.42238698      0.53284611
      0.14018644      0.29162544
s              7   1.000000
      0.92936822     -0.06732859
      0.05643440      0.66945703
      0.02166600      0.51461589
      8.30881937     -0.02902305
      1.52041158     -0.13303568
      0.42238698     -0.27249625
      0.14018644     -0.14913656
p              4   1.000000
      0.64737396      0.05713170
      0.16785440      0.28574555
      0.05917387      0.55178731
      0.02355814      0.26323150
 
          64   0
s              4   1.000000
      8.30957820      0.05675242
      1.52055043      0.26014135
      0.42242556      0.53284611
      0.14019925      0.29162544
s              7   1.000000
      0.92936822     -0.06732761
      0.05643440      0.66944732
      0.02166600      0.51460843
      8.30957820     -0.02902102
      1.52055043     -0.13302637
      0.42242556     -0.27247719
      0.14019925     -0.14912613
p              4   1.000000
      0.64737396      0.05713170
      0.16785440      0.28574555
      0.05917387      0.55178731
      0.02355814      0.26323150
 
          65   0
s              4   1.000000
      8.30975046      0.05675242
      1.52058195      0.26014135
      0.42243432      0.53284611
      0.14020215      0.29162544
s              7   1.000000
      0.92936822     -0.06732739
      0.05643440      0.66944512
      0.02166600      0.51460674
      8.30975046     -0.02902056
      1.52058195     -0.13302426
      0.42243432     -0.27247286
      0.14020215     -0.14912377
p              4   1.000000
      0.64737396      0.05713170
      0.16785440      0.28574555
      0.05917387      0.55178731
      0.02355814      0.26323150
 
          66   0
s              4   1.000000
      8.30950710      0.05675242
      1.52053742      0.26014135
      0.42242195      0.53284611
      0.14019805      0.29162544
s              7   1.000000
      0.92936822     -0.06732770
      0.05643440      0.66944823
      0.02166600      0.51460913
      8.30950710     -0.02902121
      1.52053742     -0.13302724
      0.42242195     -0.27247898
      0.14019805     -0.14912711
p              4   1.000000
      0.64737396      0.05713170
      0.16785440      0.28574555
      0.05917387      0.55178731
      0.02355814      0.26323150
 
          67   0
s              4   1.000000
      8.31082792      0.05675242
      1.52077912      0.26014135
      0.42248909      0.53284611
      0.14022033      0.29162544
s              7   1.000000
      0.92936822     -0.06732601
      0.05643440      0.66943134
      0.02166600      0.51459616
      8.31082792     -0.02901768
      1.52077912     -0.13301105
      0.42248909     -0.27244581
      0.14022033     -0.14910896
p              4   1.000000
      0.64737396      0.05713170
      0.16785440      0.28574555
      0.05917387      0.55178731
      0.02355814      0.26323150
 
          68   0
s              4   1.000000
      8.30898650      0.05675242
      1.52044216      0.26014135
      0.42239548      0.53284611
      0.14018926      0.29162544
s              7   1.000000
      0.92936822     -0.06732837
      0.05643440      0.66945490
      0.02166600      0.51461425
      8.30898650     -0.02902261
      1.52044216     -0.13303363
      0.42239548     -0.27249205
      0.14018926     -0.14913426
p              4   1.000000
      0.64737396      0.05713170
      0.16785440      0.28574555
      0.05917387      0.55178731
      0.02355814      0.26323150
 
          69   0
s              4   1.000000
      8.30885449      0.05675242
      1.52041800      0.26014135
      0.42238877      0.53284611
      0.14018704      0.29162544
s              7   1.000000
      0.92936822     -0.06732855
      0.05643440      0.66945658
      0.02166600      0.51461556
      8.30885449     -0.02902296
      1.52041800     -0.13303525
      0.42238877     -0.27249537
      0.14018704     -0.14913608
p              4   1.000000
      0.64737396      0.05713170
      0.16785440      0.28574555
      0.05917387      0.55178731
      0.02355814      0.26323150
 
          70   0
s              4   1.000000
      8.30993739      0.05675242
      1.52061616      0.26014135
      0.42244382      0.53284611
      0.14020531      0.29162544
s              7   1.000000
      0.92936822     -0.06732715
      0.05643440      0.66944273
      0.02166600      0.51460491
      8.30993739     -0.02902006
      1.52061616     -0.13302197
      0.42244382     -0.27246817
      0.14020531     -0.14912120
p              4   1.000000
      0.64737396      0.05713170
      0.16785440      0.28574555
      0.05917387      0.55178731
      0.02355814      0.26323150
 
 [MO]
 Sym= Hole
 Ene= -0.8449687    
 Spin= Alpha
 Occup= 0
           1 -5.1019903E-02
           2 -6.4951293E-02
           3  1.4498207E-02
           4 -8.3305873E-02
           5  2.7844967E-02
           6  7.4100671E-03
           7 -2.0327175E-03
           8  9.5836613E-03
           9  8.0145233E-05
          10 -6.2373606E-04
          11 -1.1753298E-02
          12  5.3746313E-02
          13 -2.5093317E-05
          14  1.5173841E-05
          15  1.3657457E-03
          16 -2.3529765E-03
          17  5.0930742E-02
          18  6.7505702E-02
          19  1.7544046E-02
          20 -8.0309004E-02
          21 -2.7859962E-02
          22 -7.7882218E-03
          23 -1.3197971E-03
          24  9.4805704E-03
          25 -4.3883445E-03
          26 -8.9056301E-04
          27  5.7529069E-02
          28 -0.2938980    
          29  1.9269962E-03
          30 -6.8099966E-04
          31 -4.3002274E-03
          32  2.5269048E-02
          33  1.1851803E-03
          34  9.0243988E-04
          35 -4.4268025E-03
          36  3.1250183E-02
          37 -7.2317763E-04
          38 -5.7985517E-04
          39  4.0089083E-04
          40 -4.2425431E-03
          41 -6.8993722E-05
          42  4.9527655E-03
          43 -6.5897755E-02
          44  0.3086936    
          45 -1.7239312E-04
          46 -7.1122835E-04
          47  3.4007474E-03
          48 -1.7712023E-02
          49 -1.8933734E-04
          50  3.1188696E-03
          51 -1.4866394E-02
          52  6.7777745E-02
          53 -1.1747335E-04
          54 -7.4322708E-04
          55  1.6091920E-03
          56 -9.8475972E-03
          57 -9.5390098E-04
          58 -1.4441522E-02
          59  6.6039905E-02
          60 -0.2798980    
          61  8.7584509E-04
          62  9.9410571E-04
          63 -4.7569009E-03
          64  1.4536622E-02
          65 -5.3777744E-06
          66  9.9446485E-04
          67  3.6259845E-02
          68 -0.1527654    
          69  3.2194619E-04
          70 -5.4903259E-04
          71 -4.7342572E-03
          72  2.4842622E-02
          73  1.1826939E-04
          74 -1.0030638E-02
          75 -0.1190385    
          76  0.5440087    
          77 -7.9762845E-05
          78  1.0416420E-03
          79  1.5773643E-02
          80 -5.6518409E-02
          81  2.8971257E-05
          82  6.7287363E-04
          83  1.3153665E-02
          84 -3.1922922E-02
          85 -4.0184314E-05
          86 -4.0623633E-04
          87 -6.0492894E-03
          88  2.4057930E-02
          89  4.8783530E-02
          90 -4.8976436E-02
          91 -0.1063918    
          92  7.1570738E-03
          93 -2.8388819E-02
          94  2.0671675E-02
          95  1.4238140E-02
          96 -2.8147141E-03
          97 -1.4060625E-02
          98  2.1866592E-02
          99 -4.1962364E-03
         100 -5.5042021E-03
         101  4.9090288E-03
         102 -3.9925347E-03
         103 -3.0578065E-03
         104  1.2848695E-03
         105  3.1450769E-04
         106 -1.1398416E-03
         107  6.2109053E-02
         108  5.5657413E-02
         109 -3.4058270E-05
         110 -4.5261080E-05
         111 -6.9710682E-03
         112 -8.2033556E-03
         113 -1.5009864E-04
         114  2.1927124E-04
         115 -6.7916309E-04
         116  1.9849135E-02
         117 -6.6741399E-05
         118 -1.2617903E-04
         119  2.3573048E-03
         120 -3.5509182E-04
         121 -5.4716333E-03
         122  5.4559461E-03
         123  4.3839868E-03
         124 -2.3089074E-02
         125  5.0518322E-03
         126 -2.2540090E-03
         127 -1.6221057E-03
         128  4.1665700E-03
         129  8.2913379E-04
         130  3.4236698E-04
         131 -9.7235746E-04
         132 -4.4747177E-03
         133  1.5953061E-03
         134 -8.2524662E-04
         135 -9.1098755E-04
         136  1.5475969E-03
         137 -5.9303356E-04
         138  2.9492780E-04
         139  1.8194879E-03
         140  1.2628260E-02
         141 -9.5179821E-05
         142  1.6095927E-03
         143  4.6365752E-04
         144  3.3849938E-04
         145  1.7610871E-03
         146 -2.8777635E-03
         147 -1.8238069E-03
         148 -5.5365288E-03
         149 -5.2783440E-04
         150  1.1723221E-03
         151 -2.2545304E-04
         152  2.9781178E-04
         153 -1.1632622E-03
         154  1.1929410E-03
         155  2.5416936E-03
         156 -1.7531990E-04
         157  6.7354605E-04
         158  1.3331471E-04
         159 -3.7849371E-04
         160  3.4900495E-05
         161  1.5037642E-04
         162  2.3610152E-03
         163 -1.5581459E-03
         164  6.2832580E-04
         165  5.5926503E-05
         166  1.7860379E-04
         167  7.6775199E-05
         168 -4.5419610E-04
         169 -5.0196954E-04
         170  2.1459919E-04
         171 -4.3905427E-04
         172 -4.5582280E-04
         173  2.0105913E-04
         174 -1.2568884E-04
         175 -7.1444374E-05
         176  1.1321085E-04
         177 -1.7833067E-04
         178 -1.8138592E-03
         179  7.6662353E-04
         180 -2.4353641E-03
         181 -3.7629391E-06
         182  9.3943934E-05
         183  2.8577406E-04
         184  2.9623462E-04
         185 -7.0367992E-04
         186 -7.4079703E-04
         187  5.7128089E-04
         188 -5.5178371E-04
         189  1.2721360E-04
         190  2.3079921E-04
         191 -1.6268693E-04
         192 -1.4102663E-04
         193 -1.3855038E-05
         194  9.7234978E-04
         195 -4.5748460E-04
         196  1.6456353E-03
         197  1.8844979E-04
         198 -6.0380093E-04
         199  1.8630968E-04
         200  4.6968104E-05
         201 -1.7209174E-04
         202  7.1025419E-04
         203  3.4944513E-03
         204  2.0085055E-02
         205  2.1307525E-04
         206 -2.3491622E-05
         207 -1.3682003E-04
         208 -3.0578228E-03
         209 -1.7927324E-03
         210  2.3099142E-03
         211 -1.8192289E-03
         212 -5.9469445E-03
         213  7.5689802E-04
         214 -6.1471108E-04
         215 -1.1107811E-04
         216  4.2032619E-04
         217  1.1568872E-03
         218 -1.3178635E-03
         219  2.3276468E-03
         220  4.4187703E-04
         221 -5.4995331E-04
         222 -1.1319391E-04
         223  4.2954792E-04
         224 -2.4858932E-04
         225  5.4136297E-04
         226  6.5139157E-04
         227  6.9282373E-04
         228  1.7774698E-03
         229 -5.8617548E-04
         230  2.6404407E-04
         231 -1.6571442E-04
         232 -6.1083928E-04
         233  1.8289599E-04
         234 -6.4414053E-04
         235 -3.8929828E-04
         236  1.0129286E-03
         237 -1.9700431E-04
         238 -1.3592027E-04
         239  3.6087006E-04
         240 -1.4488329E-05
         241  2.8845895E-04
         242  3.5409720E-04
         243 -4.8695083E-04
         244 -1.4532872E-03
         245 -4.1827414E-04
         246  1.4457313E-04
         247  1.5200846E-04
         248  9.5667099E-05
         249  1.1712445E-05
         250  1.0101084E-04
         251  1.5064973E-05
         252  7.4025348E-04
         253 -9.7222037E-05
         254 -8.7578526E-05
         255 -2.8701223E-04
         256  2.5608029E-05
         257  3.0996819E-06
         258  2.3273437E-03
         259  1.9457443E-03
         260  2.2250527E-04
         261  5.7388501E-05
         262 -7.1934622E-04
         263 -1.1174609E-04
         264  6.0364295E-04
         265  5.1107807E-03
         266 -4.6492172E-03
         267  5.1741838E-03
         268 -2.3384459E-02
         269 -4.7651450E-03
         270  2.1325503E-03
         271 -1.9827569E-03
         272  4.1863630E-03
         273 -4.8606895E-04
         274 -3.2866967E-04
         275  1.2158395E-04
         276 -4.8423219E-03
         277 -1.7863074E-03
         278  4.8995327E-04
         279 -1.1040965E-03
         280  1.5271950E-03
         281  6.9098221E-04
         282 -2.3778707E-03
         283  1.0095234E-03
         284  1.2575221E-02
         285  9.4375602E-05
         286 -1.0680918E-03
         287  6.4229919E-04
         288  4.2974349E-04
         289  1.3875864E-02
         290 -2.1236237E-02
         291 -4.7385427E-03
         292 -6.8037366E-03
         293 -4.8117726E-03
         294  4.3008626E-03
         295 -2.9047478E-03
         296  1.2545229E-03
         297 -4.8594605E-02
         298  4.8977729E-02
         299 -0.1066769    
         300  9.0332124E-03
         301  2.8354008E-02
         302 -2.0828689E-02
         303  1.3765102E-02
         304 -3.5371284E-03
         305 -2.2931759E-04
         306  3.9429753E-03
         307  3.3254169E-02
         308 -0.1393663    
         309 -2.1289389E-04
         310 -3.0384239E-04
         311 -4.8146183E-03
         312  2.5080591E-02
         313  1.0815253E-03
         314  2.1045184E-02
         315  6.0263176E-02
         316 -0.2565383    
         317 -9.0612442E-04
         318 -1.4970083E-03
         319 -4.8690052E-03
         320  1.5384451E-02
         321  2.1935745E-04
         322 -5.8852183E-03
         323 -1.7083043E-02
         324  7.7426836E-02
         325  9.0301459E-05
         326  9.6914195E-04
         327  1.6097381E-03
         328 -9.5359199E-03
         329  1.4119889E-04
         330 -1.4098780E-02
         331 -6.2743969E-02
         332  0.2932226    
         333  1.5124322E-04
         334  1.4044055E-03
         335  3.5679536E-03
         336 -1.8141886E-02
         337 -1.0764034E-03
         338 -8.5387815E-04
         339  1.1028901E-03
         340  4.1267648E-03
         341  6.7961978E-04
         342  7.0010306E-04
         343  5.9178181E-04
         344 -4.9320632E-03
         345  4.0423181E-03
         346  1.0048914E-02
         347  6.0048476E-02
         348 -0.3066772    
         349 -1.7541921E-03
         350 -1.5310918E-04
         351 -4.2893467E-03
         352  2.5023699E-02
         353  2.6005084E-02
         354  1.5542181E-03
         355 -4.9543427E-03
         356 -8.6710611E-03
         357 -4.3611689E-03
         358  1.4691996E-02
         359  5.6427778E-03
         360  1.2932443E-02
         361  2.2914936E-03
         362 -1.0531809E-02
         363  2.5317876E-02
         364  1.6815283E-03
         365 -5.0850403E-03
         366  9.6365334E-03
         367 -1.1845052E-03
         368 -2.7053395E-02
         369 -1.6095008E-03
         370  4.6063610E-03
         371  9.6457461E-03
         372 -8.0611050E-04
         373 -2.4026409E-02
         374 -1.6689090E-03
         375  5.6028366E-03
         376 -8.5466653E-03
         377 -4.3755532E-03
         378 -1.4807262E-02
         379 -5.6685125E-03
         380 -1.2577610E-02
         381  2.2701928E-03
         382 -1.0967773E-02
         383  9.9133502E-04
         384 -7.9437095E-04
         385 -3.5151120E-04
         386 -5.4201880E-04
         387  1.4017292E-03
         388  5.9725886E-04
         389 -1.4000805E-04
         390  4.4219595E-04
         391 -4.2121885E-03
         392  2.0974541E-02
         393  2.8560082E-03
         394 -8.6048123E-04
         395  5.1247334E-05
         396 -7.1882550E-04
         397  2.9898002E-03
         398 -7.1147719E-04
         399  9.5289084E-04
         400  2.5426631E-03
         401  3.2849349E-03
         402 -1.7975070E-02
         403 -1.4960175E-02
         404 -5.8301832E-03
         405  1.9536052E-02
         406  1.9804812E-03
         407 -5.8020377E-03
         408  2.2068903E-02
         409 -2.7828070E-03
         410 -1.8842929E-03
         411 -1.2534428E-03
         412 -4.1161616E-06
         413 -8.7683729E-04
         414 -5.1873416E-04
         415 -4.0706818E-05
         416  7.9924380E-04
         417  1.3393445E-04
         418 -3.9821552E-04
         419 -4.5198112E-04
         420  3.8460617E-05
         421  1.2250585E-04
         422  1.9582150E-04
         423 -2.8418313E-04
         424 -2.1250552E-04
         425 -2.8243858E-05
         426  2.5066696E-04
         427 -1.6536201E-04
         428 -1.2104294E-04
         429 -4.2866133E-04
         430  4.8351070E-04
         431  6.2398228E-04
         432  8.4852159E-05
         433 -2.5032519E-04
         434  3.2622475E-04
         435 -1.7935822E-04
         436 -7.1354449E-04
         437 -4.1139379E-04
         438  8.9334173E-04
         439  1.4565616E-04
         440  1.6321735E-04
         441 -1.2411461E-04
         442 -7.9785568E-06
         443  6.1947689E-04
         444 -2.7146445E-05
         445 -1.6496029E-04
         446 -2.4757753E-04
         447 -2.2365573E-05
         448  1.1601908E-03
         449  2.9295817E-04
         450  6.2787288E-04
         451 -6.0276606E-04
         452  1.5203340E-04
         453 -2.2524616E-02
         454  2.9690810E-03
         455  1.9198216E-03
         456 -9.2792447E-04
         457  7.0747374E-05
         458  1.5687780E-02
         459  6.0039051E-03
         460 -1.9405061E-02
         461  1.6407003E-03
         462 -6.6950894E-03
         463  3.6846488E-04
         464 -8.8934542E-04
         465 -1.8188674E-03
         466  3.5946278E-03
         467 -1.9117460E-02
         468 -2.6324713E-03
         469  7.9251843E-04
         470 -9.2136346E-05
         471 -6.7564868E-04
         472  2.7379831E-03
         473 -7.2405121E-04
         474  1.1238589E-04
         475 -1.1578732E-03
         476 -4.3967543E-03
         477  2.1709666E-02
         478 -1.1599240E-03
         479  8.0197142E-04
         480  2.8538264E-04
         481 -6.7935284E-04
         482  2.3594277E-03
 Sym= Particle
 Ene= -0.8449687    
 Spin= Alpha
 Occup= 2
           1  5.0157264E-02
           2  6.8637386E-02
           3 -1.2898395E-02
           4  8.0644131E-02
           5 -4.1293222E-02
           6 -4.0644690E-02
           7  4.1631055E-03
           8 -2.0072989E-02
           9 -5.9601542E-04
          10 -1.6466604E-03
          11 -1.0051383E-03
          12  2.7322285E-02
          13  5.8954739E-04
          14  2.7269369E-04
          15 -9.7018406E-03
          16  3.4315716E-02
          17 -4.9890731E-02
          18 -7.1529388E-02
          19 -1.6283819E-02
          20  7.7802993E-02
          21  4.1306514E-02
          22  4.1768752E-02
          23  1.4285957E-03
          24 -1.9574538E-02
          25  6.9212070E-04
          26 -6.6062161E-03
          27 -7.5118303E-02
          28  0.3786269    
          29  4.9920817E-04
          30  3.7985551E-03
          31  2.3397075E-02
          32 -0.1172112    
          33  8.9564640E-04
          34 -2.5955238E-03
          35  7.3286235E-02
          36 -0.3493343    
          37 -6.8573869E-04
          38  1.7760050E-03
          39 -2.1262929E-02
          40  0.1051070    
          41  2.9350858E-04
          42 -2.6418692E-03
          43  2.1350139E-03
          44 -7.3049413E-03
          45 -2.9705514E-04
          46  2.7733638E-03
          47 -8.7574165E-04
          48  1.3184226E-03
          49  3.6407655E-05
          50  1.0687160E-02
          51 -7.9186901E-02
          52  0.3517315    
          53  6.4556254E-04
          54 -2.3614063E-03
          55  2.4600258E-02
          56 -0.1036597    
          57  1.2801442E-03
          58 -1.4239198E-02
          59  7.9392143E-02
          60 -0.3342612    
          61  5.3549564E-05
          62  6.9991229E-03
          63 -2.3741826E-02
          64  0.1028445    
          65  4.9938069E-04
          66  8.0790935E-04
          67  6.2938328E-03
          68 -1.9994149E-02
          69  3.1387291E-04
          70  3.0570829E-04
          71 -5.8445199E-03
          72  1.7375724E-02
          73 -4.1962798E-05
          74 -8.8947163E-05
          75  3.0422295E-03
          76 -7.1347188E-03
          77  4.5168457E-05
          78  2.7803426E-06
          79 -7.2225812E-03
          80  1.4637918E-02
          81  4.1590200E-04
          82 -8.0457487E-04
          83  7.0410697E-03
          84  8.2638711E-03
          85 -7.7992538E-04
          86  7.7060109E-04
          87 -4.1692196E-03
          88 -2.7419640E-02
          89 -6.2925774E-03
          90  6.8657184E-03
          91 -7.2056036E-03
          92  4.9370881E-03
          93  2.0232530E-02
          94 -1.6480312E-02
          95  4.2506400E-03
          96 -3.3469014E-03
          97 -1.1908463E-03
          98 -1.7886360E-03
          99 -1.0473412E-02
         100 -4.6693692E-03
         101  7.8636296E-03
         102 -5.4790085E-04
         103  2.4258469E-03
         104  3.5950157E-03
         105  1.2690351E-04
         106 -2.3425612E-04
         107  1.6497042E-02
         108  1.2021782E-02
         109 -3.3709552E-04
         110  3.4178083E-05
         111 -9.2510935E-03
         112 -2.8116764E-03
         113 -9.0695365E-05
         114  2.3158763E-04
         115  1.0972362E-03
         116 -7.3598595E-03
         117  1.5226091E-04
         118 -3.8951828E-05
         119  4.0850168E-04
         120  3.9114235E-03
         121 -1.6977043E-03
         122  6.0868793E-04
         123  1.0901506E-03
         124  2.2777192E-04
         125  2.0980700E-03
         126 -7.5016613E-04
         127 -5.7702413E-04
         128 -4.9824402E-04
         129  3.4644801E-04
         130  2.0024013E-03
         131  1.2298977E-03
         132  3.8634755E-03
         133  6.1691034E-04
         134 -8.5880276E-04
         135 -1.3996467E-03
         136 -1.7534882E-03
         137 -9.8708575E-04
         138 -1.1864045E-03
         139 -1.4796074E-03
         140 -2.5780404E-03
         141  8.0464175E-04
         142  1.6725545E-03
         143  1.8127054E-04
         144  3.3808344E-03
         145  1.5936863E-04
         146 -4.9887167E-04
         147  3.5063815E-04
         148  2.4200433E-03
         149  2.7294151E-04
         150  2.0150657E-04
         151 -7.0885733E-05
         152 -1.3731925E-03
         153 -1.8274803E-04
         154 -5.3968892E-04
         155  5.5233255E-04
         156 -8.4519532E-04
         157  2.9614154E-04
         158  1.2568080E-04
         159 -1.7245769E-04
         160  4.4493921E-04
         161 -1.9552927E-04
         162  1.0698831E-04
         163  1.5379496E-04
         164  5.7781546E-04
         165  8.2463026E-05
         166  1.1443504E-04
         167 -1.3504524E-04
         168 -3.2229870E-04
         169  2.1437244E-04
         170  3.1868264E-04
         171 -2.1077154E-04
         172  4.6458168E-04
         173 -3.1307782E-04
         174  3.1454430E-05
         175  2.9279324E-04
         176  1.9718976E-04
         177 -5.5378168E-05
         178 -5.1416270E-04
         179  5.6188111E-04
         180 -9.1442349E-04
         181  9.6414609E-05
         182  1.4426043E-04
         183 -1.4257028E-04
         184  2.7508559E-04
         185 -8.0083446E-06
         186  5.1159883E-04
         187 -1.2133918E-04
         188  5.4754224E-04
         189 -3.6004280E-05
         190 -6.9473084E-05
         191  2.8543387E-04
         192 -3.9205723E-04
         193 -7.3070664E-06
         194 -2.6939349E-04
         195  4.1463890E-04
         196  5.5648427E-04
         197  2.0633840E-04
         198  2.4722228E-04
         199 -3.6616682E-04
         200 -5.1341520E-04
         201  1.7803229E-04
         202 -4.4919044E-04
         203 -9.2810631E-05
         204 -2.0086905E-03
         205 -1.9304053E-04
         206  6.4964937E-05
         207  9.2349801E-05
         208  1.4180827E-03
         209 -3.2747144E-04
         210  1.8512072E-04
         211 -2.8437178E-05
         212  2.0937829E-03
         213  1.4703037E-04
         214 -5.9723068E-04
         215  1.3176884E-06
         216 -1.8000186E-03
         217  1.3625422E-04
         218 -2.4798231E-03
         219 -1.5821262E-03
         220 -3.4641677E-03
         221 -9.6010015E-05
         222  7.3560688E-04
         223  3.1635535E-04
         224  1.4111205E-03
         225 -9.1486800E-05
         226  7.8504719E-04
         227  7.8207545E-04
         228  1.8355290E-03
         229 -1.0205065E-04
         230 -3.7025858E-04
         231 -4.2379758E-04
         232 -5.9523329E-04
         233  2.3466934E-04
         234  1.3340743E-03
         235  8.7255338E-04
         236  1.7593545E-03
         237 -4.3905573E-04
         238 -5.3759641E-04
         239 -2.6763277E-04
         240 -2.7514534E-04
         241 -8.5553649E-05
         242 -2.2173887E-03
         243 -1.9346204E-03
         244 -3.8078751E-03
         245  4.9935450E-05
         246  4.8678275E-04
         247  5.6788989E-04
         248  1.2632167E-03
         249 -7.5195960E-05
         250  1.2522815E-03
         251  8.5723953E-04
         252  1.8739951E-03
         253  9.7424927E-05
         254 -4.1013688E-04
         255 -2.9488665E-04
         256 -6.9306238E-04
         257  4.9326150E-05
         258  7.2923640E-04
         259  3.0005758E-04
         260  1.4346441E-03
         261 -5.5768502E-05
         262  1.6472398E-04
         263 -2.2954060E-05
         264 -4.9627753E-04
         265  1.2531960E-03
         266 -1.4859929E-03
         267  1.5328793E-03
         268  1.4410603E-03
         269 -1.4353432E-03
         270  1.3826193E-03
         271 -1.2844217E-03
         272 -8.9121278E-04
         273 -2.0597044E-04
         274 -2.2212476E-03
         275  9.6924813E-04
         276  3.6894223E-03
         277 -7.3475146E-04
         278  1.3533160E-03
         279 -1.4245827E-03
         280 -1.8534812E-03
         281  9.7722397E-04
         282  1.1850987E-03
         283 -1.3947309E-03
         284 -2.7509739E-03
         285 -8.9277973E-04
         286 -1.1953061E-03
         287 -1.8450304E-06
         288  3.0122679E-03
         289  1.0392769E-03
         290  2.2605651E-03
         291 -9.2546586E-03
         292 -3.9362302E-03
         293 -8.3659040E-03
         294  4.7139823E-04
         295  2.0158568E-03
         296  3.2695688E-03
         297  6.7885844E-03
         298 -7.2111278E-03
         299 -9.1690980E-03
         300  4.2177103E-03
         301 -2.1472747E-02
         302  1.7383756E-02
         303  6.8358178E-03
         304 -2.9150154E-03
         305 -1.8469426E-03
         306 -3.3231529E-03
         307 -1.1994668E-02
         308  5.7873588E-02
         309  6.3949515E-04
         310  6.2520191E-04
         311  1.2348877E-03
         312 -1.2710944E-02
         313 -2.5748939E-04
         314  2.4332767E-02
         315  7.8334555E-02
         316 -0.3343551    
         317 -1.1057633E-03
         318 -9.5395753E-03
         319 -2.3512831E-02
         320  0.1031701    
         321  3.2446417E-04
         322 -1.7777540E-02
         323 -6.3803159E-02
         324  0.2836593    
         325 -1.1677444E-03
         326  4.8487741E-03
         327  2.0192718E-02
         328 -8.4653445E-02
         329 -4.1333213E-04
         330 -1.0017355E-03
         331 -1.1045705E-02
         332  5.4979414E-02
         333  1.8804707E-04
         334 -1.3400716E-03
         335  2.3761962E-03
         336 -1.4435012E-02
         337 -7.0592458E-04
         338  1.3197984E-02
         339  7.0836827E-02
         340 -0.3356438    
         341  4.4402937E-04
         342 -4.9535488E-03
         343 -2.0597568E-02
         344  0.1000406    
         345  5.2996381E-04
         346 -3.8731557E-03
         347 -5.7925828E-02
         348  0.2911381    
         349 -1.2337734E-03
         350 -5.3022098E-04
         351  1.7096957E-02
         352 -8.6008571E-02
         353 -1.9017678E-02
         354  8.4386213E-04
         355  1.7966583E-02
         356 -1.2629235E-02
         357  1.3791486E-02
         358 -6.9536022E-03
         359 -1.5666738E-02
         360 -2.6576206E-02
         361  6.6409638E-04
         362  4.8392769E-03
         363 -2.5017897E-02
         364  3.1195353E-03
         365  2.0475557E-02
         366  5.0370372E-03
         367  1.8960025E-02
         368  1.9188158E-02
         369 -2.0545260E-04
         370 -1.7348161E-02
         371  6.1715581E-03
         372  1.7677782E-02
         373  2.4031296E-02
         374 -3.0297998E-03
         375 -2.1792375E-02
         376 -1.1937570E-02
         377  1.4082900E-02
         378  7.0477114E-03
         379  1.6156815E-02
         380  2.6789257E-02
         381 -5.2018957E-03
         382  4.8245178E-03
         383 -3.7023202E-03
         384  1.4442439E-03
         385  1.3401060E-03
         386  1.8528635E-02
         387 -8.4048323E-02
         388 -7.0517370E-04
         389  2.4058198E-04
         390  1.4079050E-03
         391 -1.6089185E-04
         392  8.2337639E-05
         393  1.1962168E-03
         394  2.8492138E-04
         395  2.2616566E-03
         396 -1.8414512E-02
         397  8.5920006E-02
         398  6.8926893E-04
         399  2.0777406E-03
         400 -2.2942438E-03
         401  2.0140409E-02
         402 -7.5179458E-02
         403 -1.3401809E-03
         404  1.7306600E-02
         405 -1.5817992E-02
         406  7.4441000E-03
         407  2.8063429E-03
         408  2.0372111E-03
         409  1.1561639E-03
         410  1.5899165E-03
         411 -1.2724847E-03
         412 -4.8373491E-03
         413 -3.3360586E-04
         414  8.2439270E-05
         415  3.5886644E-04
         416 -4.4997697E-04
         417 -2.6412003E-04
         418 -1.6049395E-04
         419  9.8960089E-05
         420  4.3997957E-04
         421 -7.8678473E-05
         422  5.4603920E-04
         423 -1.4149176E-04
         424  2.8155232E-04
         425 -2.9235571E-05
         426  4.1867952E-05
         427 -4.9735629E-04
         428  2.2524368E-04
         429 -2.6831828E-04
         430  9.4769603E-05
         431 -3.5341945E-04
         432 -7.8694160E-05
         433 -1.7059622E-04
         434 -1.6211020E-04
         435  4.3188501E-04
         436  1.4215072E-04
         437 -2.3875693E-04
         438 -2.5450360E-04
         439 -7.4600393E-06
         440  7.1843201E-04
         441  6.7088881E-04
         442  7.0557307E-04
         443  1.9290435E-06
         444 -3.7870126E-05
         445 -5.0672487E-04
         446 -5.2353129E-04
         447 -1.1789312E-03
         448  6.6590626E-05
         449 -1.4844773E-04
         450  7.1961660E-04
         451  2.8788115E-04
         452  4.6777769E-04
         453 -2.0578592E-03
         454 -1.6691383E-03
         455 -7.0998521E-04
         456 -1.2464317E-03
         457 -4.6708942E-03
         458  7.6603499E-04
         459 -1.7471036E-02
         460  1.7596092E-02
         461  8.3766207E-03
         462  4.1630957E-03
         463 -1.4122417E-03
         464 -1.9514428E-03
         465  3.7949537E-03
         466  1.9711472E-02
         467 -7.7170849E-02
         468 -1.4648618E-03
         469 -4.0203962E-04
         470 -4.4716266E-03
         471 -1.5338028E-02
         472  7.0123285E-02
         473  4.7351728E-04
         474 -2.5300350E-04
         475 -2.0569561E-03
         476 -3.7122604E-03
         477  1.5704961E-02
         478  2.5948549E-03
         479 -8.6083281E-04
         480  1.6305799E-03
         481  1.6860791E-02
         482 -7.7515982E-02
 Sym= Hole
 Ene= -9.5710285E-02
 Spin= Alpha
 Occup= 0
           1  4.9160137E-03
           2  4.3321052E-03
           3 -2.9625911E-02
           4 -4.7876898E-04
           5 -1.9853918E-03
           6  3.6835321E-04
           7 -1.3745374E-02
           8 -3.9075599E-03
           9  2.5763181E-03
          10  2.3816188E-03
          11  3.2628150E-04
          12 -3.1600785E-03
          13 -1.0250490E-03
          14 -8.0832996E-04
          15  1.7052802E-04
          16 -4.7279272E-04
          17 -4.9510500E-03
          18 -5.5674673E-03
          19  2.7327638E-02
          20  1.1167150E-02
          21  2.3921197E-03
          22  1.8515732E-04
          23  1.4349577E-02
          24  7.5207121E-04
          25  1.2517643E-05
          26 -7.7070752E-03
          27 -6.8689033E-02
          28  0.3468296    
          29  1.2810974E-04
          30 -4.9655663E-04
          31 -1.8667205E-03
          32  1.0908132E-02
          33 -8.1351213E-04
          34  1.9926180E-03
          35 -7.7750213E-02
          36  0.3657211    
          37  3.8572005E-04
          38  2.9523213E-05
          39 -2.4305764E-03
          40  1.1815460E-02
          41  4.2183022E-04
          42 -7.8635418E-04
          43 -5.0389348E-03
          44  2.7206769E-02
          45 -1.3139195E-04
          46  8.2136807E-04
          47 -8.1694039E-04
          48  1.7689950E-03
          49  5.4355798E-04
          50 -8.9960340E-03
          51  7.4622899E-02
          52 -0.3294232    
          53 -5.6629267E-04
          54 -3.7959608E-04
          55  1.7391599E-03
          56 -8.5072806E-03
          57  1.1338331E-03
          58 -1.6246421E-02
          59  8.0976762E-02
          60 -0.3399925    
          61 -3.9942923E-04
          62 -5.3709740E-04
          63  1.8605596E-03
          64 -9.9828634E-03
          65 -3.1266204E-04
          66  4.7521722E-03
          67  5.5407663E-04
          68 -8.6763864E-03
          69  3.4657895E-04
          70 -1.9236609E-04
          71 -3.7890364E-04
          72  2.8070417E-04
          73 -9.8898809E-04
          74 -1.7601841E-03
          75  1.9034226E-03
          76 -8.9535667E-03
          77  4.3784262E-04
          78  7.7157322E-04
          79 -4.6858710E-04
          80  1.7450391E-03
          81  1.0031280E-04
          82  1.8031907E-03
          83 -6.9500162E-04
          84 -9.6332328E-04
          85  4.6368947E-04
          86  5.4584211E-04
          87  4.9463968E-04
          88 -8.0246956E-04
          89  9.6165558E-04
          90 -2.9849224E-03
          91  6.2787686E-03
          92 -1.3896415E-04
          93 -1.4238748E-04
          94 -1.4087952E-03
          95  1.4306066E-03
          96 -9.0176247E-05
          97 -5.4302049E-04
          98  2.3670052E-03
          99  8.7399632E-03
         100  6.5214005E-03
         101  3.8340676E-04
         102 -2.1466544E-04
         103 -8.3680346E-04
         104 -1.0683575E-04
         105  1.0318526E-03
         106 -1.2984279E-03
         107 -6.3848676E-04
         108 -1.2566930E-03
         109 -3.4065390E-05
         110 -4.9378845E-04
         111  3.5648767E-04
         112 -1.0621812E-04
         113 -7.0617854E-04
         114  1.2600629E-03
         115 -2.4229311E-04
         116 -4.9809110E-04
         117  3.9322357E-04
         118 -2.8613844E-04
         119 -1.5575520E-04
         120  9.6637639E-05
         121  2.0956271E-04
         122 -1.2181514E-04
         123 -9.1324895E-05
         124  2.7305575E-04
         125 -4.5708148E-05
         126 -3.6881963E-06
         127  1.8901021E-04
         128 -8.5405147E-05
         129 -1.3211809E-04
         130  1.0563294E-04
         131 -3.1669665E-04
         132 -1.0889845E-04
         133  1.4378485E-05
         134  7.3990203E-05
         135 -1.5078146E-04
         136  7.8236400E-05
         137  7.5185235E-04
         138 -2.0318371E-04
         139  1.0527194E-03
         140 -3.6623416E-04
         141 -3.0135777E-04
         142  2.7240536E-04
         143 -9.0449415E-05
         144  2.3815494E-04
         145  5.8276488E-05
         146  3.3068142E-04
         147  5.2364270E-04
         148  1.4595094E-04
         149  2.3455572E-05
         150  1.0403041E-05
         151  1.0560301E-04
         152 -5.3785338E-05
         153 -1.0476594E-04
         154 -2.3679827E-06
         155 -7.6385244E-04
         156 -4.0145262E-04
         157 -1.7472221E-05
         158  4.6210149E-05
         159 -2.8400772E-04
         160 -1.5842663E-04
         161  1.5824090E-04
         162 -2.2753039E-04
         163  9.8724640E-04
         164  3.3607229E-04
         165 -9.9383242E-06
         166  5.8012622E-05
         167  2.5923605E-04
         168  4.5484543E-05
         169 -2.0294840E-04
         170 -4.2909960E-04
         171 -5.5334979E-04
         172 -7.2139621E-05
         173 -2.1612521E-05
         174 -9.4315714E-05
         175 -1.4366166E-04
         176  2.1245469E-05
         177  2.2920230E-04
         178  4.2134320E-04
         179  8.7732298E-04
         180 -7.0485905E-05
         181 -5.4491822E-05
         182  2.5437603E-05
         183  1.1367715E-04
         184 -2.3037719E-06
         185 -2.1068662E-04
         186 -5.0633209E-04
         187 -5.5217958E-04
         188 -2.1352481E-04
         189  1.5447014E-05
         190 -8.8152556E-05
         191 -2.9999230E-04
         192 -1.4354181E-05
         193  1.0206921E-04
         194 -8.0885482E-05
         195  7.6491752E-04
         196  3.1821459E-05
         197 -9.9947438E-06
         198 -3.1062438E-05
         199  1.1991201E-04
         200  7.8617195E-05
         201  2.0382011E-04
         202  6.6925940E-04
         203 -2.3669435E-04
         204 -3.5908026E-05
         205 -3.1712741E-05
         206  1.0202591E-04
         207 -1.5890450E-04
         208  1.4015809E-05
         209  6.1443519E-05
         210  3.0998650E-04
         211 -8.2452665E-05
         212  2.0859856E-04
         213 -1.2500245E-05
         214  5.1963056E-05
         215  2.0932024E-05
         216  6.0942210E-05
         217 -9.8298726E-05
         218  1.9545315E-04
         219  2.5939816E-04
         220 -2.7261395E-04
         221  4.0180505E-05
         222  5.9404796E-05
         223  1.1522204E-04
         224 -2.5828236E-05
         225  5.7351841E-05
         226  1.8456606E-04
         227 -6.9042790E-04
         228  8.4622436E-05
         229  7.4167045E-05
         230 -4.2674481E-05
         231 -2.3160713E-04
         232  1.6547472E-04
         233 -2.6787363E-04
         234 -2.2262869E-04
         235  7.6388067E-04
         236 -3.4956637E-04
         237  6.1582679E-05
         238 -1.1170156E-04
         239  9.8959761E-05
         240  4.4153243E-05
         241  1.0420075E-04
         242  1.4791764E-04
         243 -6.9351681E-04
         244  1.3839966E-04
         245  3.6686436E-06
         246 -4.0902205E-06
         247 -2.0451505E-04
         248  8.7771317E-05
         249 -2.9472032E-04
         250 -5.8205228E-04
         251  6.0338440E-04
         252 -1.8184680E-04
         253  7.4476149E-05
         254  8.7042135E-06
         255  3.0273956E-04
         256 -1.3103909E-04
         257 -9.0433452E-05
         258 -1.0111833E-04
         259 -9.6337480E-04
         260  3.4165315E-04
         261  3.0486499E-06
         262  3.4742159E-05
         263 -1.1576269E-04
         264  4.4975757E-05
         265  2.6643299E-04
         266 -1.7220517E-04
         267  1.8472053E-04
         268  3.3008642E-04
         269  1.5996466E-04
         270 -1.6411531E-04
         271 -8.5543368E-05
         272 -5.5648197E-06
         273 -1.6332896E-04
         274  2.8226752E-04
         275  2.2713331E-04
         276 -1.5901015E-04
         277  3.7804562E-05
         278  1.9235829E-04
         279  1.8914301E-04
         280 -2.8857987E-04
         281  9.0818905E-04
         282  3.4982491E-05
         283 -1.3413210E-03
         284 -7.0285541E-04
         285 -3.1061540E-04
         286  4.1190078E-04
         287  1.6999507E-04
         288 -4.3136792E-04
         289 -1.2709307E-03
         290  2.2680266E-03
         291 -8.3023738E-03
         292 -5.7994951E-03
         293  4.2087783E-04
         294 -7.9577533E-04
         295  8.4061123E-04
         296  2.0976683E-04
         297  3.1411378E-03
         298 -3.6680514E-03
         299 -3.6851724E-03
         300  8.2066428E-04
         301 -1.6037453E-03
         302 -6.0226766E-06
         303 -2.4066963E-03
         304  2.6215467E-04
         305 -1.7767446E-04
         306  3.4316648E-03
         307 -3.2055704E-03
         308  1.8090596E-02
         309  2.3878559E-04
         310 -4.1973830E-04
         311  5.0878408E-04
         312 -6.7492860E-04
         313  1.0096742E-03
         314 -2.3706265E-02
         315 -7.1592681E-02
         316  0.3007219    
         317 -3.1727497E-04
         318 -7.3714746E-04
         319 -1.3869184E-03
         320  8.4933704E-03
         321  5.3065212E-04
         322 -1.5648251E-02
         323 -6.0560964E-02
         324  0.2667179    
         325 -4.5881537E-04
         326 -5.7027058E-04
         327 -1.6251844E-03
         328  7.8206090E-03
         329  4.3923341E-04
         330  1.6826886E-03
         331  1.0652148E-02
         332 -5.4324992E-02
         333 -1.0264680E-04
         334  6.5094390E-04
         335  5.3327653E-04
         336 -7.4093917E-04
         337 -5.6601339E-04
         338  1.2574446E-02
         339  7.0024431E-02
         340 -0.3291106    
         341  2.6622714E-04
         342  3.0475867E-04
         343  2.2609578E-03
         344 -1.0450562E-02
         345 -2.6951294E-04
         346  3.1948544E-03
         347  5.7574254E-02
         348 -0.2919942    
         349  2.1094554E-04
         350 -4.4898614E-05
         351  1.8711383E-03
         352 -1.1599305E-02
         353  3.1980384E-02
         354 -2.0013687E-03
         355  6.6592204E-03
         356 -5.0560902E-05
         357  2.5964195E-03
         358 -5.2690739E-04
         359  4.0219311E-04
         360 -1.5044560E-04
         361 -6.9929124E-03
         362  7.3516957E-04
         363 -3.5223275E-02
         364  2.8344009E-03
         365 -4.4781445E-03
         366 -1.0551936E-03
         367 -3.0260410E-03
         368 -3.1986725E-02
         369  1.9918240E-03
         370 -6.4622769E-03
         371 -6.4114912E-04
         372  2.7604799E-03
         373  3.4988537E-02
         374 -2.8949771E-03
         375  4.8567229E-03
         376  1.7052001E-03
         377 -1.9168758E-03
         378  1.6880513E-05
         379 -4.5925958E-04
         380 -3.3663495E-05
         381  6.3134576E-03
         382  2.7093561E-03
         383 -2.3700448E-03
         384  1.0126136E-04
         385 -3.2061597E-04
         386  2.4719015E-03
         387 -1.2274362E-02
         388  1.2973060E-04
         389 -1.0469416E-04
         390  3.8419515E-05
         391  3.5685385E-04
         392 -2.1009389E-03
         393  1.5070562E-03
         394 -3.3407300E-04
         395  2.9025835E-04
         396 -2.3412569E-03
         397  1.1142555E-02
         398 -3.3455023E-03
         399  8.7576843E-04
         400  4.2456566E-04
         401 -3.1251768E-03
         402  1.3992230E-02
         403  3.6523363E-03
         404  4.3805852E-04
         405 -1.0077793E-03
         406 -7.1165334E-05
         407  7.1495370E-04
         408 -3.8089594E-04
         409  4.0802607E-04
         410 -1.7261486E-04
         411 -8.3257043E-04
         412 -1.1525521E-04
         413  4.8211316E-04
         414  2.5289593E-04
         415 -1.2563038E-04
         416 -1.3962295E-04
         417 -6.2427367E-05
         418 -7.0492900E-04
         419 -1.5204820E-04
         420  7.6522345E-05
         421  9.6437543E-05
         422  2.9595532E-05
         423  1.1559224E-03
         424  2.2576663E-04
         425 -3.5380574E-05
         426 -8.8333698E-05
         427  2.3247630E-05
         428 -7.3901471E-04
         429 -1.0045271E-04
         430 -2.8473669E-06
         431 -1.3379029E-04
         432 -1.5613043E-05
         433 -1.5263102E-05
         434 -3.0603775E-07
         435 -1.0129422E-04
         436  9.6048534E-05
         437 -6.1947510E-05
         438 -9.1554580E-04
         439 -2.2051393E-04
         440  2.8590332E-05
         441 -4.5515582E-05
         442  3.9145594E-05
         443  8.8308495E-04
         444  1.5560853E-04
         445 -3.1727952E-05
         446  7.1055860E-05
         447  1.5967705E-06
         448 -9.7240630E-04
         449 -2.5544880E-04
         450 -2.9599743E-05
         451  6.9269096E-05
         452 -6.0331076E-05
         453 -1.9823917E-04
         454  5.9615463E-06
         455  5.3441490E-04
         456  1.0429168E-03
         457  1.0698743E-04
         458  3.8924019E-03
         459  8.0989703E-06
         460 -5.1894755E-04
         461  7.4426280E-05
         462 -9.6999522E-04
         463 -2.9968522E-03
         464  6.9755985E-04
         465  7.1932795E-04
         466  2.3911879E-03
         467 -1.0651738E-02
         468  1.2614550E-03
         469 -3.9512405E-04
         470  4.4938977E-04
         471  1.8948056E-03
         472 -8.9117307E-03
         473 -1.3371147E-04
         474 -1.4362937E-04
         475 -9.0467074E-06
         476 -3.2123909E-04
         477  2.0783180E-03
         478 -1.9649686E-03
         479  5.8706562E-05
         480 -6.4833718E-04
         481 -2.3963540E-03
         482  1.1580515E-02
 Sym= Particle
 Ene= -9.5710285E-02
 Spin= Alpha
 Occup= 2
           1 -1.7808181E-03
           2 -5.0787763E-03
           3 -3.0145478E-03
           4 -4.8686261E-03
           5  2.3000152E-03
           6  4.1951793E-03
           7  2.3257269E-02
           8  5.1461416E-03
           9 -4.9670781E-03
          10 -5.5387095E-03
          11  4.5610403E-04
          12 -2.2516462E-03
          13  4.3700840E-03
          14  4.7777048E-03
          15  3.8359722E-04
          16 -1.9839832E-03
          17  4.8853578E-03
          18  6.3947216E-03
          19  3.9854217E-03
          20 -5.9727109E-03
          21 -3.1632129E-03
          22 -2.3054727E-03
          23 -2.2673819E-02
          24 -3.3704678E-03
          25  4.5033391E-03
          26  2.5635629E-04
          27 -5.2305233E-02
          28  0.2666076    
          29 -3.7275611E-03
          30 -1.0147602E-03
          31  2.1144053E-02
          32 -9.9819869E-02
          33  2.2108294E-03
          34  9.9070417E-04
          35 -3.2703690E-02
          36  0.1523539    
          37 -2.4458135E-03
          38 -1.3219927E-03
          39  1.0724561E-02
          40 -5.0426442E-02
          41 -1.5334726E-03
          42 -7.8541413E-03
          43  7.9880178E-02
          44 -0.3768739    
          45  1.1872730E-04
          46  1.8031098E-03
          47 -2.0366043E-02
          48  9.6970603E-02
          49  2.0952923E-03
          50  4.4329781E-03
          51 -4.3082546E-02
          52  0.1949474    
          53 -3.0065472E-03
          54  9.1070501E-04
          55  1.1884773E-02
          56 -5.6752529E-02
          57  4.7518727E-03
          58  6.2558656E-03
          59 -4.2499032E-02
          60  0.2062195    
          61 -5.0392519E-03
          62  7.8324520E-04
          63  1.3508725E-02
          64 -7.2011806E-02
          65 -5.8672759E-03
          66 -2.5447735E-03
          67  0.1052968    
          68 -0.4434511    
          69  2.0388754E-03
          70  4.9183203E-04
          71 -3.9814390E-02
          72  0.1676427    
          73 -1.7352857E-03
          74 -3.6358412E-03
          75 -5.5515221E-03
          76  2.2841748E-02
          77  1.4047921E-03
          78  1.4373349E-03
          79  3.9797421E-03
          80 -1.3818732E-02
          81  4.2144400E-03
          82 -7.3521072E-03
          83  5.5875010E-03
          84  4.4523603E-03
          85 -6.2985211E-03
          86  2.1166459E-03
          87 -1.4017153E-03
          88  2.1733346E-03
          89  3.7278614E-03
          90 -3.5017384E-03
          91 -7.2574900E-03
          92 -7.5024096E-03
          93 -6.0873930E-03
          94  5.2102627E-03
          95 -3.3056219E-03
          96  4.5335814E-03
          97  7.8821213E-05
          98  3.5412253E-03
          99  1.2446495E-03
         100 -7.0155691E-04
         101 -2.4217677E-03
         102 -1.8165548E-03
         103 -3.6343995E-03
         104  1.1487041E-04
         105  9.1350410E-04
         106  6.9240306E-04
         107  3.6092887E-03
         108  2.9770606E-03
         109 -2.7243679E-03
         110  1.5262923E-03
         111 -3.0159278E-04
         112 -7.6834246E-04
         113 -7.1060361E-04
         114  1.0786959E-03
         115 -1.9949338E-04
         116  4.0727863E-03
         117 -1.4532845E-03
         118  1.5226677E-03
         119  7.4449163E-05
         120 -1.3520001E-03
         121  2.6724345E-04
         122 -2.2812266E-04
         123 -2.9552265E-04
         124 -2.6467934E-03
         125 -1.1569128E-03
         126  1.1534569E-03
         127  9.0049347E-04
         128  5.9544243E-04
         129  2.7795628E-04
         130 -8.0577587E-04
         131 -6.9100183E-04
         132 -1.4073744E-04
         133 -1.6875167E-03
         134  2.1454089E-03
         135  1.2767580E-03
         136  5.6462122E-05
         137  8.2389201E-04
         138 -1.8515025E-04
         139  5.4492668E-04
         140  7.4123184E-04
         141 -1.1519500E-03
         142  8.8159001E-04
         143 -2.6787413E-04
         144  4.3594479E-04
         145 -2.0360902E-04
         146 -6.2220113E-04
         147 -8.0553233E-04
         148 -9.3748298E-04
         149  5.4482072E-05
         150  1.8920765E-04
         151  8.8132365E-04
         152 -6.9061056E-04
         153 -9.4925628E-05
         154 -5.5302662E-04
         155 -1.7361584E-04
         156 -3.3355629E-04
         157  5.8249728E-04
         158  4.0647392E-05
         159  7.6102770E-05
         160  1.7889465E-04
         161  4.2437528E-05
         162  5.5106170E-04
         163  5.3265427E-05
         164  5.2518194E-04
         165  2.3912248E-04
         166 -5.2488124E-04
         167 -9.8180189E-04
         168 -2.1276213E-04
         169 -5.7115423E-04
         170  9.2059840E-05
         171 -4.6491358E-04
         172 -5.9695867E-05
         173  3.3700754E-04
         174  1.0556771E-05
         175  6.3397066E-04
         176 -8.5856038E-05
         177  2.9375145E-04
         178 -4.0096274E-04
         179  3.9983723E-05
         180 -4.6506771E-04
         181 -4.1392577E-04
         182 -4.6510871E-05
         183 -1.0302689E-04
         184  2.5319681E-05
         185 -5.0360861E-04
         186 -6.9360118E-05
         187  4.1676631E-05
         188 -1.0497500E-04
         189  4.6075101E-04
         190  4.1894001E-04
         191 -2.7243420E-04
         192  3.6245654E-04
         193  3.4184541E-04
         194  7.0100912E-04
         195 -9.3667989E-04
         196 -3.5118198E-04
         197  7.7403001E-06
         198 -4.4441273E-05
         199  4.4852018E-04
         200  1.4875686E-03
         201  5.9795455E-04
         202  3.7686407E-04
         203 -1.3768525E-04
         204  2.3812819E-03
         205 -7.0859102E-04
         206 -3.6279339E-04
         207 -5.3225202E-04
         208 -1.3893599E-03
         209 -3.4881810E-05
         210  3.2968217E-04
         211 -3.4779520E-04
         212 -7.5138651E-04
         213 -1.5978655E-03
         214 -4.5222917E-04
         215 -3.7730129E-05
         216 -9.9464948E-04
         217  5.6369463E-04
         218  1.0928975E-04
         219  3.7375116E-04
         220  7.5388973E-04
         221 -1.3995086E-03
         222 -1.2092295E-04
         223 -1.4056941E-04
         224 -7.3208020E-04
         225 -2.2950945E-04
         226 -1.9383048E-04
         227  5.1619299E-04
         228 -4.1753135E-04
         229  1.6164307E-04
         230 -3.1068947E-04
         231 -8.2182820E-04
         232  7.3797046E-04
         233  1.0735608E-03
         234 -3.4865685E-04
         235 -1.0211895E-03
         236  3.9033062E-04
         237 -8.4689166E-04
         238  2.8692439E-04
         239  1.3826771E-03
         240 -6.5553206E-04
         241 -3.1745803E-04
         242  7.0987782E-04
         243  9.0332185E-05
         244  3.6964894E-04
         245  3.6009608E-04
         246 -6.2573107E-04
         247 -4.5131121E-04
         248 -3.1573029E-04
         249  5.1494304E-04
         250 -2.1162478E-04
         251 -2.1827982E-04
         252 -1.4804995E-04
         253 -5.4142275E-04
         254 -2.7559511E-04
         255  2.2049270E-04
         256  1.4275077E-04
         257 -6.9539878E-05
         258 -3.4466534E-04
         259 -3.5298784E-04
         260  6.2412968E-05
         261 -6.8546337E-04
         262  4.4102178E-04
         263  7.2007539E-04
         264  1.0617064E-04
         265  1.4756726E-03
         266 -2.6072335E-04
         267  7.6209755E-05
         268 -2.7191499E-03
         269 -3.1232305E-03
         270  9.3612709E-04
         271 -3.9384729E-04
         272  2.8101529E-04
         273  2.0000291E-06
         274  2.4379515E-04
         275 -1.7244773E-05
         276 -9.3226618E-04
         277 -2.4133155E-03
         278  1.3280306E-03
         279 -2.0146316E-04
         280  7.1008940E-04
         281  1.1219565E-03
         282 -5.0529226E-04
         283  1.5355194E-04
         284  1.1155875E-03
         285 -1.7773691E-03
         286  1.3064666E-03
         287  5.5102230E-04
         288 -4.2116561E-04
         289 -2.4071509E-05
         290  5.1580294E-04
         291 -3.5000655E-03
         292 -1.7142318E-03
         293 -2.9805864E-04
         294  5.2387518E-04
         295  2.7071377E-03
         296  5.4604351E-04
         297 -1.7093715E-03
         298  1.5805896E-03
         299 -3.4915044E-03
         300  2.8568360E-03
         301  2.1829698E-03
         302 -2.0807737E-03
         303  6.6732480E-03
         304 -3.7358445E-03
         305 -6.2521715E-03
         306 -1.5620906E-02
         307 -8.9508809E-02
         308  0.3850225    
         309  3.1229390E-03
         310  5.9146076E-03
         311  3.3577487E-02
         312 -0.1430344    
         313  4.1684955E-03
         314  7.3022814E-03
         315  2.4024472E-02
         316 -0.1259374    
         317 -3.6891697E-03
         318  1.7998820E-04
         319 -8.8479985E-03
         320  4.7563344E-02
         321  2.1250374E-03
         322  1.3485730E-02
         323  5.1287524E-02
         324 -0.2277275    
         325 -2.4649876E-03
         326 -2.5748569E-03
         327 -1.4777000E-02
         328  6.4494714E-02
         329 -1.2343392E-03
         330 -1.8075144E-02
         331 -6.8590812E-02
         332  0.3228906    
         333  1.7946333E-04
         334  5.6005628E-03
         335  1.7340954E-02
         336 -8.0446407E-02
         337  1.6630099E-03
         338  1.7693862E-03
         339  1.2810284E-02
         340 -5.5699330E-02
         341 -2.0627128E-03
         342 -1.0046186E-03
         343 -4.4167517E-03
         344  1.7219739E-02
         345  4.4137146E-03
         346  9.7499862E-03
         347  6.1588541E-02
         348 -0.3142105    
         349 -2.9509072E-03
         350 -3.5744922E-03
         351 -2.3460517E-02
         352  0.1107578    
         353  1.9605191E-02
         354 -1.1591300E-02
         355 -1.6446367E-02
         356  6.3759773E-03
         357 -3.5325033E-03
         358  1.2985270E-03
         359  2.4740712E-03
         360  4.1195191E-03
         361  2.3211153E-02
         362  3.4080574E-03
         363 -1.8730026E-02
         364  1.2475167E-02
         365  1.4075873E-02
         366  2.2559287E-03
         367  1.6873213E-03
         368 -2.1728111E-02
         369  1.3304468E-02
         370  1.8522767E-02
         371 -3.9445520E-03
         372 -4.1125305E-03
         373  1.7054241E-02
         374 -1.1072727E-02
         375 -1.3121997E-02
         376 -2.8761879E-03
         377  3.5254401E-04
         378 -5.8030320E-04
         379 -5.9375528E-04
         380 -2.3350308E-03
         381 -2.2478068E-02
         382 -7.2712307E-03
         383 -3.9730370E-03
         384  2.7644418E-03
         385  3.0484234E-03
         386 -4.3710968E-03
         387  1.9003455E-02
         388  8.0688705E-04
         389 -1.0884001E-04
         390 -3.3343183E-03
         391  2.0955220E-02
         392 -9.5833018E-02
         393 -1.8356801E-03
         394  6.6550350E-04
         395  1.4421002E-03
         396 -7.4889604E-03
         397  4.5383044E-02
         398 -3.5289726E-03
         399  7.3503098E-04
         400 -1.2091359E-03
         401 -1.0407969E-02
         402  4.6228722E-02
         403 -5.6539113E-03
         404  2.9388428E-04
         405  1.1909391E-02
         406 -6.4961254E-03
         407 -2.8221938E-03
         408 -2.9696359E-03
         409  4.7988494E-04
         410  1.3420610E-03
         411 -1.3206804E-03
         412  5.1258330E-04
         413 -1.0829821E-04
         414  3.7629110E-05
         415 -1.9070799E-04
         416 -1.2552213E-03
         417  1.8137803E-04
         418  1.0425102E-03
         419 -1.3860622E-03
         420  1.3166857E-04
         421  1.3550281E-03
         422 -1.9551927E-04
         423 -2.1876060E-04
         424 -5.2609603E-04
         425 -6.2427414E-04
         426 -1.3341966E-04
         427 -1.9019847E-04
         428 -1.2407533E-03
         429  1.0471573E-03
         430  5.4851745E-04
         431  2.6159594E-04
         432  1.7539342E-03
         433  5.3849968E-04
         434  3.8528518E-04
         435 -6.9535588E-04
         436 -1.1966228E-03
         437  1.2190426E-03
         438 -1.9571816E-03
         439  1.8501658E-03
         440  2.3794535E-04
         441  2.4029925E-03
         442 -1.1011875E-03
         443 -2.4631743E-05
         444  8.1508694E-04
         445 -1.5338512E-04
         446 -8.7779749E-04
         447 -3.1924658E-04
         448  8.8667142E-04
         449 -9.3296432E-04
         450  4.8848329E-04
         451  4.3928588E-04
         452  6.9361384E-04
         453 -1.5529122E-03
         454 -3.6538596E-04
         455  3.1874285E-03
         456  1.2602741E-04
         457  1.4008061E-03
         458 -4.5128907E-03
         459  3.1206016E-03
         460  6.7666303E-03
         461  3.9084647E-03
         462  5.3425535E-04
         463 -3.2656752E-03
         464  1.6838685E-03
         465 -8.7224174E-04
         466  3.6312428E-03
         467 -2.4870262E-02
         468 -2.4688856E-03
         469  1.5729304E-03
         470  1.7481772E-03
         471  8.5837143E-03
         472 -5.2793134E-02
         473  1.2910366E-04
         474  2.5448349E-04
         475 -3.7523932E-03
         476 -1.6757954E-02
         477  7.9790391E-02
         478 -3.7112716E-03
         479  2.1619664E-03
         480  2.4690141E-03
         481 -1.1838701E-03
         482  9.5673924E-04
