 [Molden Format]
 [Atoms] Angs
O       1      8      4.73905620     -0.85545078      2.18305096
C       2      6      5.36801134     -0.12414564      1.44209634
C       3      6      5.02794500      1.36173951      1.36398486
C       4      6      3.94737600      1.52013685      0.33296661
C       5      6      2.63598037      1.15167729      0.60342837
C       6      6      1.70158718      1.29033132     -0.42516269
C       7      6      0.29236988      0.91724052     -0.28766711
C       8      6     -0.64023430      1.44144075     -1.18585983
C       9      6     -1.97433828      1.10743100     -1.09342091
C      10      6     -2.40869116      0.23180650     -0.09976531
N      11      7     -3.77043362     -0.12368931     -0.00952941
C      12      6     -4.74483034      0.84818021      0.23599435
C      13      6     -4.42170134      2.17493460      0.49511817
C      14      6     -5.41246005      3.11362837      0.74099697
C      15      6     -6.74187971      2.74184823      0.74439145
C      16      6     -7.07988663      1.41509089      0.51989958
C      17      6     -6.09503954      0.47541020      0.27696723
O      18      8     -6.50779698     -0.82455986      0.09879761
C      19      6     -5.53646877     -1.76952607     -0.13727601
C      20      6     -5.96596720     -3.06999213     -0.32802980
C      21      6     -5.05177798     -4.07677613     -0.60256540
C      22      6     -3.71051836     -3.76614589     -0.70241925
C      23      6     -3.27546258     -2.46326527     -0.51197041
C      24      6     -4.17391003     -1.44835487     -0.20428424
C      25      6     -1.48355762     -0.29874417      0.79681431
C      26      6     -0.14869308      0.03927987      0.70336237
N      27      7      2.07773079      1.79571489     -1.60818643
C      28      6      3.34143275      2.11918451     -1.75612929
N      29      7      4.30287551      1.99728959     -0.85830120
C      30      6      6.45576719     -0.62284677      0.58115192
C      31      6      7.03871107     -1.84999483      0.91038532
C      32      6      8.06288781     -2.36859170      0.14336650
C      33      6      8.50715384     -1.67654630     -0.97321661
C      34      6      7.92134546     -0.46835573     -1.31910342
C      35      6      6.90654053      0.06608618     -0.54652528
H      36      1      5.89675165      1.95585352      1.09203959
H      37      1      4.64455220      1.66538681      2.33938501
H      38      1      2.36838766      0.77468991      1.57627728
H      39      1     -0.29258251      2.10875682     -1.95865048
H      40      1     -2.68827675      1.51288583     -1.79484864
H      41      1     -3.38634524      2.47663898      0.51120434
H      42      1     -5.13134797      4.13765317      0.93364586
H      43      1     -7.51753317      3.46800101      0.93015201
H      44      1     -8.10705118      1.08559953      0.53473288
H      45      1     -7.02353255     -3.27259438     -0.26250084
H      46      1     -5.39589594     -5.08886115     -0.74615371
H      47      1     -2.98783519     -4.53340511     -0.93445077
H      48      1     -2.22655416     -2.23372742     -0.61276677
H      49      1     -1.81897993     -0.97654628      1.56782125
H      50      1      0.55179154     -0.39901533      1.39745211
H      51      1      3.62971939      2.52539140     -2.71831302
H      52      1      6.67482884     -2.37523353      1.78167167
H      53      1      8.51312492     -3.31237455      0.41261564
H      54      1      9.30673143     -2.08105224     -1.57589157
H      55      1      8.25947311      0.06324509     -2.19604638
H      56      1      6.44336996      0.99505889     -0.84088348
 [GTO]
           1   0
s              4   1.000000
     72.98982594     -0.01198412
     12.56945199     -0.05472052
      1.01000910      0.58055871
      0.38493947      0.47700799
p              4   1.000000
      7.52691369      0.05713170
      1.95161633      0.28574555
      0.68800515      0.55178731
      0.27390670      0.26323149
s              7   1.000000
      0.57971233     -0.18805881
      0.07115450      0.90863107
      0.03359728      0.23862031
     72.98982594      0.00402830
     12.56945199      0.01839355
      1.01000910     -0.19514682
      0.38493947     -0.16033967
p              7   1.000000
      2.76717072     -0.01185978
      0.15304476      0.58280790
      0.05897927      0.60865627
      7.52691369     -0.02840753
      1.95161633     -0.14208091
      0.68800515     -0.27436452
      0.27390670     -0.13088627
 
           2   0
s              4   1.000000
     34.91554680     -0.01198412
      6.01274607     -0.05472052
      0.48314980      0.58055871
      0.18414035      0.47700799
p              4   1.000000
      5.62755252      0.05713170
      1.45914034      0.28574555
      0.51439212      0.55178731
      0.20478837      0.26323149
s              7   1.000000
      0.38350848     -0.19624948
      0.04707223      0.94820534
      0.02222627      0.24901311
     34.91554680      0.00551853
      6.01274607      0.02519810
      0.48314980     -0.26733979
      0.18414035     -0.21965602
p              7   1.000000
      1.83062075     -0.01161257
      0.10124670      0.57065954
      0.03901771      0.59596911
      5.62755252     -0.02527923
      1.45914034     -0.12643466
      0.51439212     -0.24415092
      0.20478837     -0.11647280
 
           3   0
s              4   1.000000
     37.04854203     -0.01198412
      6.38006550     -0.05472052
      0.51266549      0.58055871
      0.19538951      0.47700799
p              4   1.000000
      5.97134043      0.05713170
      1.54827941      0.28574555
      0.54581640      0.55178731
      0.21729892      0.26323149
s              7   1.000000
      0.38350848     -0.19439840
      0.04707223      0.93926165
      0.02222627      0.24666436
     37.04854203      0.00521401
      6.38006550      0.02380761
      0.51266549     -0.25258742
      0.19538951     -0.20753494
p              7   1.000000
      1.83062075     -0.01150968
      0.10124670      0.56560353
      0.03901771      0.59068888
      5.97134043     -0.02387852
      1.54827941     -0.11942899
      0.54581640     -0.23062267
      0.21729892     -0.11001911
 
           4   0
s              4   1.000000
     35.23543056     -0.01198412
      6.06783270     -0.05472053
      0.48757625      0.58055871
      0.18582738      0.47700799
p              4   1.000000
      5.67911015      0.05713170
      1.47250846      0.28574555
      0.51910480      0.55178731
      0.20666456      0.26323149
s              7   1.000000
      0.38350848     -0.19595275
      0.04707223      0.94677166
      0.02222627      0.24863662
     35.23543056      0.00547067
      6.06783270      0.02497954
      0.48757625     -0.26502101
      0.18582738     -0.21775083
p              7   1.000000
      1.83062075     -0.01159608
      0.10124670      0.56984898
      0.03901771      0.59512261
      5.67911015     -0.02505912
      1.47250846     -0.12533378
      0.51910480     -0.24202508
      0.20666456     -0.11545866
 
           5   0
s              4   1.000000
     35.04683956     -0.01198412
      6.03535577     -0.05472052
      0.48496659      0.58055871
      0.18483277      0.47700799
p              4   1.000000
      5.64871378      0.05713170
      1.46462713      0.28574555
      0.51632639      0.55178731
      0.20555843      0.26323149
s              7   1.000000
      0.38350848     -0.19612681
      0.04707223      0.94761268
      0.02222627      0.24885748
     35.04683956      0.00549879
      6.03535577      0.02510794
      0.48496659     -0.26638327
      0.18483277     -0.21887011
p              7   1.000000
      1.83062075     -0.01160575
      0.10124670      0.57032447
      0.03901771      0.59561921
      5.64871378     -0.02518844
      1.46462713     -0.12598055
      0.51632639     -0.24327402
      0.20555843     -0.11605447
 
           6   0
s              4   1.000000
     35.25812812     -0.01198412
      6.07174141     -0.05472052
      0.48789033      0.58055871
      0.18594708      0.47700799
p              4   1.000000
      5.68276845      0.05713170
      1.47345700      0.28574555
      0.51943919      0.55178731
      0.20679769      0.26323149
s              7   1.000000
      0.38350848     -0.19593196
      0.04707223      0.94667125
      0.02222627      0.24861024
     35.25812812      0.00546730
      6.07174141      0.02496417
      0.48789033     -0.26485797
      0.18594708     -0.21761687
p              7   1.000000
      1.83062075     -0.01159492
      0.10124670      0.56979222
      0.03901771      0.59506334
      5.68276845     -0.02504364
      1.47345700     -0.12525637
      0.51943919     -0.24187560
      0.20679769     -0.11538735
 
           7   0
s              4   1.000000
     35.09609640     -0.01198412
      6.04383821     -0.05472052
      0.48564819      0.58055871
      0.18509254      0.47700799
p              4   1.000000
      5.65665281      0.05713170
      1.46668560      0.28574555
      0.51705206      0.55178731
      0.20584734      0.26323149
s              7   1.000000
      0.38350848     -0.19608111
      0.04707223      0.94739186
      0.02222627      0.24879949
     35.09609640      0.00549141
      6.04383821      0.02507428
      0.48564819     -0.26602615
      0.18509254     -0.21857669
p              7   1.000000
      1.83062075     -0.01160321
      0.10124670      0.57019962
      0.03901771      0.59548882
      5.65665281     -0.02515454
      1.46668560     -0.12581100
      0.51705206     -0.24294661
      0.20584734     -0.11589828
 
           8   0
s              4   1.000000
     35.02814232     -0.01198412
      6.03213595     -0.05472053
      0.48470786      0.58055871
      0.18473416      0.47700799
p              4   1.000000
      5.64570023      0.05713170
      1.46384577      0.28574555
      0.51605093      0.55178731
      0.20544877      0.26323149
s              7   1.000000
      0.38350848     -0.19614421
      0.04707223      0.94769672
      0.02222627      0.24887954
     35.02814232      0.00550159
      6.03213595      0.02512074
      0.48470786     -0.26651908
      0.18473416     -0.21898170
p              7   1.000000
      1.83062075     -0.01160672
      0.10124670      0.57037199
      0.03901771      0.59566880
      5.64570023     -0.02520133
      1.46384577     -0.12604502
      0.51605093     -0.24339852
      0.20544877     -0.11611387
 
           9   0
s              4   1.000000
     35.00308908     -0.01198412
      6.02782158     -0.05472052
      0.48436118      0.58055871
      0.18460204      0.47700799
p              4   1.000000
      5.64166225      0.05713170
      1.46279878      0.28574555
      0.51568183      0.55178731
      0.20530182      0.26323149
s              7   1.000000
      0.38350848     -0.19616755
      0.04707223      0.94780952
      0.02222627      0.24890918
     35.00308908      0.00550535
      6.02782158      0.02513791
      0.48436118     -0.26670127
      0.18460204     -0.21913139
p              7   1.000000
      1.83062075     -0.01160802
      0.10124670      0.57043575
      0.03901771      0.59573539
      5.64166225     -0.02521862
      1.46279878     -0.12613152
      0.51568183     -0.24356554
      0.20530182     -0.11619354
 
          10   0
s              4   1.000000
     35.19198574     -0.01198412
      6.06035115     -0.05472053
      0.48697507      0.58055871
      0.18559825      0.47700799
p              4   1.000000
      5.67210788      0.05713170
      1.47069287      0.28574555
      0.51846475      0.55178731
      0.20640975      0.26323149
s              7   1.000000
      0.38350848     -0.19599263
      0.04707223      0.94696434
      0.02222627      0.24868722
     35.19198574      0.00547712
      6.06035115      0.02500900
      0.48697507     -0.26533361
      0.18559825     -0.21800767
p              7   1.000000
      1.83062075     -0.01159829
      0.10124670      0.56995791
      0.03901771      0.59523637
      5.67210788     -0.02508880
      1.47069287     -0.12548220
      0.51846475     -0.24231168
      0.20640975     -0.11559538
 
          11   0
s              4   1.000000
     61.14447197     -0.01198412
     10.52958402     -0.05472053
      0.84609700      0.58055871
      0.32246851      0.47700799
p              4   1.000000
      7.20721973      0.05713170
      1.86872445      0.28574555
      0.65878320      0.55178731
      0.26227294      0.26323149
s              7   1.000000
      0.47894987     -0.18780012
      0.05878681      0.90738118
      0.02775758      0.23829206
     61.14447197      0.00397337
     10.52958402      0.01814278
      0.84609700     -0.19248622
      0.32246851     -0.15815362
p              7   1.000000
      2.28619608     -0.01156764
      0.12644335      0.56845169
      0.04872781      0.59366336
      7.20721973     -0.02467583
      1.86872445     -0.12341672
      0.65878320     -0.23832315
      0.26227294     -0.11369264
 
          12   0
s              4   1.000000
     35.22312959     -0.01198412
      6.06571437     -0.05472052
      0.48740603      0.58055871
      0.18576250      0.47700799
p              4   1.000000
      5.67712753      0.05713170
      1.47199439      0.28574555
      0.51892357      0.55178731
      0.20659242      0.26323149
s              7   1.000000
      0.38350848     -0.19596403
      0.04707223      0.94682615
      0.02222627      0.24865092
     35.22312959      0.00547249
      6.06571437      0.02498787
      0.48740603     -0.26510945
      0.18576250     -0.21782349
p              7   1.000000
      1.83062075     -0.01159670
      0.10124670      0.56987979
      0.03901771      0.59515481
      5.67712753     -0.02506752
      1.47199439     -0.12537577
      0.51892357     -0.24210616
      0.20659242     -0.11549734
 
          13   0
s              4   1.000000
     35.02358640     -0.01198412
      6.03135139     -0.05472052
      0.48464482      0.58055871
      0.18471014      0.47700800
p              4   1.000000
      5.64496593      0.05713170
      1.46365537      0.28574555
      0.51598381      0.55178731
      0.20542205      0.26323149
s              7   1.000000
      0.38350848     -0.19614845
      0.04707223      0.94771722
      0.02222627      0.24888492
     35.02358640      0.00550227
      6.03135139      0.02512386
      0.48464482     -0.26655219
      0.18471014     -0.21900890
p              7   1.000000
      1.83062075     -0.01160696
      0.10124670      0.57038357
      0.03901771      0.59568090
      5.64496593     -0.02520447
      1.46365537     -0.12606074
      0.51598381     -0.24342888
      0.20542205     -0.11612834
 
          14   0
s              4   1.000000
     34.91920052     -0.01198412
      6.01337527     -0.05472053
      0.48320036      0.58055871
      0.18415962      0.47700799
p              4   1.000000
      5.62814142      0.05713170
      1.45929303      0.28574555
      0.51444595      0.55178731
      0.20480980      0.26323149
s              7   1.000000
      0.38350848     -0.19624605
      0.04707223      0.94818877
      0.02222627      0.24900877
     34.91920052      0.00551798
      6.01337527      0.02519558
      0.48320036     -0.26731308
      0.18415962     -0.21963407
p              7   1.000000
      1.83062075     -0.01161238
      0.10124670      0.57065018
      0.03901771      0.59595936
      5.62814142     -0.02527669
      1.45929303     -0.12642198
      0.51444595     -0.24412643
      0.20480980     -0.11646111
 
          15   0
s              4   1.000000
     34.91449596     -0.01198412
      6.01256511     -0.05472053
      0.48313526      0.58055871
      0.18413481      0.47700799
p              4   1.000000
      5.62738315      0.05713170
      1.45909642      0.28574555
      0.51437664      0.55178731
      0.20478220      0.26323149
s              7   1.000000
      0.38350848     -0.19625046
      0.04707223      0.94821011
      0.02222627      0.24901438
     34.91449596      0.00551869
      6.01256511      0.02519882
      0.48313526     -0.26734747
      0.18413481     -0.21966233
p              7   1.000000
      1.83062075     -0.01161263
      0.10124670      0.57066224
      0.03901771      0.59597194
      5.62738315     -0.02527996
      1.45909642     -0.12643830
      0.51437664     -0.24415796
      0.20478220     -0.11647616
 
          16   0
s              4   1.000000
     34.97244106     -0.01198412
      6.02254374     -0.05472052
      0.48393709      0.58055871
      0.18444040      0.47700799
p              4   1.000000
      5.63672252      0.05713170
      1.46151798      0.28574555
      0.51523031      0.55178731
      0.20512207      0.26323149
s              7   1.000000
      0.38350848     -0.19619617
      0.04707223      0.94794780
      0.02222627      0.24894549
     34.97244106      0.00550996
      6.02254374      0.02515895
      0.48393709     -0.26692447
      0.18444040     -0.21931478
p              7   1.000000
      1.83062075     -0.01160961
      0.10124670      0.57051393
      0.03901771      0.59581708
      5.63672252     -0.02523981
      1.46151798     -0.12623748
      0.51523031     -0.24377017
      0.20512207     -0.11629116
 
          17   0
s              4   1.000000
     35.22029320     -0.01198412
      6.06522592     -0.05472052
      0.48736678      0.58055871
      0.18574754      0.47700800
p              4   1.000000
      5.67667037      0.05713170
      1.47187586      0.28574555
      0.51888179      0.55178731
      0.20657578      0.26323149
s              7   1.000000
      0.38350848     -0.19596663
      0.04707223      0.94683872
      0.02222627      0.24865422
     35.22029320      0.00547291
      6.06522592      0.02498980
      0.48736678     -0.26512985
      0.18574754     -0.21784025
p              7   1.000000
      1.83062075     -0.01159685
      0.10124670      0.56988690
      0.03901771      0.59516221
      5.67667037     -0.02506945
      1.47187586     -0.12538545
      0.51888179     -0.24212486
      0.20657578     -0.11550626
 
          18   0
s              4   1.000000
     78.07121930     -0.01198412
     13.44450998     -0.05472052
      1.08032374      0.58055871
      0.41173812      0.47700799
p              4   1.000000
      8.05092110      0.05713170
      2.08748362      0.28574555
      0.73590257      0.55178731
      0.29297549      0.26323149
s              7   1.000000
      0.57971233     -0.18685913
      0.07115450      0.90283462
      0.03359728      0.23709808
     78.07121930      0.00376753
     13.44450998      0.01720285
      1.08032374     -0.18251409
      0.41173812     -0.14996016
p              7   1.000000
      2.76717072     -0.01171764
      0.15304476      0.57582285
      0.05897927      0.60136143
      8.05092110     -0.02664561
      2.08748362     -0.13326865
      0.73590257     -0.25734767
      0.29297549     -0.12276834
 
          19   0
s              4   1.000000
     35.22065586     -0.01198412
      6.06528838     -0.05472052
      0.48737180      0.58055871
      0.18574946      0.47700799
p              4   1.000000
      5.67672882      0.05713170
      1.47189101      0.28574555
      0.51888713      0.55178731
      0.20657791      0.26323149
s              7   1.000000
      0.38350848     -0.19596629
      0.04707223      0.94683712
      0.02222627      0.24865380
     35.22065586      0.00547286
      6.06528838      0.02498955
      0.48737180     -0.26512724
      0.18574946     -0.21783811
p              7   1.000000
      1.83062075     -0.01159683
      0.10124670      0.56988599
      0.03901771      0.59516128
      5.67672882     -0.02506920
      1.47189101     -0.12538422
      0.51888713     -0.24212247
      0.20657791     -0.11550512
 
          20   0
s              4   1.000000
     34.97282246     -0.01198412
      6.02260942     -0.05472053
      0.48394236      0.58055871
      0.18444241      0.47700800
p              4   1.000000
      5.63678399      0.05713170
      1.46153392      0.28574555
      0.51523593      0.55178731
      0.20512430      0.26323149
s              7   1.000000
      0.38350848     -0.19619581
      0.04707223      0.94794607
      0.02222627      0.24894503
     34.97282246      0.00550990
      6.02260942      0.02515869
      0.48394236     -0.26692169
      0.18444241     -0.21931249
p              7   1.000000
      1.83062075     -0.01160959
      0.10124670      0.57051296
      0.03901771      0.59581602
      5.63678399     -0.02523954
      1.46153392     -0.12623616
      0.51523593     -0.24376762
      0.20512430     -0.11628994
 
          21   0
s              4   1.000000
     34.91423017     -0.01198412
      6.01251934     -0.05472052
      0.48313158      0.58055871
      0.18413340      0.47700799
p              4   1.000000
      5.62734031      0.05713170
      1.45908531      0.28574555
      0.51437272      0.55178731
      0.20478065      0.26323149
s              7   1.000000
      0.38350848     -0.19625071
      0.04707223      0.94821132
      0.02222627      0.24901469
     34.91423017      0.00551873
      6.01251934      0.02519900
      0.48313158     -0.26734941
      0.18413340     -0.21966393
p              7   1.000000
      1.83062075     -0.01161264
      0.10124670      0.57066292
      0.03901771      0.59597267
      5.62734031     -0.02528014
      1.45908531     -0.12643923
      0.51437272     -0.24415975
      0.20478065     -0.11647701
 
          22   0
s              4   1.000000
     34.91942079     -0.01198412
      6.01341321     -0.05472052
      0.48320341      0.58055871
      0.18416078      0.47700799
p              4   1.000000
      5.62817692      0.05713170
      1.45930223      0.28574555
      0.51444919      0.55178731
      0.20481109      0.26323149
s              7   1.000000
      0.38350848     -0.19624584
      0.04707223      0.94818777
      0.02222627      0.24900850
     34.91942079      0.00551795
      6.01341321      0.02519543
      0.48320341     -0.26731147
      0.18416078     -0.21963275
p              7   1.000000
      1.83062075     -0.01161237
      0.10124670      0.57064962
      0.03901771      0.59595875
      5.62817692     -0.02527654
      1.45930223     -0.12642121
      0.51444919     -0.24412496
      0.20481109     -0.11646041
 
          23   0
s              4   1.000000
     35.02350298     -0.01198412
      6.03133702     -0.05472052
      0.48464366      0.58055871
      0.18470970      0.47700799
p              4   1.000000
      5.64495248      0.05713170
      1.46365188      0.28574555
      0.51598258      0.55178731
      0.20542156      0.26323149
s              7   1.000000
      0.38350848     -0.19614853
      0.04707223      0.94771759
      0.02222627      0.24888502
     35.02350298      0.00550229
      6.03133702      0.02512392
      0.48464366     -0.26655280
      0.18470970     -0.21900940
p              7   1.000000
      1.83062075     -0.01160696
      0.10124670      0.57038378
      0.03901771      0.59568114
      5.64495248     -0.02520453
      1.46365188     -0.12606103
      0.51598258     -0.24342943
      0.20542156     -0.11612861
 
          24   0
s              4   1.000000
     35.22210878     -0.01198412
      6.06553858     -0.05472052
      0.48739191      0.58055871
      0.18575712      0.47700800
p              4   1.000000
      5.67696300      0.05713170
      1.47195173      0.28574555
      0.51890854      0.55178730
      0.20658643      0.26323149
s              7   1.000000
      0.38350848     -0.19596496
      0.04707223      0.94683068
      0.02222627      0.24865212
     35.22210878      0.00547264
      6.06553858      0.02498857
      0.48739191     -0.26511679
      0.18575712     -0.21782952
p              7   1.000000
      1.83062075     -0.01159676
      0.10124670      0.56988235
      0.03901771      0.59515748
      5.67696300     -0.02506821
      1.47195173     -0.12537925
      0.51890854     -0.24211289
      0.20658643     -0.11550055
 
          25   0
s              4   1.000000
     35.00703983     -0.01198412
      6.02850193     -0.05472052
      0.48441585      0.58055871
      0.18462287      0.47700800
p              4   1.000000
      5.64229901      0.05713170
      1.46296388      0.28574555
      0.51574004      0.55178731
      0.20532500      0.26323149
s              7   1.000000
      0.38350848     -0.19616387
      0.04707223      0.94779172
      0.02222627      0.24890450
     35.00703983      0.00550476
      6.02850193      0.02513520
      0.48441585     -0.26667252
      0.18462287     -0.21910777
p              7   1.000000
      1.83062075     -0.01160781
      0.10124670      0.57042569
      0.03901771      0.59572492
      5.64229901     -0.02521589
      1.46296388     -0.12611787
      0.51574004     -0.24353919
      0.20532500     -0.11618097
 
          26   0
s              4   1.000000
     35.00134434     -0.01198412
      6.02752112     -0.05472052
      0.48433704      0.58055871
      0.18459283      0.47700799
p              4   1.000000
      5.64138104      0.05713170
      1.46272586      0.28574555
      0.51565613      0.55178731
      0.20529159      0.26323149
s              7   1.000000
      0.38350848     -0.19616918
      0.04707223      0.94781739
      0.02222627      0.24891122
     35.00134434      0.00550561
      6.02752112      0.02513911
      0.48433704     -0.26671396
      0.18459283     -0.21914182
p              7   1.000000
      1.83062075     -0.01160811
      0.10124670      0.57044020
      0.03901771      0.59574005
      5.64138104     -0.02521982
      1.46272586     -0.12613755
      0.51565613     -0.24357719
      0.20529159     -0.11619909
 
          27   0
s              4   1.000000
     57.17217921     -0.01198412
      9.84552234     -0.05472052
      0.79112973      0.58055871
      0.30151912      0.47700799
p              4   1.000000
      6.73899773      0.05713170
      1.74732148      0.28574555
      0.61598489      0.55178731
      0.24523420      0.26323149
s              7   1.000000
      0.47894987     -0.18911456
      0.05878681      0.91373204
      0.02775758      0.23995990
     57.17217921      0.00424581
      9.84552234      0.01938675
      0.79112973     -0.20568421
      0.30151912     -0.16899757
p              7   1.000000
      2.28619608     -0.01169184
      0.12644335      0.57455502
      0.04872781      0.60003736
      6.73899773     -0.02631555
      1.74732148     -0.13161784
      0.61598489     -0.25415988
      0.24523420     -0.12124759
 
          28   0
s              4   1.000000
     35.22672631     -0.01198412
      6.06633376     -0.05472052
      0.48745580      0.58055871
      0.18578147      0.47700799
p              4   1.000000
      5.67770723      0.05713170
      1.47214470      0.28574555
      0.51897656      0.55178731
      0.20661351      0.26323149
s              7   1.000000
      0.38350848     -0.19596073
      0.04707223      0.94681021
      0.02222627      0.24864673
     35.22672631      0.00547196
      6.06633376      0.02498544
      0.48745580     -0.26508358
      0.18578147     -0.21780224
p              7   1.000000
      1.83062075     -0.01159652
      0.10124670      0.56987078
      0.03901771      0.59514539
      5.67770723     -0.02506506
      1.47214470     -0.12536349
      0.51897656     -0.24208245
      0.20661351     -0.11548602
 
          29   0
s              4   1.000000
     57.11983363     -0.01198412
      9.83650800     -0.05472052
      0.79040539      0.58055871
      0.30124306      0.47700799
p              4   1.000000
      6.73282766      0.05713170
      1.74572167      0.28574555
      0.61542091      0.55178731
      0.24500967      0.26323149
s              7   1.000000
      0.47894987     -0.18913356
      0.05878681      0.91382386
      0.02775758      0.23998402
     57.11983363      0.00424964
      9.83650800      0.01940421
      0.79040539     -0.20586948
      0.30124306     -0.16914979
p              7   1.000000
      2.28619608     -0.01169363
      0.12644335      0.57464305
      0.04872781      0.60012930
      6.73282766     -0.02633858
      1.74572167     -0.13173301
      0.61542091     -0.25438227
      0.24500967     -0.12135368
 
          30   0
s              4   1.000000
     35.04038053     -0.01198412
      6.03424347     -0.05472053
      0.48487721      0.58055871
      0.18479871      0.47700799
p              4   1.000000
      5.64767274      0.05713170
      1.46435721      0.28574555
      0.51623123      0.55178731
      0.20552055      0.26323149
s              7   1.000000
      0.38350848     -0.19613282
      0.04707223      0.94764170
      0.02222627      0.24886511
     35.04038053      0.00549975
      6.03424347      0.02511236
      0.48487721     -0.26643017
      0.18479871     -0.21890865
p              7   1.000000
      1.83062075     -0.01160609
      0.10124670      0.57034087
      0.03901771      0.59563632
      5.64767274     -0.02519289
      1.46435721     -0.12600282
      0.51623123     -0.24331701
      0.20552055     -0.11607498
 
          31   0
s              4   1.000000
     35.01878770     -0.01198412
      6.03052501     -0.05472052
      0.48457842      0.58055871
      0.18468483      0.47700799
p              4   1.000000
      5.64419249      0.05713170
      1.46345483      0.28574555
      0.51591312      0.55178731
      0.20539390      0.26323149
s              7   1.000000
      0.38350848     -0.19615292
      0.04707223      0.94773882
      0.02222627      0.24889060
     35.01878770      0.00550299
      6.03052501      0.02512715
      0.48457842     -0.26658708
      0.18468483     -0.21903756
p              7   1.000000
      1.83062075     -0.01160720
      0.10124670      0.57039578
      0.03901771      0.59569368
      5.64419249     -0.02520778
      1.46345483     -0.12607731
      0.51591312     -0.24346086
      0.20539390     -0.11614360
 
          32   0
s              4   1.000000
     34.90861481     -0.01198412
      6.01155233     -0.05472053
      0.48305388      0.58055871
      0.18410379      0.47700799
p              4   1.000000
      5.62643525      0.05713170
      1.45885064      0.28574555
      0.51429000      0.55178731
      0.20474771      0.26323149
s              7   1.000000
      0.38350848     -0.19625598
      0.04707223      0.94823680
      0.02222627      0.24902137
     34.90861481      0.00551958
      6.01155233      0.02520287
      0.48305388     -0.26739048
      0.18410379     -0.21969767
p              7   1.000000
      1.83062075     -0.01161293
      0.10124670      0.57067733
      0.03901771      0.59598772
      5.62643525     -0.02528404
      1.45885064     -0.12645872
      0.51429000     -0.24419739
      0.20474771     -0.11649497
 
          33   0
s              4   1.000000
     34.91919652     -0.01198412
      6.01337459     -0.05472052
      0.48320031      0.58055871
      0.18415960      0.47700799
p              4   1.000000
      5.62814077      0.05713170
      1.45929286      0.28574555
      0.51444589      0.55178731
      0.20480977      0.26323149
s              7   1.000000
      0.38350848     -0.19624605
      0.04707223      0.94818879
      0.02222627      0.24900877
     34.91919652      0.00551798
      6.01337459      0.02519558
      0.48320031     -0.26731311
      0.18415960     -0.21963410
p              7   1.000000
      1.83062075     -0.01161238
      0.10124670      0.57065018
      0.03901771      0.59595936
      5.62814077     -0.02527670
      1.45929286     -0.12642199
      0.51444589     -0.24412646
      0.20480977     -0.11646113
 
          34   0
s              4   1.000000
     34.91694708     -0.01198412
      6.01298721     -0.05472052
      0.48316918      0.58055871
      0.18414773      0.47700799
p              4   1.000000
      5.62777821      0.05713170
      1.45919885      0.28574555
      0.51441275      0.55178731
      0.20479658      0.26323149
s              7   1.000000
      0.38350848     -0.19624816
      0.04707223      0.94819899
      0.02222627      0.24901145
     34.91694708      0.00551832
      6.01298721      0.02519713
      0.48316918     -0.26732955
      0.18414773     -0.21964761
p              7   1.000000
      1.83062075     -0.01161250
      0.10124670      0.57065595
      0.03901771      0.59596539
      5.62777821     -0.02527826
      1.45919885     -0.12642980
      0.51441275     -0.24414154
      0.20479658     -0.11646832
 
          35   0
s              4   1.000000
     34.99396920     -0.01198412
      6.02625106     -0.05472053
      0.48423499      0.58055871
      0.18455394      0.47700799
p              4   1.000000
      5.64019234      0.05713170
      1.46241765      0.28574555
      0.51554748      0.55178731
      0.20524833      0.26323149
s              7   1.000000
      0.38350848     -0.19617606
      0.04707223      0.94785063
      0.02222627      0.24891997
     34.99396920      0.00550672
      6.02625106      0.02514417
      0.48423499     -0.26676764
      0.18455394     -0.21918593
p              7   1.000000
      1.83062075     -0.01160849
      0.10124670      0.57045899
      0.03901771      0.59575971
      5.64019234     -0.02522492
      1.46241765     -0.12616303
      0.51554748     -0.24362640
      0.20524833     -0.11622257
 
          36   0
s              4   1.000000
      8.30911502      0.05675242
      1.52046568      0.26014135
      0.42240201      0.53284611
      0.14019143      0.29162544
s              7   1.000000
      0.92936822     -0.06732821
      0.05643440      0.66945325
      0.02166600      0.51461298
      8.30911502     -0.02902226
      1.52046568     -0.13303205
      0.42240201     -0.27248882
      0.14019143     -0.14913250
p              4   1.000000
      0.64737396      0.05713170
      0.16785440      0.28574555
      0.05917387      0.55178731
      0.02355814      0.26323150
 
          37   0
s              4   1.000000
      8.30898412      0.05675242
      1.52044172      0.26014135
      0.42239536      0.53284611
      0.14018922      0.29162544
s              7   1.000000
      0.92936822     -0.06732838
      0.05643440      0.66945492
      0.02166600      0.51461427
      8.30898412     -0.02902261
      1.52044172     -0.13303366
      0.42239536     -0.27249211
      0.14018922     -0.14913430
p              4   1.000000
      0.64737396      0.05713170
      0.16785440      0.28574555
      0.05917387      0.55178731
      0.02355814      0.26323150
 
          38   0
s              4   1.000000
      8.30950529      0.05675242
      1.52053709      0.26014135
      0.42242185      0.53284611
      0.14019802      0.29162544
s              7   1.000000
      0.92936822     -0.06732771
      0.05643440      0.66944826
      0.02166600      0.51460915
      8.30950529     -0.02902122
      1.52053709     -0.13302727
      0.42242185     -0.27247902
      0.14019802     -0.14912713
p              4   1.000000
      0.64737396      0.05713170
      0.16785440      0.28574555
      0.05917387      0.55178731
      0.02355814      0.26323150
 
          39   0
s              4   1.000000
      8.30996087      0.05675242
      1.52062046      0.26014135
      0.42244501      0.53284611
      0.14020570      0.29162544
s              7   1.000000
      0.92936822     -0.06732712
      0.05643440      0.66944243
      0.02166600      0.51460468
      8.30996087     -0.02902000
      1.52062046     -0.13302168
      0.42244501     -0.27246758
      0.14020570     -0.14912087
p              4   1.000000
      0.64737396      0.05713170
      0.16785440      0.28574555
      0.05917387      0.55178731
      0.02355814      0.26323150
 
          40   0
s              4   1.000000
      8.30945123      0.05675242
      1.52052720      0.26014135
      0.42241911      0.53284611
      0.14019710      0.29162544
s              7   1.000000
      0.92936822     -0.06732778
      0.05643440      0.66944895
      0.02166600      0.51460968
      8.30945123     -0.02902136
      1.52052720     -0.13302793
      0.42241911     -0.27248038
      0.14019710     -0.14912788
p              4   1.000000
      0.64737396      0.05713170
      0.16785440      0.28574555
      0.05917387      0.55178731
      0.02355814      0.26323150
 
          41   0
s              4   1.000000
      8.31040139      0.05675242
      1.52070107      0.26014135
      0.42246741      0.53284611
      0.14021313      0.29162544
s              7   1.000000
      0.92936822     -0.06732655
      0.05643440      0.66943679
      0.02166600      0.51460033
      8.31040139     -0.02901882
      1.52070107     -0.13301628
      0.42246741     -0.27245652
      0.14021313     -0.14911482
p              4   1.000000
      0.64737396      0.05713170
      0.16785440      0.28574555
      0.05917387      0.55178731
      0.02355814      0.26323150
 
          42   0
s              4   1.000000
      8.30899644      0.05675242
      1.52044398      0.26014135
      0.42239599      0.53284611
      0.14018943      0.29162544
s              7   1.000000
      0.92936822     -0.06732836
      0.05643440      0.66945476
      0.02166600      0.51461415
      8.30899644     -0.02902258
      1.52044398     -0.13303351
      0.42239599     -0.27249180
      0.14018943     -0.14913413
p              4   1.000000
      0.64737396      0.05713170
      0.16785440      0.28574555
      0.05917387      0.55178731
      0.02355814      0.26323150
 
          43   0
s              4   1.000000
      8.30888363      0.05675242
      1.52042334      0.26014135
      0.42239025      0.53284611
      0.14018753      0.29162544
s              7   1.000000
      0.92936822     -0.06732851
      0.05643440      0.66945621
      0.02166600      0.51461527
      8.30888363     -0.02902288
      1.52042334     -0.13303489
      0.42239025     -0.27249464
      0.14018753     -0.14913568
p              4   1.000000
      0.64737396      0.05713170
      0.16785440      0.28574555
      0.05917387      0.55178731
      0.02355814      0.26323150
 
          44   0
s              4   1.000000
      8.30919946      0.05675242
      1.52048113      0.26014135
      0.42240631      0.53284611
      0.14019286      0.29162544
s              7   1.000000
      0.92936822     -0.06732810
      0.05643440      0.66945217
      0.02166600      0.51461216
      8.30919946     -0.02902204
      1.52048113     -0.13303102
      0.42240631     -0.27248670
      0.14019286     -0.14913134
p              4   1.000000
      0.64737396      0.05713170
      0.16785440      0.28574555
      0.05917387      0.55178731
      0.02355814      0.26323150
 
          45   0
s              4   1.000000
      8.30920683      0.05675242
      1.52048248      0.26014135
      0.42240668      0.53284611
      0.14019298      0.29162544
s              7   1.000000
      0.92936822     -0.06732809
      0.05643440      0.66945207
      0.02166600      0.51461209
      8.30920683     -0.02902202
      1.52048248     -0.13303093
      0.42240668     -0.27248652
      0.14019298     -0.14913124
p              4   1.000000
      0.64737396      0.05713170
      0.16785440      0.28574555
      0.05917387      0.55178731
      0.02355814      0.26323150
 
          46   0
s              4   1.000000
      8.30888481      0.05675242
      1.52042355      0.26014135
      0.42239031      0.53284611
      0.14018755      0.29162544
s              7   1.000000
      0.92936822     -0.06732851
      0.05643440      0.66945619
      0.02166600      0.51461527
      8.30888481     -0.02902288
      1.52042355     -0.13303487
      0.42239031     -0.27249461
      0.14018755     -0.14913566
p              4   1.000000
      0.64737396      0.05713170
      0.16785440      0.28574555
      0.05917387      0.55178731
      0.02355814      0.26323150
 
          47   0
s              4   1.000000
      8.30900034      0.05675242
      1.52044469      0.26014135
      0.42239618      0.53284611
      0.14018950      0.29162544
s              7   1.000000
      0.92936822     -0.06732836
      0.05643440      0.66945472
      0.02166600      0.51461412
      8.30900034     -0.02902257
      1.52044469     -0.13303346
      0.42239618     -0.27249171
      0.14018950     -0.14913408
p              4   1.000000
      0.64737396      0.05713170
      0.16785440      0.28574555
      0.05917387      0.55178731
      0.02355814      0.26323150
 
          48   0
s              4   1.000000
      8.31047788      0.05675242
      1.52071506      0.26014135
      0.42247130      0.53284611
      0.14021443      0.29162544
s              7   1.000000
      0.92936822     -0.06732646
      0.05643440      0.66943582
      0.02166600      0.51459959
      8.31047788     -0.02901862
      1.52071506     -0.13301534
      0.42247130     -0.27245460
      0.14021443     -0.14911377
p              4   1.000000
      0.64737396      0.05713170
      0.16785440      0.28574555
      0.05917387      0.55178731
      0.02355814      0.26323150
 
          49   0
s              4   1.000000
      8.30945814      0.05675242
      1.52052846      0.26014135
      0.42241946      0.53284611
      0.14019722      0.29162544
s              7   1.000000
      0.92936822     -0.06732777
      0.05643440      0.66944886
      0.02166600      0.51460963
      8.30945814     -0.02902135
      1.52052846     -0.13302784
      0.42241946     -0.27248020
      0.14019722     -0.14912778
p              4   1.000000
      0.64737396      0.05713170
      0.16785440      0.28574555
      0.05917387      0.55178731
      0.02355814      0.26323150
 
          50   0
s              4   1.000000
      8.30955589      0.05675242
      1.52054635      0.26014135
      0.42242443      0.53284611
      0.14019887      0.29162544
s              7   1.000000
      0.92936822     -0.06732764
      0.05643440      0.66944762
      0.02166600      0.51460866
      8.30955589     -0.02902108
      1.52054635     -0.13302665
      0.42242443     -0.27247775
      0.14019887     -0.14912644
p              4   1.000000
      0.64737396      0.05713170
      0.16785440      0.28574555
      0.05917387      0.55178731
      0.02355814      0.26323150
 
          51   0
s              4   1.000000
      8.30908368      0.05675242
      1.52045994      0.26014135
      0.42240042      0.53284611
      0.14019090      0.29162544
s              7   1.000000
      0.92936822     -0.06732825
      0.05643440      0.66945365
      0.02166600      0.51461330
      8.30908368     -0.02902235
      1.52045994     -0.13303244
      0.42240042     -0.27248961
      0.14019090     -0.14913293
p              4   1.000000
      0.64737396      0.05713170
      0.16785440      0.28574555
      0.05917387      0.55178731
      0.02355814      0.26323150
 
          52   0
s              4   1.000000
      8.30934004      0.05675242
      1.52050685      0.26014135
      0.42241345      0.53284611
      0.14019523      0.29162544
s              7   1.000000
      0.92936822     -0.06732792
      0.05643440      0.66945038
      0.02166600      0.51461077
      8.30934004     -0.02902166
      1.52050685     -0.13302929
      0.42241345     -0.27248317
      0.14019523     -0.14912941
p              4   1.000000
      0.64737396      0.05713170
      0.16785440      0.28574555
      0.05917387      0.55178731
      0.02355814      0.26323150
 
          53   0
s              4   1.000000
      8.30884057      0.05675242
      1.52041546      0.26014135
      0.42238806      0.53284611
      0.14018680      0.29162544
s              7   1.000000
      0.92936822     -0.06732856
      0.05643440      0.66945676
      0.02166600      0.51461569
      8.30884057     -0.02902300
      1.52041546     -0.13303542
      0.42238806     -0.27249572
      0.14018680     -0.14913627
p              4   1.000000
      0.64737396      0.05713170
      0.16785440      0.28574555
      0.05917387      0.55178731
      0.02355814      0.26323150
 
          54   0
s              4   1.000000
      8.30878170      0.05675242
      1.52040468      0.26014135
      0.42238507      0.53284611
      0.14018581      0.29162544
s              7   1.000000
      0.92936822     -0.06732864
      0.05643440      0.66945752
      0.02166600      0.51461626
      8.30878170     -0.02902316
      1.52040468     -0.13303614
      0.42238507     -0.27249720
      0.14018581     -0.14913708
p              4   1.000000
      0.64737396      0.05713170
      0.16785440      0.28574555
      0.05917387      0.55178731
      0.02355814      0.26323150
 
          55   0
s              4   1.000000
      8.30892778      0.05675242
      1.52043141      0.26014135
      0.42239250      0.53284611
      0.14018827      0.29162544
s              7   1.000000
      0.92936822     -0.06732845
      0.05643440      0.66945565
      0.02166600      0.51461484
      8.30892778     -0.02902276
      1.52043141     -0.13303435
      0.42239250     -0.27249353
      0.14018827     -0.14913507
p              4   1.000000
      0.64737396      0.05713170
      0.16785440      0.28574555
      0.05917387      0.55178731
      0.02355814      0.26323150
 
          56   0
s              4   1.000000
      8.31035165      0.05675242
      1.52069196      0.26014135
      0.42246488      0.53284611
      0.14021230      0.29162544
s              7   1.000000
      0.92936822     -0.06732662
      0.05643440      0.66943744
      0.02166600      0.51460083
      8.31035165     -0.02901896
      1.52069196     -0.13301689
      0.42246488     -0.27245777
      0.14021230     -0.14911550
p              4   1.000000
      0.64737396      0.05713170
      0.16785440      0.28574555
      0.05917387      0.55178731
      0.02355814      0.26323150
 
 [MO]
 Sym= Hole
 Ene= -0.9483587    
 Spin= Alpha
 Occup= 0
           1  2.0225924E-03
           2 -0.3772459    
           3  0.5573983    
           4  0.2193550    
           5 -2.6880368E-03
           6  2.9913567E-02
           7 -3.9251093E-02
           8 -7.8183981E-03
           9 -1.1339798E-02
          10  0.1403994    
          11 -0.2083862    
          12 -7.4826881E-02
          13  5.4193777E-03
          14  1.1768396E-03
          15  2.6586384E-03
          16 -3.0635761E-03
          17 -0.1181543    
          18 -9.6337408E-02
          19  0.3646498    
          20 -3.3379540E-02
          21  4.8562258E-02
          22 -1.7119920E-02
          23 -7.8741992E-03
          24  8.5992040E-03
          25  2.9669261E-02
          26  4.8737887E-02
          27 -5.9021309E-02
          28  2.8732935E-02
          29  2.3060953E-03
          30 -5.6505166E-03
          31 -7.3027099E-03
          32  5.7628439E-03
          33 -8.6063538E-03
          34  2.9097931E-02
          35 -0.1407122    
          36 -6.4330906E-02
          37  6.9948384E-03
          38 -7.9355156E-04
          39 -7.8192316E-03
          40  2.2759144E-03
          41  4.4582346E-03
          42  1.3333001E-02
          43 -3.9799064E-02
          44 -2.7644073E-05
          45 -6.5259112E-04
          46 -1.7517516E-03
          47  8.1191482E-03
          48 -1.0462623E-03
          49 -1.3866085E-03
          50 -4.7252993E-03
          51  1.1399821E-02
          52  7.7227806E-03
          53  7.7452604E-04
          54 -8.4342121E-04
          55  4.2763324E-03
          56 -8.8679220E-04
          57  7.3886657E-04
          58  2.4093646E-03
          59 -1.1092946E-04
          60  5.4480629E-03
          61  5.1019056E-04
          62  6.9692498E-04
          63  5.2381173E-04
          64 -5.2163890E-04
          65  1.2591542E-03
          66  9.2262327E-04
          67 -1.5880542E-02
          68 -8.8026514E-03
          69 -1.2415929E-03
          70  9.6111704E-05
          71  1.8004196E-04
          72 -8.2080584E-04
          73 -4.4508878E-04
          74  1.7291724E-03
          75 -9.4611356E-03
          76 -8.2319267E-03
          77  1.5040646E-04
          78 -4.2177693E-04
          79  8.9259571E-05
          80  6.6544052E-04
          81  4.1274462E-04
          82  2.5152718E-03
          83 -3.6019201E-03
          84  2.3676917E-02
          85 -3.4411612E-04
          86 -7.4322842E-04
          87  7.4168813E-04
          88 -3.2168743E-03
          89  6.9053518E-04
          90  6.2964618E-04
          91  3.0396678E-04
          92 -5.3068390E-03
          93 -6.4247072E-04
          94 -2.8136704E-04
          95  2.5390933E-04
          96  1.7706861E-03
          97  6.7067950E-04
          98  1.1832389E-03
          99  2.4762561E-03
         100 -9.9517526E-03
         101 -2.7862267E-04
         102  2.0336283E-05
         103 -3.2290121E-04
         104  7.2319136E-04
         105 -1.8379287E-04
         106  8.9052992E-05
         107 -4.0389530E-04
         108  4.8474809E-03
         109  3.2820422E-05
         110  1.2569822E-04
         111  1.3439561E-04
         112 -1.0036442E-03
         113  1.0452072E-04
         114  6.0937862E-04
         115 -1.8959759E-03
         116  8.6353300E-03
         117 -9.3963674E-05
         118 -1.6736262E-04
         119  8.4012543E-05
         120 -1.3663644E-03
         121  4.1991481E-04
         122 -5.4666534E-04
         123  1.3795573E-03
         124 -6.5443357E-03
         125 -1.8582622E-06
         126  1.2540811E-04
         127  4.0925130E-05
         128  4.4688987E-04
         129 -2.1075444E-04
         130 -9.8310586E-04
         131  1.8421896E-03
         132 -1.1054107E-02
         133 -8.6392774E-06
         134  2.2713591E-04
         135 -3.3870910E-04
         136  2.1908376E-03
         137  4.0571274E-05
         138  1.2467873E-03
         139 -2.2128948E-03
         140  1.1959567E-02
         141 -5.7090547E-05
         142 -2.2913115E-04
         143  3.3209499E-04
         144 -2.3117391E-03
         145  9.9992852E-05
         146 -6.2394225E-05
         147  2.4808708E-03
         148 -1.0335923E-02
         149 -1.7546152E-04
         150 -3.6015503E-05
         151 -2.8869256E-04
         152  2.1877938E-03
         153 -1.4060945E-05
         154 -6.2279619E-04
         155 -8.9688263E-05
         156 -4.6457322E-03
         157  3.4661447E-05
         158  8.5970518E-05
         159 -4.2530286E-04
         160  4.1847551E-04
         161  2.3061539E-05
         162  7.3688466E-04
         163 -1.5243951E-03
         164  1.0305799E-02
         165 -3.9490924E-06
         166 -3.4873065E-04
         167  3.3784343E-04
         168 -1.2342110E-03
         169 -1.4895582E-04
         170  6.4768689E-04
         171 -4.5154037E-04
         172  4.4224644E-03
         173 -1.0122502E-04
         174 -1.0842519E-04
         175  2.3213410E-04
         176 -9.7717089E-04
         177  1.5089296E-04
         178 -1.3441958E-03
         179  1.9130147E-03
         180 -1.2105415E-02
         181  7.7503770E-05
         182  6.4897689E-04
         183 -6.3708669E-04
         184  5.2518689E-04
         185 -1.1164595E-03
         186 -1.9497054E-03
         187  4.1835709E-05
         188 -6.8685045E-03
         189  5.2908086E-04
         190 -6.0103852E-05
         191  1.7886539E-05
         192  1.6288208E-03
         193 -1.4748672E-03
         194  2.7906664E-03
         195  2.5679243E-03
         196  4.1752346E-03
         197  6.9767050E-04
         198 -2.4681585E-03
         199  6.4751285E-04
         200  1.2854117E-04
         201 -1.8482375E-03
         202 -6.5583778E-03
         203  1.6224820E-02
         204  1.5956881E-02
         205  1.9496123E-04
         206 -3.7872039E-03
         207  1.7740958E-03
         208 -9.6636306E-04
         209  5.2303481E-03
         210 -2.4192002E-02
         211  9.1968015E-02
         212  2.2111371E-02
         213 -3.6576905E-03
         214  1.3990883E-03
         215  7.3245604E-04
         216  2.4559426E-03
         217  6.6991807E-03
         218  4.9642716E-03
         219  2.6436111E-02
         220  2.4547763E-02
         221 -4.7982074E-03
         222 -6.0440297E-03
         223  3.6311449E-04
         224 -1.1544094E-03
         225 -1.6463127E-02
         226  1.1566759E-02
         227 -7.8873225E-02
         228 -5.3922720E-02
         229 -3.4070722E-04
         230 -1.3899668E-03
         231  6.4062905E-03
         232 -1.3596055E-02
         233  0.1291913    
         234 -0.2195569    
         235  0.1385538    
         236  0.1825195    
         237 -5.6286179E-02
         238 -1.8515949E-03
         239  2.3436686E-02
         240 -7.3690633E-03
         241 -2.3248885E-02
         242  5.5906600E-03
         243 -0.1284068    
         244 -1.8500037E-02
         245 -1.2883483E-02
         246  2.8967723E-02
         247 -6.8628886E-03
         248 -2.2539245E-02
         249  2.2106754E-02
         250 -0.1177931    
         251 -1.6945338E-02
         252 -2.6981259E-02
         253 -4.3804310E-03
         254 -1.0530302E-02
         255  1.1854013E-02
         256 -7.5731068E-03
         257  5.9911511E-03
         258 -1.0662879E-02
         259 -2.6896369E-02
         260 -1.3960534E-02
         261 -1.4365542E-03
         262 -7.2489930E-03
         263  4.6341056E-03
         264  2.0112880E-03
         265  2.8926510E-02
         266 -6.8778563E-03
         267  6.7096621E-02
         268  8.4546372E-02
         269 -2.0914651E-03
         270 -9.1454703E-03
         271 -1.7975802E-03
         272  1.4508566E-02
         273 -2.9347600E-02
         274  0.1205483    
         275  4.0597040E-02
         276 -4.5685740E-03
         277  1.0957073E-03
         278  9.5150648E-03
         279 -6.0828687E-03
         280 -8.2105957E-03
         281  8.4335729E-02
         282  1.0168841E-02
         283  1.7437210E-02
         284  4.2696362E-03
         285 -3.8371708E-03
         286  7.9710908E-02
         287  1.4334917E-02
         288 -1.1956684E-02
         289 -4.7904275E-02
         290  2.0360939E-02
         291 -2.0372629E-02
         292  9.9887596E-03
         293  1.8126417E-02
         294 -1.9484198E-02
         295  3.3661230E-03
         296 -3.4855053E-04
         297  5.3395156E-04
         298  2.5262292E-03
         299  5.4496888E-04
         300  1.2223702E-03
         301  5.9127854E-04
         302 -1.0192677E-03
         303 -6.7055982E-05
         304  1.4557203E-04
         305 -1.1937994E-03
         306  6.8188465E-04
         307 -3.7020168E-04
         308 -9.1331301E-04
         309  4.6906655E-04
         310 -9.0571365E-04
         311  2.7912920E-06
         312  2.1659805E-04
         313  2.2142460E-05
         314 -1.5294396E-04
         315  6.8803440E-04
         316 -3.7518877E-04
         317 -8.0112593E-05
         318  4.4412845E-05
         319 -1.1759309E-04
         320  1.1269833E-03
         321  3.3557546E-05
         322  5.9467791E-05
         323  1.0825925E-05
         324 -1.6888465E-05
         325 -1.2476911E-04
         326  5.9972174E-04
         327  3.1393003E-05
         328 -5.6065284E-05
         329  2.3724654E-04
         330 -1.8717541E-04
         331 -1.4301465E-04
         332 -2.2293945E-05
         333  3.1946204E-04
         334 -2.4166769E-04
         335  9.9024398E-04
         336 -1.7389868E-05
         337 -1.2010609E-04
         338 -4.9419690E-05
         339 -2.9535140E-04
         340  6.6661544E-04
         341  8.6033723E-04
         342  3.3611539E-04
         343  9.6892647E-04
         344  5.2233896E-04
         345 -1.1423960E-03
         346 -2.8105077E-04
         347 -6.5517850E-04
         348 -1.3783277E-03
         349 -1.2385768E-03
         350 -9.8967040E-04
         351 -1.3483262E-04
         352 -1.8661654E-03
         353 -1.9816065E-03
         354 -2.3909165E-04
         355 -6.6549843E-04
         356 -1.6223803E-02
         357 -1.2493212E-04
         358 -2.3447908E-03
         359  3.0277178E-03
         360  2.1913748E-03
         361 -2.2653684E-02
         362 -8.0409404E-03
         363  4.3622766E-02
         364 -1.8270485E-02
         365 -8.3469870E-03
         366 -5.6494623E-02
         367  8.9833082E-04
         368  5.6860996E-03
         369  2.0583482E-03
         370 -7.3124929E-03
         371  2.7650004E-02
         372 -2.1840043E-03
         373  1.9992325E-03
         374  2.8381846E-03
         375 -1.9245734E-03
         376 -3.8524676E-02
         377  3.2879721E-04
         378  2.9673087E-03
         379 -5.2687717E-03
         380 -2.6283322E-03
         381 -6.7925595E-02
         382  4.8243641E-03
         383 -3.6776965E-03
         384 -1.4276716E-02
         385 -1.1243094E-03
 Sym= Particle
 Ene= -0.9483587    
 Spin= Alpha
 Occup= 2
           1  2.9145789E-03
           2 -0.3010387    
           3 -8.5302882E-02
           4 -0.3487210    
           5 -5.2423864E-03
           6  9.4901599E-02
           7  2.4418388E-02
           8  9.7520955E-02
           9  8.2125459E-03
          10  0.4293917    
          11  0.1272922    
          12  0.4783082    
          13 -1.7580733E-02
          14 -0.1450482    
          15 -4.2057376E-02
          16 -0.1766523    
          17  1.1301242E-02
          18  4.2520310E-03
          19  2.7551293E-02
          20  1.0988032E-02
          21 -2.3398586E-02
          22  1.4987782E-02
          23 -6.2214136E-03
          24  6.7731841E-03
          25  6.1742950E-02
          26  5.8770884E-02
          27  7.2660252E-02
          28  9.5219284E-02
          29 -5.3739235E-02
          30 -3.7319481E-02
          31 -6.7215571E-03
          32 -2.2617580E-02
          33 -1.0411344E-02
          34 -5.4648449E-03
          35 -7.3547885E-02
          36 -1.8312596E-02
          37  7.2813318E-03
          38  6.4722281E-03
          39  7.2919508E-03
          40  1.7254414E-02
          41  5.9730830E-03
          42  9.9525843E-03
          43 -2.9950149E-02
          44  7.6498830E-04
          45 -6.8553997E-04
          46 -2.9448606E-04
          47  9.2548234E-03
          48  4.1747731E-04
          49 -4.6892604E-03
          50 -9.3750702E-03
          51  3.2038863E-03
          52  4.9396278E-03
          53  2.8995199E-03
          54 -1.1996853E-03
          55  2.7744002E-03
          56 -1.2405751E-03
          57  1.7917617E-03
          58  1.0094185E-03
          59  7.1806582E-03
          60  1.1580601E-02
          61 -1.1905221E-03
          62 -1.8073480E-03
          63  1.3870026E-03
          64 -2.1133865E-03
          65 -9.0290647E-04
          66  2.3736691E-04
          67 -8.3421944E-03
          68 -5.7313736E-03
          69  7.0895453E-04
          70 -1.8163645E-04
          71  1.2674347E-03
          72  7.2975532E-04
          73 -6.5608410E-04
          74  8.8933227E-04
          75 -4.4121351E-03
          76 -3.1664968E-03
          77  7.5454178E-04
          78  3.3328077E-04
          79 -1.4624369E-04
          80 -1.5097614E-04
          81  2.7511531E-04
          82  5.7744858E-04
          83 -6.2685242E-05
          84  3.6369497E-03
          85  5.2541542E-05
          86  2.5958091E-04
          87 -1.5993450E-05
          88 -2.5258501E-04
          89  2.5552919E-04
          90  3.0894508E-04
          91 -2.4328737E-04
          92 -7.4835314E-04
          93 -2.6694336E-04
          94 -3.1177746E-04
          95  7.0915944E-06
          96  1.4349550E-04
          97  4.3250434E-04
          98  7.3551910E-04
          99  6.6603691E-04
         100 -1.6406841E-03
         101 -5.3043209E-04
         102 -7.5675925E-04
         103  1.1261588E-04
         104  2.3088105E-04
         105 -1.9296622E-04
         106 -1.4376400E-04
         107 -3.9489583E-05
         108  1.0810194E-04
         109  1.0456805E-04
         110  1.8271655E-04
         111  2.4996151E-04
         112 -2.8061031E-04
         113  1.7315311E-04
         114  2.4305796E-04
         115 -2.3906662E-04
         116  1.8656371E-03
         117 -2.0321745E-04
         118 -2.6315409E-05
         119 -1.1076533E-04
         120 -4.8425779E-04
         121 -2.4519855E-05
         122  2.7413518E-04
         123 -6.4931487E-06
         124 -4.2111304E-04
         125  3.0382469E-05
         126 -2.5337838E-04
         127 -2.1823764E-05
         128 -2.7664913E-05
         129  1.6785597E-06
         130 -1.6975949E-04
         131  5.1840075E-04
         132 -2.1688386E-03
         133 -2.0583214E-04
         134 -1.0006998E-04
         135 -1.0206142E-04
         136  5.9231831E-04
         137  2.4557710E-04
         138  2.6260532E-04
         139 -4.5456906E-04
         140  1.9262236E-03
         141 -4.6550587E-04
         142 -1.0065934E-04
         143  2.5213565E-04
         144 -5.7106587E-04
         145  1.6376880E-05
         146  1.2149787E-04
         147  3.8767795E-04
         148 -2.0410090E-03
         149 -1.0512039E-04
         150 -6.7386172E-05
         151 -1.4773496E-04
         152  8.1898924E-04
         153 -9.8470118E-05
         154 -7.9479927E-05
         155  9.3834235E-05
         156 -7.7616028E-04
         157 -1.0374534E-05
         158 -1.5719082E-04
         159 -2.0267836E-04
         160 -1.2275364E-04
         161 -1.0920002E-05
         162  2.8070662E-04
         163 -3.5259486E-04
         164  1.8985727E-03
         165  3.0148427E-05
         166 -1.9933365E-04
         167  1.2650332E-04
         168 -3.1399098E-04
         169 -1.8415375E-04
         170 -1.1703107E-04
         171 -1.8179791E-04
         172  4.4487070E-04
         173  3.1945822E-04
         174  4.5119488E-04
         175 -4.5938450E-05
         176  2.8459600E-04
         177 -3.6117774E-05
         178 -2.3338586E-04
         179  3.3226333E-04
         180 -1.6449068E-03
         181  4.4253923E-04
         182  2.7991302E-04
         183 -2.4602990E-04
         184  3.1629158E-04
         185 -5.0675787E-04
         186 -6.0976000E-04
         187 -8.4737915E-04
         188 -3.6976131E-04
         189  6.1975396E-04
         190  3.7648890E-04
         191 -8.2810047E-06
         192  5.2135834E-04
         193  2.9125848E-04
         194  8.6939539E-04
         195  3.5661308E-03
         196  3.0055905E-03
         197 -9.6551928E-04
         198 -3.0712336E-03
         199  8.9699344E-04
         200 -5.7530467E-04
         201 -1.7852110E-03
         202 -2.8110405E-03
         203  1.5901731E-03
         204  3.2818285E-04
         205  8.6738419E-04
         206 -2.6575781E-03
         207  3.1047310E-03
         208  1.9816104E-03
         209  3.9743250E-03
         210 -1.7996367E-02
         211  5.8914095E-02
         212  1.8906007E-02
         213 -3.9265133E-03
         214  2.5484494E-03
         215 -2.7978676E-03
         216 -4.4663367E-03
         217  1.1277533E-02
         218  1.7647674E-02
         219 -1.6350180E-02
         220  5.6174239E-03
         221 -8.8490024E-03
         222 -7.3503531E-03
         223  3.2435285E-03
         224 -4.1012848E-03
         225 -2.4633709E-02
         226  7.7230105E-04
         227 -5.3707875E-02
         228 -3.6707036E-02
         229  1.0969051E-02
         230  3.8002732E-03
         231  2.3175601E-02
         232  1.7687580E-02
         233 -1.1971423E-03
         234  0.1475359    
         235  0.1014009    
         236  0.1166067    
         237 -2.7493336E-03
         238 -2.6578110E-02
         239 -1.9128656E-02
         240 -8.4038265E-03
         241 -1.3143314E-02
         242 -0.1790675    
         243 -0.1611928    
         244 -0.1486605    
         245  8.6476961E-03
         246  3.1977735E-02
         247  4.0827461E-02
         248  2.5462108E-02
         249  4.3040281E-03
         250 -3.0100306E-02
         251 -1.7925354E-02
         252 -2.1389827E-02
         253 -4.3836399E-03
         254  1.6466723E-03
         255 -3.4695139E-04
         256  7.9245016E-04
         257  1.5303055E-03
         258  0.1827580    
         259  0.1293457    
         260  0.1574715    
         261 -3.4283262E-03
         262 -2.4157532E-02
         263 -1.7789463E-02
         264 -2.3426952E-02
         265 -6.7005432E-03
         266 -2.7151745E-02
         267 -2.8754892E-02
         268 -3.3546928E-02
         269  4.2753224E-04
         270 -2.3035815E-03
         271  2.2062871E-03
         272  1.7274226E-03
         273  1.7896239E-02
         274 -0.1988876    
         275 -0.1444009    
         276 -0.1313719    
         277 -1.8358171E-02
         278  5.2147109E-02
         279  3.2071251E-02
         280  2.8654687E-02
         281 -7.5734749E-02
         282  2.2977071E-02
         283  1.7646198E-03
         284 -3.0299999E-02
         285  2.5815597E-02
         286 -9.0013906E-02
         287  2.4118444E-02
         288  1.4615055E-02
         289  2.3918061E-03
         290 -4.3643299E-02
         291 -1.7971970E-02
         292  1.7932504E-02
         293  1.6347529E-02
         294 -4.0003225E-02
         295 -7.1505536E-03
         296  1.0210419E-03
         297 -4.4688885E-04
         298  2.4740768E-03
         299  2.4179160E-03
         300  2.4234410E-03
         301  2.3765438E-03
         302 -5.6787807E-04
         303 -9.7047508E-05
         304 -2.3234682E-03
         305 -2.6062015E-03
         306 -1.2856269E-04
         307 -1.3235815E-04
         308 -9.7968930E-04
         309  3.1594708E-04
         310  9.2424010E-04
         311 -4.4339151E-05
         312  1.5626539E-04
         313  4.1445796E-04
         314  3.5402915E-04
         315 -1.2094365E-04
         316 -5.4246491E-05
         317 -1.7380605E-04
         318  4.2000589E-05
         319 -3.5992067E-04
         320  1.5753567E-04
         321  1.6805576E-04
         322 -8.7917615E-05
         323 -3.5325985E-04
         324  3.9191178E-05
         325  1.8565978E-04
         326  2.0271762E-04
         327 -3.7329195E-05
         328 -4.0149727E-05
         329 -1.9722167E-04
         330 -5.4949551E-04
         331 -1.1893999E-05
         332 -9.5895120E-05
         333 -3.8378465E-04
         334  2.1407120E-04
         335 -5.1835585E-05
         336  1.5746974E-04
         337 -9.2145419E-05
         338  3.7520687E-04
         339  1.6457117E-04
         340  1.9158072E-04
         341  5.0710853E-05
         342 -3.6734605E-04
         343 -5.2084000E-04
         344  5.5272998E-05
         345 -5.7183206E-04
         346  9.2191977E-04
         347 -9.7338326E-04
         348 -1.9433552E-03
         349  1.9945914E-03
         350 -1.2991816E-04
         351  2.1412601E-03
         352  5.2211741E-03
         353  1.1078749E-02
         354 -5.8773952E-03
         355  6.8403210E-04
         356 -1.1583909E-02
         357  9.7290636E-04
         358  1.0173690E-03
         359 -6.5001165E-03
         360  8.8081171E-05
         361  3.8875011E-03
         362 -4.5314827E-03
         363 -2.4809938E-02
         364 -3.7019368E-02
         365 -5.1947910E-02
         366 -8.7196957E-03
         367  1.9773855E-03
         368 -3.5078861E-05
         369  9.8962630E-07
         370 -4.8503481E-04
         371 -9.6397847E-04
         372 -1.6117579E-03
         373  3.1572379E-02
         374  1.9873424E-02
         375  2.5457310E-02
         376  8.5956873E-03
         377 -3.2906705E-03
         378 -4.9660113E-03
         379 -2.1606039E-03
         380 -7.3630260E-03
         381 -6.9119962E-04
         382 -9.2474390E-03
         383 -1.5227007E-02
         384 -2.4109544E-02
         385 -3.2286610E-02
