 [Molden Format]
 [Atoms] Angs
O       1      8      7.75858437      0.06916228     -1.20754854
C       2      6      7.19438603     -0.05759072      0.07556622
C       3      6      5.68541018     -0.04188557      0.08709167
C       4      6      4.99272960      0.38453006      1.21329536
C       5      6      3.61105206      0.39197114      1.22645453
C       6      6      2.89050833     -0.02580718      0.11131542
C       7      6      1.41236755     -0.01338229      0.12127894
C       8      6      0.72464593      1.20831472      0.11670437
C       9      6      1.40958204      2.45155198      0.08070588
C      10      6      0.73248489      3.63159344      0.09855910
C      11      6     -0.67544490      3.64249529      0.15775471
C      12      6     -1.37083491      2.47307442      0.17087981
C      13      6     -0.70491119      1.21965041      0.13101037
C      14      6     -1.41193927      0.00906838      0.12100864
C      15      6     -2.89007871      0.02207862      0.11056513
C      16      6     -3.61136895     -0.39434255      1.22570650
C      17      6     -4.99304569     -0.38446492      1.21247497
C      18      6     -5.68493609      0.04309576      0.08622325
C      19      6     -7.19386109      0.06277443      0.07511875
O      20      8     -7.75884787     -0.06332171     -1.20771020
C      21      6     -4.96666936      0.46114098     -1.02631210
C      22      6     -3.58460062      0.45096082     -1.01566966
C      23      6     -0.72423815     -1.21260268      0.11638861
C      24      6     -1.40923784     -2.45579705      0.08030277
C      25      6     -0.73216872     -3.63585922      0.09791257
C      26      6      0.67577662     -3.64679693      0.15695011
C      27      6      1.37121738     -2.47740607      0.17041582
C      28      6      0.70533446     -1.22395164      0.13086814
C      29      6      3.58581874     -0.45430760     -1.01456963
C      30      6      4.96791591     -0.46202445     -1.02514510
H      31      1      7.43162423      0.88211597     -1.60899388
H      32      1      7.55294056     -1.02189393      0.45281138
H      33      1      7.57567821      0.72830820      0.74572795
H      34      1      5.54108162      0.71182573      2.08541731
H      35      1      3.07888720      0.72171259      2.10719686
H      36      1      2.48863820      2.44365679      0.03694885
H      37      1      1.26823962      4.56922240      0.07123848
H      38      1     -1.19656866      4.58809644      0.18913071
H      39      1     -2.44977552      2.48188652      0.21546000
H      40      1     -3.07983418     -0.72463169      2.10662238
H      41      1     -5.54201437     -0.71040900      2.08471381
H      42      1     -7.54957134      1.02837035      0.45176307
H      43      1     -7.57714801     -0.72153068      0.74601011
H      44      1     -7.43358005     -0.87700813     -1.60903642
H      45      1     -5.50113914      0.80030275     -1.90197993
H      46      1     -3.03346441      0.77422408     -1.88709193
H      47      1     -2.48830466     -2.44779520      0.03669738
H      48      1     -1.26794085     -4.57347744      0.07050849
H      49      1      1.19687066     -4.59242662      0.18802389
H      50      1      2.45016127     -2.48624920      0.21502663
H      51      1      3.03531458     -0.77890869     -1.88589195
H      52      1      5.50304948     -0.80064220     -1.90061616
 [GTO]
           1   0
s              4   1.000000
     77.66115392     -0.01198412
     13.37389332     -0.05472052
      1.07464939      0.58055871
      0.40957548      0.47700799
p              4   1.000000
      8.00863402      0.05713170
      2.07651921      0.28574555
      0.73203728      0.55178731
      0.29143665      0.26323149
s              7   1.000000
      0.57971233     -0.18694796
      0.07115450      0.90326385
      0.03359728      0.23721080
     77.66115392      0.00378739
     13.37389332      0.01729357
      1.07464939     -0.18347651
      0.40957548     -0.15075093
p              7   1.000000
      2.76717072     -0.01172820
      0.15304476      0.57634187
      0.05897927      0.60190348
      8.00863402     -0.02677976
      2.07651921     -0.13393962
      0.73203728     -0.25864334
      0.29143665     -0.12338644
 
           2   0
s              4   1.000000
     36.92617902     -0.01198412
      6.35899358     -0.05472052
      0.51097227      0.58055871
      0.19474418      0.47700799
p              4   1.000000
      5.95161843      0.05713170
      1.54316579      0.28574555
      0.54401369      0.55178731
      0.21658122      0.26323149
s              7   1.000000
      0.38350848     -0.19449692
      0.04707223      0.93973765
      0.02222627      0.24678938
     36.92617902      0.00523059
      6.35899358      0.02388332
      0.51097227     -0.25339062
      0.19474418     -0.20819488
p              7   1.000000
      1.83062075     -0.01151516
      0.10124670      0.56587261
      0.03901771      0.59096988
      5.95161843     -0.02395481
      1.54316579     -0.11981052
      0.54401369     -0.23135942
      0.21658122     -0.11037058
 
           3   0
s              4   1.000000
     34.97168510     -0.01198412
      6.02241355     -0.05472053
      0.48392663      0.58055871
      0.18443641      0.47700800
p              4   1.000000
      5.63660068      0.05713170
      1.46148639      0.28574555
      0.51521918      0.55178731
      0.20511763      0.26323149
s              7   1.000000
      0.38350848     -0.19619688
      0.04707223      0.94795120
      0.02222627      0.24894637
     34.97168510      0.00551007
      6.02241355      0.02515947
      0.48392663     -0.26692998
      0.18443641     -0.21931930
p              7   1.000000
      1.83062075     -0.01160965
      0.10124670      0.57051587
      0.03901771      0.59581906
      5.63660068     -0.02524033
      1.46148639     -0.12624010
      0.51521918     -0.24377522
      0.20511763     -0.11629357
 
           4   0
s              4   1.000000
     34.99085179     -0.01198412
      6.02571422     -0.05472053
      0.48419185      0.58055871
      0.18453750      0.47700799
p              4   1.000000
      5.63968989      0.05713170
      1.46228737      0.28574555
      0.51550155      0.55178731
      0.20523005      0.26323149
s              7   1.000000
      0.38350848     -0.19617897
      0.04707223      0.94786469
      0.02222627      0.24892365
     34.99085179      0.00550719
      6.02571422      0.02514631
      0.48419185     -0.26679034
      0.18453750     -0.21920457
p              7   1.000000
      1.83062075     -0.01160865
      0.10124670      0.57046695
      0.03901771      0.59576800
      5.63968989     -0.02522708
      1.46228737     -0.12617381
      0.51550155     -0.24364721
      0.20523005     -0.11623250
 
           5   0
s              4   1.000000
     35.01329293     -0.01198412
      6.02957877     -0.05472052
      0.48450238      0.58055871
      0.18465585      0.47700799
p              4   1.000000
      5.64330686      0.05713170
      1.46322520      0.28574555
      0.51583216      0.55178731
      0.20536167      0.26323149
s              7   1.000000
      0.38350848     -0.19615804
      0.04707223      0.94776356
      0.02222627      0.24889711
     35.01329293      0.00550382
      6.02957877      0.02513091
      0.48450238     -0.26662703
      0.18465585     -0.21907039
p              7   1.000000
      1.83062075     -0.01160749
      0.10124670      0.57040977
      0.03901771      0.59570829
      5.64330686     -0.02521157
      1.46322520     -0.12609628
      0.51583216     -0.24349749
      0.20536167     -0.11616108
 
           6   0
s              4   1.000000
     35.12635201     -0.01198412
      6.04904848     -0.05472053
      0.48606686      0.58055871
      0.18525211      0.47700799
p              4   1.000000
      5.66152929      0.05713170
      1.46795000      0.28574555
      0.51749780      0.55178731
      0.20602479      0.26323149
s              7   1.000000
      0.38350848     -0.19605312
      0.04707223      0.94725663
      0.02222627      0.24876397
     35.12635201      0.00548690
      6.04904848      0.02505365
      0.48606686     -0.26580725
      0.18525211     -0.21839684
p              7   1.000000
      1.83062075     -0.01160166
      0.10124670      0.57012317
      0.03901771      0.59540896
      5.66152929     -0.02513376
      1.46795000     -0.12570707
      0.51749780     -0.24274592
      0.20602479     -0.11580254
 
           7   0
s              4   1.000000
     35.22544153     -0.01198412
      6.06611251     -0.05472052
      0.48743802      0.58055871
      0.18577470      0.47700799
p              4   1.000000
      5.67750015      0.05713170
      1.47209101      0.28574555
      0.51895764      0.55178731
      0.20660598      0.26323149
s              7   1.000000
      0.38350848     -0.19596190
      0.04707223      0.94681590
      0.02222627      0.24864822
     35.22544153      0.00547215
      6.06611251      0.02498631
      0.48743802     -0.26509282
      0.18577470     -0.21780983
p              7   1.000000
      1.83062075     -0.01159659
      0.10124670      0.56987400
      0.03901771      0.59514874
      5.67750015     -0.02506594
      1.47209101     -0.12536787
      0.51895764     -0.24209092
      0.20660598     -0.11549006
 
           8   0
s              4   1.000000
     35.21349093     -0.01198412
      6.06405452     -0.05472052
      0.48727265      0.58055871
      0.18571167      0.47700799
p              4   1.000000
      5.67557400      0.05713170
      1.47159159      0.28574555
      0.51878157      0.55178731
      0.20653588      0.26323149
s              7   1.000000
      0.38350848     -0.19597287
      0.04707223      0.94686889
      0.02222627      0.24866214
     35.21349093      0.00547392
      6.06405452      0.02499441
      0.48727265     -0.26517878
      0.18571167     -0.21788046
p              7   1.000000
      1.83062075     -0.01159720
      0.10124670      0.56990395
      0.03901771      0.59518002
      5.67557400     -0.02507410
      1.47159159     -0.12540869
      0.51878157     -0.24216973
      0.20653588     -0.11552767
 
           9   0
s              4   1.000000
     35.00264612     -0.01198412
      6.02774530     -0.05472052
      0.48435505      0.58055871
      0.18459970      0.47700799
p              4   1.000000
      5.64159085      0.05713170
      1.46278027      0.28574555
      0.51567531      0.55178731
      0.20529923      0.26323149
s              7   1.000000
      0.38350848     -0.19616796
      0.04707223      0.94781152
      0.02222627      0.24890969
     35.00264612      0.00550542
      6.02774530      0.02513821
      0.48435505     -0.26670449
      0.18459970     -0.21913403
p              7   1.000000
      1.83062075     -0.01160804
      0.10124670      0.57043688
      0.03901771      0.59573661
      5.64159085     -0.02521893
      1.46278027     -0.12613305
      0.51567531     -0.24356850
      0.20529923     -0.11619495
 
          10   0
s              4   1.000000
     34.90115614     -0.01198412
      6.01026788     -0.05472053
      0.48295067      0.58055871
      0.18406445      0.47700799
p              4   1.000000
      5.62523309      0.05713170
      1.45853894      0.28574555
      0.51418011      0.55178731
      0.20470396      0.26323149
s              7   1.000000
      0.38350848     -0.19626300
      0.04707223      0.94827066
      0.02222627      0.24903027
     34.90115614      0.00552070
      6.01026788      0.02520802
      0.48295067     -0.26744504
      0.18406445     -0.21974250
p              7   1.000000
      1.83062075     -0.01161332
      0.10124670      0.57069648
      0.03901771      0.59600770
      5.62523309     -0.02528922
      1.45853894     -0.12648462
      0.51418011     -0.24424741
      0.20470396     -0.11651883
 
          11   0
s              4   1.000000
     34.90123147     -0.01198412
      6.01028085     -0.05472052
      0.48295171      0.58055871
      0.18406485      0.47700799
p              4   1.000000
      5.62524523      0.05713170
      1.45854209      0.28574555
      0.51418122      0.55178731
      0.20470440      0.26323149
s              7   1.000000
      0.38350848     -0.19626292
      0.04707223      0.94827033
      0.02222627      0.24903017
     34.90123147      0.00552069
      6.01028085      0.02520796
      0.48295171     -0.26744449
      0.18406485     -0.21974205
p              7   1.000000
      1.83062075     -0.01161332
      0.10124670      0.57069628
      0.03901771      0.59600750
      5.62524523     -0.02528917
      1.45854209     -0.12648436
      0.51418122     -0.24424690
      0.20470440     -0.11651859
 
          12   0
s              4   1.000000
     35.00278945     -0.01198412
      6.02776998     -0.05472052
      0.48435704      0.58055871
      0.18460046      0.47700799
p              4   1.000000
      5.64161395      0.05713170
      1.46278625      0.28574555
      0.51567742      0.55178730
      0.20530007      0.26323149
s              7   1.000000
      0.38350848     -0.19616783
      0.04707223      0.94781086
      0.02222627      0.24890952
     35.00278945      0.00550540
      6.02776998      0.02513812
      0.48435704     -0.26670344
      0.18460046     -0.21913318
p              7   1.000000
      1.83062075     -0.01160803
      0.10124670      0.57043652
      0.03901771      0.59573620
      5.64161395     -0.02521883
      1.46278625     -0.12613255
      0.51567742     -0.24356754
      0.20530007     -0.11619450
 
          13   0
s              4   1.000000
     35.21436728     -0.01198412
      6.06420543     -0.05472052
      0.48728478      0.58055871
      0.18571629      0.47700799
p              4   1.000000
      5.67571525      0.05713170
      1.47162821      0.28574555
      0.51879448      0.55178731
      0.20654102      0.26323149
s              7   1.000000
      0.38350848     -0.19597206
      0.04707223      0.94686500
      0.02222627      0.24866111
     35.21436728      0.00547379
      6.06420543      0.02499382
      0.48728478     -0.26517248
      0.18571629     -0.21787528
p              7   1.000000
      1.83062075     -0.01159715
      0.10124670      0.56990175
      0.03901771      0.59517771
      5.67571525     -0.02507350
      1.47162821     -0.12540569
      0.51879448     -0.24216395
      0.20654102     -0.11552490
 
          14   0
s              4   1.000000
     35.22549201     -0.01198412
      6.06612120     -0.05472052
      0.48743872      0.58055871
      0.18577496      0.47700799
p              4   1.000000
      5.67750829      0.05713170
      1.47209312      0.28574555
      0.51895838      0.55178731
      0.20660627      0.26323149
s              7   1.000000
      0.38350848     -0.19596186
      0.04707223      0.94681568
      0.02222627      0.24864817
     35.22549201      0.00547214
      6.06612120      0.02498627
      0.48743872     -0.26509246
      0.18577496     -0.21780953
p              7   1.000000
      1.83062075     -0.01159658
      0.10124670      0.56987388
      0.03901771      0.59514862
      5.67750829     -0.02506590
      1.47209312     -0.12536770
      0.51895838     -0.24209058
      0.20660627     -0.11548991
 
          15   0
s              4   1.000000
     35.12637980     -0.01198412
      6.04905326     -0.05472052
      0.48606724      0.58055871
      0.18525226      0.47700799
p              4   1.000000
      5.66153377      0.05713170
      1.46795117      0.28574555
      0.51749821      0.55178730
      0.20602496      0.26323149
s              7   1.000000
      0.38350848     -0.19605310
      0.04707223      0.94725650
      0.02222627      0.24876395
     35.12637980      0.00548689
      6.04905326      0.02505363
      0.48606724     -0.26580705
      0.18525226     -0.21839667
p              7   1.000000
      1.83062075     -0.01160165
      0.10124670      0.57012311
      0.03901771      0.59540887
      5.66153377     -0.02513374
      1.46795117     -0.12570698
      0.51749821     -0.24274574
      0.20602496     -0.11580245
 
          16   0
s              4   1.000000
     35.01317491     -0.01198412
      6.02955844     -0.05472052
      0.48450075      0.58055871
      0.18465523      0.47700799
p              4   1.000000
      5.64328784      0.05713170
      1.46322027      0.28574555
      0.51583042      0.55178731
      0.20536098      0.26323149
s              7   1.000000
      0.38350848     -0.19615815
      0.04707223      0.94776409
      0.02222627      0.24889723
     35.01317491      0.00550384
      6.02955844      0.02513100
      0.48450075     -0.26662789
      0.18465523     -0.21907110
p              7   1.000000
      1.83062075     -0.01160749
      0.10124670      0.57041007
      0.03901771      0.59570857
      5.64328784     -0.02521165
      1.46322027     -0.12609668
      0.51583042     -0.24349828
      0.20536098     -0.11616145
 
          17   0
s              4   1.000000
     34.99086380     -0.01198412
      6.02571628     -0.05472052
      0.48419201      0.58055871
      0.18453756      0.47700800
p              4   1.000000
      5.63969182      0.05713170
      1.46228788      0.28574555
      0.51550173      0.55178730
      0.20523012      0.26323149
s              7   1.000000
      0.38350848     -0.19617896
      0.04707223      0.94786464
      0.02222627      0.24892365
     34.99086380      0.00550719
      6.02571628      0.02514630
      0.48419201     -0.26679026
      0.18453756     -0.21920450
p              7   1.000000
      1.83062075     -0.01160865
      0.10124670      0.57046692
      0.03901771      0.59576796
      5.63969182     -0.02522707
      1.46228788     -0.12617377
      0.51550173     -0.24364713
      0.20523012     -0.11623246
 
          18   0
s              4   1.000000
     34.97168037     -0.01198412
      6.02241274     -0.05472052
      0.48392656      0.58055871
      0.18443639      0.47700799
p              4   1.000000
      5.63659991      0.05713170
      1.46148619      0.28574555
      0.51521911      0.55178731
      0.20511761      0.26323149
s              7   1.000000
      0.38350848     -0.19619688
      0.04707223      0.94795123
      0.02222627      0.24894640
     34.97168037      0.00551007
      6.02241274      0.02515947
      0.48392656     -0.26693001
      0.18443639     -0.21931933
p              7   1.000000
      1.83062075     -0.01160965
      0.10124670      0.57051588
      0.03901771      0.59581910
      5.63659991     -0.02524033
      1.46148619     -0.12624012
      0.51521911     -0.24377525
      0.20511761     -0.11629359
 
          19   0
s              4   1.000000
     36.92618672     -0.01198412
      6.35899490     -0.05472053
      0.51097237      0.58055871
      0.19474422      0.47700799
p              4   1.000000
      5.95161967      0.05713170
      1.54316611      0.28574555
      0.54401381      0.55178731
      0.21658127      0.26323149
s              7   1.000000
      0.38350848     -0.19449692
      0.04707223      0.93973762
      0.02222627      0.24678938
     36.92618672      0.00523059
      6.35899490      0.02388331
      0.51097237     -0.25339057
      0.19474422     -0.20819484
p              7   1.000000
      1.83062075     -0.01151516
      0.10124670      0.56587258
      0.03901771      0.59096984
      5.95161967     -0.02395480
      1.54316611     -0.11981050
      0.54401381     -0.23135937
      0.21658127     -0.11037056
 
          20   0
s              4   1.000000
     77.66112610     -0.01198412
     13.37388853     -0.05472053
      1.07464901      0.58055871
      0.40957534      0.47700799
p              4   1.000000
      8.00863115      0.05713170
      2.07651847      0.28574555
      0.73203702      0.55178731
      0.29143655      0.26323149
s              7   1.000000
      0.57971233     -0.18694797
      0.07115450      0.90326388
      0.03359728      0.23721080
     77.66112610      0.00378739
     13.37388853      0.01729357
      1.07464901     -0.18347658
      0.40957534     -0.15075098
p              7   1.000000
      2.76717072     -0.01172820
      0.15304476      0.57634190
      0.05897927      0.60190350
      8.00863115     -0.02677977
      2.07651847     -0.13393967
      0.73203702     -0.25864343
      0.29143655     -0.12338648
 
          21   0
s              4   1.000000
     34.99836481     -0.01198412
      6.02700802     -0.05472052
      0.48429581      0.58055871
      0.18457712      0.47700799
p              4   1.000000
      5.64090081      0.05713170
      1.46260135      0.28574555
      0.51561223      0.55178731
      0.20527412      0.26323149
s              7   1.000000
      0.38350848     -0.19617196
      0.04707223      0.94783081
      0.02222627      0.24891476
     34.99836481      0.00550606
      6.02700802      0.02514115
      0.48429581     -0.26673565
      0.18457712     -0.21915963
p              7   1.000000
      1.83062075     -0.01160826
      0.10124670      0.57044779
      0.03901771      0.59574798
      5.64090081     -0.02522188
      1.46260135     -0.12614784
      0.51561223     -0.24359707
      0.20527412     -0.11620858
 
          22   0
s              4   1.000000
     35.01391271     -0.01198412
      6.02968550     -0.05472052
      0.48451096      0.58055871
      0.18465912      0.47700799
p              4   1.000000
      5.64340676      0.05713170
      1.46325110      0.28574555
      0.51584129      0.55178731
      0.20536531      0.26323149
s              7   1.000000
      0.38350848     -0.19615746
      0.04707223      0.94776077
      0.02222627      0.24889635
     35.01391271      0.00550373
      6.02968550      0.02513049
      0.48451096     -0.26662253
      0.18465912     -0.21906669
p              7   1.000000
      1.83062075     -0.01160746
      0.10124670      0.57040819
      0.03901771      0.59570663
      5.64340676     -0.02521115
      1.46325110     -0.12609414
      0.51584129     -0.24349336
      0.20536531     -0.11615911
 
          23   0
s              4   1.000000
     35.21337981     -0.01198412
      6.06403538     -0.05472053
      0.48727112      0.58055871
      0.18571108      0.47700800
p              4   1.000000
      5.67555609      0.05713170
      1.47158695      0.28574555
      0.51877994      0.55178731
      0.20653523      0.26323149
s              7   1.000000
      0.38350848     -0.19597297
      0.04707223      0.94686937
      0.02222627      0.24866228
     35.21337981      0.00547394
      6.06403538      0.02499448
      0.48727112     -0.26517958
      0.18571108     -0.21788112
p              7   1.000000
      1.83062075     -0.01159720
      0.10124670      0.56990423
      0.03901771      0.59518030
      5.67555609     -0.02507417
      1.47158695     -0.12540907
      0.51877994     -0.24217046
      0.20653523     -0.11552802
 
          24   0
s              4   1.000000
     35.00259390     -0.01198412
      6.02773630     -0.05472052
      0.48435433      0.58055871
      0.18459942      0.47700800
p              4   1.000000
      5.64158244      0.05713170
      1.46277808      0.28574555
      0.51567454      0.55178731
      0.20529892      0.26323149
s              7   1.000000
      0.38350848     -0.19616801
      0.04707223      0.94781175
      0.02222627      0.24890976
     35.00259390      0.00550542
      6.02773630      0.02513825
      0.48435433     -0.26670487
      0.18459942     -0.21913435
p              7   1.000000
      1.83062075     -0.01160804
      0.10124670      0.57043702
      0.03901771      0.59573673
      5.64158244     -0.02521896
      1.46277808     -0.12613323
      0.51567454     -0.24356885
      0.20529892     -0.11619512
 
          25   0
s              4   1.000000
     34.90113772     -0.01198412
      6.01026471     -0.05472052
      0.48295041      0.58055871
      0.18406436      0.47700799
p              4   1.000000
      5.62523012      0.05713170
      1.45853817      0.28574555
      0.51417984      0.55178731
      0.20470385      0.26323149
s              7   1.000000
      0.38350848     -0.19626301
      0.04707223      0.94827074
      0.02222627      0.24903029
     34.90113772      0.00552071
      6.01026471      0.02520803
      0.48295041     -0.26744517
      0.18406436     -0.21974261
p              7   1.000000
      1.83062075     -0.01161332
      0.10124670      0.57069653
      0.03901771      0.59600774
      5.62523012     -0.02528923
      1.45853817     -0.12648469
      0.51417984     -0.24424753
      0.20470385     -0.11651889
 
          26   0
s              4   1.000000
     34.90123038     -0.01198412
      6.01028067     -0.05472052
      0.48295170      0.58055871
      0.18406485      0.47700799
p              4   1.000000
      5.62524506      0.05713170
      1.45854204      0.28574555
      0.51418120      0.55178731
      0.20470440      0.26323149
s              7   1.000000
      0.38350848     -0.19626293
      0.04707223      0.94827033
      0.02222627      0.24903020
     34.90123038      0.00552069
      6.01028067      0.02520796
      0.48295170     -0.26744450
      0.18406485     -0.21974205
p              7   1.000000
      1.83062075     -0.01161332
      0.10124670      0.57069628
      0.03901771      0.59600750
      5.62524506     -0.02528917
      1.45854204     -0.12648437
      0.51418120     -0.24424691
      0.20470440     -0.11651859
 
          27   0
s              4   1.000000
     35.00271422     -0.01198412
      6.02775702     -0.05472052
      0.48435600      0.58055871
      0.18460006      0.47700799
p              4   1.000000
      5.64160183      0.05713170
      1.46278311      0.28574555
      0.51567631      0.55178731
      0.20529963      0.26323149
s              7   1.000000
      0.38350848     -0.19616790
      0.04707223      0.94781121
      0.02222627      0.24890961
     35.00271422      0.00550541
      6.02775702      0.02513817
      0.48435600     -0.26670399
      0.18460006     -0.21913363
p              7   1.000000
      1.83062075     -0.01160804
      0.10124670      0.57043671
      0.03901771      0.59573641
      5.64160183     -0.02521888
      1.46278311     -0.12613281
      0.51567631     -0.24356805
      0.20529963     -0.11619473
 
          28   0
s              4   1.000000
     35.21420798     -0.01198412
      6.06417800     -0.05472052
      0.48728258      0.58055871
      0.18571545      0.47700799
p              4   1.000000
      5.67568957      0.05713170
      1.47162156      0.28574555
      0.51879214      0.55178731
      0.20654009      0.26323149
s              7   1.000000
      0.38350848     -0.19597221
      0.04707223      0.94686571
      0.02222627      0.24866131
     35.21420798      0.00547382
      6.06417800      0.02499392
      0.48728258     -0.26517363
      0.18571545     -0.21787622
p              7   1.000000
      1.83062075     -0.01159716
      0.10124670      0.56990216
      0.03901771      0.59517815
      5.67568957     -0.02507361
      1.47162156     -0.12540624
      0.51879214     -0.24216500
      0.20654009     -0.11552541
 
          29   0
s              4   1.000000
     35.01381523     -0.01198412
      6.02966871     -0.05472053
      0.48450961      0.58055871
      0.18465860      0.47700799
p              4   1.000000
      5.64339105      0.05713170
      1.46324703      0.28574555
      0.51583986      0.55178731
      0.20536474      0.26323149
s              7   1.000000
      0.38350848     -0.19615755
      0.04707223      0.94776120
      0.02222627      0.24889648
     35.01381523      0.00550374
      6.02966871      0.02513056
      0.48450961     -0.26662324
      0.18465860     -0.21906728
p              7   1.000000
      1.83062075     -0.01160746
      0.10124670      0.57040843
      0.03901771      0.59570687
      5.64339105     -0.02521121
      1.46324703     -0.12609447
      0.51583986     -0.24349401
      0.20536474     -0.11615941
 
          30   0
s              4   1.000000
     34.99837536     -0.01198412
      6.02700984     -0.05472053
      0.48429596      0.58055871
      0.18457718      0.47700799
p              4   1.000000
      5.64090251      0.05713170
      1.46260179      0.28574555
      0.51561239      0.55178731
      0.20527418      0.26323149
s              7   1.000000
      0.38350848     -0.19617195
      0.04707223      0.94783076
      0.02222627      0.24891476
     34.99837536      0.00550606
      6.02700984      0.02514114
      0.48429596     -0.26673557
      0.18457718     -0.21915958
p              7   1.000000
      1.83062075     -0.01160826
      0.10124670      0.57044777
      0.03901771      0.59574798
      5.64090251     -0.02522188
      1.46260179     -0.12614780
      0.51561239     -0.24359700
      0.20527418     -0.11620855
 
          31   0
s              4   1.000000
      8.31137315      0.05675242
      1.52087889      0.26014135
      0.42251681      0.53284611
      0.14022953      0.29162544
s              7   1.000000
      0.92936822     -0.06732530
      0.05643440      0.66942437
      0.02166600      0.51459079
      8.31137315     -0.02901622
      1.52087889     -0.13300437
      0.42251681     -0.27243212
      0.14022953     -0.14910147
p              4   1.000000
      0.64737396      0.05713170
      0.16785440      0.28574555
      0.05917387      0.55178731
      0.02355814      0.26323150
 
          32   0
s              4   1.000000
      8.30685500      0.05675242
      1.52005212      0.26014135
      0.42228712      0.53284611
      0.14015330      0.29162544
s              7   1.000000
      0.92936822     -0.06733112
      0.05643440      0.66948218
      0.02166600      0.51463522
      8.30685500     -0.02902831
      1.52005212     -0.13305977
      0.42228712     -0.27254560
      0.14015330     -0.14916358
p              4   1.000000
      0.64737396      0.05713170
      0.16785440      0.28574555
      0.05917387      0.55178731
      0.02355814      0.26323150
 
          33   0
s              4   1.000000
      8.30607199      0.05675242
      1.51990884      0.26014135
      0.42224732      0.53284611
      0.14014009      0.29162544
s              7   1.000000
      0.92936822     -0.06733213
      0.05643440      0.66949220
      0.02166600      0.51464292
      8.30607199     -0.02903041
      1.51990884     -0.13306938
      0.42224732     -0.27256528
      0.14014009     -0.14917434
p              4   1.000000
      0.64737396      0.05713170
      0.16785440      0.28574555
      0.05917387      0.55178731
      0.02355814      0.26323150
 
          34   0
s              4   1.000000
      8.30911217      0.05675242
      1.52046515      0.26014135
      0.42240187      0.53284611
      0.14019138      0.29162544
s              7   1.000000
      0.92936822     -0.06732821
      0.05643440      0.66945329
      0.02166600      0.51461303
      8.30911217     -0.02902227
      1.52046515     -0.13303209
      0.42240187     -0.27248890
      0.14019138     -0.14913254
p              4   1.000000
      0.64737396      0.05713170
      0.16785440      0.28574555
      0.05917387      0.55178731
      0.02355814      0.26323150
 
          35   0
s              4   1.000000
      8.30937614      0.05675242
      1.52051346      0.26014135
      0.42241529      0.53284611
      0.14019584      0.29162544
s              7   1.000000
      0.92936822     -0.06732787
      0.05643440      0.66944991
      0.02166600      0.51461042
      8.30937614     -0.02902156
      1.52051346     -0.13302885
      0.42241529     -0.27248226
      0.14019584     -0.14912891
p              4   1.000000
      0.64737396      0.05713170
      0.16785440      0.28574555
      0.05917387      0.55178731
      0.02355814      0.26323150
 
          36   0
s              4   1.000000
      8.31031573      0.05675242
      1.52068539      0.26014135
      0.42246305      0.53284611
      0.14021169      0.29162543
s              7   1.000000
      0.92936822     -0.06732666
      0.05643440      0.66943790
      0.02166600      0.51460118
      8.31031573     -0.02901905
      1.52068539     -0.13301733
      0.42246305     -0.27245867
      0.14021169     -0.14911599
p              4   1.000000
      0.64737396      0.05713170
      0.16785440      0.28574555
      0.05917387      0.55178731
      0.02355814      0.26323150
 
          37   0
s              4   1.000000
      8.30888894      0.05675242
      1.52042431      0.26014135
      0.42239052      0.53284611
      0.14018762      0.29162544
s              7   1.000000
      0.92936822     -0.06732850
      0.05643440      0.66945615
      0.02166600      0.51461522
      8.30888894     -0.02902287
      1.52042431     -0.13303482
      0.42239052     -0.27249450
      0.14018762     -0.14913561
p              4   1.000000
      0.64737396      0.05713170
      0.16785440      0.28574555
      0.05917387      0.55178731
      0.02355814      0.26323150
 
          38   0
s              4   1.000000
      8.30889668      0.05675242
      1.52042572      0.26014135
      0.42239091      0.53284611
      0.14018775      0.29162544
s              7   1.000000
      0.92936822     -0.06732849
      0.05643440      0.66945605
      0.02166600      0.51461514
      8.30889668     -0.02902285
      1.52042572     -0.13303473
      0.42239091     -0.27249431
      0.14018775     -0.14913550
p              4   1.000000
      0.64737396      0.05713170
      0.16785440      0.28574555
      0.05917387      0.55178731
      0.02355814      0.26323150
 
          39   0
s              4   1.000000
      8.31031407      0.05675242
      1.52068509      0.26014135
      0.42246297      0.53284611
      0.14021166      0.29162544
s              7   1.000000
      0.92936822     -0.06732667
      0.05643440      0.66943792
      0.02166600      0.51460120
      8.31031407     -0.02901906
      1.52068509     -0.13301735
      0.42246297     -0.27245871
      0.14021166     -0.14911602
p              4   1.000000
      0.64737396      0.05713170
      0.16785440      0.28574555
      0.05917387      0.55178731
      0.02355814      0.26323150
 
          40   0
s              4   1.000000
      8.30937527      0.05675242
      1.52051330      0.26014135
      0.42241524      0.53284611
      0.14019582      0.29162544
s              7   1.000000
      0.92936822     -0.06732788
      0.05643440      0.66944992
      0.02166600      0.51461042
      8.30937527     -0.02902157
      1.52051330     -0.13302886
      0.42241524     -0.27248229
      0.14019582     -0.14912892
p              4   1.000000
      0.64737396      0.05713170
      0.16785440      0.28574555
      0.05917387      0.55178731
      0.02355814      0.26323150
 
          41   0
s              4   1.000000
      8.30911225      0.05675242
      1.52046517      0.26014135
      0.42240187      0.53284611
      0.14019139      0.29162544
s              7   1.000000
      0.92936822     -0.06732821
      0.05643440      0.66945329
      0.02166600      0.51461303
      8.30911225     -0.02902227
      1.52046517     -0.13303209
      0.42240187     -0.27248889
      0.14019139     -0.14913254
p              4   1.000000
      0.64737396      0.05713170
      0.16785440      0.28574555
      0.05917387      0.55178731
      0.02355814      0.26323150
 
          42   0
s              4   1.000000
      8.30685669      0.05675242
      1.52005243      0.26014135
      0.42228721      0.53284611
      0.14015333      0.29162544
s              7   1.000000
      0.92936822     -0.06733112
      0.05643440      0.66948215
      0.02166600      0.51463522
      8.30685669     -0.02902831
      1.52005243     -0.13305975
      0.42228721     -0.27254556
      0.14015333     -0.14916355
p              4   1.000000
      0.64737396      0.05713170
      0.16785440      0.28574555
      0.05917387      0.55178731
      0.02355814      0.26323150
 
          43   0
s              4   1.000000
      8.30607078      0.05675242
      1.51990862      0.26014135
      0.42224726      0.53284611
      0.14014007      0.29162543
s              7   1.000000
      0.92936822     -0.06733213
      0.05643440      0.66949221
      0.02166600      0.51464294
      8.30607078     -0.02903041
      1.51990862     -0.13306939
      0.42224726     -0.27256531
      0.14014007     -0.14917436
p              4   1.000000
      0.64737396      0.05713170
      0.16785440      0.28574555
      0.05917387      0.55178731
      0.02355814      0.26323150
 
          44   0
s              4   1.000000
      8.31137441      0.05675242
      1.52087912      0.26014135
      0.42251687      0.53284611
      0.14022955      0.29162544
s              7   1.000000
      0.92936822     -0.06732530
      0.05643440      0.66942436
      0.02166600      0.51459077
      8.31137441     -0.02901622
      1.52087912     -0.13300435
      0.42251687     -0.27243209
      0.14022955     -0.14910145
p              4   1.000000
      0.64737396      0.05713170
      0.16785440      0.28574555
      0.05917387      0.55178731
      0.02355814      0.26323150
 
          45   0
s              4   1.000000
      8.30935020      0.05675242
      1.52050871      0.26014135
      0.42241397      0.53284611
      0.14019540      0.29162544
s              7   1.000000
      0.92936822     -0.06732791
      0.05643440      0.66945024
      0.02166600      0.51461067
      8.30935020     -0.02902163
      1.52050871     -0.13302917
      0.42241397     -0.27248292
      0.14019540     -0.14912927
p              4   1.000000
      0.64737396      0.05713170
      0.16785440      0.28574555
      0.05917387      0.55178731
      0.02355814      0.26323150
 
          46   0
s              4   1.000000
      8.30938374      0.05675242
      1.52051485      0.26014135
      0.42241567      0.53284611
      0.14019597      0.29162544
s              7   1.000000
      0.92936822     -0.06732786
      0.05643440      0.66944981
      0.02166600      0.51461035
      8.30938374     -0.02902154
      1.52051485     -0.13302876
      0.42241567     -0.27248207
      0.14019597     -0.14912881
p              4   1.000000
      0.64737396      0.05713170
      0.16785440      0.28574555
      0.05917387      0.55178731
      0.02355814      0.26323150
 
          47   0
s              4   1.000000
      8.31031211      0.05675242
      1.52068473      0.26014135
      0.42246287      0.53284611
      0.14021163      0.29162544
s              7   1.000000
      0.92936822     -0.06732667
      0.05643440      0.66943794
      0.02166600      0.51460123
      8.31031211     -0.02901906
      1.52068473     -0.13301737
      0.42246287     -0.27245876
      0.14021163     -0.14911605
p              4   1.000000
      0.64737396      0.05713170
      0.16785440      0.28574555
      0.05917387      0.55178731
      0.02355814      0.26323150
 
          48   0
s              4   1.000000
      8.30888860      0.05675242
      1.52042425      0.26014135
      0.42239050      0.53284611
      0.14018761      0.29162544
s              7   1.000000
      0.92936822     -0.06732850
      0.05643440      0.66945615
      0.02166600      0.51461522
      8.30888860     -0.02902287
      1.52042425     -0.13303483
      0.42239050     -0.27249451
      0.14018761     -0.14913561
p              4   1.000000
      0.64737396      0.05713170
      0.16785440      0.28574555
      0.05917387      0.55178731
      0.02355814      0.26323150
 
          49   0
s              4   1.000000
      8.30889656      0.05675242
      1.52042570      0.26014135
      0.42239091      0.53284611
      0.14018775      0.29162544
s              7   1.000000
      0.92936822     -0.06732849
      0.05643440      0.66945605
      0.02166600      0.51461514
      8.30889656     -0.02902285
      1.52042570     -0.13303473
      0.42239091     -0.27249431
      0.14018775     -0.14913551
p              4   1.000000
      0.64737396      0.05713170
      0.16785440      0.28574555
      0.05917387      0.55178731
      0.02355814      0.26323150
 
          50   0
s              4   1.000000
      8.31031115      0.05675242
      1.52068455      0.26014135
      0.42246282      0.53284611
      0.14021161      0.29162544
s              7   1.000000
      0.92936822     -0.06732667
      0.05643440      0.66943796
      0.02166600      0.51460123
      8.31031115     -0.02901906
      1.52068455     -0.13301739
      0.42246282     -0.27245878
      0.14021161     -0.14911606
p              4   1.000000
      0.64737396      0.05713170
      0.16785440      0.28574555
      0.05917387      0.55178731
      0.02355814      0.26323150
 
          51   0
s              4   1.000000
      8.30938344      0.05675242
      1.52051479      0.26014135
      0.42241566      0.53284611
      0.14019596      0.29162544
s              7   1.000000
      0.92936822     -0.06732786
      0.05643440      0.66944982
      0.02166600      0.51461035
      8.30938344     -0.02902155
      1.52051479     -0.13302876
      0.42241566     -0.27248208
      0.14019596     -0.14912881
p              4   1.000000
      0.64737396      0.05713170
      0.16785440      0.28574555
      0.05917387      0.55178731
      0.02355814      0.26323150
 
          52   0
s              4   1.000000
      8.30935055      0.05675242
      1.52050878      0.26014135
      0.42241399      0.53284611
      0.14019540      0.29162544
s              7   1.000000
      0.92936822     -0.06732791
      0.05643440      0.66945023
      0.02166600      0.51461067
      8.30935055     -0.02902163
      1.52050878     -0.13302916
      0.42241399     -0.27248291
      0.14019540     -0.14912927
p              4   1.000000
      0.64737396      0.05713170
      0.16785440      0.28574555
      0.05917387      0.55178731
      0.02355814      0.26323150
 
 [MO]
 Sym= Hole
 Ene= -0.5904160    
 Spin= Alpha
 Occup= 0
           1  3.6199923E-05
           2  9.5326093E-04
           3  1.9659322E-04
           4  1.5574865E-04
           5 -8.9823363E-05
           6 -1.9164057E-05
           7  1.0257941E-05
           8  2.2263701E-05
           9  6.1967206E-04
          10 -1.2240921E-03
          11 -1.8453020E-04
          12 -4.2409913E-05
          13 -4.3724341E-04
          14  3.2603409E-04
          15 -3.6821868E-05
          16 -1.0944135E-05
          17 -8.5896265E-04
          18  1.4491106E-03
          19  6.8236643E-04
          20 -1.2583527E-04
          21 -2.1673963E-04
          22  4.5579352E-04
          23  3.1429183E-05
          24  8.3274826E-06
          25  9.2314545E-04
          26 -2.0249907E-03
          27 -1.2025498E-02
          28  5.0325468E-03
          29 -6.6391268E-04
          30  3.6700579E-04
          31  4.5125774E-04
          32  2.2694987E-05
          33 -1.7188542E-03
          34  2.7148302E-03
          35 -1.0609175E-02
          36  1.3534600E-03
          37  2.3459189E-04
          38  1.2944930E-03
          39 -1.5293354E-03
          40 -2.7954890E-04
          41 -8.5339806E-04
          42 -2.5933239E-04
          43 -2.9884191E-04
          44 -1.1589565E-04
          45  2.9727462E-04
          46 -9.2366035E-04
          47 -3.0518249E-06
          48  4.0401777E-05
          49 -2.4807369E-03
          50  4.0728063E-03
          51  1.6270077E-04
          52  2.4053219E-03
          53  7.2246988E-04
          54  2.7770528E-05
          55  9.1324349E-05
          56 -8.6524000E-05
          57  2.3605835E-03
          58  5.9625236E-03
          59  6.3184276E-03
          60  0.3787361    
          61 -8.1047043E-04
          62  8.5018441E-04
          63  6.0970557E-04
          64  7.3651210E-03
          65  1.5196906E-03
          66  1.8977539E-03
          67 -1.0268959E-03
          68  3.2244317E-02
          69 -7.4786058E-04
          70  6.5977639E-04
          71 -3.7278273E-04
          72 -2.3489080E-03
          73 -6.1027642E-04
          74 -1.2176646E-02
          75 -8.2618470E-04
          76 -0.2772681    
          77  3.2509817E-04
          78  2.3871870E-04
          79 -5.8956642E-04
          80 -6.6832425E-03
          81  7.2151353E-04
          82 -1.1966272E-02
          83  1.9720732E-03
          84 -0.2740497    
          85 -3.2883717E-04
          86  3.1116974E-04
          87  5.8998645E-04
          88 -6.7856871E-03
          89 -1.6322359E-03
          90  1.9727647E-03
          91  1.0065932E-03
          92  3.6210120E-02
          93  8.0672494E-04
          94  7.3478749E-04
          95  3.3474356E-04
          96 -2.3847553E-03
          97 -1.9157508E-03
          98  5.2252957E-03
          99 -8.4009692E-03
         100  0.3776196    
         101  6.1245955E-04
         102  9.2255120E-04
         103 -6.9721299E-04
         104  7.4504730E-03
         105  2.4782037E-03
         106  4.0714811E-03
         107  2.1728619E-04
         108 -2.4080507E-03
         109 -7.2128355E-04
         110  3.0166813E-05
         111  9.0261281E-05
         112  8.6159067E-05
         113  8.5239264E-04
         114 -2.6085824E-04
         115 -2.7284049E-04
         116  1.1572399E-04
         117 -2.9667062E-04
         118 -9.2243502E-04
         119 -2.4225535E-06
         120 -4.5114703E-05
         121  1.7118546E-03
         122  2.6899441E-03
         123 -1.0611865E-02
         124 -1.3546946E-03
         125 -2.3254432E-04
         126  1.2877302E-03
         127 -1.5309426E-03
         128  2.7744856E-04
         129 -9.1770710E-04
         130 -2.0453157E-03
         131 -1.2028159E-02
         132 -5.0317259E-03
         133  6.6206977E-04
         134  3.6492530E-04
         135  4.4901704E-04
         136 -2.2509692E-05
         137  8.5763144E-04
         138  1.4504658E-03
         139  6.7352736E-04
         140  1.2284807E-04
         141  2.1636987E-04
         142  4.5647949E-04
         143  2.9076708E-05
         144 -7.3034876E-06
         145 -6.1920105E-04
         146 -1.2254691E-03
         147 -1.7576989E-04
         148  4.2233845E-05
         149  4.3644739E-04
         150  3.2505195E-04
         151 -3.7063684E-05
         152  1.1518282E-05
         153 -3.7983533E-05
         154  9.4973308E-04
         155  1.8898956E-04
         156 -1.5406085E-04
         157  9.0243833E-05
         158 -1.9222340E-05
         159  1.0621625E-05
         160 -2.2440759E-05
         161 -8.6593075E-04
         162 -1.8293702E-03
         163  1.3152614E-02
         164  5.6785233E-03
         165  6.3828536E-04
         166  2.5553338E-04
         167 -3.9876805E-04
         168  3.9954204E-05
         169  1.4386631E-03
         170  2.5401649E-03
         171  1.1501879E-02
         172  1.0642933E-03
         173 -9.2198738E-05
         174  1.4300260E-03
         175  1.5069635E-03
         176 -2.4863254E-04
         177 -2.3541390E-03
         178  6.0094940E-03
         179  6.3102301E-03
         180 -0.3787149    
         181  8.0755953E-04
         182  8.4851967E-04
         183  6.0652138E-04
         184 -7.3631182E-03
         185 -1.4982371E-03
         186  1.8892417E-03
         187 -9.9710177E-04
         188 -3.2239329E-02
         189  7.4010162E-04
         190  6.5541547E-04
         191 -3.7079601E-04
         192  2.3490151E-03
         193  6.0073822E-04
         194 -1.2124435E-02
         195 -8.8178000E-04
         196  0.2772706    
         197 -3.2124741E-04
         198  2.3672023E-04
         199 -5.8643718E-04
         200  6.6828537E-03
         201 -7.2041800E-04
         202 -1.1945006E-02
         203  1.8978728E-03
         204  0.2740507    
         205  3.2932768E-04
         206  3.0634229E-04
         207  5.8529485E-04
         208  6.7852484E-03
         209  1.6114110E-03
         210  1.9840386E-03
         211  9.9208392E-04
         212 -3.6206856E-02
         213 -7.9935021E-04
         214  7.3290069E-04
         215  3.3440310E-04
         216  2.3857846E-03
         217  1.9185890E-03
         218  5.2768053E-03
         219 -8.2605071E-03
         220 -0.3776038    
         221 -6.1234384E-04
         222  9.1888069E-04
         223 -6.8957271E-04
         224 -7.4484586E-03
         225 -1.4374250E-03
         226  2.5166268E-03
         227  1.1501769E-02
         228 -1.0643974E-03
         229  9.1422735E-05
         230  1.4255497E-03
         231  1.5072353E-03
         232  2.4899005E-04
         233  8.6415972E-04
         234 -1.8526216E-03
         235  1.3144227E-02
         236 -5.6879283E-03
         237 -6.3880766E-04
         238  2.5560311E-04
         239 -3.9594810E-04
         240 -3.9913219E-05
         241 -1.1522017E-04
         242 -1.4116935E-04
         243  3.5928420E-04
         244  9.6487871E-05
         245 -6.9669593E-05
         246 -6.0458710E-06
         247 -1.2584114E-04
         248  8.0315906E-05
         249  2.3009681E-05
         250  4.8552913E-05
         251 -7.2343397E-04
         252 -1.7083560E-04
         253  1.0601108E-04
         254 -5.3300919E-05
         255 -1.7271428E-04
         256 -4.6821508E-05
         257 -3.1516241E-04
         258  2.4419845E-04
         259  8.2055689E-04
         260 -1.8226996E-04
         261 -2.6338070E-03
         262 -4.9013086E-04
         263  1.6603940E-03
         264  2.6927935E-04
         265  1.3466626E-03
         266  1.8436749E-03
         267 -7.8624100E-05
         268 -9.1889937E-04
         269 -2.1569565E-04
         270 -4.3966984E-03
         271 -5.9174176E-04
         272  3.3047792E-04
         273  3.9223905E-04
         274 -2.8635020E-04
         275  7.0473035E-03
         276  4.2125705E-04
         277 -3.6071055E-04
         278  4.0345336E-04
         279  2.7467284E-04
         280  7.2727553E-03
         281 -1.9356890E-03
         282  1.4526176E-04
         283 -8.7060238E-04
         284  2.8574333E-04
         285 -4.3195095E-03
         286  2.6268351E-03
         287  4.9027463E-04
         288  1.6572563E-03
         289  2.6947921E-04
         290 -1.3438963E-03
         291  4.7275240E-05
         292  3.1566183E-04
         293  2.4654891E-04
         294  8.1946311E-04
         295  1.8091976E-04
         296  1.1952450E-05
         297  1.2621930E-04
         298  8.0438389E-05
         299  2.2959139E-05
         300 -4.8062757E-05
         301  7.1838940E-04
         302  1.6982477E-04
         303  1.0624916E-04
         304 -5.4194850E-05
         305  1.7230508E-04
         306  1.1785942E-04
         307  1.4068556E-04
         308  3.5834231E-04
         309  9.5175943E-05
         310  6.9818336E-05
         311 -2.4393002E-04
         312  3.4248084E-04
         313  1.6244854E-04
         314 -9.6956332E-04
         315 -2.4139229E-04
         316  2.9635865E-03
         317  5.3702376E-04
         318  1.8283911E-03
         319 -2.2644800E-04
         320  1.3627337E-03
         321 -1.8192502E-03
         322  7.8450015E-05
         323 -9.0980827E-04
         324 -2.1375626E-04
         325  4.3952963E-03
         326  5.8614148E-04
         327 -3.2997408E-04
         328  3.8832508E-04
         329 -2.8359963E-04
         330 -7.0476630E-03
         331 -4.2248081E-04
         332  3.5928551E-04
         333  4.0316698E-04
         334  2.7287946E-04
         335 -7.2724954E-03
         336  1.9294671E-03
         337 -1.4404007E-04
         338 -8.6464622E-04
         339  2.8391287E-04
         340  4.3200138E-03
         341 -2.9625224E-03
         342 -5.3732836E-04
         343  1.8310361E-03
         344 -2.3063457E-04
         345 -1.3627012E-03
         346  2.4675747E-04
         347 -3.4379188E-04
         348  1.6482473E-04
         349 -9.6765353E-04
         350  2.3995552E-04
 Sym= Particle
 Ene= -0.5904160    
 Spin= Alpha
 Occup= 2
           1  2.2101777E-03
           2 -3.3699437E-03
           3  7.8034942E-04
           4  4.1229799E-03
           5 -2.4639172E-03
           6  2.8572427E-03
           7 -1.1641760E-04
           8 -3.1752043E-04
           9 -6.6281873E-04
          10 -5.7485362E-04
          11  1.7378557E-03
          12  1.6822208E-03
          13 -9.0316648E-04
          14 -5.4417999E-04
          15 -2.2240267E-03
          16  2.9620759E-03
          17 -6.3616194E-06
          18  1.5903873E-04
          19 -4.8538860E-02
          20  2.6931763E-02
          21 -1.4383577E-04
          22  4.4851162E-04
          23  7.7076792E-03
          24 -3.8989044E-03
          25  1.1533367E-02
          26 -1.5078157E-02
          27  3.8043994E-03
          28 -2.1901152E-03
          29 -6.8104267E-03
          30  5.1039443E-03
          31  3.2098279E-03
          32  2.8957524E-03
          33 -3.2841899E-02
          34  3.0229103E-02
          35  6.8403676E-02
          36  1.9043460E-02
          37  2.2147281E-02
          38 -1.4513296E-02
          39 -1.4582576E-02
          40 -5.3233621E-03
          41 -6.2689905E-05
          42  4.0179351E-04
          43 -1.9370981E-02
          44  8.0460159E-04
          45  2.3277542E-04
          46 -7.2191207E-05
          47  6.2804930E-03
          48  1.4079128E-02
          49  3.1323975E-04
          50  2.3993365E-03
          51  5.9425961E-03
          52  0.4454192    
          53 -5.6539349E-05
          54 -3.0382356E-04
          55 -1.9821003E-03
          56 -9.8147228E-02
          57  3.6860469E-03
          58 -3.0776754E-03
          59 -4.8792372E-03
          60 -0.1131645    
          61 -1.5088299E-03
          62  7.8399241E-04
          63  1.1193799E-03
          64  2.8337169E-02
          65 -1.5384465E-03
          66 -1.1332483E-02
          67 -1.6125862E-03
          68 -0.2808455    
          69  2.0764808E-03
          70  2.8481099E-03
          71  3.2292958E-04
          72  4.3884873E-02
          73 -2.7456600E-04
          74  8.8135712E-03
          75  1.1771877E-03
          76  0.2132450    
          77  7.3488476E-04
          78 -1.8839970E-03
          79 -7.8803633E-04
          80 -4.2600736E-02
          81  3.0252585E-04
          82  9.0561965E-03
          83 -2.2736383E-03
          84  0.2161695    
          85 -6.3187408E-04
          86 -1.9816260E-03
          87  1.0963109E-03
          88 -4.3396499E-02
          89  9.7159162E-04
          90 -1.1697954E-02
          91  3.6958347E-03
          92 -0.2806403    
          93 -1.4355521E-03
          94  2.8578683E-03
          95 -9.2492142E-04
          96  4.3595728E-02
          97 -3.4905144E-03
          98 -1.8786960E-03
          99  5.5262279E-03
         100 -0.1178867    
         101  1.6244006E-03
         102  3.8796101E-05
         103 -1.2618003E-03
         104  2.9873013E-02
         105  3.2496272E-04
         106 -2.5536441E-03
         107 -6.0150786E-03
         108  0.4454349    
         109 -5.8292164E-05
         110  3.4079241E-04
         111  1.9957919E-03
         112 -9.8155253E-02
         113 -7.9681435E-05
         114 -4.0292868E-04
         115  1.9350249E-02
         116  7.8807509E-04
         117  2.5349006E-04
         118  6.6092558E-05
         119 -6.2793195E-03
         120  1.4082962E-02
         121 -3.2852907E-02
         122 -3.0344523E-02
         123 -6.8258032E-02
         124  1.9098677E-02
         125  2.2165077E-02
         126  1.4545350E-02
         127  1.4537340E-02
         128 -5.3285384E-03
         129  1.1532602E-02
         130  1.5061303E-02
         131 -3.8428474E-03
         132 -2.1976673E-03
         133 -6.8082847E-03
         134 -5.1029269E-03
         135 -3.2034866E-03
         136  2.9005678E-03
         137 -9.2371156E-06
         138 -2.8815741E-05
         139  4.8463628E-02
         140  2.6879512E-02
         141 -1.4443298E-04
         142 -4.7430536E-04
         143 -7.6955603E-03
         144 -3.8876864E-03
         145 -6.6348776E-04
         146  5.7129294E-04
         147 -1.7367570E-03
         148  1.6794595E-03
         149 -9.0346945E-04
         150  5.4379558E-04
         151  2.2190206E-03
         152  2.9600924E-03
         153  2.2073914E-03
         154  3.3666198E-03
         155 -7.8498787E-04
         156  4.1162232E-03
         157 -2.4609864E-03
         158 -2.8547621E-03
         159  1.2137860E-04
         160 -3.1370608E-04
         161 -1.1630849E-02
         162 -1.5228007E-02
         163 -4.5830286E-03
         164 -2.9704326E-03
         165  6.6291844E-03
         166  4.1876063E-03
         167 -3.3091060E-03
         168  2.7216580E-03
         169  3.2819126E-02
         170  2.8947597E-02
         171 -6.9149666E-02
         172  1.9453982E-02
         173 -2.1946905E-02
         174 -1.4178327E-02
         175  1.4813042E-02
         176 -5.7063238E-03
         177  3.6752699E-03
         178  3.0747589E-03
         179  4.8836619E-03
         180 -0.1131551    
         181 -1.5054670E-03
         182 -7.8299025E-04
         183 -1.1210734E-03
         184  2.8337771E-02
         185 -1.5398923E-03
         186  1.1286126E-02
         187  1.6322446E-03
         188 -0.2808776    
         189  2.0735580E-03
         190 -2.8350293E-03
         191 -3.2131435E-04
         192  4.3888889E-02
         193 -2.6476107E-04
         194 -8.7836022E-03
         195 -1.2086048E-03
         196  0.2132575    
         197  7.2330720E-04
         198  1.8813582E-03
         199  7.9048745E-04
         200 -4.2607747E-02
         201  2.9292257E-04
         202 -9.0484656E-03
         203  2.2009935E-03
         204  0.2161916    
         205 -6.2833820E-04
         206  1.9860906E-03
         207 -1.0784362E-03
         208 -4.3403011E-02
         209  9.7861583E-04
         210  1.1708456E-02
         211 -3.6027427E-03
         212 -0.2806558    
         213 -1.4448353E-03
         214 -2.8596767E-03
         215  9.0446317E-04
         216  4.3600347E-02
         217 -3.4750074E-03
         218  1.8635044E-03
         219 -5.4980414E-03
         220 -0.1178911    
         221  1.6106702E-03
         222 -3.5199810E-05
         223  1.2547568E-03
         224  2.9873010E-02
         225  3.2808848E-02
         226 -2.9046679E-02
         227  6.9182806E-02
         228  1.9386465E-02
         229 -2.1952081E-02
         230  1.4202211E-02
         231 -1.4800873E-02
         232 -5.6941146E-03
         233 -1.1619236E-02
         234  1.5197086E-02
         235  4.6423292E-03
         236 -2.9902295E-03
         237  6.6186758E-03
         238 -4.1831261E-03
         239  3.3036990E-03
         240  2.7193625E-03
         241 -2.1294383E-03
         242 -1.6260163E-03
         243  2.2002205E-03
         244 -1.2705969E-03
         245  7.1262504E-04
         246 -1.2287038E-02
         247  4.2380220E-03
         248 -4.1846056E-03
         249  1.2854711E-03
         250  6.0137711E-04
         251  6.4244363E-03
         252 -2.0099797E-03
         253  4.2307793E-04
         254  5.6073295E-05
         255  7.7449600E-04
         256 -1.4527147E-02
         257  3.8921477E-03
         258 -2.4616676E-03
         259  7.0331630E-04
         260 -7.0971751E-04
         261  1.0883198E-02
         262  1.9402745E-03
         263 -1.0444824E-02
         264  4.2608735E-04
         265  5.1699644E-03
         266  9.8791264E-04
         267  1.9624049E-03
         268  1.4829371E-03
         269 -5.8550364E-04
         270 -4.1746549E-02
         271  8.3196198E-04
         272 -9.7543576E-05
         273  2.0401091E-03
         274 -7.9819038E-05
         275  3.9744359E-02
         276 -1.0179104E-03
         277  1.5741419E-04
         278  2.0173949E-03
         279 -5.2989886E-05
         280  4.0392272E-02
         281 -6.9900433E-04
         282 -1.8294919E-03
         283  1.3059470E-03
         284  5.7986262E-04
         285 -4.1485962E-02
         286  1.0891346E-02
         287  1.9456219E-03
         288  1.0444224E-02
         289 -4.4513470E-04
         290  5.1789936E-03
         291 -1.4518724E-02
         292  3.8881714E-03
         293  2.4625428E-03
         294 -7.1390945E-04
         295 -7.1059528E-04
         296 -1.2264963E-02
         297  4.2273900E-03
         298  4.1701985E-03
         299 -1.2921900E-03
         300  6.0107477E-04
         301  6.4102476E-03
         302 -2.0050739E-03
         303 -4.2056412E-04
         304 -5.6831952E-05
         305  7.7095057E-04
         306 -2.1274753E-03
         307 -1.6276777E-03
         308 -2.1981127E-03
         309  1.2750999E-03
         310  7.1550166E-04
         311  1.4563645E-02
         312 -3.8262764E-03
         313 -2.8929734E-03
         314 -1.0410509E-03
         315 -7.9161057E-04
         316 -1.0620096E-02
         317 -1.9417088E-03
         318 -1.0390861E-02
         319 -6.8986956E-05
         320  4.9793618E-03
         321  9.8617026E-04
         322  1.9606964E-03
         323 -1.4843909E-03
         324  5.9128623E-04
         325 -4.1757274E-02
         326  8.1133901E-04
         327 -9.5468124E-05
         328 -2.0303815E-03
         329  7.5834861E-05
         330  3.9745420E-02
         331 -1.0094170E-03
         332  1.5696041E-04
         333 -2.0087736E-03
         334  4.0117800E-05
         335  4.0393054E-02
         336 -6.9791952E-04
         337 -1.8342459E-03
         338 -1.3140370E-03
         339 -5.7133689E-04
         340 -4.1488044E-02
         341 -1.0627565E-02
         342 -1.9373597E-03
         343  1.0363257E-02
         344  8.7212597E-05
         345  4.9816724E-03
         346  1.4552075E-02
         347 -3.8214126E-03
         348  2.8890425E-03
         349  1.0559895E-03
         350 -7.9199480E-04
 Sym= Hole
 Ene= -0.5248583    
 Spin= Alpha
 Occup= 0
           1 -1.6664087E-03
           2  3.1764731E-03
           3 -9.6739462E-04
           4 -3.5760575E-03
           5  1.6607856E-03
           6 -1.7198520E-03
           7 -6.7279435E-04
           8  4.4469416E-04
           9  4.7306574E-04
          10  2.5828145E-04
          11 -3.2947778E-03
          12 -1.5594702E-03
          13  6.8745710E-04
          14  3.2300269E-04
          15  1.2924451E-03
          16 -1.6723126E-03
          17  1.4828653E-04
          18  1.8111563E-04
          19  4.8976921E-02
          20 -2.5098488E-02
          21  1.0125819E-04
          22 -1.4589338E-04
          23 -1.6096334E-03
          24  5.3138211E-03
          25 -1.1175413E-02
          26  1.8458143E-02
          27  7.3264684E-03
          28  8.7467942E-04
          29  4.4735721E-03
          30 -2.6557392E-03
          31 -1.5513363E-03
          32 -9.8918262E-04
          33  3.4218632E-02
          34 -3.8937345E-02
          35 -6.8418607E-02
          36 -2.1541908E-02
          37 -1.6716463E-02
          38  1.1761382E-03
          39  4.3707630E-03
          40  4.6476997E-03
          41 -1.9548881E-04
          42  3.5050116E-04
          43 -1.3665719E-02
          44  4.0659659E-02
          45  5.4046297E-05
          46  9.5599047E-05
          47  3.4374320E-03
          48 -1.9082796E-03
          49 -3.9989958E-04
          50 -2.6548947E-03
          51 -6.6006673E-03
          52 -0.4292096    
          53  2.4522988E-05
          54 -9.6840886E-05
          55  1.1737637E-03
          56  1.3920235E-02
          57  2.2131966E-03
          58 -5.2126963E-03
          59 -3.8702437E-03
          60 -0.1174018    
          61 -1.6732161E-03
          62 -3.9344036E-04
          63  1.0921134E-03
          64  2.5517533E-03
          65  1.0465371E-03
          66  1.3001003E-02
          67  3.5164093E-03
          68  0.2701864    
          69 -9.2492765E-04
          70 -5.8999279E-04
          71 -5.6623097E-04
          72 -7.3638782E-03
          73  4.9321228E-05
          74  7.9671955E-03
          75  1.3591219E-03
          76  0.2103073    
          77 -4.8133847E-05
          78 -8.3965038E-05
          79 -5.4808037E-04
          80 -5.7107923E-03
          81  1.1710349E-04
          82 -8.1854993E-03
          83  2.1926912E-03
          84 -0.2141949    
          85 -7.5364558E-05
          86  1.3811685E-04
          87 -5.1242276E-04
          88  5.6064795E-03
          89  9.4903412E-04
          90 -1.3011606E-02
          91  5.1189638E-03
          92 -0.2696312    
          93 -6.9876213E-04
          94  6.1205908E-04
          95 -6.7616836E-04
          96  7.1887453E-03
          97  1.2955948E-03
          98  4.8657921E-03
          99 -4.0443931E-03
         100  0.1219499    
         101 -1.2358155E-03
         102  3.7839031E-04
         103  1.0744373E-03
         104 -2.4821984E-03
         105  3.9944117E-04
         106 -2.8290404E-03
         107 -6.6794981E-03
         108  0.4292212    
         109 -2.4038420E-05
         110 -8.8941633E-05
         111  1.1772539E-03
         112 -1.3923920E-02
         113  2.1795518E-04
         114  3.9514134E-04
         115 -1.3633460E-02
         116 -4.0647130E-02
         117 -5.7942994E-05
         118  9.6596079E-05
         119  3.4333807E-03
         120  1.9027098E-03
         121 -3.4235004E-02
         122 -3.9064448E-02
         123 -6.8263300E-02
         124  2.1615859E-02
         125  1.6728954E-02
         126  1.1863288E-03
         127  4.3674498E-03
         128 -4.6523679E-03
         129  1.1184285E-02
         130  1.8476412E-02
         131  7.2609880E-03
         132 -8.9578493E-04
         133 -4.4746851E-03
         134 -2.6585334E-03
         135 -1.5417130E-03
         136  9.9026843E-04
         137 -1.5023077E-04
         138  3.1735792E-04
         139  4.8896313E-02
         140  2.5048630E-02
         141 -1.0239649E-04
         142 -1.5299731E-04
         143 -1.6069650E-03
         144 -5.3099380E-03
         145 -4.7390224E-04
         146  2.4306154E-04
         147 -3.2845780E-03
         148  1.5606763E-03
         149 -6.8696000E-04
         150  3.2504031E-04
         151  1.2898557E-03
         152  1.6715728E-03
         153  1.6623293E-03
         154  3.1737755E-03
         155 -9.7537960E-04
         156  3.5716838E-03
         157 -1.6588796E-03
         158 -1.7212275E-03
         159 -6.6940486E-04
         160 -4.4378266E-04
         161 -1.1155474E-02
         162 -1.8192062E-02
         163  6.7211054E-03
         164 -1.3351492E-03
         165  4.3783765E-03
         166  2.2478648E-03
         167 -1.5503058E-03
         168  8.0443203E-04
         169  3.4122478E-02
         170  3.7392560E-02
         171 -6.9186226E-02
         172  2.1973105E-02
         173 -1.6685860E-02
         174 -1.0356575E-03
         175  4.2835972E-03
         176 -4.8084147E-03
         177 -2.2101162E-03
         178 -5.1604579E-03
         179 -3.8830191E-03
         180  0.1174359    
         181  1.6708219E-03
         182 -3.9554757E-04
         183  1.0951055E-03
         184 -2.5532620E-03
         185 -1.0529100E-03
         186  1.2939213E-02
         187  3.5219213E-03
         188 -0.2701689    
         189  9.2697726E-04
         190 -5.8685197E-04
         191 -5.6348456E-04
         192  7.3661190E-03
         193 -5.2487296E-05
         194  7.9420116E-03
         195  1.3926891E-03
         196 -0.2102973    
         197  4.7092948E-05
         198 -8.3428989E-05
         199 -5.4976804E-04
         200  5.7108277E-03
         201 -1.1827317E-04
         202 -8.1708515E-03
         203  2.1295194E-03
         204  0.2142005    
         205  7.4171083E-05
         206  1.3784975E-04
         207 -5.1106676E-04
         208 -5.6068883E-03
         209 -9.6031011E-04
         210 -1.3014629E-02
         211  5.0164787E-03
         212  0.2696139    
         213  7.0292776E-04
         214  6.1001803E-04
         215 -6.7153660E-04
         216 -7.1908077E-03
         217 -1.2832194E-03
         218  4.8107426E-03
         219 -4.0246402E-03
         220 -0.1219788    
         221  1.2311694E-03
         222  3.8125578E-04
         223  1.0786889E-03
         224  2.4821768E-03
         225 -3.4118090E-02
         226  3.7496984E-02
         227 -6.9232784E-02
         228 -2.1903748E-02
         229  1.6688393E-02
         230 -1.0478781E-03
         231  4.2916248E-03
         232  4.8064478E-03
         233  1.1155901E-02
         234 -1.8195655E-02
         235  6.6739856E-03
         236  1.3340826E-03
         237 -4.3767560E-03
         238  2.2491461E-03
         239 -1.5452069E-03
         240 -8.0370816E-04
         241  1.6272489E-03
         242  7.9529430E-04
         243 -9.7348442E-04
         244  1.4057989E-03
         245 -3.3228906E-04
         246  1.2250343E-02
         247 -3.5406244E-03
         248  2.5641539E-03
         249 -1.2976688E-03
         250  2.6823388E-04
         251 -7.3519815E-03
         252  2.0293086E-03
         253 -4.1639211E-04
         254 -8.3876873E-04
         255  2.8902665E-04
         256  1.7032152E-02
         257 -1.4561500E-03
         258 -1.9030690E-03
         259  1.2574549E-03
         260  6.7560707E-04
         261 -1.0453074E-02
         262 -9.9247857E-04
         263  7.4072881E-03
         264 -3.8539870E-03
         265 -5.8154324E-03
         266 -4.7988546E-04
         267  1.7868837E-04
         268 -6.9598702E-04
         269  3.3078989E-04
         270  1.1670123E-02
         271 -1.8911505E-03
         272  5.6036119E-04
         273  3.2135932E-04
         274  2.8148690E-05
         275  9.7225048E-03
         276 -2.0769683E-03
         277  5.3114159E-04
         278 -3.2372793E-04
         279  1.0132892E-04
         280 -9.5808292E-03
         281 -6.7697116E-04
         282  2.7283398E-04
         283  6.2162976E-04
         284  2.8002731E-04
         285 -1.1524438E-02
         286  1.0449113E-02
         287  9.9752750E-04
         288  7.4013257E-03
         289 -3.8598231E-03
         290  5.8191381E-03
         291 -1.7035393E-02
         292  1.4529165E-03
         293 -1.9011638E-03
         294  1.2578359E-03
         295 -6.7694584E-04
         296 -1.2222433E-02
         297  3.5349731E-03
         298  2.5552404E-03
         299 -1.3015218E-03
         300 -2.6567641E-04
         301  7.3340484E-03
         302 -2.0262718E-03
         303 -4.1599816E-04
         304 -8.3671312E-04
         305 -2.8921934E-04
         306 -1.6211133E-03
         307 -7.9533271E-04
         308 -9.6865464E-04
         309  1.4071047E-03
         310  3.2894473E-04
         311  1.6856475E-02
         312 -1.3264490E-03
         313  1.5820361E-03
         314  1.0692894E-03
         315 -7.3728675E-04
         316 -1.0449117E-02
         317 -1.0188707E-03
         318 -7.4908547E-03
         319 -3.7642764E-03
         320  5.7235984E-03
         321  4.9699686E-04
         322 -1.7933462E-04
         323 -6.9970248E-04
         324  3.3416119E-04
         325 -1.1671903E-02
         326  1.8760812E-03
         327 -5.5874331E-04
         328  3.2041318E-04
         329  2.9038567E-05
         330 -9.7243832E-03
         331  2.0767439E-03
         332 -5.3218682E-04
         333 -3.2266520E-04
         334  9.6362615E-05
         335  9.5844623E-03
         336  6.8216131E-04
         337 -2.7283168E-04
         338  6.2630011E-04
         339  2.8022213E-04
         340  1.1525049E-02
         341  1.0440789E-02
         342  1.0185537E-03
         343 -7.4770232E-03
         344 -3.7800737E-03
         345 -5.7190903E-03
         346 -1.6846012E-02
         347  1.3242959E-03
         348  1.5793457E-03
         349  1.0723312E-03
         350  7.3515211E-04
 Sym= Particle
 Ene= -0.5248583    
 Spin= Alpha
 Occup= 2
           1  1.4387484E-04
           2 -8.5166260E-04
           3 -3.8048610E-04
           4 -1.2481883E-05
           5 -3.9257316E-04
           6  1.2224287E-04
           7  5.6627940E-04
           8 -2.0372194E-04
           9 -3.0276776E-04
          10  8.6433179E-04
          11 -2.8897478E-04
          12  2.1410262E-04
          13 -9.5903256E-04
          14  7.0076744E-04
          15 -8.9286790E-05
          16 -4.3151897E-05
          17  6.4369757E-04
          18 -2.0065115E-04
          19 -5.5189237E-05
          20 -8.1650633E-06
          21 -1.7190179E-03
          22  1.0929344E-03
          23 -1.1514904E-04
          24 -6.1958726E-06
          25 -2.5520174E-04
          26  1.2833949E-03
          27  1.1692991E-02
          28 -4.2633442E-03
          29 -9.8518620E-04
          30 -6.9754617E-04
          31 -2.8320523E-03
          32  1.8182222E-04
          33  6.6396262E-04
          34 -7.5709168E-04
          35 -8.1514409E-03
          36  5.9133172E-03
          37 -1.7400789E-03
          38  1.2333298E-03
          39 -4.7987849E-03
          40 -4.0618200E-03
          41  3.3512691E-03
          42 -3.9029457E-03
          43  3.1038930E-04
          44 -1.1616988E-04
          45 -3.4246594E-03
          46 -2.2862898E-03
          47  7.4663301E-05
          48  2.0256976E-04
          49 -2.1428715E-03
          50 -6.3922358E-05
          51  1.6600704E-04
          52  2.5825838E-03
          53  1.5671568E-03
          54 -1.6970407E-03
          55 -4.3403135E-05
          56 -5.4604281E-04
          57 -1.8671486E-03
          58 -7.0798500E-03
          59 -6.1566243E-03
          60 -0.4031423    
          61  1.0951929E-03
          62  3.1484955E-03
          63  6.9675385E-04
          64  0.1375128    
          65  4.2320681E-03
          66  1.1614612E-03
          67 -2.4376295E-03
          68  2.7461523E-02
          69 -3.9239214E-03
          70  1.0635536E-03
          71  3.6515240E-04
          72 -1.9859450E-02
          73  4.9765402E-04
          74  1.3249099E-02
          75  2.0431876E-03
          76  0.2952931    
          77 -1.0440981E-03
          78 -3.0644734E-03
          79 -7.5265096E-04
          80 -7.8483209E-02
          81  8.3223189E-04
          82 -1.3230669E-02
          83  3.6877226E-03
          84 -0.2930450    
          85 -1.2933241E-03
          86  3.0758400E-03
          87 -1.5273192E-03
          88  7.8022636E-02
          89  3.9974120E-03
          90 -1.5698522E-03
          91 -2.1087469E-03
          92 -3.0917276E-02
          93 -3.6104401E-03
          94 -9.9352538E-04
          95  2.5368331E-04
          96  1.9902369E-02
          97 -1.2460578E-03
          98  6.5651555E-03
          99 -8.2074879E-03
         100  0.4022173    
         101  7.1466301E-04
         102 -3.0517546E-03
         103  1.5900906E-03
         104 -0.1374050    
         105 -2.1470054E-03
         106  8.4393156E-05
         107 -2.0939138E-04
         108  2.5857838E-03
         109  1.5290296E-03
         110  1.6755206E-03
         111  4.5812743E-05
         112 -5.5514905E-04
         113  3.3517836E-03
         114  3.9391196E-03
         115 -5.4737570E-04
         116 -2.0376846E-04
         117 -3.4707675E-03
         118  2.2712182E-03
         119  3.3457076E-05
         120  2.5380659E-04
         121  7.0543814E-04
         122  7.9817307E-04
         123  8.3570294E-03
         124  6.0391175E-03
         125 -1.8125430E-03
         126 -1.2451014E-03
         127  4.7542704E-03
         128 -4.1448493E-03
         129 -2.8555162E-04
         130 -1.2755351E-03
         131 -1.1892817E-02
         132 -4.3545375E-03
         133 -9.3435094E-04
         134  6.7218218E-04
         135  3.0360264E-03
         136  3.0142476E-04
         137  6.6052965E-04
         138  1.9263808E-04
         139  1.2672349E-04
         140  2.0290850E-05
         141 -1.7093135E-03
         142 -1.0975817E-03
         143  4.8236991E-05
         144 -2.2676681E-05
         145 -2.9638666E-04
         146 -9.0350676E-04
         147  2.7644535E-04
         148  2.4040358E-04
         149 -9.8108745E-04
         150 -6.6449295E-04
         151  1.2726315E-04
         152 -4.1427676E-05
         153  1.5995980E-04
         154  7.9710997E-04
         155  3.9540601E-04
         156  5.9413516E-05
         157 -4.1308760E-04
         158 -9.8308024E-05
         159 -5.9246115E-04
         160 -2.9075780E-04
         161 -5.4253766E-04
         162 -1.3792133E-03
         163  1.1472837E-02
         164  4.2837113E-03
         165 -6.9666264E-04
         166  5.3708773E-04
         167 -2.8854150E-03
         168 -3.0959462E-04
         169  1.1805116E-03
         170  1.0969903E-03
         171 -8.0082715E-03
         172 -5.3957533E-03
         173 -2.0035342E-03
         174 -1.6188659E-03
         175 -5.0437637E-03
         176  4.0036840E-03
         177 -1.8680106E-03
         178  7.1306727E-03
         179  6.1510899E-03
         180 -0.4030740    
         181  1.0858042E-03
         182 -3.1677722E-03
         183 -6.9641735E-04
         184  0.1374687    
         185  4.2191301E-03
         186 -1.1537686E-03
         187  2.4252029E-03
         188  2.7445758E-02
         189 -3.9061622E-03
         190 -1.0651903E-03
         191 -3.8662783E-04
         192 -1.9862071E-02
         193  4.5277874E-04
         194 -1.3189395E-02
         195 -2.0498685E-03
         196  0.2952642    
         197 -9.7101694E-04
         198  2.9965315E-03
         199  7.1594579E-04
         200 -7.8399323E-02
         201  8.7306899E-04
         202  1.3222640E-02
         203 -3.6434105E-03
         204 -0.2931500    
         205 -1.3377413E-03
         206 -3.1267505E-03
         207  1.5709583E-03
         208  7.8186519E-02
         209  3.9537651E-03
         210  1.5671938E-03
         211  2.1077367E-03
         212 -3.0856827E-02
         213 -3.5571151E-03
         214  9.8578655E-04
         215 -2.2858815E-04
         216  1.9918557E-02
         217 -1.2672406E-03
         218 -6.6461833E-03
         219  8.0401739E-03
         220  0.4021143    
         221  7.6715084E-04
         222  3.0961891E-03
         223 -1.5329417E-03
         224 -0.1373338    
         225  1.1265059E-03
         226 -1.0677944E-03
         227  8.2327584E-03
         228 -5.4381206E-03
         229 -1.9169438E-03
         230  1.5930608E-03
         231  4.8475126E-03
         232  3.9803153E-03
         233 -5.3074013E-04
         234  1.4025599E-03
         235 -1.1511553E-02
         236  4.3205852E-03
         237 -6.9553661E-04
         238 -5.5776275E-04
         239  2.8400260E-03
         240 -3.1305762E-04
         241  4.3805983E-04
         242 -1.6558942E-03
         243  1.3380173E-03
         244  3.5537407E-04
         245 -1.1471937E-04
         246  3.2925271E-04
         247 -5.0056272E-04
         248  5.1907898E-04
         249 -5.7212065E-04
         250 -1.5911070E-04
         251  5.9391028E-04
         252 -7.0627657E-04
         253  2.8337710E-04
         254  3.6399343E-04
         255  1.6515772E-04
         256 -1.3621998E-03
         257 -1.6694471E-04
         258  1.0318755E-03
         259  4.2562489E-03
         260 -1.3437696E-03
         261 -1.3516248E-03
         262 -1.2478386E-03
         263  9.1033839E-03
         264 -1.0576624E-02
         265  3.9844904E-03
         266 -4.0407693E-03
         267  2.4180443E-03
         268 -3.8856175E-03
         269 -1.2120346E-03
         270  4.5485971E-03
         271 -1.2490459E-03
         272  1.8023847E-03
         273  2.0397569E-03
         274 -1.6367144E-03
         275  6.6633157E-02
         276 -1.7492489E-03
         277  2.0807439E-03
         278 -1.7676323E-03
         279 -1.9413091E-03
         280 -6.5428145E-02
         281 -4.3178098E-03
         282  2.9298633E-03
         283  3.8143671E-03
         284 -1.3824885E-03
         285 -5.5450439E-03
         286 -1.3989619E-03
         287 -1.2740720E-03
         288 -9.1470852E-03
         289  1.0732209E-02
         290  3.9296830E-03
         291 -1.3504872E-03
         292 -1.2724023E-04
         293 -1.1122758E-03
         294 -4.1603325E-03
         295 -1.2292420E-03
         296  2.8100819E-04
         297 -4.5567204E-04
         298 -4.7922527E-04
         299  5.4152205E-04
         300 -5.8674184E-05
         301  5.6942040E-04
         302 -7.3321926E-04
         303 -2.2979898E-04
         304 -2.2424736E-04
         305  2.2154437E-04
         306  4.7913397E-04
         307 -1.6302484E-03
         308 -1.2459707E-03
         309 -3.3575753E-04
         310 -3.0349486E-04
         311 -9.5295446E-04
         312 -3.6841023E-04
         313 -1.2548863E-03
         314  3.4498274E-03
         315  1.0489995E-03
         316 -1.5890360E-03
         317 -1.0726417E-03
         318 -9.3901521E-03
         319 -1.0154014E-02
         320 -3.9173989E-03
         321 -3.9866152E-03
         322  2.3967111E-03
         323  3.8815476E-03
         324  1.1533154E-03
         325  4.4763363E-03
         326 -1.1989726E-03
         327  1.8512711E-03
         328 -2.1466210E-03
         329  1.5456586E-03
         330  6.6745758E-02
         331 -1.7749084E-03
         332  2.0343026E-03
         333  1.6636958E-03
         334  2.0537204E-03
         335 -6.5296985E-02
         336 -4.2787879E-03
         337  2.9293969E-03
         338 -3.7842107E-03
         339  1.4313417E-03
         340 -5.4919459E-03
         341 -1.5256878E-03
         342 -1.0465885E-03
         343  9.3624787E-03
         344  1.0093062E-02
         345 -4.0317518E-03
         346 -9.4515568E-04
         347 -3.7234751E-04
         348  1.2025548E-03
         349 -3.6288986E-03
         350  1.1185984E-03
