 [Molden Format]
 [Atoms] Angs
N       1      7      1.98787086     -6.44625668     -0.07124145
C       2      6      1.51263396     -5.40368691     -0.05398112
C       3      6      0.92432760     -4.11744897     -0.03501646
C       4      6      1.15262316     -3.26238700      1.04392580
C       5      6      0.57714450     -2.00842237      1.05961137
C       6      6     -0.22979909     -1.60072626      0.00014445
N       7      7     -0.78294753     -0.31005347      0.00477556
C       8      6     -0.05778883      0.86576601     -0.00362460
C       9      6      1.39195208      0.95868583     -0.02790026
C      10      6      2.20675384      0.04658851     -0.69772313
C      11      6      3.58015313      0.19844563     -0.69227811
C      12      6      4.14376361      1.27144560     -0.02304767
BR     13     35      6.03724922      1.47141534     -0.00615713
C      14      6      3.35246239      2.20698494      0.62454180
C      15      6      1.98234014      2.04824611      0.61654295
N      16      7     -0.83364600      1.91886992     -0.00764636
C      17      6     -2.10824951      1.45121013     -0.00815990
C      18      6     -3.31362395      2.20615334     -0.05467740
C      19      6     -3.29132629      3.60320589     -0.11393726
C      20      6     -4.46452677      4.31098266     -0.19435158
C      21      6     -5.67695466      3.62477417     -0.22086691
C      22      6     -5.71006752      2.25128114     -0.15701655
C      23      6     -4.53329620      1.49233736     -0.06401578
C      24      6     -4.53495299      0.04329784      0.04328334
C      25      6     -5.73041572     -0.68543013      0.11861340
C      26      6     -5.74472440     -2.05173715      0.26977267
C      27      6     -4.54918657     -2.75504670      0.37383140
C      28      6     -3.35594806     -2.08039282      0.29511982
C      29      6     -3.31864238     -0.69139787      0.10714351
C      30      6     -2.11167023      0.05780617      0.01235449
C      31      6     -0.45624061     -2.45360022     -1.08012577
C      32      6      0.11585107     -3.70812314     -1.09772805
H      33      1      1.77666557     -3.58815478      1.86226732
H      34      1      0.74638856     -1.33682716      1.88777188
H      35      1      1.77677574     -0.77363472     -1.25148115
H      36      1      4.20835815     -0.50906026     -1.21139231
H      37      1      3.80588896      3.04674762      1.12807406
H      38      1      1.34387815      2.76531186      1.10742674
H      39      1     -2.33074239      4.09418015     -0.10183390
H      40      1     -4.45313416      5.38964781     -0.24202918
H      41      1     -6.60263691      4.17718836     -0.29207618
H      42      1     -6.67198737      1.76478305     -0.18371066
H      43      1     -6.67568657     -0.17020989      0.06795534
H      44      1     -6.68595710     -2.57821206      0.32328239
H      45      1     -4.55764332     -3.82476656      0.52055096
H      46      1     -2.43327275     -2.62893476      0.39992823
H      47      1     -1.08289462     -2.12303177     -1.89529217
H      48      1     -0.05353299     -4.37504304     -1.92963359
 [GTO]
           1   0
s              4   1.000000
     53.06023048     -0.01198412
      9.13741074     -0.05472052
      0.73422994      0.58055871
      0.27983320      0.47700799
p              4   1.000000
      6.25431421      0.05713170
      1.62165028      0.28574555
      0.57168191      0.55178731
      0.22759642      0.26323149
s              7   1.000000
      0.47894987     -0.19076563
      0.05878681      0.92170943
      0.02775758      0.24205489
     53.06023048      0.00456747
      9.13741074      0.02085546
      0.73422994     -0.22126649
      0.27983320     -0.18180053
p              7   1.000000
      2.28619608     -0.01184707
      0.12644335      0.58218336
      0.04872781      0.60800404
      6.25431421     -0.02825362
      1.62165028     -0.14131116
      0.57168191     -0.27287810
      0.22759642     -0.13017717
 
           2   0
s              4   1.000000
     32.72249565     -0.01198412
      5.63508452     -0.05472052
      0.45280308      0.58055871
      0.17257446      0.47700799
p              4   1.000000
      5.27408504      0.05713170
      1.36749149      0.28574555
      0.48208307      0.55178731
      0.19192558      0.26323149
s              7   1.000000
      0.38350848     -0.19849470
      0.04707223      0.95905343
      0.02222627      0.25186198
     32.72249565      0.00587026
      5.63508452      0.02680414
      0.45280308     -0.28437912
      0.17257446     -0.23365615
p              7   1.000000
      1.83062075     -0.01173739
      0.10124670      0.57679342
      0.03901771      0.60237503
      5.27408504     -0.02689603
      1.36749149     -0.13452114
      0.48208307     -0.25976627
      0.19192558     -0.12392214
 
           3   0
s              4   1.000000
     34.97323508     -0.01198412
      6.02268047     -0.05472052
      0.48394807      0.58055871
      0.18444459      0.47700799
p              4   1.000000
      5.63685050      0.05713170
      1.46155116      0.28574555
      0.51524201      0.55178731
      0.20512672      0.26323149
s              7   1.000000
      0.38350848     -0.19619543
      0.04707223      0.94794421
      0.02222627      0.24894454
     34.97323508      0.00550984
      6.02268047      0.02515840
      0.48394807     -0.26691868
      0.18444459     -0.21931002
p              7   1.000000
      1.83062075     -0.01160957
      0.10124670      0.57051190
      0.03901771      0.59581493
      5.63685050     -0.02523926
      1.46155116     -0.12623474
      0.51524201     -0.24376487
      0.20512672     -0.11628863
 
           4   0
s              4   1.000000
     35.01708014     -0.01198412
      6.03023095     -0.05472052
      0.48455479      0.58055871
      0.18467582      0.47700800
p              4   1.000000
      5.64391727      0.05713170
      1.46338347      0.28574555
      0.51588796      0.55178731
      0.20538389      0.26323149
s              7   1.000000
      0.38350848     -0.19615451
      0.04707223      0.94774650
      0.02222627      0.24889262
     35.01708014      0.00550325
      6.03023095      0.02512832
      0.48455479     -0.26659949
      0.18467582     -0.21904777
p              7   1.000000
      1.83062075     -0.01160729
      0.10124670      0.57040013
      0.03901771      0.59569822
      5.64391727     -0.02520896
      1.46338347     -0.12608320
      0.51588796     -0.24347224
      0.20538389     -0.11614903
 
           5   0
s              4   1.000000
     35.01068701     -0.01198412
      6.02913000     -0.05472052
      0.48446632      0.58055871
      0.18464211      0.47700799
p              4   1.000000
      5.64288685      0.05713170
      1.46311630      0.28574555
      0.51579377      0.55178731
      0.20534639      0.26323149
s              7   1.000000
      0.38350848     -0.19616047
      0.04707223      0.94777529
      0.02222627      0.24890018
     35.01068701      0.00550421
      6.02913000      0.02513270
      0.48446632     -0.26664599
      0.18464211     -0.21908597
p              7   1.000000
      1.83062075     -0.01160762
      0.10124670      0.57041641
      0.03901771      0.59571521
      5.64288685     -0.02521337
      1.46311630     -0.12610527
      0.51579377     -0.24351487
      0.20534639     -0.11616937
 
           6   0
s              4   1.000000
     35.14452637     -0.01198412
      6.05217825     -0.05472052
      0.48631835      0.58055871
      0.18534796      0.47700800
p              4   1.000000
      5.66445856      0.05713170
      1.46870952      0.28574555
      0.51776555      0.55178731
      0.20613139      0.26323149
s              7   1.000000
      0.38350848     -0.19603634
      0.04707223      0.94717554
      0.02222627      0.24874267
     35.14452637      0.00548419
      6.05217825      0.02504127
      0.48631835     -0.26567594
      0.18534796     -0.21828894
p              7   1.000000
      1.83062075     -0.01160072
      0.10124670      0.57007732
      0.03901771      0.59536110
      5.66445856     -0.02512129
      1.46870952     -0.12564473
      0.51776555     -0.24262553
      0.20613139     -0.11574511
 
           7   0
s              4   1.000000
     61.56039978     -0.01198412
     10.60121023     -0.05472052
      0.85185248      0.58055871
      0.32466206      0.47700799
p              4   1.000000
      7.25624596      0.05713170
      1.88143623      0.28574555
      0.66326449      0.55178731
      0.26405702      0.26323149
s              7   1.000000
      0.47894987     -0.18767581
      0.05878681      0.90678057
      0.02775758      0.23813435
     61.56039978      0.00394674
     10.60121023      0.01802115
      0.85185248     -0.19119586
      0.32466206     -0.15709342
p              7   1.000000
      2.28619608     -0.01155586
      0.12644335      0.56787282
      0.04872781      0.59305879
      7.25624596     -0.02451555
      1.88143623     -0.12261512
      0.66326449     -0.23677523
      0.26405702     -0.11295421
 
           8   0
s              4   1.000000
     35.89992825     -0.01198412
      6.18226470     -0.05472052
      0.49677135      0.58055871
      0.18933186      0.47700799
p              4   1.000000
      5.78621131      0.05713170
      1.50027819      0.28574555
      0.52889449      0.55178731
      0.21056201      0.26323149
s              7   1.000000
      0.38350848     -0.19535874
      0.04707223      0.94390165
      0.02222627      0.24788290
     35.89992825      0.00537379
      6.18226470      0.02453719
      0.49677135     -0.26032792
      0.18933186     -0.21389482
p              7   1.000000
      1.83062075     -0.01156306
      0.10124670      0.56822646
      0.03901771      0.59342815
      5.78621131     -0.02461357
      1.50027819     -0.12310535
      0.52889449     -0.23772188
      0.21056201     -0.11340580
 
           9   0
s              4   1.000000
     35.07456381     -0.01198412
      6.04013012     -0.05472053
      0.48535023      0.58055871
      0.18497899      0.47700800
p              4   1.000000
      5.65318227      0.05713170
      1.46578575      0.28574555
      0.51673483      0.55178731
      0.20572104      0.26323149
s              7   1.000000
      0.38350848     -0.19610107
      0.04707223      0.94748829
      0.02222627      0.24882481
     35.07456381      0.00549463
      6.04013012      0.02508898
      0.48535023     -0.26618215
      0.18497899     -0.21870486
p              7   1.000000
      1.83062075     -0.01160432
      0.10124670      0.57025415
      0.03901771      0.59554574
      5.65318227     -0.02516934
      1.46578575     -0.12588506
      0.51673483     -0.24308963
      0.20572104     -0.11596651
 
          10   0
s              4   1.000000
     35.02560154     -0.01198412
      6.03169841     -0.05472052
      0.48467270      0.58055871
      0.18472076      0.47700799
p              4   1.000000
      5.64529072      0.05713170
      1.46373958      0.28574555
      0.51601350      0.55178731
      0.20543387      0.26323149
s              7   1.000000
      0.38350848     -0.19614657
      0.04707223      0.94770815
      0.02222627      0.24888256
     35.02560154      0.00550197
      6.03169841      0.02512248
      0.48467270     -0.26653754
      0.18472076     -0.21899687
p              7   1.000000
      1.83062075     -0.01160685
      0.10124670      0.57037845
      0.03901771      0.59567556
      5.64529072     -0.02520308
      1.46373958     -0.12605379
      0.51601350     -0.24341545
      0.20543387     -0.11612194
 
          11   0
s              4   1.000000
     35.18948203     -0.01198412
      6.05991999     -0.05472053
      0.48694043      0.58055871
      0.18558505      0.47700799
p              4   1.000000
      5.67170434      0.05713170
      1.47058824      0.28574555
      0.51842786      0.55178731
      0.20639507      0.26323149
s              7   1.000000
      0.38350848     -0.19599493
      0.04707223      0.94697546
      0.02222627      0.24869014
     35.18948203      0.00547749
      6.05991999      0.02501070
      0.48694043     -0.26535165
      0.18558505     -0.21802250
p              7   1.000000
      1.83062075     -0.01159842
      0.10124670      0.56996420
      0.03901771      0.59524296
      5.67170434     -0.02509051
      1.47058824     -0.12549076
      0.51842786     -0.24232822
      0.20639507     -0.11560327
 
          12   0
s              4   1.000000
     34.94090500     -0.01198412
      6.01711296     -0.05472053
      0.48350070      0.58055871
      0.18427409      0.47700799
p              4   1.000000
      5.63163966      0.05713170
      1.46020007      0.28574555
      0.51476571      0.55178731
      0.20493710      0.26323149
s              7   1.000000
      0.38350848     -0.19622569
      0.04707223      0.94809042
      0.02222627      0.24898293
     34.94090500      0.00551471
      6.01711296      0.02518063
      0.48350070     -0.26715452
      0.18427409     -0.21950380
p              7   1.000000
      1.83062075     -0.01161125
      0.10124670      0.57059457
      0.03901771      0.59590126
      5.63163966     -0.02526164
      1.46020007     -0.12634670
      0.51476571     -0.24398107
      0.20493710     -0.11639177
 
          13   0
s              4   1.000000
      0.85249663     -0.11206828
      0.43732078     -0.28454268
      0.13360068      0.89098737
      0.07438653      0.35178112
p              4   1.000000
     12.73626001     -0.00603522
      3.69271026     -0.06013311
      0.64450256      0.64515181
      0.31625216      0.41179238
s              7   1.000000
      0.08230620     -0.73501239
      0.03358786      0.82944569
      0.01989320      0.79377980
      0.85249663      0.05417823
      0.43732078      0.13755917
      0.13360068     -0.43073847
      0.07438653     -0.17006488
p              7   1.000000
      0.16210445     -0.13955190
      0.03603777      0.81115037
      0.01984789      0.27377792
     12.73626001      0.00056096
      3.69271026      0.00558919
      0.64450256     -0.05996495
      0.31625216     -0.03827488
 
          14   0
s              4   1.000000
     35.17989567     -0.01198412
      6.05826913     -0.05472053
      0.48680777      0.58055871
      0.18553449      0.47700799
p              4   1.000000
      5.67015925      0.05713170
      1.47018762      0.28574555
      0.51828663      0.55178731
      0.20633884      0.26323149
s              7   1.000000
      0.38350848     -0.19600375
      0.04707223      0.94701807
      0.02222627      0.24870133
     35.17989567      0.00547892
      6.05826913      0.02501722
      0.48680777     -0.26542074
      0.18553449     -0.21807926
p              7   1.000000
      1.83062075     -0.01159891
      0.10124670      0.56998830
      0.03901771      0.59526813
      5.67015925     -0.02509707
      1.47018762     -0.12552356
      0.51828663     -0.24239156
      0.20633884     -0.11563349
 
          15   0
s              4   1.000000
     35.05148527     -0.01198412
      6.03615580     -0.05472053
      0.48503087      0.58055871
      0.18485727      0.47700799
p              4   1.000000
      5.64946256      0.05713170
      1.46482128      0.28574555
      0.51639483      0.55178731
      0.20558568      0.26323149
s              7   1.000000
      0.38350848     -0.19612249
      0.04707223      0.94759183
      0.02222627      0.24885199
     35.05148527      0.00549809
      6.03615580      0.02510476
      0.48503087     -0.26634955
      0.18485727     -0.21884241
p              7   1.000000
      1.83062075     -0.01160551
      0.10124670      0.57031268
      0.03901771      0.59560687
      5.64946256     -0.02518523
      1.46482128     -0.12596454
      0.51639483     -0.24324310
      0.20558568     -0.11603972
 
          16   0
s              4   1.000000
     57.51236556     -0.01198412
      9.90410524     -0.05472052
      0.79583712      0.58055871
      0.30331322      0.47700799
p              4   1.000000
      6.77909617      0.05713170
      1.75771841      0.28574555
      0.61965013      0.55178731
      0.24669340      0.26323149
s              7   1.000000
      0.47894987     -0.18899220
      0.05878681      0.91314085
      0.02775758      0.23980466
     57.51236556      0.00422112
      9.90410524      0.01927399
      0.79583712     -0.20448781
      0.30331322     -0.16801457
p              7   1.000000
      2.28619608     -0.01168031
      0.12644335      0.57398814
      0.04872781      0.59944533
      6.77909617     -0.02616686
      1.75771841     -0.13087417
      0.61965013     -0.25272381
      0.24669340     -0.12056251
 
          17   0
s              4   1.000000
     35.84264782     -0.01198412
      6.17240054     -0.05472052
      0.49597872      0.58055871
      0.18902977      0.47700799
p              4   1.000000
      5.77697907      0.05713170
      1.49788441      0.28574555
      0.52805061      0.55178731
      0.21022605      0.26323149
s              7   1.000000
      0.38350848     -0.19540879
      0.04707223      0.94414347
      0.02222627      0.24794642
     35.84264782      0.00538201
      6.17240054      0.02457472
      0.49597872     -0.26072606
      0.18902977     -0.21422194
p              7   1.000000
      1.83062075     -0.01156584
      0.10124670      0.56836316
      0.03901771      0.59357092
      5.77697907     -0.02465137
      1.49788441     -0.12329441
      0.52805061     -0.23808697
      0.21022605     -0.11357997
 
          18   0
s              4   1.000000
     35.19285215     -0.01198412
      6.06050035     -0.05472052
      0.48698706      0.58055871
      0.18560282      0.47700799
p              4   1.000000
      5.67224753      0.05713170
      1.47072908      0.28574555
      0.51847751      0.55178731
      0.20641483      0.26323149
s              7   1.000000
      0.38350848     -0.19599183
      0.04707223      0.94696049
      0.02222627      0.24868620
     35.19285215      0.00547699
      6.06050035      0.02500841
      0.48698706     -0.26532737
      0.18560282     -0.21800255
p              7   1.000000
      1.83062075     -0.01159825
      0.10124670      0.56995574
      0.03901771      0.59523410
      5.67224753     -0.02508820
      1.47072908     -0.12547924
      0.51847751     -0.24230596
      0.20641483     -0.11559266
 
          19   0
s              4   1.000000
     35.00307015     -0.01198412
      6.02781832     -0.05472052
      0.48436092      0.58055871
      0.18460194      0.47700799
p              4   1.000000
      5.64165920      0.05713170
      1.46279799      0.28574555
      0.51568156      0.55178731
      0.20530171      0.26323149
s              7   1.000000
      0.38350848     -0.19616757
      0.04707223      0.94780960
      0.02222627      0.24890920
     35.00307015      0.00550535
      6.02781832      0.02513792
      0.48436092     -0.26670140
      0.18460194     -0.21913150
p              7   1.000000
      1.83062075     -0.01160802
      0.10124670      0.57043580
      0.03901771      0.59573548
      5.64165920     -0.02521863
      1.46279799     -0.12613158
      0.51568156     -0.24356567
      0.20530171     -0.11619360
 
          20   0
s              4   1.000000
     34.90890726     -0.01198412
      6.01160269     -0.05472052
      0.48305793      0.58055871
      0.18410533      0.47700799
p              4   1.000000
      5.62648239      0.05713170
      1.45886287      0.28574555
      0.51429430      0.55178731
      0.20474943      0.26323149
s              7   1.000000
      0.38350848     -0.19625571
      0.04707223      0.94823547
      0.02222627      0.24902103
     34.90890726      0.00551953
      6.01160269      0.02520267
      0.48305793     -0.26738834
      0.18410533     -0.21969591
p              7   1.000000
      1.83062075     -0.01161292
      0.10124670      0.57067658
      0.03901771      0.59598691
      5.62648239     -0.02528384
      1.45886287     -0.12645771
      0.51429430     -0.24419543
      0.20474943     -0.11649403
 
          21   0
s              4   1.000000
     34.91572419     -0.01198412
      6.01277662     -0.05472053
      0.48315226      0.58055871
      0.18414128      0.47700799
p              4   1.000000
      5.62758111      0.05713170
      1.45914775      0.28574555
      0.51439473      0.55178731
      0.20478941      0.26323149
s              7   1.000000
      0.38350848     -0.19624931
      0.04707223      0.94820455
      0.02222627      0.24901291
     34.91572419      0.00551850
      6.01277662      0.02519797
      0.48315226     -0.26733849
      0.18414128     -0.21965495
p              7   1.000000
      1.83062075     -0.01161256
      0.10124670      0.57065909
      0.03901771      0.59596866
      5.62758111     -0.02527911
      1.45914775     -0.12643404
      0.51439473     -0.24414973
      0.20478941     -0.11647223
 
          22   0
s              4   1.000000
     35.00347660     -0.01198412
      6.02788831     -0.05472053
      0.48436655      0.58055871
      0.18460408      0.47700799
p              4   1.000000
      5.64172471      0.05713170
      1.46281497      0.28574555
      0.51568754      0.55178731
      0.20530410      0.26323149
s              7   1.000000
      0.38350848     -0.19616719
      0.04707223      0.94780777
      0.02222627      0.24890871
     35.00347660      0.00550529
      6.02788831      0.02513765
      0.48436655     -0.26669844
      0.18460408     -0.21912907
p              7   1.000000
      1.83062075     -0.01160800
      0.10124670      0.57043477
      0.03901771      0.59573438
      5.64172471     -0.02521835
      1.46281497     -0.12613018
      0.51568754     -0.24356296
      0.20530410     -0.11619231
 
          23   0
s              4   1.000000
     35.18122417     -0.01198412
      6.05849791     -0.05472052
      0.48682616      0.58055871
      0.18554150      0.47700799
p              4   1.000000
      5.67037337      0.05713170
      1.47024314      0.28574555
      0.51830620      0.55178731
      0.20634663      0.26323149
s              7   1.000000
      0.38350848     -0.19600253
      0.04707223      0.94701217
      0.02222627      0.24869977
     35.18122417      0.00547872
      6.05849791      0.02501631
      0.48682616     -0.26541116
      0.18554150     -0.21807139
p              7   1.000000
      1.83062075     -0.01159884
      0.10124670      0.56998496
      0.03901771      0.59526461
      5.67037337     -0.02509616
      1.47024314     -0.12551902
      0.51830620     -0.24238278
      0.20634663     -0.11562930
 
          24   0
s              4   1.000000
     35.18614365     -0.01198412
      6.05934509     -0.05472052
      0.48689423      0.58055871
      0.18556744      0.47700799
p              4   1.000000
      5.67116627      0.05713170
      1.47044873      0.28574555
      0.51837868      0.55178731
      0.20637548      0.26323149
s              7   1.000000
      0.38350848     -0.19599800
      0.04707223      0.94699030
      0.02222627      0.24869402
     35.18614365      0.00547799
      6.05934509      0.02501297
      0.48689423     -0.26537571
      0.18556744     -0.21804226
p              7   1.000000
      1.83062075     -0.01159859
      0.10124670      0.56997259
      0.03901771      0.59525170
      5.67116627     -0.02509279
      1.47044873     -0.12550218
      0.51837868     -0.24235027
      0.20637548     -0.11561380
 
          25   0
s              4   1.000000
     35.01077108     -0.01198412
      6.02914448     -0.05472052
      0.48446748      0.58055871
      0.18464255      0.47700799
p              4   1.000000
      5.64290040      0.05713170
      1.46311981      0.28574555
      0.51579501      0.55178731
      0.20534688      0.26323149
s              7   1.000000
      0.38350848     -0.19616039
      0.04707223      0.94777492
      0.02222627      0.24890008
     35.01077108      0.00550420
      6.02914448      0.02513264
      0.48446748     -0.26664538
      0.18464255     -0.21908547
p              7   1.000000
      1.83062075     -0.01160762
      0.10124670      0.57041619
      0.03901771      0.59571496
      5.64290040     -0.02521331
      1.46311981     -0.12610498
      0.51579501     -0.24351431
      0.20534688     -0.11616910
 
          26   0
s              4   1.000000
     34.90984952     -0.01198412
      6.01176496     -0.05472052
      0.48307097      0.58055871
      0.18411030      0.47700800
p              4   1.000000
      5.62663426      0.05713170
      1.45890224      0.28574555
      0.51430819      0.55178731
      0.20475495      0.26323149
s              7   1.000000
      0.38350848     -0.19625483
      0.04707223      0.94823119
      0.02222627      0.24901991
     34.90984952      0.00551939
      6.01176496      0.02520202
      0.48307097     -0.26738145
      0.18411030     -0.21969025
p              7   1.000000
      1.83062075     -0.01161287
      0.10124670      0.57067416
      0.03901771      0.59598440
      5.62663426     -0.02528318
      1.45890224     -0.12645443
      0.51430819     -0.24418911
      0.20475495     -0.11649102
 
          27   0
s              4   1.000000
     34.90950768     -0.01198412
      6.01170609     -0.05472053
      0.48306624      0.58055871
      0.18410850      0.47700799
p              4   1.000000
      5.62657916      0.05713170
      1.45888796      0.28574555
      0.51430315      0.55178731
      0.20475295      0.26323149
s              7   1.000000
      0.38350848     -0.19625515
      0.04707223      0.94823274
      0.02222627      0.24902032
     34.90950768      0.00551944
      6.01170609      0.02520226
      0.48306624     -0.26738395
      0.18410850     -0.21969231
p              7   1.000000
      1.83062075     -0.01161289
      0.10124670      0.57067504
      0.03901771      0.59598529
      5.62657916     -0.02528342
      1.45888796     -0.12645562
      0.51430315     -0.24419140
      0.20475295     -0.11649211
 
          28   0
s              4   1.000000
     35.00165550     -0.01198412
      6.02757470     -0.05472053
      0.48434135      0.58055871
      0.18459448      0.47700800
p              4   1.000000
      5.64143119      0.05713170
      1.46273887      0.28574555
      0.51566071      0.55178731
      0.20529342      0.26323149
s              7   1.000000
      0.38350848     -0.19616889
      0.04707223      0.94781599
      0.02222627      0.24891086
     35.00165550      0.00550557
      6.02757470      0.02513889
      0.48434135     -0.26671170
      0.18459448     -0.21913996
p              7   1.000000
      1.83062075     -0.01160809
      0.10124670      0.57043941
      0.03901771      0.59573924
      5.64143119     -0.02521961
      1.46273887     -0.12613647
      0.51566071     -0.24357511
      0.20529342     -0.11619811
 
          29   0
s              4   1.000000
     35.15064774     -0.01198412
      6.05323240     -0.05472052
      0.48640305      0.58055871
      0.18538024      0.47700800
p              4   1.000000
      5.66544518      0.05713170
      1.46896534      0.28574555
      0.51785574      0.55178731
      0.20616729      0.26323149
s              7   1.000000
      0.38350848     -0.19603069
      0.04707223      0.94714826
      0.02222627      0.24873551
     35.15064774      0.00548327
      6.05323240      0.02503710
      0.48640305     -0.26563173
      0.18538024     -0.21825262
p              7   1.000000
      1.83062075     -0.01160041
      0.10124670      0.57006191
      0.03901771      0.59534499
      5.66544518     -0.02511710
      1.46896534     -0.12562374
      0.51785574     -0.24258500
      0.20616729     -0.11572577
 
          30   0
s              4   1.000000
     35.64698599     -0.01198412
      6.13870595     -0.05472053
      0.49327122      0.58055871
      0.18799787      0.47700799
p              4   1.000000
      5.74544306      0.05713170
      1.48970759      0.28574555
      0.52516803      0.55178731
      0.20907844      0.26323149
s              7   1.000000
      0.38350848     -0.19558137
      0.04707223      0.94497732
      0.02222627      0.24816540
     35.64698599      0.00541027
      6.13870595      0.02470375
      0.49327122     -0.26209506
      0.18799787     -0.21534676
p              7   1.000000
      1.83062075     -0.01157543
      0.10124670      0.56883457
      0.03901771      0.59406323
      5.74544306     -0.02478135
      1.48970759     -0.12394449
      0.52516803     -0.23934230
      0.20907844     -0.11417883
 
          31   0
s              4   1.000000
     35.00549015     -0.01198412
      6.02823506     -0.05472053
      0.48439441      0.58055871
      0.18461470      0.47700799
p              4   1.000000
      5.64204924      0.05713170
      1.46289912      0.28574555
      0.51571721      0.55178731
      0.20531591      0.26323149
s              7   1.000000
      0.38350848     -0.19616531
      0.04707223      0.94779870
      0.02222627      0.24890632
     35.00549015      0.00550499
      6.02823506      0.02513626
      0.48439441     -0.26668380
      0.18461470     -0.21911703
p              7   1.000000
      1.83062075     -0.01160789
      0.10124670      0.57042964
      0.03901771      0.59572904
      5.64204924     -0.02521696
      1.46289912     -0.12612322
      0.51571721     -0.24354953
      0.20531591     -0.11618590
 
          32   0
s              4   1.000000
     35.01677120     -0.01198412
      6.03017775     -0.05472052
      0.48455051      0.58055871
      0.18467419      0.47700799
p              4   1.000000
      5.64386748      0.05713170
      1.46337056      0.28574555
      0.51588341      0.55178730
      0.20538207      0.26323149
s              7   1.000000
      0.38350848     -0.19615480
      0.04707223      0.94774790
      0.02222627      0.24889299
     35.01677120      0.00550330
      6.03017775      0.02512853
      0.48455051     -0.26660174
      0.18467419     -0.21904961
p              7   1.000000
      1.83062075     -0.01160731
      0.10124670      0.57040092
      0.03901771      0.59569903
      5.64386748     -0.02520917
      1.46337056     -0.12608427
      0.51588341     -0.24347430
      0.20538207     -0.11615001
 
          33   0
s              4   1.000000
      8.30917726      0.05675242
      1.52047706      0.26014135
      0.42240518      0.53284611
      0.14019248      0.29162544
s              7   1.000000
      0.92936822     -0.06732813
      0.05643440      0.66945245
      0.02166600      0.51461238
      8.30917726     -0.02902210
      1.52047706     -0.13303129
      0.42240518     -0.27248726
      0.14019248     -0.14913165
p              4   1.000000
      0.64737396      0.05713170
      0.16785440      0.28574555
      0.05917387      0.55178731
      0.02355814      0.26323150
 
          34   0
s              4   1.000000
      8.30949765      0.05675242
      1.52053569      0.26014135
      0.42242147      0.53284611
      0.14019789      0.29162544
s              7   1.000000
      0.92936822     -0.06732772
      0.05643440      0.66944835
      0.02166600      0.51460923
      8.30949765     -0.02902124
      1.52053569     -0.13302736
      0.42242147     -0.27247921
      0.14019789     -0.14912724
p              4   1.000000
      0.64737396      0.05713170
      0.16785440      0.28574555
      0.05917387      0.55178731
      0.02355814      0.26323150
 
          35   0
s              4   1.000000
      8.31042960      0.05675242
      1.52070623      0.26014135
      0.42246884      0.53284611
      0.14021361      0.29162544
s              7   1.000000
      0.92936822     -0.06732652
      0.05643440      0.66943644
      0.02166600      0.51460006
      8.31042960     -0.02901875
      1.52070623     -0.13301593
      0.42246884     -0.27245581
      0.14021361     -0.14911443
p              4   1.000000
      0.64737396      0.05713170
      0.16785440      0.28574555
      0.05917387      0.55178731
      0.02355814      0.26323150
 
          36   0
s              4   1.000000
      8.31123163      0.05675242
      1.52085299      0.26014135
      0.42250961      0.53284611
      0.14022714      0.29162544
s              7   1.000000
      0.92936822     -0.06732549
      0.05643440      0.66942618
      0.02166600      0.51459218
      8.31123163     -0.02901660
      1.52085299     -0.13300610
      0.42250961     -0.27243567
      0.14022714     -0.14910341
p              4   1.000000
      0.64737396      0.05713170
      0.16785440      0.28574555
      0.05917387      0.55178731
      0.02355814      0.26323150
 
          37   0
s              4   1.000000
      8.31113863      0.05675242
      1.52083597      0.26014135
      0.42250489      0.53284611
      0.14022557      0.29162544
s              7   1.000000
      0.92936822     -0.06732561
      0.05643440      0.66942737
      0.02166600      0.51459310
      8.31113863     -0.02901685
      1.52083597     -0.13300724
      0.42250489     -0.27243801
      0.14022557     -0.14910469
p              4   1.000000
      0.64737396      0.05713170
      0.16785440      0.28574555
      0.05917387      0.55178731
      0.02355814      0.26323150
 
          38   0
s              4   1.000000
      8.30978782      0.05675242
      1.52058879      0.26014135
      0.42243622      0.53284611
      0.14020278      0.29162544
s              7   1.000000
      0.92936822     -0.06732734
      0.05643440      0.66944465
      0.02166600      0.51460637
      8.30978782     -0.02902046
      1.52058879     -0.13302380
      0.42243622     -0.27247193
      0.14020278     -0.14912325
p              4   1.000000
      0.64737396      0.05713170
      0.16785440      0.28574555
      0.05917387      0.55178731
      0.02355814      0.26323150
 
          39   0
s              4   1.000000
      8.30959649      0.05675242
      1.52055378      0.26014135
      0.42242649      0.53284611
      0.14019956      0.29162544
s              7   1.000000
      0.92936822     -0.06732759
      0.05643440      0.66944709
      0.02166600      0.51460826
      8.30959649     -0.02902098
      1.52055378     -0.13302615
      0.42242649     -0.27247673
      0.14019956     -0.14912588
p              4   1.000000
      0.64737396      0.05713170
      0.16785440      0.28574555
      0.05917387      0.55178731
      0.02355814      0.26323150
 
          40   0
s              4   1.000000
      8.30881223      0.05675242
      1.52041027      0.26014135
      0.42238662      0.53284611
      0.14018632      0.29162544
s              7   1.000000
      0.92936822     -0.06732860
      0.05643440      0.66945713
      0.02166600      0.51461596
      8.30881223     -0.02902307
      1.52041027     -0.13303576
      0.42238662     -0.27249643
      0.14018632     -0.14913666
p              4   1.000000
      0.64737396      0.05713170
      0.16785440      0.28574555
      0.05917387      0.55178731
      0.02355814      0.26323150
 
          41   0
s              4   1.000000
      8.30893248      0.05675242
      1.52043228      0.26014135
      0.42239274      0.53284611
      0.14018835      0.29162544
s              7   1.000000
      0.92936822     -0.06732844
      0.05643440      0.66945559
      0.02166600      0.51461479
      8.30893248     -0.02902275
      1.52043228     -0.13303429
      0.42239274     -0.27249341
      0.14018835     -0.14913501
p              4   1.000000
      0.64737396      0.05713170
      0.16785440      0.28574555
      0.05917387      0.55178731
      0.02355814      0.26323150
 
          42   0
s              4   1.000000
      8.30982265      0.05675242
      1.52059517      0.26014135
      0.42243799      0.53284611
      0.14020337      0.29162544
s              7   1.000000
      0.92936822     -0.06732730
      0.05643440      0.66944420
      0.02166600      0.51460602
      8.30982265     -0.02902037
      1.52059517     -0.13302337
      0.42243799     -0.27247105
      0.14020337     -0.14912277
p              4   1.000000
      0.64737396      0.05713170
      0.16785440      0.28574555
      0.05917387      0.55178731
      0.02355814      0.26323150
 
          43   0
s              4   1.000000
      8.31002759      0.05675242
      1.52063267      0.26014135
      0.42244841      0.53284611
      0.14020683      0.29162544
s              7   1.000000
      0.92936822     -0.06732703
      0.05643440      0.66944158
      0.02166600      0.51460401
      8.31002759     -0.02901982
      1.52063267     -0.13302086
      0.42244841     -0.27246590
      0.14020683     -0.14911996
p              4   1.000000
      0.64737396      0.05713170
      0.16785440      0.28574555
      0.05917387      0.55178731
      0.02355814      0.26323150
 
          44   0
s              4   1.000000
      8.30892429      0.05675242
      1.52043078      0.26014135
      0.42239232      0.53284611
      0.14018821      0.29162544
s              7   1.000000
      0.92936822     -0.06732845
      0.05643440      0.66945569
      0.02166600      0.51461487
      8.30892429     -0.02902277
      1.52043078     -0.13303439
      0.42239232     -0.27249361
      0.14018821     -0.14913512
p              4   1.000000
      0.64737396      0.05713170
      0.16785440      0.28574555
      0.05917387      0.55178731
      0.02355814      0.26323150
 
          45   0
s              4   1.000000
      8.30890174      0.05675242
      1.52042665      0.26014135
      0.42239117      0.53284611
      0.14018783      0.29162544
s              7   1.000000
      0.92936822     -0.06732848
      0.05643440      0.66945598
      0.02166600      0.51461509
      8.30890174     -0.02902283
      1.52042665     -0.13303467
      0.42239117     -0.27249418
      0.14018783     -0.14913543
p              4   1.000000
      0.64737396      0.05713170
      0.16785440      0.28574555
      0.05917387      0.55178731
      0.02355814      0.26323150
 
          46   0
s              4   1.000000
      8.31101977      0.05675242
      1.52081422      0.26014135
      0.42249884      0.53284611
      0.14022357      0.29162544
s              7   1.000000
      0.92936822     -0.06732576
      0.05643440      0.66942889
      0.02166600      0.51459427
      8.31101977     -0.02901717
      1.52081422     -0.13300870
      0.42249884     -0.27244099
      0.14022357     -0.14910632
p              4   1.000000
      0.64737396      0.05713170
      0.16785440      0.28574555
      0.05917387      0.55178731
      0.02355814      0.26323150
 
          47   0
s              4   1.000000
      8.30938336      0.05675242
      1.52051478      0.26014135
      0.42241566      0.53284611
      0.14019596      0.29162544
s              7   1.000000
      0.92936822     -0.06732786
      0.05643440      0.66944982
      0.02166600      0.51461035
      8.30938336     -0.02902155
      1.52051478     -0.13302876
      0.42241566     -0.27248208
      0.14019596     -0.14912881
p              4   1.000000
      0.64737396      0.05713170
      0.16785440      0.28574555
      0.05917387      0.55178731
      0.02355814      0.26323150
 
          48   0
s              4   1.000000
      8.30915543      0.05675242
      1.52047307      0.26014135
      0.42240407      0.53284611
      0.14019211      0.29162544
s              7   1.000000
      0.92936822     -0.06732816
      0.05643440      0.66945273
      0.02166600      0.51461258
      8.30915543     -0.02902216
      1.52047307     -0.13303156
      0.42240407     -0.27248781
      0.14019211     -0.14913195
p              4   1.000000
      0.64737396      0.05713170
      0.16785440      0.28574555
      0.05917387      0.55178731
      0.02355814      0.26323150
 
 [MO]
 Sym= Hole
 Ene=  -1.038815    
 Spin= Alpha
 Occup= 0
           1 -3.0812679E-04
           2 -1.2493287E-02
           3 -5.2965088E-03
           4  7.4785179E-03
           5 -4.5244448E-04
           6  5.2007323E-04
           7 -2.1651403E-04
           8 -3.5104356E-04
           9 -5.3554273E-04
          10  3.8489755E-03
          11  1.2283487E-03
          12 -2.4542860E-03
          13 -3.7640394E-04
          14  2.0260918E-04
          15 -4.3871166E-04
          16 -2.7612425E-04
          17  3.4860085E-04
          18  2.3664273E-02
          19  1.1668809E-02
          20 -1.7890895E-02
          21 -1.7740825E-04
          22 -1.2649108E-03
          23 -1.0003387E-03
          24  2.4990856E-03
          25 -4.7601056E-03
          26 -9.3005644E-04
          27 -7.7828141E-03
          28  3.5965252E-03
          29  2.2641686E-03
          30 -1.0012720E-03
          31  1.8785988E-03
          32  1.4296960E-04
          33  1.3147874E-02
          34 -3.8611803E-02
          35 -2.5176753E-03
          36  3.0410134E-03
          37 -7.3041255E-03
          38  4.3531782E-03
          39 -2.9753824E-03
          40  1.8945392E-03
          41  5.9275515E-04
          42 -2.6345865E-03
          43  3.3212494E-04
          44  1.2780930E-02
          45  7.7699246E-05
          46  8.2119188E-04
          47  4.0334628E-05
          48 -6.2414510E-03
          49  2.9635874E-03
          50 -7.6375864E-03
          51  4.0834310E-04
          52 -0.1408628    
          53 -1.8698021E-03
          54  1.3835734E-03
          55  1.2063625E-03
          56  1.0954327E-02
          57 -5.6378688E-03
          58 -5.9918934E-03
          59  9.0993830E-04
          60 -0.3793313    
          61  2.4363608E-03
          62  1.4282439E-03
          63  1.9037034E-03
          64  1.4295808E-02
          65  9.3200553E-04
          66  4.5603164E-03
          67 -2.8977128E-02
          68  7.9639524E-02
          69 -1.3576182E-05
          70 -1.0447953E-03
          71  3.8814349E-03
          72 -9.9639529E-03
          73 -1.6620889E-02
          74  2.9019514E-02
          75 -0.1040114    
          76  0.1087951    
          77  9.1700153E-03
          78 -2.7664586E-03
          79  5.7584057E-03
          80 -1.4695908E-03
          81  5.1441616E-03
          82 -8.6447867E-03
          83  1.4197909E-02
          84 -1.6494695E-02
          85 -2.0277405E-03
          86  2.4447187E-03
          87 -6.8994914E-04
          88  1.2854654E-03
          89  7.3351793E-04
          90 -6.8753920E-03
          91  7.7677749E-02
          92 -0.1299268    
          93 -2.4489858E-04
          94  3.5564826E-05
          95 -3.5305731E-03
          96  9.0981992E-03
          97 -1.6837462E-04
          98  2.9546448E-03
          99 -2.0900745E-02
         100  3.3425864E-02
         101 -9.0852416E-05
         102 -3.8242489E-04
         103  3.6249538E-03
         104 -4.2436090E-03
         105 -6.7504584E-03
         106  8.5138604E-03
         107  1.5121832E-02
         108 -1.7034495E-02
         109  2.7123704E-03
         110 -2.8777590E-03
         111 -1.6416481E-03
         112  1.4689778E-03
         113  2.0606073E-02
         114 -1.0519803E-02
         115 -0.1006673    
         116  0.1122330    
         117 -1.0901099E-02
         118  1.3577087E-03
         119  5.7356763E-03
         120 -1.5526013E-03
         121  5.3896969E-03
         122  1.1178603E-02
         123  5.8704382E-03
         124 -8.2592398E-02
         125 -1.6317345E-03
         126  1.3185383E-03
         127  1.7093973E-03
         128 -2.6670366E-03
         129  2.2074161E-03
         130 -1.0788270E-02
         131  7.3652278E-04
         132  0.4262892    
         133 -4.6542089E-04
         134  1.4994091E-03
         135  2.2338303E-03
         136 -1.2985200E-02
         137  1.9387128E-03
         138  1.8592102E-03
         139 -2.9171561E-03
         140 -6.7033455E-02
         141 -1.1698484E-03
         142  1.3076248E-04
         143  7.2642206E-04
         144  6.0360050E-03
         145  7.4874127E-04
         146  8.5226661E-03
         147 -1.2449137E-02
         148 -0.2262902    
         149 -1.2576312E-04
         150  4.2954303E-04
         151 -1.8322580E-04
         152  5.1102680E-03
         153 -3.3489976E-04
         154  1.1277889E-03
         155 -9.2066795E-04
         156 -3.4613721E-02
         157  2.1305364E-04
         158  1.5746197E-04
         159 -1.2778364E-05
         160  2.0511549E-04
         161 -9.5118761E-05
         162 -1.1083807E-02
         163  9.6277287E-03
         164  0.2200868    
         165  1.5324194E-04
         166  4.3290152E-04
         167 -7.5253403E-05
         168 -5.8669485E-03
         169 -8.9445588E-05
         170 -6.5159611E-03
         171  6.4121373E-03
         172  0.1191844    
         173  3.6022704E-04
         174  7.7975134E-04
         175 -5.8382307E-04
         176 -6.3230246E-03
         177 -5.9913186E-04
         178  8.0204317E-03
         179 -1.1524343E-02
         180 -0.1960105    
         181 -2.0476943E-04
         182 -1.0381307E-04
         183  1.7707002E-04
         184  3.4545232E-03
         185  4.7114342E-03
         186  4.1116029E-03
         187 -1.9242264E-02
         188 -0.1870618    
         189 -2.9257266E-03
         190 -1.0310598E-03
         191  1.0566652E-03
         192  4.7231154E-03
         193 -5.8133778E-04
         194 -1.0601080E-04
         195  1.4111701E-02
         196  0.1383838    
         197  9.0760754E-05
         198  5.1070494E-04
         199 -1.9636947E-04
         200 -5.6891893E-03
         201 -6.8714394E-04
         202 -2.6487382E-03
         203  2.6470721E-02
         204  0.2301976    
         205  2.1996899E-04
         206  2.1167591E-04
         207 -1.4675494E-04
         208 -5.9400206E-03
         209  4.6495264E-04
         210  1.3603972E-03
         211 -5.1686289E-03
         212 -4.6272818E-02
         213 -1.2124595E-04
         214 -8.6116481E-05
         215  1.7811861E-04
         216  4.4420909E-04
         217 -1.5237182E-03
         218  2.8299796E-03
         219 -3.8588841E-02
         220 -0.2447429    
         221  5.0948281E-04
         222 -8.1470975E-04
         223  5.5692531E-04
         224  6.0625705E-03
         225 -6.0233835E-04
         226 -2.5305520E-03
         227 -6.9307224E-03
         228 -6.8567775E-02
         229  1.9602435E-04
         230 -1.1645721E-03
         231  7.3207985E-04
         232  5.3289249E-03
         233 -1.0042361E-02
         234  1.6392123E-02
         235  1.7604288E-02
         236  0.4210287    
         237  3.9618891E-03
         238 -1.8769988E-03
         239  9.4022538E-04
         240 -1.7947214E-02
         241 -1.3378300E-02
         242 -2.8501621E-02
         243 -2.7150020E-02
         244 -7.9518830E-04
         245  9.3269385E-03
         246  1.0446840E-03
         247  7.0459121E-03
         248  2.2882705E-03
         249  3.5009226E-03
         250  1.2547686E-03
         251  5.4015052E-03
         252  4.4407003E-04
         253 -5.6863832E-04
         254  5.0121955E-05
         255 -1.5051052E-03
         256  1.2943495E-04
         257  5.4498846E-03
         258 -8.5475534E-04
         259 -9.1415815E-05
         260  5.9400732E-04
         261 -1.5297905E-04
         262 -3.6353290E-03
         263 -2.5101965E-03
         264  2.0715052E-03
         265 -6.0836803E-03
         266  3.0633591E-03
         267  7.2235391E-03
         268  1.3190899E-03
         269 -4.1799531E-03
         270 -4.8436220E-03
         271  4.5597157E-03
         272 -1.0512819E-02
         273  7.0870062E-04
         274  8.5292442E-04
         275  1.7826367E-03
         276 -2.3508053E-03
         277  8.8793822E-03
         278  1.2238696E-05
         279 -1.3715787E-03
         280  1.3398442E-03
         281 -2.0919335E-03
         282 -5.0747255E-03
         283 -1.4500390E-03
         284  5.7737282E-03
         285 -4.6013165E-03
         286  4.0945634E-03
         287 -2.8664837E-04
         288  8.0930156E-04
         289  7.1480562E-04
         290 -1.1720244E-03
         291 -6.7426735E-03
         292  9.8092121E-04
         293  5.2000520E-05
         294  1.5505515E-04
         295  8.2771214E-05
         296 -9.6358859E-04
         297 -2.8948663E-04
         298  5.6440549E-05
         299 -5.2065263E-04
         300  5.9532293E-04
         301  1.0320362E-02
         302 -7.1243267E-04
         303  2.7142343E-04
         304 -2.1994537E-04
         305  3.0855992E-04
         306  5.9176069E-03
         307 -1.4393982E-04
         308  3.0892514E-04
         309  5.0010596E-04
         310  8.9404761E-04
         311  5.1021492E-03
         312  7.9120032E-04
         313 -3.0321180E-04
         314 -6.4398616E-04
         315  9.0079912E-04
         316  1.0053640E-02
         317 -2.6910733E-03
         318  2.5991804E-04
         319  3.4973644E-05
         320 -5.8434714E-05
         321 -1.2290381E-03
         322  3.8430397E-04
         323 -3.2563877E-04
         324  7.3663803E-04
         325 -1.9233213E-03
         326 -6.7623635E-03
         327  3.4236067E-03
         328  1.4031184E-03
         329 -2.9037413E-03
         330  2.3880324E-03
         331  2.6230423E-03
         332 -6.5264259E-03
         333 -5.3420855E-04
         334  7.2184473E-04
         335 -8.5537106E-04
         336 -9.5503638E-04
 Sym= Particle
 Ene=  -1.038815    
 Spin= Alpha
 Occup= 2
           1 -6.2864966E-04
           2  4.4800349E-02
           3  2.1244904E-02
           4 -2.7055219E-02
           5 -5.8861886E-04
           6 -4.9734376E-03
           7 -3.3237529E-03
           8  2.6932466E-03
           9 -1.8440650E-04
          10 -2.1768264E-02
          11 -1.0227271E-02
          12  1.3055678E-02
          13 -2.0253017E-04
          14 -9.1093112E-05
          15 -8.6177600E-04
          16  6.5667753E-04
          17 -3.3286589E-04
          18 -8.5029230E-02
          19 -3.9475914E-02
          20  5.5666469E-02
          21  1.5585518E-03
          22  1.6118849E-02
          23  7.7261110E-03
          24 -1.2720809E-02
          25  6.6047260E-03
          26  3.7970506E-02
          27  2.7649894E-02
          28 -2.4517378E-02
          29  2.1887154E-04
          30 -2.5410377E-03
          31 -5.3202538E-03
          32  4.0404452E-03
          33 -2.7157305E-02
          34  8.9824848E-02
          35  1.6790142E-02
          36 -1.4198936E-02
          37  2.7714595E-02
          38 -2.9438689E-02
          39  4.2676376E-03
          40 -2.5982438E-03
          41 -2.1577722E-03
          42 -9.4107039E-02
          43 -4.6975493E-02
          44  5.8946189E-02
          45  5.1761488E-03
          46  2.7900670E-02
          47  1.4471424E-02
          48 -6.0750069E-03
          49  7.1739485E-03
          50  1.8139286E-02
          51  1.2621283E-02
          52  0.2956074    
          53 -4.5432430E-03
          54 -1.5455711E-02
          55 -6.8651699E-03
          56 -0.1202626    
          57  4.6838084E-03
          58 -9.6428404E-03
          59 -1.2632011E-02
          60 -0.3448827    
          61 -2.1586597E-03
          62  1.9079245E-04
          63  1.4452900E-02
          64  0.1274515    
          65 -2.5983192E-03
          66 -8.2373563E-03
          67  9.5568657E-02
          68 -0.1497306    
          69  9.3363540E-04
          70  3.0692434E-03
          71 -2.8013259E-02
          72  3.1561535E-02
          73 -1.3110467E-02
          74  2.3191374E-02
          75 -0.1136431    
          76  0.1268005    
          77  1.0449748E-02
          78 -7.9315873E-03
          79  3.0760294E-02
          80 -3.2181729E-02
          81  4.1195038E-03
          82 -1.8923179E-03
          83 -2.8342659E-02
          84  4.2854261E-02
          85 -2.1954044E-03
          86  6.9401722E-04
          87  4.2234291E-03
          88 -9.9633811E-03
          89  1.0621889E-03
          90 -7.0361728E-03
          91  0.1009979    
          92 -0.1644093    
          93 -1.7916114E-03
          94  1.3992819E-03
          95 -1.9773599E-02
          96  3.2499321E-02
          97 -5.1448966E-04
          98  4.1163899E-03
          99 -1.7358182E-02
         100  2.7763218E-02
         101 -7.9401489E-04
         102 -3.1287884E-04
         103  5.5801850E-03
         104 -9.8061189E-03
         105 -6.0845264E-03
         106  1.0679725E-02
         107 -2.6549220E-02
         108  4.3409657E-02
         109  1.6297840E-03
         110 -1.5454087E-03
         111  4.0802066E-03
         112 -1.0115908E-02
         113  1.7170094E-02
         114 -7.6390489E-04
         115 -0.1116097    
         116  0.1293828    
         117 -1.3172803E-02
         118  5.2735177E-03
         119  3.0284468E-02
         120 -3.4832571E-02
         121 -3.5492796E-03
         122 -7.4485019E-03
         123  1.5833193E-02
         124  0.1226275    
         125  2.6680857E-03
         126  3.6247009E-03
         127 -2.2637758E-03
         128 -2.7236709E-02
         129  4.1027977E-03
         130 -4.7624060E-03
         131 -8.4870227E-04
         132  0.2371624    
         133  6.4304023E-04
         134  3.0485019E-03
         135  1.4758726E-03
         136 -6.3326597E-02
         137 -6.7661023E-03
         138 -3.3020985E-03
         139  3.0549164E-03
         140 -7.2953627E-02
         141  5.5132131E-03
         142  7.3953357E-04
         143 -8.9878554E-04
         144  2.4995646E-02
         145  1.2907622E-03
         146  6.8261246E-03
         147 -1.3533688E-02
         148 -0.1964807    
         149  8.0049183E-05
         150 -1.0260057E-03
         151  3.6997858E-03
         152  4.2142700E-02
         153 -7.5752410E-04
         154 -8.6655896E-03
         155  8.1718024E-03
         156  0.1741744    
         157  4.5846571E-04
         158  1.6266980E-03
         159 -1.7570864E-03
         160 -4.2454775E-02
         161 -2.6911229E-04
         162 -5.3734435E-03
         163  3.6672528E-03
         164  9.3507580E-02
         165  4.8263706E-04
         166  1.6281637E-03
         167 -1.6774404E-03
         168 -2.3510221E-02
         169 -1.1424663E-03
         170  1.0454654E-02
         171 -9.7097112E-03
         172 -0.2206212    
         173  5.0836295E-04
         174 -2.6279304E-03
         175  2.5694880E-03
         176  4.9159780E-02
         177  2.6755331E-03
         178 -1.3363720E-03
         179 -1.2862076E-03
         180  4.5445055E-02
         181 -9.3908171E-04
         182 -1.8261344E-05
         183  1.5687576E-03
         184 -1.0672403E-02
         185 -6.2229661E-03
         186 -5.2222917E-03
         187  3.1110140E-02
         188  0.3022354    
         189  5.6362227E-03
         190  1.6878651E-03
         191 -1.0310408E-02
         192 -8.7129936E-02
         193 -5.7898607E-04
         194  1.3512286E-04
         195  3.8018436E-03
         196  2.3538169E-02
         197  1.5483467E-03
         198 -1.4711023E-05
         199 -1.2678995E-03
         200  2.7381179E-03
         201  5.0864782E-04
         202  3.0908789E-03
         203 -3.1178525E-02
         204 -0.2690634    
         205  9.5675961E-04
         206 -4.0668336E-04
         207  6.8501648E-03
         208  5.6798700E-02
         209 -2.3345908E-03
         210 -2.2357372E-03
         211  1.8350786E-02
         212  0.1419166    
         213  2.3933402E-03
         214 -2.0290351E-04
         215 -3.3280174E-03
         216 -2.8077465E-02
         217 -3.0562989E-04
         218 -5.2781240E-03
         219  3.0110110E-02
         220  0.1775110    
         221  1.4677320E-03
         222  7.9027837E-04
         223 -7.3794331E-03
         224 -4.7320887E-02
         225  9.5846696E-04
         226 -8.3298432E-03
         227 -4.1585036E-02
         228 -0.3117165    
         229  3.3104743E-03
         230  4.3601738E-03
         231  1.2066511E-02
         232  8.8187613E-02
         233 -2.7063803E-03
         234 -2.6560530E-02
         235  5.9752807E-04
         236 -0.2649826    
         237  5.0971103E-03
         238  8.0970433E-03
         239 -4.0898365E-03
         240  9.0362683E-02
         241  2.7210338E-02
         242  8.2173981E-02
         243  6.2774226E-02
         244 -2.1201648E-02
         245 -2.3878872E-02
         246 -1.9306516E-02
         247 -2.8054664E-02
         248  9.1742905E-04
         249 -9.0393266E-03
         250  3.1763051E-02
         251  3.0049363E-03
         252 -1.5378388E-02
         253  3.9503276E-03
         254 -5.5219335E-03
         255  2.3103831E-03
         256  1.8446023E-03
         257 -9.2081437E-03
         258  1.1771992E-03
         259  6.4301016E-03
         260  3.6028039E-03
         261 -3.9452808E-03
         262  4.8110764E-03
         263  3.8707484E-03
         264  4.2737788E-03
         265  9.3952175E-03
         266 -6.2845135E-03
         267  5.1380410E-03
         268 -6.3288590E-04
         269  5.3949161E-03
         270 -2.0041648E-02
         271  1.7219260E-02
         272 -9.1753872E-03
         273  2.0316974E-03
         274 -1.4293896E-03
         275 -2.3112753E-03
         276  5.1141088E-03
         277  6.7325435E-03
         278 -4.8379372E-03
         279  2.5064826E-03
         280 -2.0031133E-03
         281  5.7522072E-03
         282 -5.6587141E-03
         283 -1.9336732E-03
         284  2.6010102E-04
         285 -1.2793072E-02
         286  2.1475991E-02
         287  9.9165551E-04
         288 -6.4294506E-04
         289  2.2718699E-03
         290 -9.4656227E-04
         291 -2.3011930E-02
         292  1.3980025E-03
         293 -4.6432423E-04
         294 -1.4897257E-03
         295  2.0571277E-03
         296  3.4298684E-02
         297 -2.1768663E-04
         298  8.2360115E-05
         299 -6.4429775E-04
         300  5.7853403E-04
         301  1.8717431E-02
         302  2.8730965E-05
         303  3.0821178E-04
         304  1.4031071E-03
         305 -1.3919589E-03
         306 -3.3112377E-02
         307  1.4637660E-03
         308 -6.0048205E-04
         309 -1.2386640E-03
         310 -7.9813058E-04
         311  5.7985267E-04
         312 -3.1521227E-04
         313  8.9873804E-04
         314  1.1177511E-03
         315 -5.6802668E-03
         316 -5.3257510E-02
         317  4.7743456E-03
         318 -1.2927292E-03
         319 -5.1572500E-04
         320  1.1235608E-03
         321  2.7476920E-02
         322  3.5921140E-03
         323 -1.8197530E-03
         324  2.0119303E-03
         325  8.6745722E-03
         326  3.8889736E-02
         327 -4.4834446E-03
         328 -6.5078749E-03
         329  1.2763979E-02
         330 -9.3471009E-04
         331 -1.0937354E-02
         332  9.3481913E-03
         333 -3.5908760E-03
         334  8.2376966E-04
         335 -1.0468909E-03
         336 -3.2058759E-03
