 [Molden Format]
 [Atoms] Angs
C       1      6     -7.87230962      2.50547995      0.75391507
C       2      6     -7.47058952      1.36356641     -0.19750133
C       3      6     -8.60378508      1.08081987     -1.20066590
C       4      6     -6.23587673      1.78404929     -0.97111452
C       5      6     -6.29045832      2.91030356     -1.78105447
C       6      6     -5.20927301      3.32710605     -2.53467878
C       7      6     -4.03854915      2.59198797     -2.49881530
C       8      6     -3.95687736      1.46942926     -1.70230110
C       9      6     -5.03904185      1.06245321     -0.91617973
N      10      7     -4.92435662     -0.06685326     -0.11756991
C      11      6     -3.69225184     -0.76492846     -0.08506661
C      12      6     -2.59816417     -0.21768284      0.57939100
C      13      6     -1.39149748     -0.88829773      0.60175604
C      14      6     -1.26328300     -2.12213512     -0.03443204
C      15      6      0.00258619     -2.89722057     -0.00636308
O      16      8      0.00328898     -4.11229707     -0.00418352
C      17      6      1.26739414     -2.12051726      0.02087713
C      18      6      2.37110932     -2.66902310      0.67287467
C      19      6      3.57100574     -1.99003668      0.71333360
C      20      6      3.69323188     -0.75729937      0.07767431
N      21      7      4.92306149     -0.05615570      0.11533560
C      22      6      5.99835962     -0.53867780     -0.61967845
C      23      6      5.83428770     -1.66597523     -1.43000161
C      24      6      6.88619010     -2.17332812     -2.16297953
C      25      6      8.12336846     -1.55756291     -2.10955688
C      26      6      8.27976943     -0.42455244     -1.33361577
C      27      6      7.23741452      0.10859511     -0.58719830
C      28      6      7.46856809      1.37529865      0.21394805
C      29      6      7.89112439      2.49617109     -0.75331795
C      30      6      8.58073138      1.11310546      1.24586121
C      31      6      6.21902072      1.81311360      0.95325389
C      32      6      6.25870317      2.95730897      1.73860211
C      33      6      5.16409757      3.39029126      2.46307610
C      34      6      3.99486430      2.65301983      2.42349398
C      35      6      3.92785721      1.51298274      1.65080476
C      36      6      5.02335995      1.09001899      0.89201576
C      37      6      2.60337605     -0.21955256     -0.60163807
C      38      6      1.39821453     -0.89276804     -0.62646925
C      39      6     -2.37072825     -2.67899141     -0.67295631
C      40      6     -3.57267602     -2.00332680     -0.70992355
C      41      6     -5.98535022     -0.53390290      0.64715607
C      42      6     -5.80629213     -1.64588555      1.47521554
C      43      6     -6.84364426     -2.13673889      2.23951761
C      44      6     -8.08059793     -1.51949274      2.19972729
C      45      6     -8.25172477     -0.40226743      1.40417439
C      46      6     -7.22435424      0.11395328      0.62582742
H      47      1     -8.06604680      3.42094874      0.20186012
H      48      1     -8.76839111      2.24930848      1.31214332
H      49      1     -7.06889498      2.69564286      1.46326388
H      50      1     -8.31028624      0.27681675     -1.87314230
H      51      1     -8.82462730      1.96211941     -1.79640129
H      52      1     -9.51243808      0.78211359     -0.68541920
H      53      1     -7.20415738      3.48287360     -1.83163670
H      54      1     -5.28537338      4.20974777     -3.15103933
H      55      1     -3.18708825      2.88730563     -3.09371489
H      56      1     -3.04411050      0.89374971     -1.69400071
H      57      1     -2.70553322      0.73571408      1.07534473
H      58      1     -0.55457112     -0.46779579      1.13940261
H      59      1      2.26226319     -3.62855655      1.15569323
H      60      1      4.42360971     -2.40646904      1.22877773
H      61      1      4.86976177     -2.14581442     -1.49110931
H      62      1      6.73453199     -3.04784001     -2.77776101
H      63      1      8.95621285     -1.94741022     -2.67447689
H      64      1      9.24580118      0.05681185     -1.31423512
H      65      1      8.07858341      3.42207794     -0.21674319
H      66      1      7.10100866      2.67442205     -1.48046721
H      67      1      8.79592308      2.22569291     -1.29032390
H      68      1      8.78798214      2.00572862      1.82951379
H      69      1      8.27405049      0.32140676      1.92700087
H      70      1      9.50034661      0.80619102      0.75549123
H      71      1      7.17127918      3.53131630      1.79286519
H      72      1      5.22875032      4.28674401      3.06051296
H      73      1      3.13307825      2.96023151      2.99712308
H      74      1      3.01589247      0.93614987      1.64047851
H      75      1      2.71243890      0.72890882     -1.10662162
H      76      1      0.56455372     -0.47928266     -1.17457199
H      77      1     -2.26347239     -3.64296538     -1.14722296
H      78      1     -4.42867821     -2.42683257     -1.21383345
H      79      1     -4.84147734     -2.12651726      1.52505016
H      80      1     -6.68085241     -2.99952537      2.86788230
H      81      1     -8.90201817     -1.89624546      2.78971251
H      82      1     -9.21741606      0.08010230      1.39498357
 [GTO]
           1   0
s              4   1.000000
     37.02790806     -0.01198412
      6.37651216     -0.05472052
      0.51237996      0.58055871
      0.19528069      0.47700799
p              4   1.000000
      5.96801472      0.05713170
      1.54741710      0.28574555
      0.54551241      0.55178731
      0.21717789      0.26323149
s              7   1.000000
      0.38350848     -0.19441496
      0.04707223      0.93934162
      0.02222627      0.24668537
     37.02790806      0.00521680
      6.37651216      0.02382035
      0.51237996     -0.25272252
      0.19528069     -0.20764594
p              7   1.000000
      1.83062075     -0.01151060
      0.10124670      0.56564873
      0.03901771      0.59073609
      5.96801472     -0.02389135
      1.54741710     -0.11949316
      0.54551241     -0.23074659
      0.21717789     -0.11007823
 
           2   0
s              4   1.000000
     37.10588477     -0.01198412
      6.38994040     -0.05472053
      0.51345898      0.58055871
      0.19569192      0.47700800
p              4   1.000000
      5.98058271      0.05713170
      1.55067579      0.28574555
      0.54666120      0.55178731
      0.21763524      0.26323149
s              7   1.000000
      0.38350848     -0.19435253
      0.04707223      0.93904001
      0.02222627      0.24660615
     37.10588477      0.00520627
      6.38994040      0.02377229
      0.51345898     -0.25221273
      0.19569192     -0.20722708
p              7   1.000000
      1.83062075     -0.01150714
      0.10124670      0.56547826
      0.03901771      0.59055804
      5.98058271     -0.02384293
      1.55067579     -0.11925100
      0.54666120     -0.23027895
      0.21763524     -0.10985514
 
           3   0
s              4   1.000000
     37.02790284     -0.01198412
      6.37651126     -0.05472053
      0.51237989      0.58055871
      0.19528066      0.47700799
p              4   1.000000
      5.96801388      0.05713170
      1.54741688      0.28574555
      0.54551234      0.55178731
      0.21717786      0.26323149
s              7   1.000000
      0.38350848     -0.19441496
      0.04707223      0.93934163
      0.02222627      0.24668537
     37.02790284      0.00521680
      6.37651126      0.02382035
      0.51237989     -0.25272255
      0.19528066     -0.20764597
p              7   1.000000
      1.83062075     -0.01151060
      0.10124670      0.56564875
      0.03901771      0.59073609
      5.96801388     -0.02389136
      1.54741688     -0.11949318
      0.54551234     -0.23074662
      0.21717786     -0.11007824
 
           4   0
s              4   1.000000
     35.25993162     -0.01198412
      6.07205199     -0.05472052
      0.48791529      0.58055871
      0.18595659      0.47700799
p              4   1.000000
      5.68305913      0.05713170
      1.47353237      0.28574555
      0.51946576      0.55178731
      0.20680827      0.26323149
s              7   1.000000
      0.38350848     -0.19593031
      0.04707223      0.94666328
      0.02222627      0.24860815
     35.25993162      0.00546703
      6.07205199      0.02496295
      0.48791529     -0.26484503
      0.18595659     -0.21760623
p              7   1.000000
      1.83062075     -0.01159483
      0.10124670      0.56978771
      0.03901771      0.59505861
      5.68305913     -0.02504241
      1.47353237     -0.12525023
      0.51946576     -0.24186373
      0.20680827     -0.11538169
 
           5   0
s              4   1.000000
     35.03553877     -0.01198412
      6.03340968     -0.05472052
      0.48481021      0.58055871
      0.18477317      0.47700799
p              4   1.000000
      5.64689236      0.05713170
      1.46415487      0.28574555
      0.51615990      0.55178731
      0.20549215      0.26323149
s              7   1.000000
      0.38350848     -0.19613733
      0.04707223      0.94766347
      0.02222627      0.24887081
     35.03553877      0.00550048
      6.03340968      0.02511567
      0.48481021     -0.26646534
      0.18477317     -0.21893754
p              7   1.000000
      1.83062075     -0.01160634
      0.10124670      0.57035318
      0.03901771      0.59564918
      5.64689236     -0.02519622
      1.46415487     -0.12601951
      0.51615990     -0.24334925
      0.20549215     -0.11609036
 
           6   0
s              4   1.000000
     34.91212776     -0.01198412
      6.01215728     -0.05472052
      0.48310249      0.58055871
      0.18412232      0.47700799
p              4   1.000000
      5.62700145      0.05713170
      1.45899745      0.28574555
      0.51434175      0.55178731
      0.20476831      0.26323149
s              7   1.000000
      0.38350848     -0.19625269
      0.04707223      0.94822086
      0.02222627      0.24901720
     34.91212776      0.00551905
      6.01215728      0.02520045
      0.48310249     -0.26736479
      0.18412232     -0.21967656
p              7   1.000000
      1.83062075     -0.01161275
      0.10124670      0.57066831
      0.03901771      0.59597829
      5.62700145     -0.02528160
      1.45899745     -0.12644653
      0.51434175     -0.24417384
      0.20476831     -0.11648373
 
           7   0
s              4   1.000000
     34.92015411     -0.01198412
      6.01353949     -0.05472052
      0.48321356      0.58055871
      0.18416465      0.47700800
p              4   1.000000
      5.62829511      0.05713170
      1.45933288      0.28574555
      0.51446000      0.55178731
      0.20481539      0.26323149
s              7   1.000000
      0.38350848     -0.19624515
      0.04707223      0.94818444
      0.02222627      0.24900762
     34.92015411      0.00551784
      6.01353949      0.02519492
      0.48321356     -0.26730611
      0.18416465     -0.21962835
p              7   1.000000
      1.83062075     -0.01161233
      0.10124670      0.57064772
      0.03901771      0.59595677
      5.62829511     -0.02527603
      1.45933288     -0.12641867
      0.51446000     -0.24412004
      0.20481539     -0.11645807
 
           8   0
s              4   1.000000
     35.04338417     -0.01198412
      6.03476072     -0.05472053
      0.48491877      0.58055871
      0.18481455      0.47700800
p              4   1.000000
      5.64815685      0.05713170
      1.46448273      0.28574555
      0.51627548      0.55178731
      0.20553816      0.26323149
s              7   1.000000
      0.38350848     -0.19613003
      0.04707223      0.94762820
      0.02222627      0.24886155
     35.04338417      0.00549930
      6.03476072      0.02511030
      0.48491877     -0.26640836
      0.18481455     -0.21889073
p              7   1.000000
      1.83062075     -0.01160593
      0.10124670      0.57033325
      0.03901771      0.59562835
      5.64815685     -0.02519082
      1.46448273     -0.12599246
      0.51627548     -0.24329702
      0.20553816     -0.11606544
 
           9   0
s              4   1.000000
     35.26093035     -0.01198412
      6.07222398     -0.05472052
      0.48792911      0.58055871
      0.18596186      0.47700799
p              4   1.000000
      5.68322011      0.05713170
      1.47357411      0.28574555
      0.51948047      0.55178731
      0.20681413      0.26323149
s              7   1.000000
      0.38350848     -0.19592940
      0.04707223      0.94665886
      0.02222627      0.24860698
     35.26093035      0.00546689
      6.07222398      0.02496228
      0.48792911     -0.26483786
      0.18596186     -0.21760035
p              7   1.000000
      1.83062075     -0.01159478
      0.10124670      0.56978521
      0.03901771      0.59505602
      5.68322011     -0.02504173
      1.47357411     -0.12524682
      0.51948047     -0.24185716
      0.20681413     -0.11537855
 
          10   0
s              4   1.000000
     61.19459349     -0.01198412
     10.53821536     -0.05472052
      0.84679057      0.58055871
      0.32273285      0.47700799
p              4   1.000000
      7.21312766      0.05713170
      1.87025629      0.28574555
      0.65932322      0.55178731
      0.26248793      0.26323149
s              7   1.000000
      0.47894987     -0.18778502
      0.05878681      0.90730821
      0.02775758      0.23827292
     61.19459349      0.00397015
     10.53821536      0.01812804
      0.84679057     -0.19232986
      0.32273285     -0.15802516
p              7   1.000000
      2.28619608     -0.01156621
      0.12644335      0.56838138
      0.04872781      0.59358990
      7.21312766     -0.02465640
      1.87025629     -0.12331959
      0.65932322     -0.23813558
      0.26248793     -0.11360316
 
          11   0
s              4   1.000000
     35.24160472     -0.01198412
      6.06889595     -0.05472052
      0.48766168      0.58055871
      0.18585994      0.47700799
p              4   1.000000
      5.68010527      0.05713170
      1.47276648      0.28574555
      0.51919576      0.55178731
      0.20670078      0.26323149
s              7   1.000000
      0.38350848     -0.19594709
      0.04707223      0.94674433
      0.02222627      0.24862943
     35.24160472      0.00546975
      6.06889595      0.02497536
      0.48766168     -0.26497664
      0.18585994     -0.21771437
p              7   1.000000
      1.83062075     -0.01159576
      0.10124670      0.56983353
      0.03901771      0.59510647
      5.68010527     -0.02505491
      1.47276648     -0.12531271
      0.51919576     -0.24198440
      0.20670078     -0.11543925
 
          12   0
s              4   1.000000
     35.00753143     -0.01198412
      6.02858659     -0.05472053
      0.48442265      0.58055871
      0.18462546      0.47700799
p              4   1.000000
      5.64237825      0.05713170
      1.46298442      0.28574555
      0.51574728      0.55178731
      0.20532788      0.26323149
s              7   1.000000
      0.38350848     -0.19616341
      0.04707223      0.94778951
      0.02222627      0.24890391
     35.00753143      0.00550468
      6.02858659      0.02513486
      0.48442265     -0.26666894
      0.18462546     -0.21910483
p              7   1.000000
      1.83062075     -0.01160779
      0.10124670      0.57042444
      0.03901771      0.59572358
      5.64237825     -0.02521555
      1.46298442     -0.12611617
      0.51574728     -0.24353591
      0.20532788     -0.11617941
 
          13   0
s              4   1.000000
     35.00330416     -0.01198412
      6.02785862     -0.05472053
      0.48436416      0.58055871
      0.18460317      0.47700799
p              4   1.000000
      5.64169691      0.05713170
      1.46280777      0.28574555
      0.51568500      0.55178731
      0.20530309      0.26323149
s              7   1.000000
      0.38350848     -0.19616735
      0.04707223      0.94780854
      0.02222627      0.24890891
     35.00330416      0.00550532
      6.02785862      0.02513776
      0.48436416     -0.26669970
      0.18460317     -0.21913010
p              7   1.000000
      1.83062075     -0.01160801
      0.10124670      0.57043521
      0.03901771      0.59573483
      5.64169691     -0.02521847
      1.46280777     -0.12613078
      0.51568500     -0.24356411
      0.20530309     -0.11619286
 
          14   0
s              4   1.000000
     35.06149657     -0.01198412
      6.03787983     -0.05472052
      0.48516941      0.58055871
      0.18491007      0.47700799
p              4   1.000000
      5.65107614      0.05713170
      1.46523966      0.28574555
      0.51654232      0.55178731
      0.20564440      0.26323149
s              7   1.000000
      0.38350848     -0.19611320
      0.04707223      0.94754689
      0.02222627      0.24884019
     35.06149657      0.00549659
      6.03787983      0.02509791
      0.48516941     -0.26627691
      0.18491007     -0.21878272
p              7   1.000000
      1.83062075     -0.01160500
      0.10124670      0.57028728
      0.03901771      0.59558033
      5.65107614     -0.02517834
      1.46523966     -0.12593005
      0.51654232     -0.24317650
      0.20564440     -0.11600795
 
          15   0
s              4   1.000000
     34.94767005     -0.01198412
      6.01827796     -0.05472052
      0.48359431      0.58055871
      0.18430976      0.47700799
p              4   1.000000
      5.63273002      0.05713170
      1.46048278      0.28574555
      0.51486538      0.55178731
      0.20497678      0.26323149
s              7   1.000000
      0.38350848     -0.19621935
      0.04707223      0.94805979
      0.02222627      0.24897489
     34.94767005      0.00551369
      6.01827796      0.02517598
      0.48359431     -0.26710514
      0.18430976     -0.21946322
p              7   1.000000
      1.83062075     -0.01161090
      0.10124670      0.57057725
      0.03901771      0.59588318
      5.63273002     -0.02525696
      1.46048278     -0.12632326
      0.51486538     -0.24393580
      0.20497678     -0.11637018
 
          16   0
s              4   1.000000
     73.00849669     -0.01198412
     12.57266725     -0.05472052
      1.01026746      0.58055871
      0.38503793      0.47700799
p              4   1.000000
      7.52883907      0.05713170
      1.95211555      0.28574555
      0.68818114      0.55178731
      0.27397677      0.26323149
s              7   1.000000
      0.57971233     -0.18805398
      0.07115450      0.90860771
      0.03359728      0.23861418
     73.00849669      0.00402728
     12.57266725      0.01838889
      1.01026746     -0.19509742
      0.38503793     -0.16029908
p              7   1.000000
      2.76717072     -0.01185921
      0.15304476      0.58277986
      0.05897927      0.60862700
      7.52883907     -0.02840063
      1.95211555     -0.14204642
      0.68818114     -0.27429792
      0.27397677     -0.13085450
 
          17   0
s              4   1.000000
     35.06164384     -0.01198412
      6.03790519     -0.05472053
      0.48517144      0.58055871
      0.18491085      0.47700799
p              4   1.000000
      5.65109988      0.05713170
      1.46524581      0.28574555
      0.51654449      0.55178731
      0.20564526      0.26323149
s              7   1.000000
      0.38350848     -0.19611306
      0.04707223      0.94754623
      0.02222627      0.24884002
     35.06164384      0.00549657
      6.03790519      0.02509781
      0.48517144     -0.26627584
      0.18491085     -0.21878184
p              7   1.000000
      1.83062075     -0.01160499
      0.10124670      0.57028690
      0.03901771      0.59557996
      5.65109988     -0.02517824
      1.46524581     -0.12592954
      0.51654449     -0.24317552
      0.20564526     -0.11600748
 
          18   0
s              4   1.000000
     35.01319905     -0.01198412
      6.02956260     -0.05472052
      0.48450108      0.58055871
      0.18465535      0.47700799
p              4   1.000000
      5.64329173      0.05713170
      1.46322128      0.28574555
      0.51583078      0.55178731
      0.20536112      0.26323149
s              7   1.000000
      0.38350848     -0.19615813
      0.04707223      0.94776398
      0.02222627      0.24889721
     35.01319905      0.00550383
      6.02956260      0.02513098
      0.48450108     -0.26662772
      0.18465535     -0.21907096
p              7   1.000000
      1.83062075     -0.01160749
      0.10124670      0.57041001
      0.03901771      0.59570853
      5.64329173     -0.02521164
      1.46322128     -0.12609660
      0.51583078     -0.24349812
      0.20536112     -0.11616138
 
          19   0
s              4   1.000000
     35.00304588     -0.01198412
      6.02781414     -0.05472052
      0.48436059      0.58055871
      0.18460181      0.47700799
p              4   1.000000
      5.64165528      0.05713170
      1.46279697      0.28574555
      0.51568120      0.55178731
      0.20530157      0.26323149
s              7   1.000000
      0.38350848     -0.19616759
      0.04707223      0.94780971
      0.02222627      0.24890922
     35.00304588      0.00550536
      6.02781414      0.02513794
      0.48436059     -0.26670158
      0.18460181     -0.21913164
p              7   1.000000
      1.83062075     -0.01160802
      0.10124670      0.57043586
      0.03901771      0.59573552
      5.64165528     -0.02521865
      1.46279697     -0.12613167
      0.51568120     -0.24356583
      0.20530157     -0.11619368
 
          20   0
s              4   1.000000
     35.24090968     -0.01198412
      6.06877625     -0.05472052
      0.48765207      0.58055871
      0.18585627      0.47700800
p              4   1.000000
      5.67999325      0.05713170
      1.47273743      0.28574555
      0.51918552      0.55178731
      0.20669670      0.26323149
s              7   1.000000
      0.38350848     -0.19594773
      0.04707223      0.94674740
      0.02222627      0.24863023
     35.24090968      0.00546985
      6.06877625      0.02497583
      0.48765207     -0.26498163
      0.18585627     -0.21771847
p              7   1.000000
      1.83062075     -0.01159580
      0.10124670      0.56983527
      0.03901771      0.59510829
      5.67999325     -0.02505538
      1.47273743     -0.12531508
      0.51918552     -0.24198898
      0.20669670     -0.11544144
 
          21   0
s              4   1.000000
     61.19330263     -0.01198412
     10.53799307     -0.05472053
      0.84677271      0.58055871
      0.32272604      0.47700799
p              4   1.000000
      7.21297550      0.05713170
      1.87021684      0.28574555
      0.65930931      0.55178730
      0.26248240      0.26323149
s              7   1.000000
      0.47894987     -0.18778541
      0.05878681      0.90731007
      0.02775758      0.23827341
     61.19330263      0.00397023
     10.53799307      0.01812842
      0.84677271     -0.19233388
      0.32272604     -0.15802846
p              7   1.000000
      2.28619608     -0.01156625
      0.12644335      0.56838319
      0.04872781      0.59359180
      7.21297550     -0.02465690
      1.87021684     -0.12332209
      0.65930931     -0.23814041
      0.26248240     -0.11360547
 
          22   0
s              4   1.000000
     35.26101004     -0.01198412
      6.07223770     -0.05472052
      0.48793021      0.58055871
      0.18596228      0.47700799
p              4   1.000000
      5.68323295      0.05713170
      1.47357744      0.28574555
      0.51948165      0.55178731
      0.20681459      0.26323149
s              7   1.000000
      0.38350848     -0.19592933
      0.04707223      0.94665850
      0.02222627      0.24860690
     35.26101004      0.00546687
      6.07223770      0.02496222
      0.48793021     -0.26483729
      0.18596228     -0.21759987
p              7   1.000000
      1.83062075     -0.01159478
      0.10124670      0.56978502
      0.03901771      0.59505582
      5.68323295     -0.02504168
      1.47357744     -0.12524655
      0.51948165     -0.24185663
      0.20681459     -0.11537830
 
          23   0
s              4   1.000000
     35.04291539     -0.01198412
      6.03468000     -0.05472052
      0.48491229      0.58055871
      0.18481207      0.47700799
p              4   1.000000
      5.64808130      0.05713170
      1.46446314      0.28574555
      0.51626858      0.55178731
      0.20553542      0.26323149
s              7   1.000000
      0.38350848     -0.19613046
      0.04707223      0.94763031
      0.02222627      0.24886211
     35.04291539      0.00549937
      6.03468000      0.02511062
      0.48491229     -0.26641177
      0.18481207     -0.21889352
p              7   1.000000
      1.83062075     -0.01160596
      0.10124670      0.57033444
      0.03901771      0.59562960
      5.64808130     -0.02519114
      1.46446314     -0.12599408
      0.51626858     -0.24330014
      0.20553542     -0.11606693
 
          24   0
s              4   1.000000
     34.92048809     -0.01198412
      6.01359700     -0.05472052
      0.48321818      0.58055871
      0.18416641      0.47700799
p              4   1.000000
      5.62834894      0.05713170
      1.45934684      0.28574555
      0.51446492      0.55178730
      0.20481735      0.26323149
s              7   1.000000
      0.38350848     -0.19624484
      0.04707223      0.94818293
      0.02222627      0.24900723
     34.92048809      0.00551779
      6.01359700      0.02519469
      0.48321818     -0.26730367
      0.18416641     -0.21962634
p              7   1.000000
      1.83062075     -0.01161231
      0.10124670      0.57064688
      0.03901771      0.59595588
      5.62834894     -0.02527580
      1.45934684     -0.12641751
      0.51446492     -0.24411781
      0.20481735     -0.11645700
 
          25   0
s              4   1.000000
     34.91208684     -0.01198412
      6.01215024     -0.05472052
      0.48310192      0.58055871
      0.18412210      0.47700799
p              4   1.000000
      5.62699486      0.05713170
      1.45899574      0.28574555
      0.51434115      0.55178731
      0.20476807      0.26323149
s              7   1.000000
      0.38350848     -0.19625273
      0.04707223      0.94822104
      0.02222627      0.24901725
     34.91208684      0.00551905
      6.01215024      0.02520048
      0.48310192     -0.26736509
      0.18412210     -0.21967681
p              7   1.000000
      1.83062075     -0.01161275
      0.10124670      0.57066842
      0.03901771      0.59597841
      5.62699486     -0.02528163
      1.45899574     -0.12644667
      0.51434115     -0.24417411
      0.20476807     -0.11648386
 
          26   0
s              4   1.000000
     35.03556587     -0.01198412
      6.03341435     -0.05472052
      0.48481059      0.58055871
      0.18477331      0.47700799
p              4   1.000000
      5.64689673      0.05713170
      1.46415600      0.28574555
      0.51616030      0.55178731
      0.20549231      0.26323149
s              7   1.000000
      0.38350848     -0.19613730
      0.04707223      0.94766334
      0.02222627      0.24887079
     35.03556587      0.00550048
      6.03341435      0.02511566
      0.48481059     -0.26646514
      0.18477331     -0.21893738
p              7   1.000000
      1.83062075     -0.01160634
      0.10124670      0.57035311
      0.03901771      0.59564910
      5.64689673     -0.02519621
      1.46415600     -0.12601942
      0.51616030     -0.24334907
      0.20549231     -0.11609027
 
          27   0
s              4   1.000000
     35.25976731     -0.01198412
      6.07202369     -0.05472052
      0.48791301      0.58055871
      0.18595573      0.47700799
p              4   1.000000
      5.68303265      0.05713170
      1.47352551      0.28574555
      0.51946334      0.55178730
      0.20680731      0.26323149
s              7   1.000000
      0.38350848     -0.19593046
      0.04707223      0.94666400
      0.02222627      0.24860834
     35.25976731      0.00546706
      6.07202369      0.02496306
      0.48791301     -0.26484621
      0.18595573     -0.21760720
p              7   1.000000
      1.83062075     -0.01159484
      0.10124670      0.56978811
      0.03901771      0.59505905
      5.68303265     -0.02504253
      1.47352551     -0.12525079
      0.51946334     -0.24186481
      0.20680731     -0.11538221
 
          28   0
s              4   1.000000
     37.10609026     -0.01198412
      6.38997578     -0.05472053
      0.51346182      0.58055871
      0.19569301      0.47700799
p              4   1.000000
      5.98061583      0.05713170
      1.55068438      0.28574555
      0.54666423      0.55178731
      0.21763645      0.26323149
s              7   1.000000
      0.38350848     -0.19435237
      0.04707223      0.93903922
      0.02222627      0.24660596
     37.10609026      0.00520624
      6.38997578      0.02377217
      0.51346182     -0.25221138
      0.19569301     -0.20722598
p              7   1.000000
      1.83062075     -0.01150713
      0.10124670      0.56547782
      0.03901771      0.59055756
      5.98061583     -0.02384281
      1.55068438     -0.11925036
      0.54666423     -0.23027773
      0.21763645     -0.10985455
 
          29   0
s              4   1.000000
     37.02790685     -0.01198412
      6.37651195     -0.05472053
      0.51237994      0.58055871
      0.19528068      0.47700799
p              4   1.000000
      5.96801453      0.05713170
      1.54741705      0.28574555
      0.54551240      0.55178731
      0.21717788      0.26323149
s              7   1.000000
      0.38350848     -0.19441496
      0.04707223      0.93934162
      0.02222627      0.24668537
     37.02790685      0.00521680
      6.37651195      0.02382035
      0.51237994     -0.25272253
      0.19528068     -0.20764595
p              7   1.000000
      1.83062075     -0.01151060
      0.10124670      0.56564875
      0.03901771      0.59073609
      5.96801453     -0.02389135
      1.54741705     -0.11949317
      0.54551240     -0.23074660
      0.21717788     -0.11007823
 
          30   0
s              4   1.000000
     37.02799181     -0.01198412
      6.37652658     -0.05472053
      0.51238112      0.58055871
      0.19528113      0.47700799
p              4   1.000000
      5.96802822      0.05713170
      1.54742060      0.28574555
      0.54551365      0.55178731
      0.21717838      0.26323149
s              7   1.000000
      0.38350848     -0.19441489
      0.04707223      0.93934128
      0.02222627      0.24668527
     37.02799181      0.00521678
      6.37652658      0.02382029
      0.51238112     -0.25272197
      0.19528113     -0.20764549
p              7   1.000000
      1.83062075     -0.01151060
      0.10124670      0.56564856
      0.03901771      0.59073589
      5.96802822     -0.02389130
      1.54742060     -0.11949290
      0.54551365     -0.23074608
      0.21717838     -0.11007799
 
          31   0
s              4   1.000000
     35.26009773     -0.01198412
      6.07208059     -0.05472052
      0.48791758      0.58055871
      0.18595747      0.47700799
p              4   1.000000
      5.68308591      0.05713170
      1.47353931      0.28574555
      0.51946821      0.55178731
      0.20680924      0.26323149
s              7   1.000000
      0.38350848     -0.19593016
      0.04707223      0.94666254
      0.02222627      0.24860795
     35.26009773      0.00546701
      6.07208059      0.02496284
      0.48791758     -0.26484384
      0.18595747     -0.21760526
p              7   1.000000
      1.83062075     -0.01159482
      0.10124670      0.56978729
      0.03901771      0.59505820
      5.68308591     -0.02504230
      1.47353931     -0.12524966
      0.51946821     -0.24186264
      0.20680924     -0.11538117
 
          32   0
s              4   1.000000
     35.03574047     -0.01198412
      6.03344442     -0.05472052
      0.48481300      0.58055871
      0.18477424      0.47700800
p              4   1.000000
      5.64692487      0.05713170
      1.46416330      0.28574555
      0.51616287      0.55178731
      0.20549333      0.26323149
s              7   1.000000
      0.38350848     -0.19613714
      0.04707223      0.94766255
      0.02222627      0.24887057
     35.03574047      0.00550045
      6.03344442      0.02511554
      0.48481300     -0.26646388
      0.18477424     -0.21893634
p              7   1.000000
      1.83062075     -0.01160633
      0.10124670      0.57035267
      0.03901771      0.59564866
      5.64692487     -0.02519609
      1.46416330     -0.12601882
      0.51616287     -0.24334791
      0.20549333     -0.11608972
 
          33   0
s              4   1.000000
     34.91206049     -0.01198412
      6.01214570     -0.05472053
      0.48310156      0.58055871
      0.18412196      0.47700799
p              4   1.000000
      5.62699061      0.05713170
      1.45899464      0.28574555
      0.51434076      0.55178731
      0.20476792      0.26323149
s              7   1.000000
      0.38350848     -0.19625275
      0.04707223      0.94822116
      0.02222627      0.24901728
     34.91206049      0.00551906
      6.01214570      0.02520050
      0.48310156     -0.26736528
      0.18412196     -0.21967696
p              7   1.000000
      1.83062075     -0.01161275
      0.10124670      0.57066848
      0.03901771      0.59597845
      5.62699061     -0.02528165
      1.45899464     -0.12644676
      0.51434076     -0.24417429
      0.20476792     -0.11648395
 
          34   0
s              4   1.000000
     34.92021819     -0.01198412
      6.01355053     -0.05472052
      0.48321444      0.58055871
      0.18416499      0.47700799
p              4   1.000000
      5.62830544      0.05713170
      1.45933556      0.28574555
      0.51446094      0.55178731
      0.20481577      0.26323149
s              7   1.000000
      0.38350848     -0.19624509
      0.04707223      0.94818415
      0.02222627      0.24900755
     34.92021819      0.00551783
      6.01355053      0.02519488
      0.48321444     -0.26730564
      0.18416499     -0.21962796
p              7   1.000000
      1.83062075     -0.01161233
      0.10124670      0.57064756
      0.03901771      0.59595661
      5.62830544     -0.02527599
      1.45933556     -0.12641845
      0.51446094     -0.24411961
      0.20481577     -0.11645786
 
          35   0
s              4   1.000000
     35.04342349     -0.01198412
      6.03476750     -0.05472052
      0.48491932      0.58055871
      0.18481475      0.47700799
p              4   1.000000
      5.64816319      0.05713170
      1.46448438      0.28574555
      0.51627606      0.55178731
      0.20553840      0.26323149
s              7   1.000000
      0.38350848     -0.19612999
      0.04707223      0.94762804
      0.02222627      0.24886150
     35.04342349      0.00549930
      6.03476750      0.02511028
      0.48491932     -0.26640808
      0.18481475     -0.21889049
p              7   1.000000
      1.83062075     -0.01160593
      0.10124670      0.57033315
      0.03901771      0.59562827
      5.64816319     -0.02519079
      1.46448438     -0.12599232
      0.51627606     -0.24329676
      0.20553840     -0.11606531
 
          36   0
s              4   1.000000
     35.26038324     -0.01198412
      6.07212976     -0.05472053
      0.48792154      0.58055871
      0.18595897      0.47700799
p              4   1.000000
      5.68313192      0.05713170
      1.47355124      0.28574555
      0.51947241      0.55178731
      0.20681092      0.26323149
s              7   1.000000
      0.38350848     -0.19592990
      0.04707223      0.94666128
      0.02222627      0.24860761
     35.26038324      0.00546697
      6.07212976      0.02496265
      0.48792154     -0.26484179
      0.18595897     -0.21760357
p              7   1.000000
      1.83062075     -0.01159481
      0.10124670      0.56978658
      0.03901771      0.59505743
      5.68313192     -0.02504211
      1.47355124     -0.12524869
      0.51947241     -0.24186076
      0.20681092     -0.11538027
 
          37   0
s              4   1.000000
     35.00765901     -0.01198412
      6.02860856     -0.05472053
      0.48442442      0.58055871
      0.18462614      0.47700800
p              4   1.000000
      5.64239881      0.05713170
      1.46298976      0.28574555
      0.51574916      0.55178731
      0.20532863      0.26323149
s              7   1.000000
      0.38350848     -0.19616329
      0.04707223      0.94778893
      0.02222627      0.24890376
     35.00765901      0.00550466
      6.02860856      0.02513478
      0.48442442     -0.26666802
      0.18462614     -0.21910407
p              7   1.000000
      1.83062075     -0.01160778
      0.10124670      0.57042411
      0.03901771      0.59572326
      5.64239881     -0.02521546
      1.46298976     -0.12611573
      0.51574916     -0.24353506
      0.20532863     -0.11617900
 
          38   0
s              4   1.000000
     35.00308413     -0.01198412
      6.02782073     -0.05472052
      0.48436112      0.58055871
      0.18460201      0.47700800
p              4   1.000000
      5.64166145      0.05713170
      1.46279857      0.28574555
      0.51568176      0.55178731
      0.20530180      0.26323149
s              7   1.000000
      0.38350848     -0.19616756
      0.04707223      0.94780954
      0.02222627      0.24890918
     35.00308413      0.00550535
      6.02782073      0.02513791
      0.48436112     -0.26670130
      0.18460201     -0.21913141
p              7   1.000000
      1.83062075     -0.01160802
      0.10124670      0.57043577
      0.03901771      0.59573544
      5.64166145     -0.02521862
      1.46279857     -0.12613154
      0.51568176     -0.24356558
      0.20530180     -0.11619356
 
          39   0
s              4   1.000000
     35.01321832     -0.01198412
      6.02956592     -0.05472052
      0.48450135      0.58055871
      0.18465546      0.47700799
p              4   1.000000
      5.64329484      0.05713170
      1.46322208      0.28574555
      0.51583106      0.55178731
      0.20536124      0.26323149
s              7   1.000000
      0.38350848     -0.19615811
      0.04707223      0.94776389
      0.02222627      0.24889718
     35.01321832      0.00550383
      6.02956592      0.02513097
      0.48450135     -0.26662758
      0.18465546     -0.21907084
p              7   1.000000
      1.83062075     -0.01160749
      0.10124670      0.57040996
      0.03901771      0.59570849
      5.64329484     -0.02521162
      1.46322208     -0.12609653
      0.51583106     -0.24349799
      0.20536124     -0.11616132
 
          40   0
s              4   1.000000
     35.00230577     -0.01198412
      6.02768668     -0.05472052
      0.48435034      0.58055871
      0.18459791      0.47700799
p              4   1.000000
      5.64153600      0.05713170
      1.46276604      0.28574555
      0.51567029      0.55178731
      0.20529723      0.26323149
s              7   1.000000
      0.38350848     -0.19616828
      0.04707223      0.94781304
      0.02222627      0.24891010
     35.00230577      0.00550547
      6.02768668      0.02513845
      0.48435034     -0.26670697
      0.18459791     -0.21913607
p              7   1.000000
      1.83062075     -0.01160806
      0.10124670      0.57043776
      0.03901771      0.59573750
      5.64153600     -0.02521916
      1.46276604     -0.12613422
      0.51567029     -0.24357077
      0.20529723     -0.11619603
 
          41   0
s              4   1.000000
     35.26121525     -0.01198412
      6.07227304     -0.05472052
      0.48793305      0.58055871
      0.18596336      0.47700800
p              4   1.000000
      5.68326602      0.05713170
      1.47358601      0.28574555
      0.51948467      0.55178731
      0.20681580      0.26323149
s              7   1.000000
      0.38350848     -0.19592914
      0.04707223      0.94665760
      0.02222627      0.24860666
     35.26121525      0.00546684
      6.07227304      0.02496208
      0.48793305     -0.26483582
      0.18596336     -0.21759867
p              7   1.000000
      1.83062075     -0.01159476
      0.10124670      0.56978450
      0.03901771      0.59505529
      5.68326602     -0.02504154
      1.47358601     -0.12524585
      0.51948467     -0.24185528
      0.20681580     -0.11537766
 
          42   0
s              4   1.000000
     35.04276231     -0.01198412
      6.03465364     -0.05472052
      0.48491017      0.58055871
      0.18481127      0.47700799
p              4   1.000000
      5.64805663      0.05713170
      1.46445674      0.28574555
      0.51626632      0.55178731
      0.20553452      0.26323149
s              7   1.000000
      0.38350848     -0.19613061
      0.04707223      0.94763101
      0.02222627      0.24886228
     35.04276231      0.00549940
      6.03465364      0.02511073
      0.48491017     -0.26641288
      0.18481127     -0.21889444
p              7   1.000000
      1.83062075     -0.01160596
      0.10124670      0.57033483
      0.03901771      0.59563001
      5.64805663     -0.02519125
      1.46445674     -0.12599460
      0.51626632     -0.24330116
      0.20553452     -0.11606742
 
          43   0
s              4   1.000000
     34.92042879     -0.01198412
      6.01358679     -0.05472053
      0.48321736      0.58055871
      0.18416610      0.47700799
p              4   1.000000
      5.62833938      0.05713170
      1.45934436      0.28574555
      0.51446404      0.55178731
      0.20481700      0.26323149
s              7   1.000000
      0.38350848     -0.19624489
      0.04707223      0.94818321
      0.02222627      0.24900731
     34.92042879      0.00551779
      6.01358679      0.02519473
      0.48321736     -0.26730410
      0.18416610     -0.21962670
p              7   1.000000
      1.83062075     -0.01161232
      0.10124670      0.57064702
      0.03901771      0.59595604
      5.62833938     -0.02527584
      1.45934436     -0.12641771
      0.51446404     -0.24411820
      0.20481700     -0.11645719
 
          44   0
s              4   1.000000
     34.91213764     -0.01198412
      6.01215899     -0.05472053
      0.48310263      0.58055871
      0.18412237      0.47700800
p              4   1.000000
      5.62700305      0.05713170
      1.45899786      0.28574555
      0.51434190      0.55178731
      0.20476837      0.26323149
s              7   1.000000
      0.38350848     -0.19625268
      0.04707223      0.94822082
      0.02222627      0.24901718
     34.91213764      0.00551905
      6.01215899      0.02520044
      0.48310263     -0.26736472
      0.18412237     -0.21967650
p              7   1.000000
      1.83062075     -0.01161275
      0.10124670      0.57066829
      0.03901771      0.59597825
      5.62700305     -0.02528160
      1.45899786     -0.12644649
      0.51434190     -0.24417377
      0.20476837     -0.11648370
 
          45   0
s              4   1.000000
     35.03540650     -0.01198412
      6.03338690     -0.05472053
      0.48480838      0.58055871
      0.18477247      0.47700800
p              4   1.000000
      5.64687104      0.05713170
      1.46414934      0.28574555
      0.51615795      0.55178731
      0.20549137      0.26323149
s              7   1.000000
      0.38350848     -0.19613745
      0.04707223      0.94766407
      0.02222627      0.24887098
     35.03540650      0.00550050
      6.03338690      0.02511576
      0.48480838     -0.26646630
      0.18477247     -0.21893833
p              7   1.000000
      1.83062075     -0.01160634
      0.10124670      0.57035351
      0.03901771      0.59564955
      5.64687104     -0.02519632
      1.46414934     -0.12601997
      0.51615795     -0.24335014
      0.20549137     -0.11609078
 
          46   0
s              4   1.000000
     35.25962652     -0.01198412
      6.07199945     -0.05472052
      0.48791106      0.58055871
      0.18595498      0.47700799
p              4   1.000000
      5.68300996      0.05713170
      1.47351962      0.28574555
      0.51946126      0.55178731
      0.20680648      0.26323149
s              7   1.000000
      0.38350848     -0.19593059
      0.04707223      0.94666462
      0.02222627      0.24860851
     35.25962652      0.00546708
      6.07199945      0.02496316
      0.48791106     -0.26484722
      0.18595498     -0.21760803
p              7   1.000000
      1.83062075     -0.01159485
      0.10124670      0.56978847
      0.03901771      0.59505942
      5.68300996     -0.02504262
      1.47351962     -0.12525127
      0.51946126     -0.24186574
      0.20680648     -0.11538265
 
          47   0
s              4   1.000000
      8.30638140      0.05675242
      1.51996546      0.26014135
      0.42226305      0.53284611
      0.14014531      0.29162544
s              7   1.000000
      0.92936822     -0.06733173
      0.05643440      0.66948823
      0.02166600      0.51463989
      8.30638140     -0.02902958
      1.51996546     -0.13306558
      0.42226305     -0.27255750
      0.14014531     -0.14917009
p              4   1.000000
      0.64737396      0.05713170
      0.16785440      0.28574555
      0.05917387      0.55178731
      0.02355814      0.26323150
 
          48   0
s              4   1.000000
      8.30639249      0.05675242
      1.51996749      0.26014135
      0.42226361      0.53284611
      0.14014550      0.29162544
s              7   1.000000
      0.92936822     -0.06733171
      0.05643440      0.66948809
      0.02166600      0.51463976
      8.30639249     -0.02902955
      1.51996749     -0.13306545
      0.42226361     -0.27255723
      0.14014550     -0.14916993
p              4   1.000000
      0.64737396      0.05713170
      0.16785440      0.28574555
      0.05917387      0.55178731
      0.02355814      0.26323150
 
          49   0
s              4   1.000000
      8.30626777      0.05675242
      1.51994467      0.26014135
      0.42225727      0.53284611
      0.14014339      0.29162544
s              7   1.000000
      0.92936822     -0.06733187
      0.05643440      0.66948969
      0.02166600      0.51464101
      8.30626777     -0.02902988
      1.51994467     -0.13306698
      0.42225727     -0.27256036
      0.14014339     -0.14917165
p              4   1.000000
      0.64737396      0.05713170
      0.16785440      0.28574555
      0.05917387      0.55178731
      0.02355814      0.26323150
 
          50   0
s              4   1.000000
      8.30626805      0.05675242
      1.51994472      0.26014135
      0.42225729      0.53284611
      0.14014340      0.29162544
s              7   1.000000
      0.92936822     -0.06733187
      0.05643440      0.66948969
      0.02166600      0.51464101
      8.30626805     -0.02902988
      1.51994472     -0.13306697
      0.42225729     -0.27256035
      0.14014340     -0.14917165
p              4   1.000000
      0.64737396      0.05713170
      0.16785440      0.28574555
      0.05917387      0.55178731
      0.02355814      0.26323150
 
          51   0
s              4   1.000000
      8.30638355      0.05675242
      1.51996585      0.26014135
      0.42226316      0.53284611
      0.14014535      0.29162544
s              7   1.000000
      0.92936822     -0.06733172
      0.05643440      0.66948821
      0.02166600      0.51463986
      8.30638355     -0.02902957
      1.51996585     -0.13306556
      0.42226316     -0.27255745
      0.14014535     -0.14917006
p              4   1.000000
      0.64737396      0.05713170
      0.16785440      0.28574555
      0.05917387      0.55178731
      0.02355814      0.26323150
 
          52   0
s              4   1.000000
      8.30638318      0.05675242
      1.51996578      0.26014135
      0.42226314      0.53284611
      0.14014534      0.29162544
s              7   1.000000
      0.92936822     -0.06733172
      0.05643440      0.66948821
      0.02166600      0.51463986
      8.30638318     -0.02902957
      1.51996578     -0.13306556
      0.42226314     -0.27255746
      0.14014534     -0.14917007
p              4   1.000000
      0.64737396      0.05713170
      0.16785440      0.28574555
      0.05917387      0.55178731
      0.02355814      0.26323150
 
          53   0
s              4   1.000000
      8.30993635      0.05675242
      1.52061597      0.26014135
      0.42244377      0.53284611
      0.14020529      0.29162544
s              7   1.000000
      0.92936822     -0.06732715
      0.05643440      0.66944274
      0.02166600      0.51460491
      8.30993635     -0.02902007
      1.52061597     -0.13302198
      0.42244377     -0.27246820
      0.14020529     -0.14912121
p              4   1.000000
      0.64737396      0.05713170
      0.16785440      0.28574555
      0.05917387      0.55178731
      0.02355814      0.26323150
 
          54   0
s              4   1.000000
      8.30885742      0.05675242
      1.52041854      0.26014135
      0.42238892      0.53284611
      0.14018708      0.29162544
s              7   1.000000
      0.92936822     -0.06732854
      0.05643440      0.66945655
      0.02166600      0.51461551
      8.30885742     -0.02902295
      1.52041854     -0.13303521
      0.42238892     -0.27249530
      0.14018708     -0.14913604
p              4   1.000000
      0.64737396      0.05713170
      0.16785440      0.28574555
      0.05917387      0.55178731
      0.02355814      0.26323150
 
          55   0
s              4   1.000000
      8.30895933      0.05675242
      1.52043719      0.26014135
      0.42239410      0.53284611
      0.14018880      0.29162544
s              7   1.000000
      0.92936822     -0.06732841
      0.05643440      0.66945524
      0.02166600      0.51461452
      8.30895933     -0.02902268
      1.52043719     -0.13303396
      0.42239410     -0.27249274
      0.14018880     -0.14913464
p              4   1.000000
      0.64737396      0.05713170
      0.16785440      0.28574555
      0.05917387      0.55178731
      0.02355814      0.26323150
 
          56   0
s              4   1.000000
      8.31077198      0.05675242
      1.52076888      0.26014135
      0.42248625      0.53284611
      0.14021939      0.29162544
s              7   1.000000
      0.92936822     -0.06732608
      0.05643440      0.66943206
      0.02166600      0.51459671
      8.31077198     -0.02901783
      1.52076888     -0.13301174
      0.42248625     -0.27244721
      0.14021939     -0.14910973
p              4   1.000000
      0.64737396      0.05713170
      0.16785440      0.28574555
      0.05917387      0.55178731
      0.02355814      0.26323150
 
          57   0
s              4   1.000000
      8.30940969      0.05675242
      1.52051960      0.26014135
      0.42241699      0.53284611
      0.14019640      0.29162544
s              7   1.000000
      0.92936822     -0.06732783
      0.05643440      0.66944948
      0.02166600      0.51461010
      8.30940969     -0.02902148
      1.52051960     -0.13302844
      0.42241699     -0.27248142
      0.14019640     -0.14912845
p              4   1.000000
      0.64737396      0.05713170
      0.16785440      0.28574555
      0.05917387      0.55178731
      0.02355814      0.26323150
 
          58   0
s              4   1.000000
      8.30981436      0.05675242
      1.52059365      0.26014135
      0.42243757      0.53284611
      0.14020323      0.29162544
s              7   1.000000
      0.92936822     -0.06732731
      0.05643440      0.66944431
      0.02166600      0.51460612
      8.30981436     -0.02902039
      1.52059365     -0.13302348
      0.42243757     -0.27247126
      0.14020323     -0.14912289
p              4   1.000000
      0.64737396      0.05713170
      0.16785440      0.28574555
      0.05917387      0.55178731
      0.02355814      0.26323150
 
          59   0
s              4   1.000000
      8.30945000      0.05675242
      1.52052697      0.26014135
      0.42241904      0.53284611
      0.14019708      0.29162544
s              7   1.000000
      0.92936822     -0.06732778
      0.05643440      0.66944896
      0.02166600      0.51460970
      8.30945000     -0.02902137
      1.52052697     -0.13302794
      0.42241904     -0.27248041
      0.14019708     -0.14912790
p              4   1.000000
      0.64737396      0.05713170
      0.16785440      0.28574555
      0.05917387      0.55178731
      0.02355814      0.26323150
 
          60   0
s              4   1.000000
      8.30938447      0.05675242
      1.52051498      0.26014135
      0.42241571      0.53284611
      0.14019598      0.29162544
s              7   1.000000
      0.92936822     -0.06732786
      0.05643440      0.66944981
      0.02166600      0.51461035
      8.30938447     -0.02902154
      1.52051498     -0.13302875
      0.42241571     -0.27248206
      0.14019598     -0.14912880
p              4   1.000000
      0.64737396      0.05713170
      0.16785440      0.28574555
      0.05917387      0.55178731
      0.02355814      0.26323150
 
          61   0
s              4   1.000000
      8.31076480      0.05675242
      1.52076757      0.26014135
      0.42248588      0.53284611
      0.14021927      0.29162544
s              7   1.000000
      0.92936822     -0.06732609
      0.05643440      0.66943215
      0.02166600      0.51459678
      8.31076480     -0.02901785
      1.52076757     -0.13301182
      0.42248588     -0.27244739
      0.14021927     -0.14910983
p              4   1.000000
      0.64737396      0.05713170
      0.16785440      0.28574555
      0.05917387      0.55178731
      0.02355814      0.26323150
 
          62   0
s              4   1.000000
      8.30896659      0.05675242
      1.52043852      0.26014135
      0.42239447      0.53284611
      0.14018893      0.29162544
s              7   1.000000
      0.92936822     -0.06732840
      0.05643440      0.66945515
      0.02166600      0.51461445
      8.30896659     -0.02902266
      1.52043852     -0.13303387
      0.42239447     -0.27249255
      0.14018893     -0.14913454
p              4   1.000000
      0.64737396      0.05713170
      0.16785440      0.28574555
      0.05917387      0.55178731
      0.02355814      0.26323150
 
          63   0
s              4   1.000000
      8.30885560      0.05675242
      1.52041821      0.26014135
      0.42238883      0.53284611
      0.14018705      0.29162544
s              7   1.000000
      0.92936822     -0.06732854
      0.05643440      0.66945657
      0.02166600      0.51461554
      8.30885560     -0.02902296
      1.52041821     -0.13303523
      0.42238883     -0.27249534
      0.14018705     -0.14913607
p              4   1.000000
      0.64737396      0.05713170
      0.16785440      0.28574555
      0.05917387      0.55178731
      0.02355814      0.26323150
 
          64   0
s              4   1.000000
      8.30992894      0.05675242
      1.52061461      0.26014135
      0.42244339      0.53284611
      0.14020516      0.29162544
s              7   1.000000
      0.92936822     -0.06732716
      0.05643440      0.66944284
      0.02166600      0.51460498
      8.30992894     -0.02902009
      1.52061461     -0.13302207
      0.42244339     -0.27246838
      0.14020516     -0.14912132
p              4   1.000000
      0.64737396      0.05713170
      0.16785440      0.28574555
      0.05917387      0.55178731
      0.02355814      0.26323150
 
          65   0
s              4   1.000000
      8.30638067      0.05675242
      1.51996533      0.26014135
      0.42226301      0.53284611
      0.14014530      0.29162544
s              7   1.000000
      0.92936822     -0.06733173
      0.05643440      0.66948825
      0.02166600      0.51463989
      8.30638067     -0.02902958
      1.51996533     -0.13306559
      0.42226301     -0.27255752
      0.14014530     -0.14917010
p              4   1.000000
      0.64737396      0.05713170
      0.16785440      0.28574555
      0.05917387      0.55178731
      0.02355814      0.26323150
 
          66   0
s              4   1.000000
      8.30626785      0.05675242
      1.51994468      0.26014135
      0.42225727      0.53284611
      0.14014339      0.29162544
s              7   1.000000
      0.92936822     -0.06733187
      0.05643440      0.66948969
      0.02166600      0.51464101
      8.30626785     -0.02902988
      1.51994468     -0.13306698
      0.42225727     -0.27256036
      0.14014339     -0.14917165
p              4   1.000000
      0.64737396      0.05713170
      0.16785440      0.28574555
      0.05917387      0.55178731
      0.02355814      0.26323150
 
          67   0
s              4   1.000000
      8.30639571      0.05675242
      1.51996808      0.26014135
      0.42226378      0.53284611
      0.14014555      0.29162544
s              7   1.000000
      0.92936822     -0.06733171
      0.05643440      0.66948805
      0.02166600      0.51463974
      8.30639571     -0.02902954
      1.51996808     -0.13306541
      0.42226378     -0.27255714
      0.14014555     -0.14916989
p              4   1.000000
      0.64737396      0.05713170
      0.16785440      0.28574555
      0.05917387      0.55178731
      0.02355814      0.26323150
 
          68   0
s              4   1.000000
      8.30638477      0.05675242
      1.51996607      0.26014135
      0.42226322      0.53284611
      0.14014537      0.29162544
s              7   1.000000
      0.92936822     -0.06733172
      0.05643440      0.66948819
      0.02166600      0.51463984
      8.30638477     -0.02902957
      1.51996607     -0.13306554
      0.42226322     -0.27255742
      0.14014537     -0.14917004
p              4   1.000000
      0.64737396      0.05713170
      0.16785440      0.28574555
      0.05917387      0.55178731
      0.02355814      0.26323150
 
          69   0
s              4   1.000000
      8.30626794      0.05675242
      1.51994470      0.26014135
      0.42225728      0.53284611
      0.14014340      0.29162544
s              7   1.000000
      0.92936822     -0.06733187
      0.05643440      0.66948969
      0.02166600      0.51464101
      8.30626794     -0.02902988
      1.51994470     -0.13306697
      0.42225728     -0.27256036
      0.14014340     -0.14917165
p              4   1.000000
      0.64737396      0.05713170
      0.16785440      0.28574555
      0.05917387      0.55178731
      0.02355814      0.26323150
 
          70   0
s              4   1.000000
      8.30638130      0.05675242
      1.51996544      0.26014135
      0.42226304      0.53284611
      0.14014531      0.29162544
s              7   1.000000
      0.92936822     -0.06733173
      0.05643440      0.66948823
      0.02166600      0.51463989
      8.30638130     -0.02902958
      1.51996544     -0.13306558
      0.42226304     -0.27255751
      0.14014531     -0.14917009
p              4   1.000000
      0.64737396      0.05713170
      0.16785440      0.28574555
      0.05917387      0.55178731
      0.02355814      0.26323150
 
          71   0
s              4   1.000000
      8.30993948      0.05675242
      1.52061654      0.26014135
      0.42244393      0.53284611
      0.14020534      0.29162544
s              7   1.000000
      0.92936822     -0.06732715
      0.05643440      0.66944271
      0.02166600      0.51460488
      8.30993948     -0.02902006
      1.52061654     -0.13302194
      0.42244393     -0.27246812
      0.14020534     -0.14912117
p              4   1.000000
      0.64737396      0.05713170
      0.16785440      0.28574555
      0.05917387      0.55178731
      0.02355814      0.26323150
 
          72   0
s              4   1.000000
      8.30885701      0.05675242
      1.52041846      0.26014135
      0.42238890      0.53284611
      0.14018708      0.29162544
s              7   1.000000
      0.92936822     -0.06732854
      0.05643440      0.66945655
      0.02166600      0.51461554
      8.30885701     -0.02902295
      1.52041846     -0.13303522
      0.42238890     -0.27249531
      0.14018708     -0.14913605
p              4   1.000000
      0.64737396      0.05713170
      0.16785440      0.28574555
      0.05917387      0.55178731
      0.02355814      0.26323150
 
          73   0
s              4   1.000000
      8.30896026      0.05675242
      1.52043736      0.26014135
      0.42239415      0.53284611
      0.14018882      0.29162544
s              7   1.000000
      0.92936822     -0.06732841
      0.05643440      0.66945523
      0.02166600      0.51461452
      8.30896026     -0.02902268
      1.52043736     -0.13303395
      0.42239415     -0.27249271
      0.14018882     -0.14913463
p              4   1.000000
      0.64737396      0.05713170
      0.16785440      0.28574555
      0.05917387      0.55178731
      0.02355814      0.26323150
 
          74   0
s              4   1.000000
      8.31079120      0.05675242
      1.52077240      0.26014135
      0.42248723      0.53284611
      0.14021971      0.29162544
s              7   1.000000
      0.92936822     -0.06732605
      0.05643440      0.66943181
      0.02166600      0.51459651
      8.31079120     -0.02901778
      1.52077240     -0.13301150
      0.42248723     -0.27244673
      0.14021971     -0.14910946
p              4   1.000000
      0.64737396      0.05713170
      0.16785440      0.28574555
      0.05917387      0.55178731
      0.02355814      0.26323150
 
          75   0
s              4   1.000000
      8.30941230      0.05675242
      1.52052008      0.26014135
      0.42241713      0.53284611
      0.14019645      0.29162544
s              7   1.000000
      0.92936822     -0.06732783
      0.05643440      0.66944945
      0.02166600      0.51461007
      8.30941230     -0.02902147
      1.52052008     -0.13302841
      0.42241713     -0.27248136
      0.14019645     -0.14912842
p              4   1.000000
      0.64737396      0.05713170
      0.16785440      0.28574555
      0.05917387      0.55178731
      0.02355814      0.26323150
 
          76   0
s              4   1.000000
      8.30979817      0.05675242
      1.52059068      0.26014135
      0.42243674      0.53284611
      0.14020296      0.29162544
s              7   1.000000
      0.92936822     -0.06732733
      0.05643440      0.66944451
      0.02166600      0.51460627
      8.30979817     -0.02902044
      1.52059068     -0.13302368
      0.42243674     -0.27247167
      0.14020296     -0.14912311
p              4   1.000000
      0.64737396      0.05713170
      0.16785440      0.28574555
      0.05917387      0.55178731
      0.02355814      0.26323150
 
          77   0
s              4   1.000000
      8.30944975      0.05675242
      1.52052693      0.26014135
      0.42241903      0.53284611
      0.14019708      0.29162544
s              7   1.000000
      0.92936822     -0.06732778
      0.05643440      0.66944897
      0.02166600      0.51460970
      8.30944975     -0.02902137
      1.52052693     -0.13302795
      0.42241903     -0.27248042
      0.14019708     -0.14912790
p              4   1.000000
      0.64737396      0.05713170
      0.16785440      0.28574555
      0.05917387      0.55178731
      0.02355814      0.26323150
 
          78   0
s              4   1.000000
      8.30937386      0.05675242
      1.52051304      0.26014135
      0.42241517      0.53284611
      0.14019580      0.29162544
s              7   1.000000
      0.92936822     -0.06732788
      0.05643440      0.66944994
      0.02166600      0.51461045
      8.30937386     -0.02902157
      1.52051304     -0.13302888
      0.42241517     -0.27248232
      0.14019580     -0.14912894
p              4   1.000000
      0.64737396      0.05713170
      0.16785440      0.28574555
      0.05917387      0.55178731
      0.02355814      0.26323150
 
          79   0
s              4   1.000000
      8.31075245      0.05675242
      1.52076531      0.26014135
      0.42248525      0.53284611
      0.14021906      0.29162543
s              7   1.000000
      0.92936822     -0.06732610
      0.05643440      0.66943231
      0.02166600      0.51459690
      8.31075245     -0.02901788
      1.52076531     -0.13301198
      0.42248525     -0.27244770
      0.14021906     -0.14910999
p              4   1.000000
      0.64737396      0.05713170
      0.16785440      0.28574555
      0.05917387      0.55178731
      0.02355814      0.26323150
 
          80   0
s              4   1.000000
      8.30896543      0.05675242
      1.52043830      0.26014135
      0.42239441      0.53284611
      0.14018891      0.29162544
s              7   1.000000
      0.92936822     -0.06732840
      0.05643440      0.66945516
      0.02166600      0.51461447
      8.30896543     -0.02902266
      1.52043830     -0.13303389
      0.42239441     -0.27249258
      0.14018891     -0.14913455
p              4   1.000000
      0.64737396      0.05713170
      0.16785440      0.28574555
      0.05917387      0.55178731
      0.02355814      0.26323150
 
          81   0
s              4   1.000000
      8.30885599      0.05675242
      1.52041828      0.26014135
      0.42238885      0.53284611
      0.14018706      0.29162544
s              7   1.000000
      0.92936822     -0.06732854
      0.05643440      0.66945657
      0.02166600      0.51461554
      8.30885599     -0.02902296
      1.52041828     -0.13303523
      0.42238885     -0.27249533
      0.14018706     -0.14913606
p              4   1.000000
      0.64737396      0.05713170
      0.16785440      0.28574555
      0.05917387      0.55178731
      0.02355814      0.26323150
 
          82   0
s              4   1.000000
      8.30992655      0.05675242
      1.52061418      0.26014135
      0.42244327      0.53284611
      0.14020512      0.29162544
s              7   1.000000
      0.92936822     -0.06732716
      0.05643440      0.66944286
      0.02166600      0.51460500
      8.30992655     -0.02902009
      1.52061418     -0.13302210
      0.42244327     -0.27246844
      0.14020512     -0.14912135
p              4   1.000000
      0.64737396      0.05713170
      0.16785440      0.28574555
      0.05917387      0.55178731
      0.02355814      0.26323150
 
 [MO]
 Sym= Hole
 Ene= -0.8185858    
 Spin= Alpha
 Occup= 0
           1  3.5108220E-02
           2  2.2384902E-02
           3 -5.1957164E-02
           4 -3.9912321E-02
           5 -2.0067323E-02
           6 -4.0006768E-03
           7  7.5100944E-03
           8  5.5889487E-03
           9 -3.5740039E-05
          10  1.1115154E-02
          11  2.0899124E-02
          12  2.0559011E-02
          13 -2.2952216E-05
          14 -2.1742915E-03
          15 -3.9598863E-03
          16 -3.4268238E-03
          17 -3.5162862E-02
          18 -5.4033872E-02
          19 -9.3605081E-03
          20 -4.2585563E-02
          21  2.0105802E-02
          22  8.2155894E-03
          23  6.9940748E-04
          24  5.9992797E-03
          25 -3.2129089E-04
          26 -6.4087093E-02
          27 -0.1226171    
          28 -0.1637874    
          29  1.5003204E-04
          30  4.7897105E-03
          31  1.1067933E-02
          32  1.5802840E-02
          33 -1.3038908E-03
          34  3.1663794E-03
          35  9.0349400E-03
          36  8.5620377E-03
          37 -1.8084513E-04
          38 -1.7731249E-03
          39 -1.5745936E-03
          40 -2.7366399E-03
          41 -1.2220258E-03
          42  6.5172732E-02
          43  0.1175882    
          44  0.1588293    
          45 -4.5729950E-05
          46 -5.0435681E-03
          47 -8.0443677E-03
          48 -1.1642055E-02
          49  8.4048038E-04
          50  7.4961754E-03
          51  8.8605108E-03
          52  1.4556845E-02
          53 -7.9135480E-04
          54 -2.9030426E-03
          55 -3.8276515E-03
          56 -7.1487222E-03
          57 -4.0154615E-03
          58 -8.7801076E-02
          59 -0.1226022    
          60 -0.1699594    
          61  1.3446306E-03
          62  4.0264055E-03
          63  9.7590433E-03
          64  7.8633232E-03
          65 -7.0301201E-03
          66 -2.8573433E-02
          67 -3.8059484E-02
          68 -7.3206581E-02
          69  3.3106380E-03
          70  4.6675191E-03
          71  1.1539845E-02
          72  1.7827651E-02
          73  3.7468653E-04
          74  0.1327990    
          75  0.2524305    
          76  0.3480232    
          77 -1.3244204E-04
          78 -1.6926605E-02
          79 -3.1549089E-02
          80 -2.9882219E-02
          81  6.6892296E-04
          82  1.3789454E-02
          83  1.7091321E-02
          84 -0.1140019    
          85 -2.0839334E-04
          86  4.2777364E-03
          87  8.0440436E-03
          88  1.0416682E-02
          89 -3.9793920E-02
          90  9.4479680E-02
          91  7.5813822E-02
          92 -5.7401966E-02
          93  2.2174053E-02
          94 -1.4036257E-02
          95  1.0196776E-03
          96  5.3296797E-04
          97  1.3470373E-02
          98 -3.3298839E-02
          99 -1.8152934E-02
         100  3.5778414E-02
         101 -4.9319197E-03
         102  3.4650092E-03
         103  4.4588619E-04
         104  2.7780734E-05
         105  2.9548849E-03
         106 -2.7757099E-02
         107 -6.4709753E-02
         108  0.1445225    
         109 -1.4082511E-03
         110  7.3956395E-04
         111  3.0884822E-03
         112 -3.3855780E-03
         113  3.6718713E-03
         114 -8.7206491E-04
         115  6.7145717E-03
         116  7.2102011E-03
         117  3.2279745E-03
         118  4.2070766E-04
         119 -1.4574046E-03
         120 -8.6637371E-04
         121 -2.8093189E-03
         122  4.8166062E-03
         123 -2.1032032E-02
         124 -1.0861093E-02
         125  1.0739486E-03
         126  4.7500498E-04
         127  7.3012670E-05
         128  4.9348664E-04
         129  3.0308012E-03
         130  2.3267789E-02
         131 -5.4709759E-02
         132 -0.1189033    
         133 -1.3661531E-03
         134 -8.8565511E-04
         135  3.0211566E-03
         136  2.2651057E-03
         137 -1.0922319E-02
         138  4.9597067E-03
         139 -3.6248587E-02
         140 -3.2890510E-02
         141  3.9522247E-03
         142  6.5412413E-04
         143  2.3674483E-03
         144 -6.2078948E-04
         145  3.2180391E-02
         146 -1.5219025E-02
         147  9.1869384E-02
         148  4.4781733E-02
         149 -1.7696869E-02
         150 -6.4550280E-03
         151 -8.9202393E-03
         152 -1.0693242E-03
         153  7.4048660E-04
         154 -1.4156043E-02
         155  1.7343633E-02
         156  9.4496332E-02
         157 -2.0752978E-04
         158 -3.0678690E-03
         159  6.2280898E-03
         160 -8.7893140E-03
         161  4.5233397E-04
         162 -9.9387392E-02
         163  0.1921238    
         164 -0.2793102    
         165 -1.7000255E-04
         166  1.3015149E-02
         167 -2.4423542E-02
         168  2.4082111E-02
         169  5.8953096E-03
         170  1.0313923E-02
         171 -3.5792071E-02
         172  5.9370991E-02
         173 -2.6749189E-03
         174 -5.2196099E-03
         175  8.0119288E-03
         176 -1.4314601E-02
         177  2.8719229E-03
         178  3.6957242E-02
         179 -0.1108003    
         180  0.1344403    
         181 -8.1781112E-04
         182 -4.5463876E-03
         183  6.9099525E-03
         184 -6.1302087E-03
         185 -6.1611953E-04
         186 -2.2283373E-03
         187  9.2552146E-03
         188 -1.2006485E-02
         189  6.0577202E-04
         190  1.0608907E-03
         191 -3.6302109E-03
         192  5.6047346E-03
         193  1.0452772E-03
         194 -4.3926932E-02
         195  9.3319461E-02
         196 -0.1276947    
         197 -1.9233612E-06
         198  2.7550014E-03
         199 -6.6903075E-03
         200  9.2419274E-03
         201  9.2422881E-04
         202 -4.4069607E-03
         203  6.1993925E-03
         204 -7.5307633E-03
         205  1.7405301E-04
         206  2.1532486E-04
         207 -1.8959654E-03
         208  2.1911112E-03
         209  5.5386510E-04
         210  4.7127947E-02
         211 -9.4558038E-02
         212  0.1318061    
         213 -2.7540248E-04
         214 -4.5649535E-03
         215  7.7783517E-03
         216 -1.2771858E-02
         217 -4.2383461E-05
         218 -8.6040320E-03
         219  1.6423380E-02
         220 -1.6776003E-02
         221 -2.5912366E-05
         222  1.6658420E-03
         223 -3.0316971E-03
         224  2.7231751E-03
         225  2.7718678E-02
         226 -1.8378014E-02
         227 -4.0468819E-02
         228  3.2031193E-02
         229 -1.5830096E-02
         230  3.2414387E-03
         231  5.7999715E-03
         232 -4.4481573E-03
         233 -2.7783498E-02
         234  4.2138629E-02
         235 -6.7881211E-03
         236  3.4709003E-02
         237  1.5876330E-02
         238 -6.3511548E-03
         239  4.5555850E-04
         240 -4.8521948E-03
         241 -2.0035438E-04
         242  4.7991041E-02
         243 -9.3937956E-02
         244  0.1323054    
         245  1.1162801E-04
         246 -3.4780265E-03
         247  8.5018259E-03
         248 -1.2763062E-02
         249 -1.1143765E-03
         250 -2.3652476E-03
         251  7.1287164E-03
         252 -6.9973869E-03
         253 -1.3206393E-04
         254  1.3844778E-03
         255 -1.1707634E-03
         256  2.2205219E-03
         257 -1.0247371E-03
         258 -4.9331255E-02
         259  9.0152673E-02
         260 -0.1286040    
         261 -3.7245398E-05
         262  3.8356560E-03
         263 -6.1073792E-03
         264  9.4165718E-03
         265  7.3451980E-04
         266 -5.9845257E-03
         267  6.9741020E-03
         268 -1.2361507E-02
         269 -6.8535923E-04
         270  2.1630661E-03
         271 -2.7990595E-03
         272  5.7725217E-03
         273 -3.4638881E-03
         274  6.7403905E-02
         275 -9.2971005E-02
         276  0.1368910    
         277  1.2210018E-03
         278 -3.1549884E-03
         279  7.6162899E-03
         280 -6.4397589E-03
         281 -5.9739826E-03
         282  2.1717718E-02
         283 -2.8323136E-02
         284  5.9398975E-02
         285  2.9010687E-03
         286 -3.3951411E-03
         287  8.5853357E-03
         288 -1.4420751E-02
         289 -3.1652465E-02
         290 -7.4701369E-02
         291  6.2658764E-02
         292  4.7978789E-02
         293  1.7594192E-02
         294  1.0762152E-02
         295  6.4852805E-04
         296 -5.4317672E-04
         297  1.2080342E-02
         298  2.5896065E-02
         299 -1.7748725E-02
         300 -3.2472614E-02
         301 -4.5997114E-03
         302 -3.7099328E-03
         303  5.5377482E-04
         304  4.7825740E-04
         305 -1.2965222E-02
         306 -2.3051712E-03
         307 -4.1722700E-02
         308  3.6790047E-02
         309  4.3442389E-03
         310 -1.2609087E-03
         311  2.5122555E-03
         312  4.8733989E-04
         313  4.0867958E-02
         314  1.7107232E-02
         315  0.1152585    
         316 -5.5607352E-02
         317 -2.2464739E-02
         318  8.4133800E-03
         319 -1.1301463E-02
         320  1.2897002E-03
         321  6.9847866E-03
         322 -1.5096813E-02
         323 -4.7017287E-02
         324 -7.3561765E-02
         325 -3.1667342E-03
         326  6.9566830E-03
         327  1.0624361E-02
         328  1.7792506E-02
         329  3.4880112E-03
         330 -5.1450972E-02
         331 -0.1437495    
         332 -0.1675341    
         333 -9.9407847E-04
         334  5.8632633E-03
         335  8.6864503E-03
         336  7.5329426E-03
         337 -7.3232979E-04
         338  3.0899539E-03
         339  1.1521644E-02
         340  1.4203763E-02
         341  7.1211869E-04
         342 -1.5321109E-03
         343 -4.7706999E-03
         344 -6.9868797E-03
         345  1.2591068E-03
         346  5.9006147E-02
         347  0.1212641    
         348  0.1579347    
         349  7.8865050E-06
         350 -3.7392853E-03
         351 -8.7132324E-03
         352 -1.1442516E-02
         353  1.1321072E-03
         354  5.6999708E-03
         355  8.0400240E-03
         356  9.2978906E-03
         357  2.2177548E-04
         358 -3.4597752E-04
         359 -2.4470112E-03
         360 -2.7096926E-03
         361  6.4355484E-04
         362 -6.3181378E-02
         363 -0.1232252    
         364 -0.1633002    
         365 -3.2773052E-04
         366  6.0584485E-03
         367  1.0237240E-02
         368  1.5791185E-02
         369 -1.7944876E-02
         370 -9.7676693E-04
         371 -1.2759746E-04
         372 -7.6591494E-03
         373  2.0289603E-03
         374 -1.5835864E-02
         375 -1.0582902E-03
         376  4.8402217E-03
         377  2.8741796E-04
         378 -5.9198765E-03
         379 -7.8142192E-03
         380 -4.6358313E-03
         381 -1.0544640E-02
         382  1.7376716E-04
         383 -6.5087625E-03
         384  7.8117033E-03
         385  4.6152286E-03
         386  5.8930451E-03
         387 -9.0356525E-03
         388 -5.9831580E-03
         389  1.5868539E-02
         390  1.0818380E-03
         391 -1.9084121E-03
         392  4.1292477E-03
         393 -6.1643533E-03
         394  1.8054213E-02
         395  9.7150996E-04
         396 -6.5665310E-03
         397 -4.0875091E-03
         398  1.8558906E-03
         399  2.4492841E-03
         400 -7.0419774E-04
         401 -6.5870132E-05
         402  1.4881974E-03
         403  1.7520996E-03
         404  6.2810286E-04
         405 -4.3966994E-04
         406  5.9898221E-03
         407  1.0867439E-02
         408  1.4303425E-02
         409  4.2131455E-03
         410 -1.1115560E-03
         411  1.7835520E-03
         412  2.3172514E-03
         413  2.7715564E-03
         414 -3.2913382E-03
         415  5.5190932E-04
         416 -1.7888718E-03
         417 -8.4840823E-03
         418 -1.2484621E-02
         419  2.0530494E-02
         420  6.1775702E-03
         421 -1.7811829E-02
         422  3.7424723E-03
         423 -3.7008398E-03
         424 -2.7723121E-02
         425  5.6083046E-04
         426  3.3444092E-03
         427 -2.1700389E-04
         428 -2.6235599E-03
         429  2.1475790E-02
         430  2.5433773E-04
         431  1.3767640E-03
         432  2.5006800E-03
         433  9.7562745E-04
         434 -1.8174062E-02
         435 -4.5382814E-03
         436 -9.5939413E-03
         437 -1.0002124E-02
         438  2.0874578E-03
         439  2.8362083E-03
         440 -2.0863363E-04
         441  4.3669729E-03
         442 -4.5050988E-03
         443  9.8719327E-03
         444 -3.5795444E-03
         445  1.0589821E-03
         446 -8.3340233E-04
         447  1.8984172E-03
         448 -2.2107409E-03
         449 -5.5412151E-04
         450  3.5007321E-04
         451 -4.0770397E-03
         452  8.5279597E-03
         453 -1.1350816E-02
         454 -1.9303728E-03
         455  5.6358607E-04
         456 -9.9890609E-04
         457  5.7278754E-04
         458 -1.4541094E-03
         459 -1.4314420E-02
         460 -7.8940467E-04
         461  1.0724267E-04
         462 -6.0554259E-03
         463 -1.4842772E-03
         464 -6.2215356E-03
         465 -3.6476778E-03
         466  8.2266638E-03
         467  2.5978190E-04
         468  5.2642250E-03
         469 -1.2417845E-02
         470 -8.5751724E-04
         471 -3.8693494E-03
         472  3.6245817E-04
         473  4.5902915E-03
         474  1.2476454E-02
         475  8.7742822E-04
         476  1.3451505E-03
         477  3.3559995E-03
         478  4.8311045E-03
         479  6.2185759E-03
         480  3.6230481E-03
         481 -4.7405711E-03
         482 -7.0091449E-03
         483  4.7490336E-03
         484  1.4429433E-02
         485  7.8666129E-04
         486  5.1983288E-03
         487 -3.2465172E-03
         488 -1.3230712E-03
         489  2.0912786E-03
         490 -5.8209489E-04
         491  1.0214112E-04
         492  1.1280176E-03
         493 -1.3719351E-03
         494  5.6906551E-04
         495 -3.4649367E-04
         496 -4.5266640E-03
         497  8.2623670E-03
         498 -1.1525964E-02
         499  3.4910680E-03
         500 -8.5704896E-04
         501 -1.4865056E-03
         502  1.7222430E-03
         503 -2.1676188E-03
         504 -2.7656911E-03
         505  6.4867211E-04
         506  9.9891203E-04
         507 -6.5970640E-03
         508  1.0011160E-02
         509  1.6334226E-02
         510  4.9261865E-03
         511  1.3767775E-02
         512  3.0720092E-03
         513  2.9923737E-03
         514 -2.1099808E-02
         515  2.7504261E-04
         516 -2.5395961E-03
         517  1.0236600E-04
         518  2.9272761E-03
         519  2.7301570E-02
         520  1.9020494E-04
         521 -1.1604491E-03
         522  2.9841745E-03
         523 -1.4997743E-03
         524 -2.2675624E-02
         525 -5.8916276E-03
         526  1.2250884E-02
         527 -1.2901652E-02
         528 -2.5566344E-03
         529  3.3740667E-03
         530 -1.7046276E-04
         531 -5.5217748E-03
         532 -6.1173723E-03
         533 -1.2312111E-02
         534 -4.3216157E-03
         535  1.2696440E-03
         536  1.1256397E-03
         537  2.5154212E-03
         538  2.8128962E-03
         539 -6.2682841E-04
         540  4.4473575E-04
         541  5.5092983E-03
         542  1.1106723E-02
         543  1.4102601E-02
         544 -2.3170873E-03
         545  7.0160488E-04
         546  1.2904936E-03
         547  8.0893084E-04
         548  1.8357487E-03
 Sym= Particle
 Ene= -0.8185858    
 Spin= Alpha
 Occup= 2
           1 -5.2148504E-03
           2 -1.4740339E-03
           3  5.6230053E-03
           4  3.3014438E-03
           5  4.8723719E-03
           6  1.1835770E-04
           7 -2.8737837E-03
           8  5.1242736E-04
           9 -1.1411844E-04
          10 -4.7636647E-03
          11 -7.5185369E-03
          12  6.0520191E-03
          13  6.3403614E-04
          14  1.4170507E-03
          15  1.4332287E-03
          16 -3.3561280E-04
          17  4.3064100E-03
          18  5.5194004E-03
          19  1.9752607E-03
          20  3.7003206E-03
          21 -3.2231675E-03
          22 -2.2385560E-03
          23 -1.5368236E-03
          24  4.6623917E-04
          25 -1.0396634E-02
          26 -4.8300936E-03
          27  2.2629613E-02
          28  1.6316393E-02
          29  6.1897691E-03
          30  1.2099283E-03
          31 -1.0171278E-02
          32 -3.7031497E-03
          33  6.3037993E-03
          34  7.1657118E-03
          35  8.0369683E-03
          36  2.4273312E-02
          37 -3.2797945E-03
          38 -3.4246780E-03
          39 -4.0590856E-03
          40 -4.6282164E-03
          41  1.8910159E-03
          42 -1.1550379E-02
          43 -2.4196833E-02
          44 -3.1883109E-02
          45 -2.7674595E-03
          46 -7.5506611E-04
          47  5.9810402E-03
          48  6.3308133E-03
          49 -1.8495964E-03
          50 -1.0105062E-04
          51  1.4777546E-03
          52 -1.6292152E-03
          53  1.3284237E-03
          54 -3.2696079E-03
          55 -8.6084119E-04
          56  1.5130648E-03
          57  3.8492854E-03
          58  2.5545619E-02
          59  1.8622944E-02
          60  2.8585110E-02
          61 -3.6398866E-03
          62 -1.0198476E-02
          63  1.6695833E-03
          64 -4.8231049E-03
          65  3.0497862E-02
          66 -7.0154849E-03
          67 -6.3888900E-02
          68 -1.5657649E-03
          69 -2.4306508E-02
          70 -7.5224829E-03
          71  2.4665095E-02
          72  1.7817377E-03
          73 -9.1704358E-05
          74 -8.6621465E-03
          75 -1.7020682E-02
          76 -2.6390256E-02
          77  1.5252527E-03
          78 -5.3774682E-04
          79 -6.5790364E-03
          80  1.5198898E-02
          81 -1.3058671E-03
          82 -0.1127571    
          83 -0.1814062    
          84  0.3468023    
          85  2.4115820E-03
          86  3.7050486E-02
          87  5.3143408E-02
          88 -0.1105622    
          89  8.1103863E-03
          90  4.5372736E-02
          91  6.8721011E-02
          92 -0.1347762    
          93 -3.4866112E-03
          94 -8.4842788E-03
          95 -2.1447506E-02
          96  4.0360488E-02
          97 -1.3226620E-02
          98  6.3252389E-02
          99  0.1314436    
         100 -0.1832913    
         101  9.8706251E-03
         102 -5.9706746E-03
         103 -3.0809443E-02
         104  4.9354836E-02
         105 -1.2911478E-02
         106 -9.5521495E-02
         107 -0.1251196    
         108  0.2351936    
         109  9.5157158E-03
         110  2.6512276E-02
         111  4.0371682E-02
         112 -5.2748423E-02
         113  8.1078650E-04
         114 -1.4707519E-02
         115 -6.6307944E-06
         116  0.4122287    
         117  6.7469396E-04
         118 -1.3220283E-03
         119 -3.6906416E-03
         120 -9.6670799E-02
         121 -1.3738590E-03
         122  2.2531258E-02
         123 -4.4180430E-03
         124 -0.3436624    
         125  2.4455097E-03
         126 -1.2112816E-02
         127  2.1466538E-03
         128  7.4889377E-02
         129  1.4027175E-02
         130 -8.1350535E-02
         131  9.4841823E-02
         132  0.1761816    
         133 -1.0566739E-02
         134  2.3648690E-02
         135 -3.2666735E-02
         136 -3.5945177E-02
         137 -1.8790198E-02
         138  8.4392481E-02
         139 -0.1103272    
         140 -0.1539082    
         141  1.2283471E-02
         142 -2.1914551E-02
         143  2.6609281E-02
         144  2.2867169E-02
         145  7.5055528E-03
         146  2.4192061E-02
         147 -4.8677202E-02
         148 -9.1577649E-02
         149 -4.2246701E-03
         150 -9.0115685E-03
         151  1.4389726E-02
         152  2.6949398E-02
         153  1.1707486E-03
         154 -9.2900619E-02
         155  0.1470926    
         156  0.2766244    
         157 -2.4736081E-03
         158  2.9582188E-02
         159 -4.0284406E-02
         160 -8.3790243E-02
         161  4.7969752E-05
         162 -7.8677768E-03
         163  1.5921332E-02
         164 -2.7317088E-02
         165 -1.6186258E-03
         166  1.0082583E-03
         167  4.4819806E-03
         168  1.3047402E-02
         169  2.4820060E-02
         170 -4.0483490E-02
         171  2.9598814E-02
         172 -1.6895388E-03
         173 -2.2007454E-02
         174  2.2094764E-02
         175 -2.8264963E-03
         176  1.0916751E-03
         177  3.5230643E-03
         178  6.0007053E-05
         179 -2.6097585E-02
         180  2.3218138E-02
         181 -5.5696885E-03
         182  9.0813013E-03
         183  7.4515301E-03
         184 -5.2125519E-03
         185 -1.1923255E-03
         186  1.2042342E-03
         187 -1.4603300E-03
         188 -3.6162557E-05
         189 -2.4736335E-04
         190  1.9534435E-03
         191  3.0058923E-03
         192  9.5047470E-04
         193  1.8807324E-03
         194 -1.0159704E-02
         195  1.8599167E-02
         196 -2.7197337E-02
         197 -3.2489796E-03
         198  4.0768152E-03
         199 -1.8225552E-03
         200  5.7652229E-03
         201  5.2957884E-03
         202  5.4162025E-04
         203 -6.7329379E-03
         204  1.7677411E-02
         205 -3.5761744E-03
         206 -7.1591861E-04
         207  3.3612866E-03
         208 -3.0000221E-03
         209 -7.9780910E-03
         210  1.7331222E-02
         211 -8.7886555E-03
         212  1.6775368E-02
         213  3.7157554E-03
         214 -6.5140030E-03
         215  4.1631330E-03
         216 -3.7774602E-03
         217  9.2969894E-05
         218 -4.1850996E-03
         219  6.3920231E-03
         220  4.4408329E-03
         221 -6.0176180E-04
         222  1.3864227E-03
         223 -1.2549008E-03
         224 -1.7484216E-04
         225  4.6685985E-03
         226 -1.5262787E-03
         227 -5.0955662E-03
         228  3.2208462E-03
         229 -4.2572054E-03
         230  1.9625829E-04
         231  2.4064481E-03
         232  2.1698324E-04
         233 -3.7520039E-03
         234  4.9439771E-03
         235 -1.6201935E-03
         236  3.5595992E-03
         237  2.6199489E-03
         238 -1.7937706E-03
         239  1.1512194E-03
         240  2.8084504E-04
         241  8.1300326E-03
         242 -3.2875426E-03
         243 -1.9213749E-02
         244  1.5242334E-02
         245 -4.7819070E-03
         246  1.0125869E-03
         247  8.0710053E-03
         248 -3.6380391E-03
         249 -5.0612614E-03
         250  5.1672412E-03
         251 -5.4000481E-03
         252  1.8974084E-02
         253  2.4493150E-03
         254 -2.3076625E-03
         255  3.0741720E-03
         256 -3.5666416E-03
         257 -1.5728024E-03
         258 -9.1310134E-03
         259  1.9388927E-02
         260 -2.7088869E-02
         261  2.0664304E-03
         262 -5.0079939E-04
         263 -4.3739108E-03
         264  5.1192795E-03
         265  1.4343705E-03
         266 -7.0466005E-05
         267 -1.2195818E-03
         268 -1.3342176E-03
         269 -1.0672314E-03
         270 -2.3733363E-03
         271  9.0004655E-04
         272  1.2760811E-03
         273 -3.3881927E-03
         274  2.0975240E-02
         275 -1.4720642E-02
         276  2.4511008E-02
         277  3.1839847E-03
         278 -7.6621883E-03
         279 -1.2506181E-03
         280 -3.6194355E-03
         281 -2.4178695E-02
         282 -4.9945726E-03
         283  5.0391220E-02
         284 -1.2816015E-03
         285  1.8950731E-02
         286 -5.5788630E-03
         287 -1.8463606E-02
         288  1.1623212E-03
         289 -8.2536452E-03
         290  3.4566216E-02
         291 -4.9172629E-02
         292 -9.7483367E-02
         293  3.6468711E-03
         294 -4.8322519E-03
         295  1.3851065E-02
         296  2.7845314E-02
         297  1.4481509E-02
         298  5.5979870E-02
         299 -0.1202739    
         300 -0.1589223    
         301 -1.1225143E-02
         302 -2.5959187E-03
         303  2.7574357E-02
         304  4.3137364E-02
         305  1.7856298E-02
         306  9.0482906E-02
         307  0.1227304    
         308 -0.1823968    
         309 -1.1452354E-02
         310 -2.3513302E-02
         311 -2.9843116E-02
         312  3.0787667E-02
         313 -6.7431643E-03
         314  3.5014316E-02
         315  6.5907769E-02
         316 -0.1264924    
         317  3.5375354E-03
         318 -1.3154192E-02
         319 -2.0366509E-02
         320  3.8470462E-02
         321 -3.1051828E-02
         322 -5.0622463E-02
         323 -3.7913181E-02
         324 -1.4653835E-03
         325  2.7012398E-02
         326  2.7827609E-02
         327  4.2488347E-03
         328  1.5403300E-03
         329 -3.8954425E-03
         330  1.0835268E-03
         331  3.1624123E-02
         332  2.6933694E-02
         333  5.7376288E-03
         334  1.0488936E-02
         335 -9.3316538E-03
         336 -6.2198308E-03
         337  1.6088781E-03
         338  1.4342559E-03
         339  1.4425620E-03
         340 -5.2283792E-04
         341 -8.0116602E-05
         342  2.3940366E-03
         343 -3.6885347E-03
         344  1.2145552E-03
         345 -2.1876537E-03
         346 -1.2828398E-02
         347 -2.2765847E-02
         348 -3.1507261E-02
         349  3.9355317E-03
         350  5.4920525E-03
         351  2.3523159E-03
         352  6.8346355E-03
         353 -6.5570306E-03
         354  1.6937330E-03
         355  9.6509848E-03
         356  2.2787947E-02
         357  4.4337818E-03
         358 -1.0092496E-03
         359 -4.7863256E-03
         360 -4.0123696E-03
         361  1.0258543E-02
         362  2.1133285E-02
         363  8.8965856E-03
         364  1.7497595E-02
         365 -5.1355744E-03
         366 -8.4113330E-03
         367 -4.9842224E-03
         368 -3.7916438E-03
         369  4.0216432E-03
         370 -3.5646395E-04
         371 -3.9161695E-04
         372  2.4030313E-03
         373  6.9758057E-04
         374  6.8997138E-04
         375  2.5603753E-03
         376  8.5118671E-05
         377 -2.8651475E-03
         378  1.6442875E-03
         379  9.1778173E-04
         380  1.1331640E-03
         381 -4.7226236E-04
         382 -8.9778838E-04
         383  1.7697843E-03
         384 -6.2484306E-04
         385 -3.5126289E-04
         386  3.3571097E-04
         387 -1.4993766E-03
         388  1.5861550E-03
         389 -4.4160627E-04
         390 -2.0025838E-03
         391 -2.3744141E-03
         392 -9.8211272E-04
         393  1.3760024E-03
         394 -3.7585117E-03
         395  9.6796383E-04
         396  1.9688730E-03
         397  5.7046028E-04
         398  1.2531666E-03
         399 -7.7430545E-03
         400  4.3595838E-04
         401  5.8257894E-04
         402  1.6761445E-03
         403  4.8936708E-03
         404 -1.5323728E-03
         405 -3.1803816E-03
         406 -4.1885963E-03
         407 -2.8973378E-03
         408 -6.9528846E-03
         409 -5.6102672E-03
         410 -1.5789294E-03
         411  1.3779663E-04
         412  4.8279195E-04
         413 -1.4678036E-03
         414 -4.9885903E-03
         415  2.8226541E-03
         416  1.4785262E-02
         417  1.8545730E-02
         418  8.1040384E-03
         419 -9.2680808E-03
         420  4.1646715E-03
         421  1.6031057E-02
         422  1.2818674E-02
         423 -3.3489589E-02
         424  9.3234777E-03
         425  2.6747491E-03
         426  1.5370661E-02
         427 -2.5061287E-03
         428 -1.8365005E-02
         429  2.6272729E-04
         430 -2.7547313E-03
         431  2.5285818E-02
         432 -4.3660882E-03
         433 -3.0641634E-02
         434 -1.2684746E-02
         435 -5.6699541E-04
         436  7.6769474E-03
         437 -1.2060327E-02
         438 -1.9716291E-02
         439 -3.4931272E-03
         440 -1.0916536E-03
         441  8.2468577E-03
         442 -1.7660322E-02
         443  1.2572205E-03
         444 -4.8135808E-03
         445 -1.7759607E-03
         446  7.5429725E-04
         447 -7.1164727E-04
         448 -1.1853237E-03
         449 -1.4836364E-03
         450 -2.8839579E-03
         451  1.0077578E-04
         452  4.2856606E-03
         453 -5.3312988E-03
         454 -5.8938880E-03
         455 -6.5369374E-04
         456  8.4370101E-04
         457 -9.4700471E-04
         458  3.3835913E-03
         459 -3.5164224E-03
         460  2.2299936E-04
         461 -2.5771835E-04
         462 -2.0734996E-03
         463  5.0074176E-04
         464 -8.4166345E-04
         465 -1.0148269E-03
         466 -2.0698892E-04
         467  7.9092331E-04
         468  1.4461166E-03
         469 -7.0219551E-04
         470 -2.0771697E-03
         471  1.9862528E-05
         472  2.3236992E-03
         473  1.3208826E-03
         474  4.8750546E-04
         475  1.5350917E-03
         476 -1.8396109E-03
         477  7.8109180E-04
         478  1.1010949E-03
         479  6.0929079E-04
         480  2.0911568E-04
         481  3.0844784E-04
         482  1.1537605E-03
         483  1.3457740E-03
         484  3.2350777E-03
         485 -8.2794746E-04
         486  1.5906114E-03
         487 -4.7053475E-04
         488  1.0202536E-03
         489  6.3585881E-03
         490 -6.1217166E-04
         491  5.5341114E-04
         492 -1.1854658E-03
         493  3.7615087E-03
         494  1.2999175E-03
         495  2.2260894E-03
         496 -3.2276809E-03
         497  2.3817485E-03
         498 -5.5915304E-03
         499  4.5698946E-03
         500  9.9715556E-04
         501  3.8513703E-05
         502 -3.5195082E-04
         503 -9.5014571E-04
         504  3.7490362E-03
         505 -2.3405966E-03
         506  1.1477354E-02
         507 -1.4490350E-02
         508  7.8940382E-03
         509  8.3894692E-03
         510 -4.1299071E-03
         511  1.3421788E-02
         512 -8.4759668E-03
         513 -2.3982074E-02
         514 -1.0549750E-02
         515 -3.0159161E-03
         516  1.5951525E-02
         517  6.6519994E-03
         518 -1.2977926E-02
         519 -7.1190455E-04
         520  3.5610758E-03
         521  2.6941946E-02
         522  6.5859370E-03
         523 -3.6137410E-02
         524  1.2134757E-02
         525  6.2184315E-04
         526  9.9432003E-03
         527  1.6484844E-02
         528 -2.8732169E-02
         529  4.7233733E-03
         530  4.2476691E-04
         531  9.6722720E-03
         532  2.2184249E-02
         533  1.7878453E-03
         534  5.7939608E-03
         535  2.3767224E-03
         536  8.4674452E-04
         537  8.5071637E-04
         538 -1.6309008E-03
         539  1.7185390E-03
         540  3.8209341E-03
         541  1.6382530E-04
         542 -5.3136740E-03
         543 -6.5427884E-03
         544  7.3609119E-03
         545  7.6916139E-04
         546  1.1118272E-03
         547  1.2812717E-03
         548  4.5212274E-03
 Sym= Hole
 Ene= -0.1971814    
 Spin= Alpha
 Occup= 0
           1 -2.6933780E-02
           2 -1.6781151E-02
           3  3.8473219E-02
           4  2.9937269E-02
           5  1.5760686E-02
           6  3.5041883E-03
           7 -6.3340859E-03
           8 -4.6965908E-03
           9 -1.6581660E-04
          10 -7.4356520E-03
          11 -1.3819023E-02
          12 -1.4105331E-02
          13 -1.6395859E-05
          14  2.1261747E-03
          15  3.8577393E-03
          16  3.6906451E-03
          17  2.7186489E-02
          18  3.9957952E-02
          19  6.7735785E-03
          20  3.1793661E-02
          21 -1.5779708E-02
          22 -6.9968048E-03
          23 -4.6474772E-04
          24 -5.0331648E-03
          25  8.1473036E-04
          26  5.0083637E-02
          27  9.4669774E-02
          28  0.1274940    
          29 -4.0091417E-04
          30 -3.9883740E-03
          31 -8.4431665E-03
          32 -1.2391177E-02
          33  7.4624864E-04
          34 -1.3735126E-03
          35 -4.8524891E-03
          36 -4.6565309E-03
          37  2.1880995E-04
          38  1.5009241E-03
          39  1.4047693E-03
          40  2.2251618E-03
          41  6.9073291E-04
          42 -4.8855066E-02
          43 -8.7504886E-02
          44 -0.1181001    
          45  3.8413709E-05
          46  4.0021073E-03
          47  6.5472908E-03
          48  9.4020981E-03
          49 -3.4046537E-04
          50 -2.0552655E-03
          51 -1.3632167E-03
          52 -3.3632447E-03
          53  3.1906596E-04
          54  2.5701860E-03
          55  3.5416530E-03
          56  5.6798980E-03
          57  2.4308390E-03
          58  6.8967491E-02
          59  9.9815883E-02
          60  0.1370601    
          61 -8.6603843E-04
          62 -2.8797409E-03
          63 -7.6901778E-03
          64 -6.2068584E-03
          65  4.0424555E-03
          66  1.9025272E-02
          67  2.6522106E-02
          68  4.8702065E-02
          69 -1.5533788E-03
          70 -4.0587271E-03
          71 -1.0588034E-02
          72 -1.4484564E-02
          73 -8.0912543E-04
          74 -0.1121867    
          75 -0.2119194    
          76 -0.2907494    
          77  3.0512895E-04
          78  1.3934715E-02
          79  2.5612520E-02
          80  2.4814200E-02
          81  7.8442879E-04
          82 -2.9948426E-03
          83 -1.5881557E-03
          84  7.3611416E-02
          85 -5.9337064E-04
          86 -3.3405644E-03
          87 -5.8763800E-03
          88 -6.5015550E-03
          89  3.1950481E-02
          90 -8.0232628E-02
          91 -5.8846340E-02
          92  4.2394757E-02
          93 -1.6978495E-02
          94  1.2742580E-02
          95 -1.4654702E-03
          96 -3.5973720E-04
          97 -4.6758633E-03
          98  2.4092909E-02
          99 -3.8846903E-03
         100 -8.7460730E-04
         101  3.6760539E-04
         102  4.6567584E-04
         103  9.1881389E-05
         104 -2.2680364E-03
         105  4.8677097E-03
         106  2.8562291E-02
         107  3.8554564E-02
         108 -9.1971159E-02
         109 -2.0826741E-03
         110  1.1853581E-04
         111  6.9523975E-04
         112  5.7095252E-03
         113  5.7696213E-04
         114  2.3432823E-03
         115  9.4150694E-04
         116 -7.3308975E-02
         117  4.8197282E-04
         118 -2.5013981E-03
         119 -2.3388279E-04
         120  7.0878905E-03
         121 -3.9044357E-04
         122 -2.3174977E-02
         123 -3.1208838E-03
         124  8.8564642E-02
         125  1.4864725E-04
         126 -4.8523825E-03
         127 -3.4455984E-06
         128 -4.7961851E-03
         129 -3.8538622E-03
         130  3.6809169E-02
         131 -5.7525977E-02
         132 -0.1287553    
         133  1.6554806E-03
         134 -1.8864538E-04
         135  3.3334829E-04
         136  6.4107645E-03
         137 -8.8428389E-03
         138 -1.2847093E-02
         139 -2.5667546E-02
         140 -1.7721880E-02
         141  2.1654721E-03
         142  2.1790960E-03
         143  2.6072739E-04
         144  7.9630542E-04
         145  4.0926989E-02
         146 -1.7357634E-02
         147  0.1224704    
         148  6.0109504E-02
         149 -2.1705484E-02
         150 -8.2742479E-03
         151 -1.1849651E-02
         152 -1.6723423E-03
         153 -6.7831535E-04
         154 -9.1002788E-03
         155  9.1563994E-03
         156  0.1011571    
         157  6.7248102E-04
         158 -4.0268777E-03
         159  7.5418549E-03
         160 -9.0009728E-03
         161  1.2820070E-03
         162 -0.1324199    
         163  0.2539571    
         164 -0.3677058    
         165 -4.9871736E-04
         166  1.6941048E-02
         167 -3.1362515E-02
         168  3.1521197E-02
         169  5.4484927E-03
         170  1.3827481E-02
         171 -4.2147338E-02
         172  6.7842707E-02
         173 -2.0778172E-03
         174 -7.5534880E-03
         175  1.0918326E-02
         176 -1.8501598E-02
         177  3.1886115E-03
         178  4.9091525E-02
         179 -0.1423005    
         180  0.1735835    
         181 -6.8135478E-04
         182 -5.8620670E-03
         183  8.2656611E-03
         184 -7.7015194E-03
         185 -6.8361493E-04
         186 -7.9363922E-04
         187  5.9088990E-03
         188 -7.5089643E-03
         189  4.6533986E-04
         190  1.5638128E-03
         191 -4.9699354E-03
         192  7.1335798E-03
         193  1.2157301E-03
         194 -5.3063132E-02
         195  0.1138442    
         196 -0.1554256    
         197  3.4533889E-05
         198  3.5309787E-03
         199 -8.4919529E-03
         200  1.1842943E-02
         201  7.9994637E-04
         202 -4.3411059E-03
         203  6.4862524E-03
         204 -8.7067205E-03
         205  3.3855336E-04
         206  3.3627404E-04
         207 -2.5323695E-03
         208  2.7886385E-03
         209  1.3817695E-03
         210  5.7828777E-02
         211 -0.1180706    
         212  0.1651316    
         213 -7.9543662E-04
         214 -5.1732310E-03
         215  9.9287927E-03
         216 -1.5919263E-02
         217  1.6063044E-04
         218 -9.6089309E-03
         219  1.8136790E-02
         220 -1.9083261E-02
         221 -4.9104765E-06
         222  2.4811677E-03
         223 -4.4911611E-03
         224  4.3982449E-03
         225  3.4193337E-02
         226 -2.2304051E-02
         227 -4.8684757E-02
         228  3.8786501E-02
         229 -1.9878689E-02
         230  4.4093016E-03
         231  7.6903803E-03
         232 -5.8952766E-03
         233 -3.4491006E-02
         234  5.0651819E-02
         235 -8.0328938E-03
         236  4.1855060E-02
         237  1.9919980E-02
         238 -8.4741190E-03
         239  4.8791367E-04
         240 -6.4181872E-03
         241 -8.8329689E-04
         242  6.0154479E-02
         243 -0.1163918    
         244  0.1650525    
         245  4.1393490E-04
         246 -4.5362106E-03
         247  1.0422563E-02
         248 -1.5991762E-02
         249 -1.0286992E-03
         250 -2.0408018E-03
         251  6.8419939E-03
         252 -6.7332033E-03
         253 -2.3583997E-04
         254  1.8235485E-03
         255 -1.5960404E-03
         256  2.8887694E-03
         257 -1.0897655E-03
         258 -5.9808899E-02
         259  0.1084978    
         260 -0.1551751    
         261 -4.8902468E-05
         262  4.8474940E-03
         263 -7.8801448E-03
         264  1.2039972E-02
         265  6.6892599E-04
         266 -4.0074391E-03
         267  3.6663199E-03
         268 -7.6791313E-03
         269 -5.2370440E-04
         270  3.0488854E-03
         271 -4.0219212E-03
         272  7.3276963E-03
         273 -3.6822562E-03
         274  8.4505707E-02
         275 -0.1200584    
         276  0.1754216    
         277  1.3269085E-03
         278 -3.5648921E-03
         279  9.6467938E-03
         280 -8.0597233E-03
         281 -5.9291194E-03
         282  2.4130121E-02
         283 -3.2952011E-02
         284  6.6056579E-02
         285  2.5048042E-03
         286 -4.6303715E-03
         287  1.2296511E-02
         288 -1.8556997E-02
         289 -3.9520476E-02
         290 -0.1006075    
         291  7.7030174E-02
         292  5.7196286E-02
         293  2.1431454E-02
         294  1.5712790E-02
         295  1.5690950E-03
         296 -4.5431350E-04
         297  7.3678424E-03
         298  3.1459499E-02
         299 -1.8195692E-03
         300 -1.1435482E-02
         301 -1.3986437E-03
         302 -4.0228106E-04
         303 -4.2625041E-05
         304 -2.1255226E-03
         305  6.2201410E-03
         306 -1.5270462E-02
         307  1.4740249E-02
         308 -6.5706456E-03
         309 -1.2098028E-03
         310  1.9266509E-03
         311  2.5446762E-04
         312  8.7869243E-04
         313 -3.2993488E-02
         314 -1.1511651E-02
         315 -9.7348519E-02
         316  4.6429366E-02
         317  1.7274804E-02
         318 -6.6760336E-03
         319  9.4030378E-03
         320 -1.3148827E-03
         321 -3.7166534E-03
         322  1.2008743E-02
         323  3.3496462E-02
         324  5.0729364E-02
         325  1.3188336E-03
         326 -6.4961463E-03
         327 -9.2516793E-03
         328 -1.4525830E-02
         329 -2.2540544E-03
         330  4.3307588E-02
         331  0.1162150    
         332  0.1363848    
         333  4.6349998E-04
         334 -4.7291955E-03
         335 -6.4706267E-03
         336 -5.9642904E-03
         337  3.9296673E-04
         338 -8.1247294E-05
         339 -2.7921994E-03
         340 -3.2926283E-03
         341 -2.9930603E-04
         342  1.4622621E-03
         343  4.1610636E-03
         344  5.5863140E-03
         345 -8.0693868E-04
         346 -4.4162624E-02
         347 -9.1627024E-02
         348 -0.1186825    
         349 -4.3474531E-05
         350  3.0207506E-03
         351  6.9555086E-03
         352  9.2666745E-03
         353 -6.5191381E-04
         354 -3.2862800E-03
         355 -4.8277630E-03
         356 -6.4232415E-03
         357 -3.0006166E-04
         358  3.5203280E-04
         359  2.1113798E-03
         360  2.1436797E-03
         361 -1.0655004E-03
         362  4.8404384E-02
         363  9.5932528E-02
         364  0.1277713    
         365  6.7594647E-04
         366 -4.2188247E-03
         367 -8.2171811E-03
         368 -1.2315529E-02
         369  1.3000089E-02
         370  5.5624050E-04
         371 -9.8392207E-05
         372  6.1764531E-03
         373 -1.3348960E-03
         374  1.2078558E-02
         375  6.5789034E-04
         376 -3.9862357E-03
         377  1.8807543E-04
         378  4.7744969E-03
         379  5.4201237E-03
         380  3.8397107E-03
         381  8.2905507E-03
         382  2.6918386E-05
         383  5.1588118E-03
         384 -5.2885273E-03
         385 -3.7735447E-03
         386 -4.4773179E-03
         387  7.2053485E-03
         388  4.8045944E-03
         389 -1.1950940E-02
         390 -6.0166710E-04
         391  1.9792069E-03
         392 -3.1132924E-03
         393  4.9756346E-03
         394 -1.2938104E-02
         395 -4.8365889E-04
         396  5.3860438E-03
         397  3.1176247E-03
         398 -1.1074101E-03
         399 -1.6953481E-03
         400  5.5925309E-04
         401 -3.9665330E-05
         402 -1.5111495E-03
         403 -1.8180249E-03
         404 -4.9424643E-04
         405  3.7565758E-04
         406 -4.9209269E-03
         407 -9.1665536E-03
         408 -1.1873574E-02
         409 -2.5249950E-03
         410  1.1084933E-03
         411 -1.2320779E-03
         412 -2.2396569E-03
         413 -2.8062600E-03
         414  1.6562903E-03
         415  2.2149175E-04
         416  2.1088056E-03
         417  5.9265774E-03
         418  1.0443501E-02
         419 -1.7119935E-02
         420 -4.0925140E-03
         421  1.4867952E-02
         422 -2.4542769E-03
         423  2.4209931E-03
         424  2.1641551E-02
         425 -1.8544105E-03
         426 -3.5768391E-03
         427  1.8865300E-03
         428 -1.9943670E-03
         429  2.7315797E-02
         430 -3.8981516E-04
         431 -1.8684746E-03
         432  1.8204274E-03
         433  1.9219476E-03
         434 -2.0154387E-02
         435 -5.9635183E-03
         436 -1.1901995E-02
         437 -1.3555422E-02
         438  2.0973887E-03
         439  3.3173778E-03
         440  1.7996387E-04
         441  4.0752841E-03
         442 -5.7542589E-03
         443  1.3059049E-02
         444 -3.9842767E-03
         445  1.1698767E-03
         446 -1.0488554E-03
         447  2.8631650E-03
         448 -3.3960550E-03
         449 -4.6931833E-04
         450  5.7966588E-04
         451 -5.4949382E-03
         452  1.1084258E-02
         453 -1.4839046E-02
         454 -1.8266545E-03
         455  7.7405886E-04
         456 -1.4299748E-03
         457  1.0808358E-03
         458 -2.1713185E-03
         459 -1.7017338E-02
         460 -8.2148233E-04
         461 -6.1409257E-05
         462 -7.7515971E-03
         463 -1.6084268E-03
         464 -7.0892242E-03
         465 -4.7637718E-03
         466  1.0348542E-02
         467  1.8152886E-04
         468  6.6689723E-03
         469 -1.5222570E-02
         470 -8.9427485E-04
         471 -5.0494648E-03
         472  7.7344434E-05
         473  5.8904602E-03
         474  1.5115167E-02
         475  8.3081546E-04
         476  2.1381450E-03
         477  4.1009863E-03
         478  6.2132487E-03
         479  6.9387434E-03
         480  4.6742046E-03
         481 -5.8247489E-03
         482 -8.9124432E-03
         483  6.0961479E-03
         484  1.7033441E-02
         485  7.5175596E-04
         486  6.7328988E-03
         487 -3.9764913E-03
         488 -1.3046095E-03
         489  2.3419831E-03
         490 -7.5612875E-04
         491  7.3378033E-05
         492  1.7527174E-03
         493 -2.1620777E-03
         494  3.9663198E-04
         495 -5.7162147E-04
         496 -5.8728112E-03
         497  1.1010430E-02
         498 -1.5057728E-02
         499  3.6422515E-03
         500 -1.4071438E-03
         501 -1.5079716E-03
         502  2.6196863E-03
         503 -3.3393085E-03
         504 -2.6798863E-03
         505 -8.7688750E-05
         506  2.0756386E-03
         507 -7.4700522E-03
         508  1.3185308E-02
         509  2.1245381E-02
         510  5.3018271E-03
         511  1.8277913E-02
         512  3.2739607E-03
         513  3.3190346E-03
         514 -2.7188458E-02
         515  1.8985607E-03
         516 -4.3253200E-03
         517 -1.8196928E-03
         518 -1.1967287E-03
         519 -2.1824500E-02
         520  5.5265293E-04
         521 -1.9632473E-03
         522 -1.0829238E-03
         523  1.5895657E-03
         524  1.5622667E-02
         525  4.8240190E-03
         526 -9.5560029E-03
         527  1.1080818E-02
         528  1.4987253E-03
         529 -2.2060995E-03
         530 -2.4696605E-04
         531  3.0237047E-03
         532  4.9059917E-03
         533  1.0335868E-02
         534  2.7995110E-03
         535 -8.6813554E-04
         536 -8.9551945E-04
         537 -2.4976656E-03
         538 -2.8333215E-03
         539  5.4532441E-04
         540 -3.9813112E-04
         541 -4.7035269E-03
         542 -9.1359457E-03
         543 -1.1712472E-02
         544  1.2978493E-03
         545 -6.2695338E-04
         546 -1.1985376E-03
         547 -9.9925126E-04
         548 -1.7999457E-03
 Sym= Particle
 Ene= -0.1971814    
 Spin= Alpha
 Occup= 2
           1  3.7247576E-03
           2  4.2569978E-04
           3 -3.3381893E-03
           4 -1.6612951E-03
           5 -3.9593526E-03
           6  1.5976932E-04
           7  2.6583239E-03
           8 -1.0485884E-03
           9  6.9042333E-05
          10  3.0776919E-03
          11  5.9803859E-03
          12 -6.9408454E-03
          13 -1.6534042E-04
          14 -1.8512736E-04
          15 -1.1425893E-03
          16  4.6409492E-04
          17 -3.7233888E-03
          18 -3.7342042E-03
          19 -1.6769838E-03
          20 -2.4197330E-03
          21  3.8216114E-03
          22  2.7159052E-03
          23  1.8565899E-03
          24 -1.8622792E-04
          25  1.0980846E-02
          26  7.7885403E-03
          27 -1.6990552E-02
          28 -1.0015571E-02
          29 -6.8155644E-03
          30 -8.4050948E-04
          31  1.0618117E-02
          32  2.1751686E-03
          33 -5.9981067E-03
          34 -9.0809800E-03
          35 -1.2607079E-02
          36 -2.9309519E-02
          37  4.0491652E-03
          38  5.3859344E-03
          39  4.7462871E-03
          40  6.3458006E-03
          41 -1.2763322E-03
          42  1.1599950E-02
          43  2.3427851E-02
          44  3.0538775E-02
          45  3.3008533E-03
          46  1.2689213E-03
          47 -7.9277046E-03
          48 -7.1611619E-03
          49  1.6520306E-03
          50 -8.9020752E-05
          51 -1.0052980E-03
          52  7.6666521E-04
          53 -1.0032180E-03
          54  4.5360434E-03
          55 -2.6955258E-04
          56 -6.9970370E-04
          57 -1.3826757E-03
          58 -2.0704513E-02
          59 -2.0201573E-02
          60 -2.7208271E-02
          61  1.8435824E-03
          62  1.1908141E-02
          63 -1.8128253E-03
          64  7.3343809E-03
          65 -3.0684434E-02
          66  1.1907269E-02
          67  6.9068499E-02
          68  1.2135817E-02
          69  2.6373466E-02
          70  9.1712307E-03
          71 -3.1914361E-02
          72 -5.7627372E-03
          73  5.2190933E-04
          74  3.4863572E-03
          75  5.1187552E-03
          76  3.3155235E-04
          77  4.5207836E-04
          78  8.4977476E-03
          79  1.1116594E-02
          80 -1.0693087E-02
          81  4.3726893E-04
          82  0.1114815    
          83  0.1795754    
          84 -0.3319769    
          85  7.7400624E-04
          86 -4.0872566E-02
          87 -6.7595169E-02
          88  0.1304766    
          89  6.7201385E-04
          90 -5.8261607E-02
          91 -0.1023154    
          92  0.1823902    
          93 -2.9690002E-04
          94  2.0620126E-02
          95  4.0552221E-02
          96 -6.2888093E-02
          97 -6.7444742E-03
          98 -3.9127223E-02
          99 -5.6268856E-02
         100  0.1022499    
         101  7.4983290E-03
         102  1.8619793E-02
         103  1.6756600E-02
         104 -2.6504032E-02
         105 -8.4752012E-03
         106  7.3660761E-02
         107  0.1599019    
         108 -0.2856731    
         109  7.1584489E-03
         110 -1.4443901E-02
         111 -4.0008880E-02
         112  8.3581842E-02
         113 -9.4537204E-03
         114 -1.2722532E-03
         115  7.9631414E-03
         116  3.8650829E-02
         117 -8.3347084E-03
         118 -4.0298729E-04
         119  3.7886899E-02
         120 -9.4950562E-03
         121  1.5941782E-02
         122  2.1288134E-03
         123  4.2685501E-02
         124 -3.2035466E-02
         125 -2.7472496E-02
         126 -1.2851539E-03
         127 -2.2700407E-02
         128  7.1393913E-03
         129 -5.8669182E-03
         130 -9.2909537E-02
         131  0.1834166    
         132  0.3221943    
         133  5.1446846E-03
         134  2.0133609E-02
         135 -4.7715239E-02
         136 -9.1542467E-02
         137  2.3747182E-03
         138  4.9806010E-02
         139 -8.4441803E-02
         140 -0.1532267    
         141 -2.9281874E-03
         142 -1.2652229E-02
         143  2.2079241E-02
         144  4.1987132E-02
         145 -2.7625891E-03
         146  6.7332327E-02
         147 -0.1026782    
         148 -0.1921093    
         149  2.9283492E-03
         150 -2.5862306E-02
         151  3.4869920E-02
         152  6.2872484E-02
         153  5.9770897E-04
         154 -0.1343073    
         155  0.2130529    
         156  0.3865041    
         157  3.8311703E-04
         158  4.8292533E-02
         159 -7.7214241E-02
         160 -0.1471287    
         161  6.1246753E-04
         162 -5.2993572E-03
         163  8.4713958E-03
         164 -6.2514199E-03
         165  1.0154962E-04
         166 -8.4021054E-03
         167  1.2167448E-02
         168  1.3161533E-02
         169  3.4957029E-02
         170 -6.0233399E-02
         171  5.4042444E-02
         172 -1.8163094E-02
         173 -2.8796840E-02
         174  3.3399172E-02
         175 -1.0152163E-02
         176  8.8290749E-03
         177  1.7524117E-03
         178  5.4743383E-03
         179 -3.4206375E-02
         180  3.2571189E-02
         181 -1.3453879E-03
         182  8.1160180E-03
         183  1.0887403E-02
         184 -7.1711973E-03
         185 -1.9061998E-03
         186  1.8672687E-03
         187 -2.0042136E-03
         188  7.1473554E-04
         189  1.2937309E-03
         190  2.2945297E-03
         191  4.5441124E-03
         192  5.5703998E-04
         193  1.6767397E-03
         194 -1.4330676E-02
         195  2.7810913E-02
         196 -3.9044481E-02
         197 -4.0329527E-03
         198  7.6286290E-03
         199 -3.7905951E-03
         200  9.1622239E-03
         201  7.1258652E-03
         202  4.9153063E-03
         203 -1.6199300E-02
         204  3.3362772E-02
         205 -4.9950290E-03
         206 -1.4366189E-03
         207  8.0018891E-03
         208 -7.1697584E-03
         209 -1.2307727E-02
         210  2.2192102E-02
         211 -5.3465287E-03
         212  1.6805220E-02
         213  7.3329778E-03
         214 -1.1085596E-02
         215  6.1968490E-03
         216 -4.7586323E-03
         217  7.1398463E-05
         218 -4.0328051E-03
         219  7.4649374E-03
         220  7.7475784E-03
         221 -2.7501950E-04
         222  4.9560459E-04
         223 -1.5168488E-03
         224 -4.7780591E-04
         225  4.8790928E-03
         226 -8.4641034E-04
         227 -4.5471382E-03
         228  2.5339688E-03
         229 -5.0234008E-03
         230 -1.0018189E-04
         231  3.2788813E-03
         232  1.0154641E-03
         233 -4.6826079E-03
         234  4.9133427E-03
         235 -2.0113206E-03
         236  3.4481161E-03
         237  4.5348750E-03
         238 -3.1782142E-03
         239  2.0664127E-03
         240  5.7752099E-05
         241  1.2626431E-02
         242 -8.5641053E-03
         243 -2.0845184E-02
         244  1.3626221E-02
         245 -7.7406731E-03
         246  1.0315363E-03
         247  1.2296675E-02
         248 -3.3396445E-03
         249 -7.0256391E-03
         250  9.8482380E-03
         251 -1.3395680E-02
         252  3.4197401E-02
         253  4.5398753E-03
         254 -5.8037057E-03
         255  5.3070365E-03
         256 -7.4268500E-03
         257 -1.5194522E-03
         258 -1.3228799E-02
         259  2.7083779E-02
         260 -3.7365928E-02
         261  3.6663779E-03
         262 -1.4100025E-03
         263 -8.7477379E-03
         264  8.4932521E-03
         265  1.8449610E-03
         266  4.1471729E-05
         267 -1.0554671E-03
         268 -9.6916454E-04
         269 -1.1531999E-03
         270 -5.0473004E-03
         271 -1.3543693E-04
         272  8.1944815E-04
         273 -1.8563516E-03
         274  2.4427399E-02
         275 -2.3217503E-02
         276  3.3610173E-02
         277  2.4319203E-03
         278 -1.3241149E-02
         279 -2.1656444E-03
         280 -8.3906585E-03
         281 -3.5650071E-02
         282 -1.3080526E-02
         283  7.9860657E-02
         284 -1.5062375E-02
         285  3.0377842E-02
         286 -1.0360798E-02
         287 -3.5973903E-02
         288  6.7614014E-03
         289 -9.1643835E-04
         290  6.7261264E-02
         291 -0.1147838    
         292 -0.2016715    
         293  5.0066505E-04
         294 -2.2349762E-02
         295  4.4349838E-02
         296  6.8298906E-02
         297 -4.1677128E-03
         298  5.1402733E-02
         299 -8.1309363E-02
         300 -0.1337601    
         301  5.5272551E-03
         302 -1.9652767E-02
         303  2.2898234E-02
         304  3.5193466E-02
         305  5.8539254E-03
         306 -3.2183405E-02
         307 -6.1260980E-02
         308  0.1227661    
         309 -5.1358235E-03
         310  8.0883168E-03
         311  1.6333964E-02
         312 -3.7201047E-02
         313 -4.1612387E-03
         314 -6.0037013E-02
         315 -9.0613663E-02
         316  0.1735477    
         317  3.7184006E-03
         318  2.3117119E-02
         319  3.1271312E-02
         320 -5.7580046E-02
         321  2.9964261E-02
         322  5.1436063E-02
         323  4.6396419E-02
         324  1.3415036E-02
         325 -2.4283089E-02
         326 -2.8663879E-02
         327 -9.0357959E-03
         328 -7.0002880E-03
         329  1.1714885E-03
         330 -5.3993082E-03
         331 -2.8521227E-02
         332 -2.5902180E-02
         333 -2.6909666E-04
         334 -6.3274028E-03
         335  9.3216700E-03
         336  5.7664192E-03
         337 -1.7305752E-03
         338 -1.5032577E-03
         339 -1.2710353E-03
         340  5.5100769E-05
         341  1.3987882E-03
         342 -1.9215962E-03
         343  3.8028907E-03
         344 -6.2585348E-04
         345  1.3252450E-03
         346  1.2370713E-02
         347  2.3209523E-02
         348  3.0880731E-02
         349 -3.3766031E-03
         350 -6.8296860E-03
         351 -3.2268942E-03
         352 -7.3104114E-03
         353  6.0762945E-03
         354 -5.1066452E-03
         355 -1.4722733E-02
         356 -2.8444447E-02
         357 -4.2945500E-03
         358  1.3603293E-03
         359  7.2455960E-03
         360  6.1128838E-03
         361 -1.0763166E-02
         362 -1.8480781E-02
         363 -2.8320926E-03
         364 -1.1588632E-02
         365  6.6548232E-03
         366  9.6291099E-03
         367  5.0361282E-03
         368  3.1137525E-03
         369 -3.0987535E-03
         370  6.5055088E-04
         371  6.6704251E-04
         372 -1.9592620E-03
         373 -1.2062023E-03
         374 -3.4582184E-04
         375 -2.5047425E-03
         376 -9.2831309E-05
         377  2.9258807E-03
         378 -1.7624529E-03
         379 -4.9505208E-04
         380 -8.0565247E-04
         381  1.3996306E-03
         382  5.4391538E-04
         383 -1.5669513E-03
         384  2.5778083E-04
         385  8.5165736E-04
         386 -2.4553790E-04
         387  1.7259197E-03
         388 -1.0974637E-03
         389  2.9411743E-04
         390  2.4068027E-03
         391  2.7850554E-03
         392  1.2130884E-03
         393 -1.4305252E-03
         394  2.9111803E-03
         395 -4.6941164E-04
         396 -1.7966522E-03
         397 -7.2816369E-04
         398 -1.2919263E-03
         399  6.7351833E-03
         400  8.3250640E-04
         401  5.8445290E-05
         402 -2.3280005E-03
         403 -6.1292849E-03
         404  8.0534216E-04
         405  4.7486029E-03
         406  4.6458161E-03
         407  2.4218422E-03
         408  8.2045877E-03
         409  4.8737735E-03
         410  2.9739728E-03
         411 -5.5980333E-04
         412 -7.2771206E-04
         413  2.4985867E-03
         414  6.2679849E-03
         415 -2.2395868E-03
         416 -1.7413286E-02
         417 -1.9841030E-02
         418 -5.4588509E-03
         419  4.9640443E-03
         420  4.6168335E-04
         421 -1.3560901E-02
         422 -2.2550449E-02
         423  4.6634670E-02
         424  7.0893629E-03
         425  1.7970240E-03
         426  2.0622325E-03
         427 -2.3226805E-02
         428  2.6816886E-02
         429  3.1835840E-03
         430 -5.1232032E-03
         431  1.2777171E-02
         432 -1.2353697E-02
         433 -2.8599540E-02
         434  1.5937587E-03
         435 -6.6244445E-04
         436  1.4176541E-02
         437 -2.6892032E-02
         438 -4.9447011E-02
         439 -7.0392261E-03
         440  3.6595894E-03
         441  8.1296302E-03
         442 -2.8185081E-02
         443  9.0580843E-03
         444 -5.6949048E-03
         445 -3.2786140E-03
         446  8.5633667E-04
         447 -1.1562721E-03
         448 -1.7092946E-03
         449 -1.2599356E-03
         450 -5.1907459E-03
         451  3.4814826E-04
         452  6.6101593E-03
         453 -9.3175126E-03
         454 -8.3229719E-03
         455 -5.9614930E-04
         456  1.1216223E-03
         457 -1.8862825E-03
         458  7.2034891E-03
         459 -3.9515407E-03
         460  6.8543939E-04
         461 -7.6455774E-04
         462 -2.4137106E-03
         463  1.3529544E-03
         464 -6.8929751E-04
         465 -1.0588558E-03
         466 -1.5075968E-03
         467  7.3403458E-04
         468  1.8681688E-03
         469 -5.2129367E-04
         470 -2.9993737E-03
         471  6.8301604E-05
         472  3.4658492E-03
         473  2.0539903E-03
         474  5.1666214E-04
         475  2.7322844E-03
         476 -3.1489227E-03
         477  1.4372757E-03
         478  1.6601196E-03
         479  4.1025216E-04
         480  9.2356547E-04
         481  3.4298422E-04
         482  1.9544438E-03
         483  1.3084023E-03
         484  3.6070268E-03
         485 -5.6683674E-04
         486  2.0944094E-03
         487 -8.5491571E-04
         488  1.5407775E-03
         489  8.0099218E-03
         490  7.2236278E-04
         491 -3.5069032E-05
         492 -2.5048670E-03
         493  7.0494101E-03
         494  9.4945566E-04
         495  5.2463561E-03
         496 -5.2081011E-03
         497  2.7700511E-03
         498 -9.6369758E-03
         499  5.7333638E-03
         500  3.2143644E-03
         501  5.6902674E-04
         502 -8.0314046E-04
         503 -2.7282436E-03
         504  7.0215669E-03
         505 -2.7018813E-03
         506  2.0201895E-02
         507 -2.2845257E-02
         508  8.3568981E-03
         509  6.7514307E-03
         510 -3.1554812E-04
         511  1.6696306E-02
         512 -2.4776045E-02
         513 -5.1389631E-02
         514  5.3776042E-03
         515  1.2964961E-03
         516  9.8987308E-04
         517 -2.2457063E-02
         518 -2.9580252E-02
         519  3.0796945E-03
         520 -4.4552451E-03
         521 -7.6348381E-03
         522 -1.0980963E-02
         523  2.2356844E-02
         524  3.9204024E-03
         525 -4.9235637E-04
         526 -1.2214980E-02
         527 -2.3855455E-02
         528  4.5450341E-02
         529 -6.2809163E-03
         530  3.8521225E-03
         531 -6.6111870E-03
         532 -2.4105800E-02
         533 -7.5160703E-03
         534 -4.7444953E-03
         535 -2.8855845E-03
         536 -6.0725643E-04
         537 -8.8977366E-04
         538  1.6214187E-03
         539 -9.8293077E-04
         540 -4.6151006E-03
         541 -3.0939074E-04
         542  5.5590756E-03
         543  7.7235051E-03
         544 -7.1309074E-03
         545 -4.8704399E-04
         546 -1.0015270E-03
         547 -1.7216366E-03
         548 -6.3343300E-03
