 [Molden Format]
 [Atoms] Angs
C       1      6      8.81367361     -0.93383224     -0.10376757
C       2      6      8.19726159     -0.08358313      0.79879560
C       3      6      6.81960926      0.02572923      0.82221854
C       4      6      6.03685685     -0.72063020     -0.05523492
C       5      6      4.57305259     -0.61433606     -0.03802353
C       6      6      3.75744988     -1.73094812     -0.16278046
C       7      6      2.36915962     -1.64592917     -0.15507562
C       8      6      1.69858098     -0.43883519     -0.02754679
C       9      6      0.23879062     -0.35503880     -0.02610102
C      10      6     -0.52210130     -1.22690155     -0.80632215
C      11      6     -1.89907386     -1.15571363     -0.81014952
C      12      6     -2.55457658     -0.21552189     -0.01800942
N      13      7     -3.95104675     -0.14602858     -0.01450001
C      14      6     -4.81366240     -1.21316449      0.14712652
C      15      6     -4.53175300     -2.54981115      0.39006943
C      16      6     -5.59681198     -3.41675690      0.54371436
C      17      6     -6.91445343     -2.97130432      0.46857196
C      18      6     -7.20126634     -1.63812625      0.25334100
C      19      6     -6.14759148     -0.74779110      0.09565004
C      20      6     -6.07728995      0.67139387     -0.11411933
C      21      6     -7.03845706      1.66187904     -0.26689171
C      22      6     -6.62137998      2.95980956     -0.48382977
C      23      6     -5.26623368      3.27214790     -0.56550650
C      24      6     -4.29137171      2.30412595     -0.41685166
C      25      6     -4.70431309      1.00231730     -0.17216068
C      26      6     -1.80226751      0.65665249      0.76587447
C      27      6     -0.42508937      0.59180849      0.75434783
C      28      6      2.50243720      0.71044249      0.10002305
N      29      7      2.08422605      1.99572394      0.19998853
N      30      7      2.98961634      2.84514785      0.27063880
S      31     16      4.54204526      2.21747157      0.22670941
C      32      6      3.91735581      0.61005675      0.09725593
C      33      6      6.66578575     -1.57851137     -0.95524880
C      34      6      8.04377715     -1.68017430     -0.98046983
H      35      1      9.89017448     -1.01482808     -0.12400587
H      36      1      8.79162219      0.49681363      1.48879219
H      37      1      6.34662986      0.67758357      1.54222522
H      38      1      4.22011268     -2.70315693     -0.24610577
H      39      1      1.79719261     -2.55854694     -0.22826704
H      40      1     -0.02889226     -1.94337412     -1.44637824
H      41      1     -2.47604063     -1.81297702     -1.44341611
H      42      1     -3.51458535     -2.90266826      0.47043188
H      43      1     -5.40279741     -4.46281902      0.73034874
H      44      1     -7.71917043     -3.68088524      0.59123686
H      45      1     -8.22205745     -1.28909742      0.21282749
H      46      1     -8.08864268      1.41574979     -0.22125390
H      47      1     -7.35227233      3.74581899     -0.60260748
H      48      1     -4.96997767      4.29364758     -0.75295171
H      49      1     -3.24486981      2.55471330     -0.50153012
H      50      1     -2.30613511      1.37368040      1.39612212
H      51      1      0.14701706      1.27139883      1.36535424
H      52      1      6.06980018     -2.14857794     -1.65307564
H      53      1      8.51945355     -2.34224919     -1.68904677
 [GTO]
           1   0
s              4   1.000000
     34.92019823     -0.01198412
      6.01354709     -0.05472052
      0.48321417      0.58055871
      0.18416488      0.47700799
p              4   1.000000
      5.62830222      0.05713170
      1.45933472      0.28574555
      0.51446065      0.55178731
      0.20481565      0.26323149
s              7   1.000000
      0.38350848     -0.19624511
      0.04707223      0.94818425
      0.02222627      0.24900758
     34.92019823      0.00551783
      6.01354709      0.02519489
      0.48321417     -0.26730579
      0.18416488     -0.21962808
p              7   1.000000
      1.83062075     -0.01161233
      0.10124670      0.57064761
      0.03901771      0.59595669
      5.62830222     -0.02527600
      1.45933472     -0.12641851
      0.51446065     -0.24411975
      0.20481565     -0.11645793
 
           2   0
s              4   1.000000
     34.91980990     -0.01198412
      6.01348021     -0.05472052
      0.48320879      0.58055871
      0.18416283      0.47700799
p              4   1.000000
      5.62823963      0.05713170
      1.45931849      0.28574555
      0.51445493      0.55178731
      0.20481337      0.26323149
s              7   1.000000
      0.38350848     -0.19624547
      0.04707223      0.94818601
      0.02222627      0.24900804
     34.91980990      0.00551789
      6.01348021      0.02519516
      0.48320879     -0.26730863
      0.18416283     -0.21963042
p              7   1.000000
      1.83062075     -0.01161235
      0.10124670      0.57064861
      0.03901771      0.59595770
      5.62823963     -0.02527627
      1.45931849     -0.12641986
      0.51445493     -0.24412235
      0.20481337     -0.11645917
 
           3   0
s              4   1.000000
     35.04107388     -0.01198412
      6.03436288     -0.05472052
      0.48488680      0.58055871
      0.18480236      0.47700799
p              4   1.000000
      5.64778449      0.05713170
      1.46438618      0.28574555
      0.51624145      0.55178731
      0.20552461      0.26323149
s              7   1.000000
      0.38350848     -0.19613217
      0.04707223      0.94763859
      0.02222627      0.24886428
     35.04107388      0.00549965
      6.03436288      0.02511188
      0.48488680     -0.26642514
      0.18480236     -0.21890451
p              7   1.000000
      1.83062075     -0.01160605
      0.10124670      0.57033912
      0.03901771      0.59563450
      5.64778449     -0.02519241
      1.46438618     -0.12600042
      0.51624145     -0.24331240
      0.20552461     -0.11607278
 
           4   0
s              4   1.000000
     35.10430744     -0.01198412
      6.04525222     -0.05472053
      0.48576181      0.58055871
      0.18513585      0.47700800
p              4   1.000000
      5.65797623      0.05713170
      1.46702875      0.28574555
      0.51717303      0.55178731
      0.20589550      0.26323149
s              7   1.000000
      0.38350848     -0.19607351
      0.04707223      0.94735513
      0.02222627      0.24878984
     35.10430744      0.00549019
      6.04525222      0.02506868
      0.48576181     -0.26596671
      0.18513585     -0.21852785
p              7   1.000000
      1.83062075     -0.01160279
      0.10124670      0.57017886
      0.03901771      0.59546713
      5.65797623     -0.02514889
      1.46702875     -0.12578278
      0.51717303     -0.24289211
      0.20589550     -0.11587228
 
           5   0
s              4   1.000000
     35.16818896     -0.01198412
      6.05625314     -0.05472052
      0.48664578      0.58055871
      0.18547275      0.47700799
p              4   1.000000
      5.66827241      0.05713170
      1.46969839      0.28574555
      0.51811416      0.55178730
      0.20627018      0.26323149
s              7   1.000000
      0.38350848     -0.19601453
      0.04707223      0.94707015
      0.02222627      0.24871501
     35.16818896      0.00548066
      6.05625314      0.02502517
      0.48664578     -0.26550515
      0.18547275     -0.21814861
p              7   1.000000
      1.83062075     -0.01159951
      0.10124670      0.57001773
      0.03901771      0.59529888
      5.66827241     -0.02510508
      1.46969839     -0.12556364
      0.51811416     -0.24246895
      0.20627018     -0.11567041
 
           6   0
s              4   1.000000
     35.02382550     -0.01198412
      6.03139256     -0.05472053
      0.48464813      0.58055871
      0.18471140      0.47700799
p              4   1.000000
      5.64500446      0.05713170
      1.46366536      0.28574555
      0.51598733      0.55178731
      0.20542345      0.26323149
s              7   1.000000
      0.38350848     -0.19614823
      0.04707223      0.94771615
      0.02222627      0.24888465
     35.02382550      0.00550224
      6.03139256      0.02512370
      0.48464813     -0.26655046
      0.18471140     -0.21900748
p              7   1.000000
      1.83062075     -0.01160694
      0.10124670      0.57038297
      0.03901771      0.59568029
      5.64500446     -0.02520430
      1.46366536     -0.12605992
      0.51598733     -0.24342728
      0.20542345     -0.11612758
 
           7   0
s              4   1.000000
     35.01302562     -0.01198412
      6.02953273     -0.05472053
      0.48449868      0.58055871
      0.18465444      0.47700800
p              4   1.000000
      5.64326378      0.05713170
      1.46321403      0.28574555
      0.51582823      0.55178731
      0.20536010      0.26323149
s              7   1.000000
      0.38350848     -0.19615829
      0.04707223      0.94776475
      0.02222627      0.24889740
     35.01302562      0.00550386
      6.02953273      0.02513110
      0.48449868     -0.26662898
      0.18465444     -0.21907199
p              7   1.000000
      1.83062075     -0.01160750
      0.10124670      0.57041045
      0.03901771      0.59570898
      5.64326378     -0.02521176
      1.46321403     -0.12609720
      0.51582823     -0.24349928
      0.20536010     -0.11616193
 
           8   0
s              4   1.000000
     35.11083749     -0.01198412
      6.04637675     -0.05472052
      0.48585217      0.58055871
      0.18517029      0.47700799
p              4   1.000000
      5.65902872      0.05713170
      1.46730164      0.28574555
      0.51726923      0.55178731
      0.20593380      0.26323149
s              7   1.000000
      0.38350848     -0.19606747
      0.04707223      0.94732593
      0.02222627      0.24878218
     35.11083749      0.00548921
      6.04637675      0.02506422
      0.48585217     -0.26591946
      0.18517029     -0.21848902
p              7   1.000000
      1.83062075     -0.01160245
      0.10124670      0.57016235
      0.03901771      0.59544990
      5.65902872     -0.02514441
      1.46730164     -0.12576034
      0.51726923     -0.24284879
      0.20593380     -0.11585162
 
           9   0
s              4   1.000000
     35.08745062     -0.01198412
      6.04234933     -0.05472052
      0.48552855      0.58055871
      0.18504695      0.47700799
p              4   1.000000
      5.65525932      0.05713170
      1.46632429      0.28574555
      0.51692469      0.55178731
      0.20579663      0.26323149
s              7   1.000000
      0.38350848     -0.19608912
      0.04707223      0.94743056
      0.02222627      0.24880965
     35.08745062      0.00549271
      6.04234933      0.02508018
      0.48552855     -0.26608877
      0.18504695     -0.21862813
p              7   1.000000
      1.83062075     -0.01160366
      0.10124670      0.57022151
      0.03901771      0.59551167
      5.65525932     -0.02516048
      1.46632429     -0.12584073
      0.51692469     -0.24300401
      0.20579663     -0.11592566
 
          10   0
s              4   1.000000
     35.01714537     -0.01198412
      6.03024219     -0.05472052
      0.48455569      0.58055871
      0.18467617      0.47700800
p              4   1.000000
      5.64392779      0.05713170
      1.46338620      0.28574555
      0.51588892      0.55178731
      0.20538427      0.26323149
s              7   1.000000
      0.38350848     -0.19615445
      0.04707223      0.94774620
      0.02222627      0.24889255
     35.01714537      0.00550324
      6.03024219      0.02512827
      0.48455569     -0.26659902
      0.18467617     -0.21904738
p              7   1.000000
      1.83062075     -0.01160729
      0.10124670      0.57039996
      0.03901771      0.59569801
      5.64392779     -0.02520891
      1.46338620     -0.12608298
      0.51588892     -0.24347181
      0.20538427     -0.11614882
 
          11   0
s              4   1.000000
     35.00697498     -0.01198412
      6.02849076     -0.05472053
      0.48441495      0.58055871
      0.18462253      0.47700799
p              4   1.000000
      5.64228856      0.05713170
      1.46296117      0.28574555
      0.51573908      0.55178731
      0.20532462      0.26323149
s              7   1.000000
      0.38350848     -0.19616393
      0.04707223      0.94779201
      0.02222627      0.24890457
     35.00697498      0.00550477
      6.02849076      0.02513525
      0.48441495     -0.26667299
      0.18462253     -0.21910816
p              7   1.000000
      1.83062075     -0.01160782
      0.10124670      0.57042585
      0.03901771      0.59572508
      5.64228856     -0.02521594
      1.46296117     -0.12611809
      0.51573908     -0.24353962
      0.20532462     -0.11618118
 
          12   0
s              4   1.000000
     35.13234215     -0.01198412
      6.05008003     -0.05472053
      0.48614975      0.58055871
      0.18528370      0.47700799
p              4   1.000000
      5.66249476      0.05713170
      1.46820034      0.28574555
      0.51758605      0.55178731
      0.20605993      0.26323149
s              7   1.000000
      0.38350848     -0.19604759
      0.04707223      0.94722990
      0.02222627      0.24875696
     35.13234215      0.00548600
      6.05008003      0.02504957
      0.48614975     -0.26576396
      0.18528370     -0.21836126
p              7   1.000000
      1.83062075     -0.01160135
      0.10124670      0.57010806
      0.03901771      0.59539318
      5.66249476     -0.02512965
      1.46820034     -0.12568652
      0.51758605     -0.24270623
      0.20605993     -0.11578360
 
          13   0
s              4   1.000000
     61.42183517     -0.01198412
     10.57734826     -0.05472052
      0.84993507      0.58055871
      0.32393129      0.47700799
p              4   1.000000
      7.23991308      0.05713170
      1.87720135      0.28574555
      0.66177157      0.55178731
      0.26346266      0.26323149
s              7   1.000000
      0.47894987     -0.18771697
      0.05878681      0.90697941
      0.02775758      0.23818657
     61.42183517      0.00395558
     10.57734826      0.01806150
      0.84993507     -0.19162394
      0.32393129     -0.15744515
p              7   1.000000
      2.28619608     -0.01155976
      0.12644335      0.56806450
      0.04872781      0.59325899
      7.23991308     -0.02456872
      1.87720135     -0.12288105
      0.66177157     -0.23728875
      0.26346266     -0.11319918
 
          14   0
s              4   1.000000
     35.62413812     -0.01198412
      6.13477136     -0.05472052
      0.49295505      0.58055871
      0.18787737      0.47700800
p              4   1.000000
      5.74176053      0.05713170
      1.48875277      0.28574555
      0.52483142      0.55178731
      0.20894443      0.26323149
s              7   1.000000
      0.38350848     -0.19560169
      0.04707223      0.94507550
      0.02222627      0.24819117
     35.62413812      0.00541359
      6.13477136      0.02471891
      0.49295505     -0.26225584
      0.18787737     -0.21547886
p              7   1.000000
      1.83062075     -0.01157656
      0.10124670      0.56889007
      0.03901771      0.59412116
      5.74176053     -0.02479661
      1.48875277     -0.12402084
      0.52483142     -0.23948972
      0.20894443     -0.11424916
 
          15   0
s              4   1.000000
     34.94254343     -0.01198412
      6.01739512     -0.05472052
      0.48352337      0.58055871
      0.18428273      0.47700799
p              4   1.000000
      5.63190373      0.05713170
      1.46026854      0.28574555
      0.51478985      0.55178731
      0.20494671      0.26323149
s              7   1.000000
      0.38350848     -0.19622415
      0.04707223      0.94808299
      0.02222627      0.24898098
     34.94254343      0.00551446
      6.01739512      0.02517950
      0.48352337     -0.26714256
      0.18428273     -0.21949397
p              7   1.000000
      1.83062075     -0.01161116
      0.10124670      0.57059037
      0.03901771      0.59589690
      5.63190373     -0.02526051
      1.46026854     -0.12634102
      0.51478985     -0.24397011
      0.20494671     -0.11638654
 
          16   0
s              4   1.000000
     34.93514165     -0.01198412
      6.01612047     -0.05472052
      0.48342095      0.58055871
      0.18424369      0.47700800
p              4   1.000000
      5.63071074      0.05713170
      1.45995922      0.28574555
      0.51468080      0.55178731
      0.20490330      0.26323149
s              7   1.000000
      0.38350848     -0.19623109
      0.04707223      0.94811652
      0.02222627      0.24898978
     34.93514165      0.00551558
      6.01612047      0.02518460
      0.48342095     -0.26719661
      0.18424369     -0.21953837
p              7   1.000000
      1.83062075     -0.01161155
      0.10124670      0.57060932
      0.03901771      0.59591668
      5.63071074     -0.02526564
      1.45995922     -0.12636668
      0.51468080     -0.24401966
      0.20490330     -0.11641018
 
          17   0
s              4   1.000000
     34.92199291     -0.01198412
      6.01385615     -0.05472053
      0.48323900      0.58055871
      0.18417434      0.47700799
p              4   1.000000
      5.62859148      0.05713170
      1.45940972      0.28574555
      0.51448709      0.55178731
      0.20482617      0.26323149
s              7   1.000000
      0.38350848     -0.19624343
      0.04707223      0.94817611
      0.02222627      0.24900543
     34.92199291      0.00551756
      6.01385615      0.02519365
      0.48323900     -0.26729267
      0.18417434     -0.21961730
p              7   1.000000
      1.83062075     -0.01161224
      0.10124670      0.57064302
      0.03901771      0.59595187
      5.62859148     -0.02527476
      1.45940972     -0.12641229
      0.51448709     -0.24410772
      0.20482617     -0.11645219
 
          18   0
s              4   1.000000
     34.93773395     -0.01198412
      6.01656688     -0.05472052
      0.48345682      0.58055871
      0.18425736      0.47700799
p              4   1.000000
      5.63112856      0.05713170
      1.46006755      0.28574555
      0.51471899      0.55178731
      0.20491850      0.26323149
s              7   1.000000
      0.38350848     -0.19622866
      0.04707223      0.94810477
      0.02222627      0.24898671
     34.93773395      0.00551518
      6.01656688      0.02518281
      0.48345682     -0.26717767
      0.18425736     -0.21952282
p              7   1.000000
      1.83062075     -0.01161141
      0.10124670      0.57060269
      0.03901771      0.59590976
      5.63112856     -0.02526384
      1.46006755     -0.12635769
      0.51471899     -0.24400230
      0.20491850     -0.11640190
 
          19   0
s              4   1.000000
     35.41780718     -0.01198412
      6.09923947     -0.05472053
      0.49009992      0.58055871
      0.18678921      0.47700799
p              4   1.000000
      5.70850490      0.05713170
      1.48013008      0.28574555
      0.52179166      0.55178731
      0.20773425      0.26323149
s              7   1.000000
      0.38350848     -0.19578676
      0.04707223      0.94596966
      0.02222627      0.24842599
     35.41780718      0.00544374
      6.09923947      0.02485659
      0.49009992     -0.26371655
      0.18678921     -0.21667904
p              7   1.000000
      1.83062075     -0.01158685
      0.10124670      0.56939557
      0.03901771      0.59464911
      5.70850490     -0.02493529
      1.48013008     -0.12471442
      0.52179166     -0.24082907
      0.20773425     -0.11488810
 
          20   0
s              4   1.000000
     35.41818351     -0.01198412
      6.09930427     -0.05472053
      0.49010512      0.58055871
      0.18679119      0.47700799
p              4   1.000000
      5.70856556      0.05713170
      1.48014581      0.28574555
      0.52179720      0.55178731
      0.20773646      0.26323149
s              7   1.000000
      0.38350848     -0.19578642
      0.04707223      0.94596802
      0.02222627      0.24842556
     35.41818351      0.00544368
      6.09930427      0.02485633
      0.49010512     -0.26371387
      0.18679119     -0.21667684
p              7   1.000000
      1.83062075     -0.01158683
      0.10124670      0.56939465
      0.03901771      0.59464814
      5.70856556     -0.02493503
      1.48014581     -0.12471315
      0.52179720     -0.24082661
      0.20773646     -0.11488693
 
          21   0
s              4   1.000000
     34.93762577     -0.01198412
      6.01654825     -0.05472052
      0.48345532      0.58055871
      0.18425679      0.47700799
p              4   1.000000
      5.63111113      0.05713170
      1.46006303      0.28574555
      0.51471740      0.55178731
      0.20491787      0.26323149
s              7   1.000000
      0.38350848     -0.19622876
      0.04707223      0.94810526
      0.02222627      0.24898683
     34.93762577      0.00551520
      6.01654825      0.02518289
      0.48345532     -0.26717846
      0.18425679     -0.21952347
p              7   1.000000
      1.83062075     -0.01161142
      0.10124670      0.57060296
      0.03901771      0.59591004
      5.63111113     -0.02526392
      1.46006303     -0.12635807
      0.51471740     -0.24400303
      0.20491787     -0.11640224
 
          22   0
s              4   1.000000
     34.92202487     -0.01198412
      6.01386165     -0.05472052
      0.48323944      0.58055871
      0.18417451      0.47700800
p              4   1.000000
      5.62859663      0.05713170
      1.45941106      0.28574555
      0.51448756      0.55178730
      0.20482636      0.26323149
s              7   1.000000
      0.38350848     -0.19624339
      0.04707223      0.94817596
      0.02222627      0.24900541
     34.92202487      0.00551755
      6.01386165      0.02519363
      0.48323944     -0.26729244
      0.18417451     -0.21961711
p              7   1.000000
      1.83062075     -0.01161223
      0.10124670      0.57064293
      0.03901771      0.59595179
      5.62859663     -0.02527473
      1.45941106     -0.12641218
      0.51448756     -0.24410751
      0.20482636     -0.11645209
 
          23   0
s              4   1.000000
     34.93581024     -0.01198412
      6.01623561     -0.05472052
      0.48343020      0.58055871
      0.18424722      0.47700799
p              4   1.000000
      5.63081851      0.05713170
      1.45998716      0.28574555
      0.51469065      0.55178731
      0.20490722      0.26323149
s              7   1.000000
      0.38350848     -0.19623046
      0.04707223      0.94811349
      0.02222627      0.24898900
     34.93581024      0.00551547
      6.01623561      0.02518414
      0.48343020     -0.26719172
      0.18424722     -0.21953436
p              7   1.000000
      1.83062075     -0.01161151
      0.10124670      0.57060762
      0.03901771      0.59591490
      5.63081851     -0.02526517
      1.45998716     -0.12636436
      0.51469065     -0.24401518
      0.20490722     -0.11640804
 
          24   0
s              4   1.000000
     34.94195794     -0.01198412
      6.01729429     -0.05472052
      0.48351527      0.58055871
      0.18427964      0.47700799
p              4   1.000000
      5.63180937      0.05713170
      1.46024407      0.28574555
      0.51478122      0.55178731
      0.20494328      0.26323149
s              7   1.000000
      0.38350848     -0.19622470
      0.04707223      0.94808564
      0.02222627      0.24898169
     34.94195794      0.00551455
      6.01729429      0.02517991
      0.48351527     -0.26714683
      0.18427964     -0.21949748
p              7   1.000000
      1.83062075     -0.01161119
      0.10124670      0.57059187
      0.03901771      0.59589847
      5.63180937     -0.02526091
      1.46024407     -0.12634305
      0.51478122     -0.24397403
      0.20494328     -0.11638841
 
          25   0
s              4   1.000000
     35.62433724     -0.01198412
      6.13480565     -0.05472053
      0.49295781      0.58055871
      0.18787842      0.47700799
p              4   1.000000
      5.74179262      0.05713170
      1.48876109      0.28574555
      0.52483435      0.55178731
      0.20894560      0.26323149
s              7   1.000000
      0.38350848     -0.19560152
      0.04707223      0.94507464
      0.02222627      0.24819095
     35.62433724      0.00541356
      6.13480565      0.02471878
      0.49295781     -0.26225444
      0.18787842     -0.21547771
p              7   1.000000
      1.83062075     -0.01157655
      0.10124670      0.56888958
      0.03901771      0.59412068
      5.74179262     -0.02479648
      1.48876109     -0.12402017
      0.52483435     -0.23948844
      0.20894560     -0.11424855
 
          26   0
s              4   1.000000
     35.00817170     -0.01198412
      6.02869685     -0.05472053
      0.48443151      0.58055871
      0.18462884      0.47700799
p              4   1.000000
      5.64248144      0.05713170
      1.46301118      0.28574555
      0.51575671      0.55178730
      0.20533164      0.26323149
s              7   1.000000
      0.38350848     -0.19616281
      0.04707223      0.94778662
      0.02222627      0.24890315
     35.00817170      0.00550459
      6.02869685      0.02513443
      0.48443151     -0.26666428
      0.18462884     -0.21910100
p              7   1.000000
      1.83062075     -0.01160775
      0.10124670      0.57042281
      0.03901771      0.59572188
      5.64248144     -0.02521511
      1.46301118     -0.12611396
      0.51575671     -0.24353164
      0.20533164     -0.11617737
 
          27   0
s              4   1.000000
     35.02302229     -0.01198412
      6.03125424     -0.05472052
      0.48463701      0.58055871
      0.18470716      0.47700799
p              4   1.000000
      5.64487501      0.05713170
      1.46363180      0.28574555
      0.51597550      0.55178731
      0.20541874      0.26323149
s              7   1.000000
      0.38350848     -0.19614897
      0.04707223      0.94771976
      0.02222627      0.24888560
     35.02302229      0.00550236
      6.03125424      0.02512425
      0.48463701     -0.26655629
      0.18470716     -0.21901227
p              7   1.000000
      1.83062075     -0.01160698
      0.10124670      0.57038501
      0.03901771      0.59568240
      5.64487501     -0.02520486
      1.46363180     -0.12606269
      0.51597550     -0.24343264
      0.20541874     -0.11613014
 
          28   0
s              4   1.000000
     35.82443071     -0.01198412
      6.16926340     -0.05472052
      0.49572664      0.58055871
      0.18893369      0.47700799
p              4   1.000000
      5.77404291      0.05713170
      1.49712311      0.28574555
      0.52778222      0.55178731
      0.21011920      0.26323149
s              7   1.000000
      0.38350848     -0.19542476
      0.04707223      0.94422060
      0.02222627      0.24796665
     35.82443071      0.00538463
      6.16926340      0.02458668
      0.49572664     -0.26085293
      0.18893369     -0.21432618
p              7   1.000000
      1.83062075     -0.01156673
      0.10124670      0.56840677
      0.03901771      0.59361643
      5.77404291     -0.02466342
      1.49712311     -0.12335466
      0.52778222     -0.23820331
      0.21011920     -0.11363547
 
          29   0
s              4   1.000000
     57.94217586     -0.01198412
      9.97812213     -0.05472052
      0.80178469      0.58055871
      0.30557999      0.47700799
p              4   1.000000
      6.82975876      0.05713170
      1.77085446      0.28574555
      0.62428100      0.55178731
      0.24853702      0.26323149
s              7   1.000000
      0.47894987     -0.18884040
      0.05878681      0.91240742
      0.02775758      0.23961203
     57.94217586      0.00419030
      9.97812213      0.01913327
      0.80178469     -0.20299486
      0.30557999     -0.16678791
p              7   1.000000
      2.28619608     -0.01166599
      0.12644335      0.57328453
      0.04872781      0.59871053
      6.82975876     -0.02598133
      1.77085446     -0.12994624
      0.62428100     -0.25093194
      0.24853702     -0.11970770
 
          30   0
s              4   1.000000
     57.20501916     -0.01198412
      9.85117765     -0.05472052
      0.79158416      0.58055871
      0.30169232      0.47700799
p              4   1.000000
      6.74286865      0.05713170
      1.74832515      0.28574555
      0.61633872      0.55178731
      0.24537506      0.26323149
s              7   1.000000
      0.47894987     -0.18910266
      0.05878681      0.91367454
      0.02775758      0.23994482
     57.20501916      0.00424342
      9.85117765      0.01937581
      0.79158416     -0.20556814
      0.30169232     -0.16890220
p              7   1.000000
      2.28619608     -0.01169072
      0.12644335      0.57449990
      0.04872781      0.59997982
      6.74286865     -0.02630112
      1.74832515     -0.13154569
      0.61633872     -0.25402055
      0.24537506     -0.12118113
 
          31   0
s              4   1.000000
     12.31497905     -0.03295496
      3.46882714     -0.17245169
      0.62201465      0.75185111
      0.30603375      0.35896273
p              4   1.000000
      7.11111400     -0.01434249
      0.73486224      0.27551776
      0.33213262      0.58467508
      0.16056024      0.21449865
s              7   1.000000
      0.16124732     -0.33758185
      0.03162593      1.06519161
      0.01560824      0.12667067
     12.31497905      0.00417510
      3.46882714      0.02184810
      0.62201465     -0.09525287
      0.30603375     -0.04547740
p              7   1.000000
      0.34551743     -0.06461032
      0.05282782      0.69406299
      0.02597475      0.41329925
      7.11111400      0.00463615
      0.73486224     -0.08906001
      0.33213262     -0.18899388
      0.16056024     -0.06933583
 
          32   0
s              4   1.000000
     35.25576665     -0.01198412
      6.07133475     -0.05472053
      0.48785765      0.58055871
      0.18593463      0.47700799
p              4   1.000000
      5.68238784      0.05713170
      1.47335832      0.28574555
      0.51940440      0.55178731
      0.20678384      0.26323149
s              7   1.000000
      0.38350848     -0.19593412
      0.04707223      0.94668169
      0.02222627      0.24861297
     35.25576665      0.00546765
      6.07133475      0.02496577
      0.48785765     -0.26487493
      0.18593463     -0.21763080
p              7   1.000000
      1.83062075     -0.01159504
      0.10124670      0.56979811
      0.03901771      0.59506949
      5.68238784     -0.02504525
      1.47335832     -0.12526442
      0.51940440     -0.24189114
      0.20678384     -0.11539476
 
          33   0
s              4   1.000000
     35.01787864     -0.01198412
      6.03036846     -0.05472052
      0.48456584      0.58055871
      0.18468003      0.47700800
p              4   1.000000
      5.64404597      0.05713170
      1.46341684      0.28574555
      0.51589972      0.55178731
      0.20538857      0.26323149
s              7   1.000000
      0.38350848     -0.19615376
      0.04707223      0.94774291
      0.02222627      0.24889167
     35.01787864      0.00550313
      6.03036846      0.02512777
      0.48456584     -0.26659369
      0.18468003     -0.21904300
p              7   1.000000
      1.83062075     -0.01160725
      0.10124670      0.57039809
      0.03901771      0.59569607
      5.64404597     -0.02520841
      1.46341684     -0.12608044
      0.51589972     -0.24346692
      0.20538857     -0.11614649
 
          34   0
s              4   1.000000
     34.91820464     -0.01198412
      6.01320377     -0.05472052
      0.48318658      0.58055871
      0.18415437      0.47700799
p              4   1.000000
      5.62798090      0.05713170
      1.45925141      0.28574555
      0.51443128      0.55178731
      0.20480396      0.26323149
s              7   1.000000
      0.38350848     -0.19624698
      0.04707223      0.94819329
      0.02222627      0.24900994
     34.91820464      0.00551813
      6.01320377      0.02519626
      0.48318658     -0.26732036
      0.18415437     -0.21964005
p              7   1.000000
      1.83062075     -0.01161243
      0.10124670      0.57065272
      0.03901771      0.59596203
      5.62798090     -0.02527738
      1.45925141     -0.12642543
      0.51443128     -0.24413311
      0.20480396     -0.11646430
 
          35   0
s              4   1.000000
      8.30879849      0.05675242
      1.52040775      0.26014135
      0.42238592      0.53284611
      0.14018609      0.29162544
s              7   1.000000
      0.92936822     -0.06732862
      0.05643440      0.66945730
      0.02166600      0.51461611
      8.30879849     -0.02902311
      1.52040775     -0.13303593
      0.42238592     -0.27249677
      0.14018609     -0.14913685
p              4   1.000000
      0.64737396      0.05713170
      0.16785440      0.28574555
      0.05917387      0.55178731
      0.02355814      0.26323150
 
          36   0
s              4   1.000000
      8.30891719      0.05675242
      1.52042948      0.26014135
      0.42239196      0.53284611
      0.14018809      0.29162544
s              7   1.000000
      0.92936822     -0.06732846
      0.05643440      0.66945578
      0.02166600      0.51461494
      8.30891719     -0.02902279
      1.52042948     -0.13303448
      0.42239196     -0.27249379
      0.14018809     -0.14913522
p              4   1.000000
      0.64737396      0.05713170
      0.16785440      0.28574555
      0.05917387      0.55178731
      0.02355814      0.26323150
 
          37   0
s              4   1.000000
      8.31165607      0.05675242
      1.52093066      0.26014135
      0.42253119      0.53284611
      0.14023430      0.29162544
s              7   1.000000
      0.92936822     -0.06732494
      0.05643440      0.66942076
      0.02166600      0.51458801
      8.31165607     -0.02901547
      1.52093066     -0.13300090
      0.42253119     -0.27242502
      0.14023430     -0.14909758
p              4   1.000000
      0.64737396      0.05713170
      0.16785440      0.28574555
      0.05917387      0.55178731
      0.02355814      0.26323150
 
          38   0
s              4   1.000000
      8.30967519      0.05675242
      1.52056818      0.26014135
      0.42243049      0.53284611
      0.14020088      0.29162544
s              7   1.000000
      0.92936822     -0.06732749
      0.05643440      0.66944609
      0.02166600      0.51460749
      8.30967519     -0.02902077
      1.52056818     -0.13302518
      0.42243049     -0.27247475
      0.14020088     -0.14912480
p              4   1.000000
      0.64737396      0.05713170
      0.16785440      0.28574555
      0.05917387      0.55178731
      0.02355814      0.26323150
 
          39   0
s              4   1.000000
      8.30975588      0.05675242
      1.52058295      0.26014135
      0.42243459      0.53284611
      0.14020224      0.29162544
s              7   1.000000
      0.92936822     -0.06732738
      0.05643440      0.66944506
      0.02166600      0.51460669
      8.30975588     -0.02902055
      1.52058295     -0.13302419
      0.42243459     -0.27247273
      0.14020224     -0.14912369
p              4   1.000000
      0.64737396      0.05713170
      0.16785440      0.28574555
      0.05917387      0.55178731
      0.02355814      0.26323150
 
          40   0
s              4   1.000000
      8.30955643      0.05675242
      1.52054645      0.26014135
      0.42242445      0.53284611
      0.14019888      0.29162544
s              7   1.000000
      0.92936822     -0.06732764
      0.05643440      0.66944760
      0.02166600      0.51460866
      8.30955643     -0.02902108
      1.52054645     -0.13302664
      0.42242445     -0.27247774
      0.14019888     -0.14912643
p              4   1.000000
      0.64737396      0.05713170
      0.16785440      0.28574555
      0.05917387      0.55178731
      0.02355814      0.26323150
 
          41   0
s              4   1.000000
      8.30954671      0.05675242
      1.52054467      0.26014135
      0.42242396      0.53284611
      0.14019872      0.29162544
s              7   1.000000
      0.92936822     -0.06732765
      0.05643440      0.66944772
      0.02166600      0.51460876
      8.30954671     -0.02902111
      1.52054467     -0.13302676
      0.42242396     -0.27247798
      0.14019872     -0.14912656
p              4   1.000000
      0.64737396      0.05713170
      0.16785440      0.28574555
      0.05917387      0.55178731
      0.02355814      0.26323150
 
          42   0
s              4   1.000000
      8.30925772      0.05675242
      1.52049179      0.26014135
      0.42240927      0.53284611
      0.14019384      0.29162544
s              7   1.000000
      0.92936822     -0.06732803
      0.05643440      0.66945142
      0.02166600      0.51461159
      8.30925772     -0.02902188
      1.52049179     -0.13303030
      0.42240927     -0.27248524
      0.14019384     -0.14913054
p              4   1.000000
      0.64737396      0.05713170
      0.16785440      0.28574555
      0.05917387      0.55178731
      0.02355814      0.26323150
 
          43   0
s              4   1.000000
      8.30898120      0.05675242
      1.52044119      0.26014135
      0.42239521      0.53284611
      0.14018917      0.29162544
s              7   1.000000
      0.92936822     -0.06732838
      0.05643440      0.66945496
      0.02166600      0.51461430
      8.30898120     -0.02902262
      1.52044119     -0.13303369
      0.42239521     -0.27249218
      0.14018917     -0.14913434
p              4   1.000000
      0.64737396      0.05713170
      0.16785440      0.28574555
      0.05917387      0.55178731
      0.02355814      0.26323150
 
          44   0
s              4   1.000000
      8.30892301      0.05675242
      1.52043054      0.26014135
      0.42239225      0.53284611
      0.14018819      0.29162543
s              7   1.000000
      0.92936822     -0.06732846
      0.05643440      0.66945571
      0.02166600      0.51461487
      8.30892301     -0.02902278
      1.52043054     -0.13303441
      0.42239225     -0.27249365
      0.14018819     -0.14913514
p              4   1.000000
      0.64737396      0.05713170
      0.16785440      0.28574555
      0.05917387      0.55178731
      0.02355814      0.26323150
 
          45   0
s              4   1.000000
      8.30891781      0.05675242
      1.52042959      0.26014135
      0.42239199      0.53284611
      0.14018810      0.29162544
s              7   1.000000
      0.92936822     -0.06732846
      0.05643440      0.66945577
      0.02166600      0.51461492
      8.30891781     -0.02902279
      1.52042959     -0.13303447
      0.42239199     -0.27249378
      0.14018810     -0.14913521
p              4   1.000000
      0.64737396      0.05713170
      0.16785440      0.28574555
      0.05917387      0.55178731
      0.02355814      0.26323150
 
          46   0
s              4   1.000000
      8.30891052      0.05675242
      1.52042826      0.26014135
      0.42239162      0.53284611
      0.14018798      0.29162544
s              7   1.000000
      0.92936822     -0.06732847
      0.05643440      0.66945587
      0.02166600      0.51461499
      8.30891052     -0.02902281
      1.52042826     -0.13303456
      0.42239162     -0.27249396
      0.14018798     -0.14913531
p              4   1.000000
      0.64737396      0.05713170
      0.16785440      0.28574555
      0.05917387      0.55178731
      0.02355814      0.26323150
 
          47   0
s              4   1.000000
      8.30892477      0.05675242
      1.52043086      0.26014135
      0.42239234      0.53284611
      0.14018822      0.29162544
s              7   1.000000
      0.92936822     -0.06732845
      0.05643440      0.66945569
      0.02166600      0.51461487
      8.30892477     -0.02902277
      1.52043086     -0.13303438
      0.42239234     -0.27249360
      0.14018822     -0.14913511
p              4   1.000000
      0.64737396      0.05713170
      0.16785440      0.28574555
      0.05917387      0.55178731
      0.02355814      0.26323150
 
          48   0
s              4   1.000000
      8.30899974      0.05675242
      1.52044458      0.26014135
      0.42239615      0.53284611
      0.14018949      0.29162544
s              7   1.000000
      0.92936822     -0.06732836
      0.05643440      0.66945473
      0.02166600      0.51461412
      8.30899974     -0.02902257
      1.52044458     -0.13303347
      0.42239615     -0.27249172
      0.14018949     -0.14913409
p              4   1.000000
      0.64737396      0.05713170
      0.16785440      0.28574555
      0.05917387      0.55178731
      0.02355814      0.26323150
 
          49   0
s              4   1.000000
      8.30927392      0.05675242
      1.52049475      0.26014135
      0.42241009      0.53284611
      0.14019411      0.29162544
s              7   1.000000
      0.92936822     -0.06732800
      0.05643440      0.66945121
      0.02166600      0.51461144
      8.30927392     -0.02902184
      1.52049475     -0.13303010
      0.42241009     -0.27248483
      0.14019411     -0.14913032
p              4   1.000000
      0.64737396      0.05713170
      0.16785440      0.28574555
      0.05917387      0.55178731
      0.02355814      0.26323150
 
          50   0
s              4   1.000000
      8.30960380      0.05675242
      1.52055512      0.26014135
      0.42242686      0.53284611
      0.14019968      0.29162544
s              7   1.000000
      0.92936822     -0.06732758
      0.05643440      0.66944700
      0.02166600      0.51460818
      8.30960380     -0.02902096
      1.52055512     -0.13302606
      0.42242686     -0.27247655
      0.14019968     -0.14912578
p              4   1.000000
      0.64737396      0.05713170
      0.16785440      0.28574555
      0.05917387      0.55178731
      0.02355814      0.26323150
 
          51   0
s              4   1.000000
      8.31036285      0.05675242
      1.52069401      0.26014135
      0.42246545      0.53284611
      0.14021248      0.29162544
s              7   1.000000
      0.92936822     -0.06732660
      0.05643440      0.66943729
      0.02166600      0.51460073
      8.31036285     -0.02901893
      1.52069401     -0.13301675
      0.42246545     -0.27245749
      0.14021248     -0.14911535
p              4   1.000000
      0.64737396      0.05713170
      0.16785440      0.28574555
      0.05917387      0.55178731
      0.02355814      0.26323150
 
          52   0
s              4   1.000000
      8.30938791      0.05675242
      1.52051561      0.26014135
      0.42241589      0.53284611
      0.14019604      0.29162544
s              7   1.000000
      0.92936822     -0.06732786
      0.05643440      0.66944976
      0.02166600      0.51461030
      8.30938791     -0.02902153
      1.52051561     -0.13302871
      0.42241589     -0.27248197
      0.14019604     -0.14912875
p              4   1.000000
      0.64737396      0.05713170
      0.16785440      0.28574555
      0.05917387      0.55178731
      0.02355814      0.26323150
 
          53   0
s              4   1.000000
      8.30887497      0.05675242
      1.52042175      0.26014135
      0.42238981      0.53284611
      0.14018738      0.29162544
s              7   1.000000
      0.92936822     -0.06732852
      0.05643440      0.66945632
      0.02166600      0.51461534
      8.30887497     -0.02902291
      1.52042175     -0.13303500
      0.42238981     -0.27249485
      0.14018738     -0.14913580
p              4   1.000000
      0.64737396      0.05713170
      0.16785440      0.28574555
      0.05917387      0.55178731
      0.02355814      0.26323150
 
 [MO]
 Sym= Hole
 Ene= -0.5722690    
 Spin= Alpha
 Occup= 0
           1 -6.8995083E-05
           2  8.8477955E-04
           3  1.4016244E-02
           4 -1.4198911E-02
           5  2.2064176E-04
           6 -1.3795056E-04
           7 -1.0301485E-03
           8  1.4419849E-03
           9 -1.0744749E-03
          10  1.0912122E-03
          11  4.1952002E-04
          12  9.1089612E-05
          13  5.4948824E-04
          14 -4.1524923E-04
          15 -5.1974092E-04
          16  3.1718894E-04
          17  3.0534752E-03
          18 -4.2495974E-03
          19 -1.8632619E-02
          20  9.1534685E-03
          21 -1.7079627E-03
          22  8.9304376E-04
          23  2.2970303E-03
          24  1.2901433E-04
          25 -4.2518528E-05
          26  4.4030297E-05
          27 -1.5838565E-04
          28  4.2962064E-03
          29 -8.4230982E-05
          30  3.4084174E-04
          31  1.5503448E-04
          32 -1.6790528E-03
          33  3.3864789E-04
          34  1.6750068E-04
          35  8.2385112E-03
          36 -6.4508200E-02
          37 -2.2001423E-05
          38 -7.5768483E-05
          39 -1.5564846E-03
          40  7.1682204E-03
          41 -3.2000102E-03
          42  4.2791441E-03
          43  1.9227229E-04
          44 -3.1911929E-03
          45  1.1511784E-03
          46 -1.4817615E-03
          47  4.8353805E-04
          48  1.4050156E-03
          49  8.8041704E-03
          50 -8.6494740E-03
          51  2.3108530E-03
          52  6.9738217E-02
          53 -5.7527251E-03
          54  4.3274896E-04
          55 -1.6291660E-03
          56 -6.0913125E-03
          57 -1.0549689E-04
          58 -1.3833954E-04
          59 -6.6495226E-03
          60  6.0409252E-03
          61 -1.7820408E-05
          62 -2.8951903E-04
          63  1.5295026E-03
          64 -5.1163393E-03
          65  1.4382372E-04
          66  5.2021672E-03
          67  0.1013390    
          68 -0.1355214    
          69  2.3339906E-04
          70 -1.1052934E-04
          71 -2.9591438E-03
          72  1.2475974E-02
          73  1.1981342E-02
          74 -1.8919503E-02
          75  1.8673321E-02
          76 -1.3252076E-02
          77 -3.5626290E-03
          78  5.2283052E-04
          79 -5.2015344E-03
          80  1.8510654E-03
          81 -3.9960433E-02
          82  3.6844946E-02
          83 -0.1663370    
          84  8.4568389E-02
          85  2.1458382E-02
          86 -1.0523398E-02
          87  1.2276732E-02
          88 -4.8410739E-03
          89  4.6287942E-06
          90 -3.7648482E-04
          91 -1.6394954E-02
          92  9.2919357E-02
          93 -1.1899918E-04
          94  1.0299097E-04
          95  3.4680527E-03
          96 -2.4242818E-02
          97 -1.1779859E-04
          98 -5.1612533E-03
          99 -7.6963603E-02
         100 -0.5399542    
         101  4.7348018E-05
         102  5.4228731E-04
         103  1.1145590E-02
         104  3.8771506E-02
         105 -1.9883413E-03
         106 -1.3619037E-03
         107  3.4774977E-03
         108  5.4562256E-02
         109  2.5690589E-03
         110  8.0772134E-04
         111 -7.1681099E-04
         112 -2.1760639E-02
         113 -2.6044673E-03
         114 -8.8099027E-03
         115  6.3494548E-02
         116  0.3101249    
         117  1.7132522E-03
         118 -5.6304177E-04
         119 -3.2302400E-03
         120 -1.2096116E-02
         121  3.9123686E-04
         122  1.3377231E-03
         123  1.1891483E-02
         124  7.5267009E-02
         125 -6.8003719E-04
         126 -1.3590986E-03
         127 -1.7025322E-04
         128  3.7974450E-03
         129 -9.5886807E-04
         130 -3.2907880E-03
         131 -4.4650801E-02
         132 -0.2650557    
         133  7.4811083E-05
         134 -1.4206000E-04
         135  1.6851326E-03
         136  1.1280410E-02
         137  1.0331113E-04
         138 -3.0004261E-03
         139 -2.3480659E-02
         140 -0.1508076    
         141  1.0682170E-05
         142  7.9568235E-06
         143  2.4227886E-03
         144  1.1677636E-02
         145 -2.8430480E-03
         146  2.5693343E-03
         147  3.5798945E-02
         148  0.2404753    
         149  1.0769719E-03
         150 -1.3477186E-03
         151 -1.3388964E-04
         152 -1.1930278E-02
         153  3.2032598E-03
         154  1.3521641E-03
         155  3.8071573E-02
         156  0.2646532    
         157 -9.6448173E-04
         158  1.2765287E-03
         159 -5.2555773E-04
         160 -1.1333533E-02
         161 -4.9061753E-04
         162 -1.8790727E-04
         163 -2.1135021E-02
         164 -0.1362070    
         165 -3.3830867E-05
         166  3.9628448E-04
         167  2.5086901E-03
         168  1.1949311E-02
         169  1.5173241E-03
         170 -2.8591021E-03
         171 -4.6509121E-02
         172 -0.2780381    
         173 -8.1246108E-05
         174  5.8890530E-04
         175  1.5980457E-03
         176  1.0792793E-02
         177 -6.2095869E-04
         178 -7.2188088E-04
         179  7.0982277E-03
         180  4.8169035E-02
         181  5.9273315E-04
         182  1.1233996E-03
         183 -3.5451935E-04
         184  3.8149729E-03
         185  2.9001152E-03
         186  1.6964316E-02
         187  6.1143223E-02
         188  0.3047004    
         189 -1.6198917E-03
         190  1.7783686E-04
         191 -3.3158071E-03
         192 -1.1182305E-02
         193  2.2847238E-03
         194  3.2748596E-03
         195  8.1143174E-03
         196  8.3075859E-02
         197 -2.7284387E-03
         198 -9.1838086E-04
         199 -6.6555012E-04
         200 -2.2260552E-02
         201  4.0146489E-02
         202 -5.2680217E-02
         203 -0.1617243    
         204  8.6580858E-02
         205 -2.1147454E-02
         206  1.2003039E-02
         207  1.1042968E-02
         208 -4.4953320E-03
         209 -1.1696989E-02
         210  2.0665685E-02
         211  1.4732004E-02
         212 -1.0760756E-02
         213  3.1646139E-03
         214 -6.7468546E-04
         215 -4.6942015E-03
         216  1.4865325E-03
         217 -7.3968647E-03
         218  8.8451784E-03
         219  6.5157446E-03
         220  4.6933945E-02
         221  5.3481907E-03
         222 -2.0721217E-03
         223 -2.4587275E-03
         224 -5.0283885E-03
         225 -1.3748397E-03
         226  3.5935552E-03
         227 -1.9224396E-03
         228 -3.8268520E-03
         229  9.4057713E-04
         230  1.8837556E-04
         231  1.5675030E-03
         232 -1.1119958E-03
         233  6.4011030E-05
         234 -1.5546103E-03
         235  3.9507896E-03
         236 -3.2510117E-02
         237 -6.1039248E-04
         238  1.8505869E-03
         239  2.7858981E-04
         240  4.3773185E-03
         241  4.3437947E-04
         242  4.0607192E-03
         243  9.2479365E-04
         244  3.3597432E-02
         245 -3.1065825E-05
         246 -8.4070791E-04
         247 -8.8683537E-06
         248 -4.7602775E-03
         249  2.0938239E-03
         250 -3.9660600E-03
         251 -5.5368012E-04
         252 -2.0800822E-03
         253 -9.5919520E-04
         254  1.2822491E-03
         255 -3.4880967E-04
         256  3.0056483E-03
         257 -3.8001842E-03
         258  2.8714461E-03
         259 -1.8406464E-02
         260  9.6680112E-03
         261  2.5021194E-03
         262 -7.2778139E-04
         263  1.7667961E-03
         264 -6.5632456E-04
         265  1.1783331E-03
         266 -1.9563213E-03
         267  1.4936163E-03
         268 -2.6602863E-04
         269 -3.6859611E-04
         270  4.1771523E-04
         271 -4.1530695E-04
         272  3.3259811E-04
         273  3.4138674E-04
         274  1.1602193E-04
         275  2.3061777E-06
         276  1.4882050E-03
         277 -1.4262208E-03
         278  1.9464300E-03
         279 -1.9169073E-04
         280 -1.8061053E-04
         281 -2.5610998E-05
         282  5.1133167E-05
         283 -9.1217493E-04
         284  6.6269987E-04
         285 -6.5041869E-04
         286  7.8728399E-04
         287  7.3782686E-04
         288  2.8346293E-03
         289 -5.4732530E-04
         290 -1.5814776E-04
         291 -2.9893575E-04
         292 -1.1669893E-03
         293 -9.8298409E-04
         294 -9.2858193E-04
         295  2.2123111E-03
         296  5.7448959E-04
         297  5.6295651E-03
         298 -2.4018975E-02
         299  1.7188839E-03
         300  3.5133897E-03
         301  9.9252549E-04
         302 -1.9086851E-03
         303  1.7667426E-02
         304  3.2134389E-03
         305 -1.3847165E-02
         306  1.3846111E-03
         307  9.4096698E-03
         308 -1.0780937E-03
         309  1.4228824E-03
         310  3.8801169E-03
         311  2.0106251E-03
         312  1.5111146E-02
         313  5.3447839E-03
         314 -8.2237774E-04
         315 -9.7063639E-07
         316  3.9063874E-04
         317  2.2432024E-03
         318  1.6676700E-03
         319  1.6107883E-04
         320 -4.0270887E-05
         321 -2.5528010E-03
         322 -1.7044263E-02
         323  2.1486182E-03
         324 -1.8444279E-04
         325 -4.0575842E-04
         326 -6.4823485E-04
         327 -5.1245359E-03
         328 -2.4528073E-03
         329  1.2910276E-04
         330  1.8615015E-04
         331 -6.1997119E-04
         332 -5.2465131E-03
         333 -1.1558600E-03
         334  2.7510221E-05
         335 -2.7534450E-04
         336 -2.5388787E-03
         337 -1.6688997E-02
         338 -5.6179245E-03
         339  7.1040576E-04
         340  1.7172338E-04
         341  3.7372665E-04
         342  1.9303312E-03
         343  1.8163363E-03
         344 -9.8233286E-04
         345 -3.5454405E-03
         346  2.1409919E-03
         347  1.4208197E-02
         348 -1.7766358E-02
         349 -2.8190329E-03
         350  1.4248764E-02
         351  3.0986592E-04
         352  9.0190414E-03
         353  2.2964573E-02
         354 -2.3395068E-03
         355 -4.6518072E-03
         356  7.4296806E-04
         357 -1.6531198E-03
         358  1.3204102E-03
         359  5.5484247E-04
         360 -1.4274772E-03
         361 -1.0816125E-03
         362  6.3335564E-04
         363 -2.1479758E-03
         364  1.7365483E-04
         365  5.9364458E-05
         366  1.8383215E-04
         367  3.4474157E-05
 Sym= Particle
 Ene= -0.5722690    
 Spin= Alpha
 Occup= 2
           1  1.8764835E-05
           2 -1.3222216E-05
           3 -3.7397401E-04
           4  2.8801031E-04
           5 -2.6042497E-05
           6  5.9344079E-06
           7  7.1641814E-05
           8  1.6732563E-04
           9  4.4002700E-05
          10  1.2430977E-05
          11 -3.2162442E-04
          12  3.9713061E-04
          13 -5.9322323E-05
          14 -2.1807198E-05
          15  1.2402135E-04
          16 -3.0333805E-04
          17 -9.8072371E-05
          18  1.8394484E-04
          19  1.0471842E-03
          20 -7.0012518E-04
          21  5.4825152E-05
          22 -2.6082026E-04
          23 -3.0589511E-04
          24  6.2636762E-05
          25  6.6041966E-06
          26  3.2216940E-05
          27 -1.6799905E-04
          28  5.3492648E-05
          29 -1.4812831E-04
          30  1.4654013E-04
          31  2.8847044E-05
          32  4.0923239E-04
          33  1.9757765E-04
          34 -2.0853209E-04
          35 -4.8585478E-04
          36  2.6643977E-03
          37 -2.9615549E-04
          38  4.1940008E-04
          39  1.3504461E-04
          40 -4.9927813E-04
          41 -2.5611150E-04
          42  3.4901139E-04
          43 -1.5737457E-04
          44  1.6249904E-03
          45  3.0215888E-04
          46 -3.6503980E-04
          47 -1.0570650E-04
          48 -5.1108393E-04
          49  2.6281492E-04
          50 -2.5699945E-04
          51 -8.5823878E-04
          52 -4.9071396E-03
          53 -6.3816871E-05
          54 -7.0100883E-05
          55  1.2218175E-03
          56  1.2111913E-03
          57  6.9466606E-04
          58 -6.8741635E-04
          59 -3.4055015E-04
          60  4.4378596E-03
          61 -3.7358946E-04
          62 -1.0560782E-03
          63  3.8968975E-04
          64 -1.7008118E-03
          65 -4.5238200E-04
          66 -6.5115164E-04
          67 -9.7692350E-04
          68  7.8399346E-04
          69 -1.1357615E-03
          70  1.8608768E-04
          71  6.5542612E-04
          72 -1.9334026E-05
          73 -7.8712689E-04
          74  3.4899038E-04
          75  3.3134852E-02
          76 -3.4822594E-02
          77 -1.3208552E-04
          78  8.2715281E-04
          79 -6.7168130E-03
          80  1.1761749E-02
          81 -3.8957135E-03
          82  3.3079414E-03
          83 -2.2799812E-02
          84  3.6548257E-02
          85  2.6787303E-03
          86 -1.8829264E-03
          87  8.8217314E-03
          88 -7.5474419E-03
          89  2.3196903E-03
          90  1.8611838E-03
          91  3.8223731E-04
          92 -4.9140892E-04
          93 -9.9200075E-03
          94 -1.2274276E-03
          95 -2.6006077E-04
          96 -1.1920880E-04
          97  1.0747369E-02
          98 -1.4115177E-03
          99 -7.6072017E-04
         100 -4.0769111E-03
         101 -1.0429668E-02
         102  2.7169781E-03
         103  7.1933592E-04
         104  2.0351552E-03
         105 -1.0018671E-02
         106 -8.7412086E-04
         107  6.3791379E-02
         108  0.3915333    
         109  2.6542640E-03
         110  6.6520728E-04
         111 -2.5890313E-02
         112 -0.1597665    
         113  4.7036563E-03
         114  6.5861491E-04
         115 -4.9993180E-02
         116 -0.3041192    
         117 -3.9389580E-03
         118  1.1481976E-03
         119  1.5328478E-02
         120  9.2296138E-02
         121  8.4822980E-04
         122 -2.0662483E-03
         123 -9.2175230E-03
         124 -4.9704336E-02
         125 -1.3674669E-03
         126  6.2868960E-04
         127  3.1721301E-03
         128  1.8167760E-02
         129 -1.5982816E-03
         130  9.0078393E-04
         131  5.9547834E-02
         132  0.3661306    
         133  7.3540257E-04
         134 -2.4898472E-04
         135 -1.5622417E-02
         136 -0.1031336    
         137  2.0706288E-03
         138 -4.2370684E-03
         139 -4.8943006E-02
         140 -0.2994790    
         141 -2.4520773E-03
         142  1.2550800E-03
         143  1.5978433E-02
         144  8.8656515E-02
         145  3.3110164E-03
         146  3.0592852E-03
         147 -1.7672082E-02
         148 -0.1030628    
         149 -5.1864577E-03
         150 -2.3901779E-03
         151  8.5562477E-03
         152  4.2899746E-02
         153  3.4966043E-03
         154  5.0989422E-03
         155  1.8538039E-02
         156  0.1135912    
         157 -5.3827194E-03
         158 -3.1645740E-03
         159 -8.4359534E-03
         160 -4.5924116E-02
         161  2.2044543E-03
         162  1.5375197E-03
         163  4.5424938E-02
         164  0.2775182    
         165 -2.9574758E-03
         166 -2.7951086E-04
         167 -1.4743566E-02
         168 -8.2089856E-02
         169 -1.1305704E-03
         170 -7.2089722E-03
         171 -5.7053626E-02
         172 -0.3554704    
         173 -3.6921026E-04
         174  2.3695445E-03
         175  1.4794952E-02
         176  9.9630192E-02
         177  1.1917965E-03
         178 -4.4274138E-04
         179  1.1660132E-02
         180  5.7501364E-02
         181 -2.5604591E-03
         182  1.5404630E-04
         183 -4.0600635E-03
         184 -1.8803785E-02
         185  5.1530441E-03
         186  7.6071988E-03
         187  4.7599934E-02
         188  0.2919680    
         189 -5.0943927E-03
         190 -1.3751819E-03
         191 -1.4988936E-02
         192 -8.9106753E-02
         193 -9.8464824E-03
         194 -8.9093708E-03
         195 -6.1854012E-02
         196 -0.3830704    
         197  2.2323374E-03
         198  4.0762592E-03
         199  2.5069725E-02
         200  0.1550560    
         201 -2.6366583E-03
         202  3.9162175E-03
         203  2.0208173E-02
         204 -3.3612281E-02
         205  7.0110906E-04
         206 -1.2495311E-03
         207 -8.0390312E-03
         208  6.6364324E-03
         209 -9.0059981E-04
         210 -1.8812368E-03
         211 -2.8761588E-02
         212  3.3144400E-02
         213 -3.6384285E-04
         214  9.2958054E-04
         215  4.7826748E-03
         216 -1.0493075E-02
         217 -2.0056088E-04
         218  2.6065868E-04
         219 -5.1708044E-05
         220  7.6146395E-04
         221  8.6777349E-05
         222 -5.2713865E-04
         223 -6.4771040E-04
         224 -3.0267498E-04
         225  1.0582721E-03
         226 -9.1906887E-04
         227  4.7820061E-04
         228 -1.8044132E-03
         229 -1.3563762E-03
         230  1.8056836E-03
         231  2.3310921E-04
         232  6.9519461E-05
         233 -2.5820432E-04
         234  2.7943079E-04
         235  2.4579137E-04
         236  1.3143412E-03
         237  1.4494584E-04
         238 -4.6754611E-04
         239  1.8815056E-04
         240 -6.9288799E-04
         241  1.3709629E-04
         242 -3.7550778E-04
         243  2.9807321E-05
         244  9.5860416E-04
         245 -1.9695246E-04
         246 -1.3647269E-04
         247  8.1507424E-05
         248  2.0947704E-05
         249  1.0245416E-04
         250  3.5999387E-06
         251  4.5112846E-04
         252 -4.0129353E-03
         253 -9.9572535E-05
         254 -2.2399380E-04
         255 -9.3282397E-05
         256  1.5424084E-03
         257  1.8302658E-04
         258 -1.6006400E-04
         259  3.0666287E-04
         260 -1.8669985E-04
         261 -1.3368555E-04
         262  2.9225842E-04
         263  1.0042715E-04
         264  9.7887423E-05
         265 -1.0509806E-04
         266  1.2698106E-04
         267  2.7846295E-04
         268 -1.9538758E-04
         269  1.2742729E-04
         270 -1.7163254E-04
         271  1.9554179E-06
         272 -1.1257593E-04
         273 -3.1485877E-05
         274 -2.3554656E-05
         275  8.3417763E-05
         276 -1.3241197E-05
         277  3.6047443E-04
         278 -1.2186917E-04
         279 -4.3807762E-05
         280  1.8351572E-04
         281 -2.1640674E-04
         282 -1.3260944E-04
         283  3.8361206E-05
         284 -3.0067182E-05
         285 -1.8181570E-04
         286  1.5636478E-04
         287 -1.9642941E-04
         288 -2.6379514E-04
         289  2.2694675E-04
         290  2.3992246E-05
         291 -3.8707250E-04
         292  5.8667897E-04
         293 -3.8306520E-04
         294 -6.3082698E-04
         295  2.8418738E-03
         296  3.1183026E-04
         297 -2.0685853E-03
         298  3.0189233E-03
         299 -7.4649893E-04
         300  2.8355503E-03
         301  6.8058698E-03
         302 -8.8115195E-03
         303  4.5550577E-03
         304  5.2214907E-03
         305 -2.9416585E-03
         306 -2.2536930E-02
         307  8.1227515E-03
         308 -2.0264247E-03
         309  1.3668478E-03
         310 -1.9778866E-04
         311 -1.2405383E-02
         312 -7.9501472E-02
         313 -8.1311987E-04
         314  1.2768159E-03
         315 -6.9176260E-04
         316 -2.3344728E-04
         317 -1.2001200E-02
         318  6.7249738E-04
         319  9.8809798E-04
         320  6.0340686E-04
         321  1.5513295E-02
         322  9.0341754E-02
         323 -1.0196324E-03
         324  1.5981010E-03
         325  2.3195297E-03
         326 -1.0515773E-02
         327 -6.0776882E-02
         328 -1.4307104E-03
         329  1.5381303E-03
         330  3.9819833E-03
         331  9.2035262E-03
         332  5.6019682E-02
         333  5.8072430E-05
         334  6.6664588E-04
         335 -7.9379126E-04
         336 -1.5505516E-02
         337 -8.6600855E-02
         338 -1.3952791E-03
         339  8.3953573E-04
         340 -8.6913712E-04
         341 -5.0791365E-04
         342  1.3469186E-02
         343 -2.4138673E-03
         344  9.6815859E-04
         345  1.0112440E-04
         346  1.0692586E-02
         347  7.4154936E-02
         348  3.6951944E-03
         349  4.1285972E-03
         350  1.1952867E-03
         351  2.0333398E-02
         352 -7.9519544E-03
         353  2.3441787E-03
         354 -4.6879333E-04
         355  1.7924759E-03
         356 -6.9061499E-03
         357  7.3785046E-03
         358 -1.0896689E-04
         359 -4.1781448E-05
         360  5.4497842E-04
         361 -8.1699131E-05
         362 -1.0164912E-04
         363  6.2599218E-05
         364  4.0177430E-05
         365 -1.7907278E-04
         366 -5.8385336E-05
         367 -3.7458309E-04
 Sym= Hole
 Ene= -0.4153849    
 Spin= Alpha
 Occup= 0
           1 -1.0916836E-04
           2 -1.8827317E-04
           3 -2.0000173E-04
           4 -2.7968950E-04
           5 -1.4374663E-05
           6 -1.3211357E-05
           7 -4.9544713E-05
           8 -1.3918223E-04
           9  1.1649791E-04
          10  1.6953649E-04
          11  4.3851769E-04
          12  1.6501595E-04
          13 -2.3638813E-05
          14  1.0546890E-05
          15  6.7134170E-05
          16  5.6526213E-05
          17 -1.4327590E-04
          18 -5.4048891E-05
          19 -9.1717724E-05
          20 -2.9924884E-04
          21  3.5682890E-05
          22 -1.0050413E-04
          23 -1.1533769E-04
          24 -4.0032803E-05
          25  1.0546554E-04
          26  1.3983369E-04
          27 -2.1639328E-04
          28  4.7646277E-04
          29 -1.4670359E-06
          30  5.5170440E-05
          31  2.9126457E-05
          32  1.0433780E-04
          33  7.2945395E-06
          34 -1.6828197E-04
          35 -1.0402429E-04
          36  8.8452827E-04
          37 -1.6713922E-05
          38 -5.1897325E-05
          39  5.2549749E-05
          40 -2.1621038E-04
          41  1.8842833E-04
          42 -2.9237833E-04
          43  1.8018342E-04
          44 -1.3866561E-03
          45 -9.3088303E-05
          46  1.1274922E-04
          47  4.6721449E-05
          48 -4.2387412E-05
          49 -3.8955940E-04
          50  3.5186528E-04
          51 -3.9969981E-04
          52 -2.2180937E-03
          53  1.6311803E-04
          54 -5.0720104E-05
          55  8.0348997E-05
          56  2.1710362E-04
          57  7.8963157E-04
          58 -1.2768194E-03
          59  2.7665537E-04
          60  1.0679698E-03
          61 -4.0143868E-04
          62  1.9888929E-04
          63 -3.1576321E-05
          64  1.6032916E-04
          65 -1.3636511E-03
          66  1.3509636E-03
          67 -2.9369099E-03
          68  4.0440098E-03
          69  3.1470179E-05
          70  3.9744508E-04
          71  1.5068619E-04
          72 -4.5476522E-04
          73  7.5352297E-04
          74 -1.8926529E-03
          75 -2.3336108E-03
          76  1.7529876E-03
          77 -7.2171341E-04
          78  5.0770759E-04
          79 -2.6868671E-04
          80 -9.6008458E-05
          81 -8.0629566E-04
          82  1.9927439E-03
          83  5.8293603E-03
          84  3.2924174E-03
          85 -7.5359036E-05
          86  1.4606819E-03
          87 -6.2351750E-04
          88  6.8882783E-04
          89 -1.8125729E-03
          90  1.2943438E-03
          91 -3.4063496E-04
          92 -1.8527643E-03
          93  1.0553614E-03
          94 -1.5209874E-03
          95  6.6499699E-05
          96  1.0241139E-03
          97 -9.1748417E-04
          98  2.6417549E-03
          99  2.7316108E-03
         100  1.9608011E-02
         101  9.8692940E-04
         102 -1.4895160E-03
         103 -3.2070250E-04
         104 -1.5227352E-03
         105  6.8077818E-03
         106  8.4910303E-04
         107 -6.3475698E-02
         108 -0.3845041    
         109 -1.7938550E-03
         110  5.2736836E-05
         111  1.1500741E-03
         112  1.2723530E-03
         113 -6.9052039E-04
         114 -2.0710533E-04
         115 -2.5258302E-03
         116 -2.4519886E-03
         117  3.2966139E-04
         118 -4.8905822E-05
         119 -1.8393132E-04
         120 -3.0881905E-03
         121  5.6654692E-04
         122 -4.8916468E-06
         123  6.1501469E-02
         124  0.3394153    
         125  2.7428407E-04
         126  3.9500394E-04
         127  4.6369599E-04
         128 -3.7955391E-04
         129  5.1939581E-04
         130  1.1807708E-03
         131  3.6802407E-02
         132  0.2124210    
         133  6.0748986E-05
         134  3.4656705E-04
         135  1.9706393E-04
         136  1.8715905E-03
         137 -1.3058957E-03
         138 -3.9332048E-03
         139 -3.1707827E-02
         140 -0.1847547    
         141  1.2196582E-03
         142  6.2546844E-04
         143 -4.0726172E-04
         144 -9.5392548E-04
         145  9.1310544E-04
         146 -8.4056519E-03
         147 -4.6426605E-02
         148 -0.3345227    
         149  4.7432396E-04
         150  1.2719821E-03
         151  7.0174915E-06
         152 -2.9630589E-03
         153  7.1241229E-04
         154 -2.3193809E-03
         155  4.4932235E-02
         156  0.3208388    
         157  5.6255201E-04
         158  1.2528970E-03
         159 -6.7470450E-05
         160  3.7929066E-03
         161 -1.2609835E-03
         162  1.9624521E-04
         163  3.3983931E-02
         164  0.1981878    
         165  1.1967227E-03
         166  6.4740080E-04
         167  2.0223882E-04
         168  3.4590086E-04
         169  4.5799091E-04
         170 -3.4568671E-03
         171 -3.3022013E-02
         172 -0.1909298    
         173  5.0596325E-05
         174  2.6418094E-04
         175 -3.5786463E-04
         176 -2.7479480E-03
         177  6.6096720E-04
         178 -7.6200650E-03
         179 -6.1817069E-02
         180 -0.3446150    
         181  1.9249160E-04
         182  2.8152842E-04
         183 -5.9344445E-04
         184 -5.2761321E-04
         185 -8.8165049E-04
         186 -1.2940943E-03
         187 -2.9760941E-03
         188 -2.5792740E-02
         189  4.1646132E-04
         190 -2.0479247E-05
         191  4.0858306E-04
         192  3.8390362E-03
         193  6.8347096E-03
         194  8.9848805E-03
         195  6.1789751E-02
         196  0.3762757    
         197 -1.7038789E-03
         198 -7.5691518E-05
         199 -1.0021909E-03
         200  5.6183670E-04
         201 -3.5215761E-03
         202  4.8261746E-03
         203  4.7979285E-03
         204 -8.7628923E-03
         205  1.5282648E-03
         206  3.4993063E-04
         207 -5.6277501E-04
         208 -4.2256815E-04
         209  1.4040264E-03
         210 -2.9542162E-03
         211  2.6383277E-03
         212 -2.3083442E-03
         213 -9.0978504E-04
         214  7.2089810E-04
         215  5.0524395E-04
         216 -1.3791458E-04
         217  1.2286510E-05
         218 -1.7636163E-04
         219 -2.7507683E-04
         220 -6.4187893E-04
         221 -1.5308737E-04
         222  2.7578350E-05
         223 -4.2308769E-05
         224  1.7507987E-04
         225  6.2182378E-05
         226 -1.0335117E-04
         227  3.5981770E-04
         228 -3.1967118E-04
         229 -6.8628571E-05
         230  9.5456853E-06
         231 -2.4193247E-05
         232  1.3297781E-05
         233 -3.2200481E-04
         234  6.4978783E-05
         235 -5.7838758E-04
         236  5.9644110E-04
         237  1.0907515E-04
         238 -4.3134587E-05
         239  3.5794703E-05
         240 -1.7452249E-04
         241  3.6366697E-04
         242 -1.6460106E-04
         243  9.5606651E-05
         244  1.2941117E-05
         245 -7.5117205E-05
         246  8.4007741E-05
         247 -3.4434230E-05
         248  8.3293991E-05
         249  3.1675219E-05
         250 -2.5781466E-05
         251 -1.0039733E-04
         252  2.6056505E-04
         253 -4.3223838E-05
         254  6.5296765E-05
         255 -3.7902206E-05
         256 -6.9398295E-05
         257 -2.7899308E-05
         258 -1.9087404E-04
         259  6.1075451E-05
         260 -9.2408343E-05
         261 -6.1597522E-05
         262 -2.9019695E-05
         263 -5.8056157E-05
         264  2.8875529E-05
         265  7.0236863E-05
         266  3.0716916E-04
         267  2.3952431E-04
         268  4.7947586E-05
         269  1.2642760E-05
         270  8.1799888E-05
         271  5.3107477E-05
         272  4.0478153E-05
         273 -2.6195924E-04
         274 -6.3530402E-05
         275  3.2795153E-05
         276 -1.3447640E-05
         277  7.4182528E-05
         278  5.2452506E-04
         279  1.2287936E-04
         280 -2.2189952E-05
         281 -3.4490618E-05
         282 -4.6179808E-05
         283 -3.4578497E-04
         284 -8.0553771E-05
         285 -2.0357837E-05
         286  2.9657669E-05
         287  1.5242557E-06
         288 -2.2623429E-04
         289  5.9531653E-06
         290  3.3619450E-05
         291  1.0697599E-05
         292  4.2987966E-05
         293  1.8088298E-06
         294  1.2716925E-04
         295 -4.0116625E-05
         296 -3.5733192E-05
         297 -1.5582438E-04
         298  1.2496617E-03
         299 -4.2276710E-04
         300 -6.3715015E-05
         301 -1.2205314E-04
         302 -1.8925825E-04
         303 -3.8096467E-03
         304  4.4961802E-05
         305  8.9353713E-04
         306 -8.4714760E-04
         307 -9.6231938E-04
         308 -7.6620380E-04
         309 -6.0791557E-05
         310 -9.2352077E-04
         311  1.2270714E-03
         312  4.2602811E-03
         313 -1.5227178E-03
         314  1.9934283E-04
         315 -9.1631418E-06
         316  9.7219105E-04
         317  4.9279500E-03
         318 -9.1065362E-04
         319 -1.8450929E-04
         320  1.7635215E-05
         321 -3.2084885E-05
         322  8.2475605E-04
         323 -1.7499210E-03
         324  2.4868612E-04
         325 -2.1179282E-04
         326 -3.9383073E-04
         327 -2.1319413E-03
         328 -1.6599374E-03
         329  2.5025499E-04
         330 -1.7039430E-04
         331  3.7354746E-04
         332  2.0999040E-03
         333 -6.8733434E-04
         334 -1.3923403E-04
         335  5.7534009E-05
         336  1.9620458E-04
         337  3.4338518E-04
         338 -1.0769777E-03
         339  1.5934226E-04
         340 -1.3294145E-04
         341 -8.4561360E-04
         342 -4.1786600E-03
         343 -9.4013038E-04
         344  5.8440459E-05
         345 -7.7754247E-04
         346 -1.3144477E-03
         347 -5.2614631E-03
         348 -2.6029828E-03
         349  2.4986983E-04
         350  1.6397340E-04
         351  8.0731983E-04
         352  2.6239333E-04
         353 -4.2720581E-04
         354 -2.3783589E-04
         355  1.6278276E-04
         356  1.1438393E-04
         357  3.5948565E-04
         358  1.7498272E-04
         359 -1.0692438E-05
         360  5.5569046E-05
         361  1.7976790E-05
         362 -3.2353346E-05
         363 -2.7847411E-05
         364  7.5771104E-06
         365 -4.8625498E-05
         366 -1.2346478E-05
         367 -2.0012107E-05
 Sym= Particle
 Ene= -0.4153849    
 Spin= Alpha
 Occup= 2
           1  4.5797024E-05
           2 -3.1073825E-05
           3 -1.5089957E-03
           4  1.6343370E-03
           5 -1.6783859E-05
           6 -4.5337110E-05
           7 -2.8976303E-04
           8  3.2042884E-04
           9  4.5454816E-04
          10 -5.7987391E-04
          11 -1.4360740E-03
          12  1.2094636E-03
          13 -1.9998719E-04
          14  1.5112529E-04
          15  7.5769750E-04
          16 -7.0074107E-04
          17 -1.3783547E-03
          18  1.5717660E-03
          19  4.4752695E-03
          20 -2.1316134E-03
          21  1.1312272E-03
          22 -5.8899063E-04
          23 -4.6408791E-04
          24 -1.5626030E-05
          25  8.7399048E-06
          26  2.1062890E-04
          27  1.8658652E-03
          28 -2.4678248E-03
          29 -1.1264968E-06
          30 -4.2010407E-04
          31 -1.3334053E-03
          32  1.8088677E-03
          33  2.9366667E-04
          34 -2.7717341E-04
          35 -2.9950065E-03
          36  2.2604100E-02
          37 -3.3517252E-04
          38  1.1628113E-04
          39  5.9629913E-04
          40 -4.2912778E-03
          41  1.2624057E-03
          42 -1.4923470E-03
          43 -1.0427862E-03
          44  1.1880596E-02
          45 -6.1130093E-04
          46  5.1422860E-04
          47  1.6868250E-04
          48 -5.8756080E-03
          49 -3.6216632E-03
          50  2.8799097E-03
          51 -6.3955714E-04
          52 -4.1610327E-02
          53  3.5005806E-03
          54 -2.5585701E-03
          55  1.9127058E-04
          56  1.0011381E-02
          57  1.2450208E-04
          58 -5.4939854E-04
          59 -9.2955038E-04
          60  1.4030006E-02
          61 -3.8097298E-04
          62  1.3033756E-04
          63 -4.3017794E-03
          64  2.1340149E-03
          65 -8.6634691E-06
          66 -3.0187992E-03
          67 -5.1518049E-02
          68  6.6255070E-02
          69 -4.8899743E-05
          70  5.6156149E-04
          71  1.1293702E-02
          72 -1.5390219E-02
          73 -2.3102404E-03
          74  2.1443872E-03
          75  2.0735437E-02
          76 -1.8935364E-02
          77  2.2604992E-03
          78 -3.1339703E-04
          79 -2.4853116E-03
          80  3.0860915E-03
          81  6.2275236E-03
          82 -1.1362283E-03
          83  6.0592324E-02
          84 -3.9369579E-02
          85 -2.0422644E-03
          86 -6.6461583E-04
          87 -2.0468730E-02
          88  8.9803701E-03
          89 -2.1958372E-04
          90 -2.6321597E-03
          91 -5.4898880E-02
          92  6.4538978E-02
          93  4.8678298E-04
          94  1.2328314E-03
          95  2.0649184E-02
          96 -2.5042767E-02
          97 -1.5078600E-04
          98  1.3878958E-03
          99  2.1129062E-02
         100  0.1329481    
         101  2.1157903E-04
         102 -3.6011240E-04
         103 -8.1593469E-03
         104 -4.2942427E-02
         105 -2.3331165E-03
         106 -9.0640197E-03
         107 -3.2153461E-02
         108 -0.1585172    
         109  1.8864130E-03
         110  4.3806951E-03
         111  1.3042143E-02
         112  6.6342108E-02
         113  4.9251219E-04
         114  4.3920125E-03
         115 -5.3396191E-02
         116 -0.2740563    
         117 -7.5773464E-04
         118 -2.6643786E-03
         119  1.4924586E-02
         120  6.9549687E-02
         121 -9.1834896E-04
         122 -2.0860753E-03
         123  6.2207811E-02
         124  0.3568563    
         125 -1.4137066E-04
         126  2.7983452E-04
         127 -1.5840344E-02
         128 -8.8332742E-02
         129 -1.5460429E-05
         130  1.7236196E-03
         131 -1.4566750E-03
         132  7.7913201E-04
         133 -8.7601307E-05
         134 -1.3370176E-03
         135  3.8773683E-04
         136 -3.5970334E-03
         137 -1.1685068E-03
         138 -5.5230712E-03
         139 -5.8949325E-02
         140 -0.3599642    
         141  1.1247408E-03
         142  6.1595335E-04
         143  1.5668867E-02
         144  9.6726321E-02
         145 -1.3123431E-03
         146  8.9833690E-03
         147  4.3813795E-02
         148  0.3165658    
         149  1.4298577E-03
         150 -3.0253697E-03
         151 -1.0250336E-02
         152 -7.9874188E-02
         153  1.1903467E-03
         154 -3.2658686E-03
         155  4.2190425E-02
         156  0.3021742    
         157 -1.2061853E-03
         158  1.6458459E-03
         159 -9.5505677E-03
         160 -7.4264422E-02
         161  9.3048229E-04
         162 -1.9650555E-03
         163 -6.0270976E-02
         164 -0.3672425    
         165 -8.5013162E-04
         166  1.2339979E-03
         167  1.5950585E-02
         168  9.8741211E-02
         169  2.4814966E-05
         170 -1.5564566E-03
         171  1.6916747E-03
         172  1.9463291E-02
         173  1.4520873E-04
         174  1.3120014E-03
         175 -4.4460522E-04
         176 -9.2225298E-03
         177  9.0590451E-04
         178  9.8120971E-03
         179  5.9963726E-02
         180  0.3464684    
         181  1.8984017E-04
         182 -2.2622743E-03
         183 -1.5188714E-02
         184 -8.3932973E-02
         185 -7.0886855E-04
         186 -1.0914554E-02
         187 -5.2904963E-02
         188 -0.2763742    
         189  1.1454313E-03
         190  4.3772892E-03
         191  1.4752170E-02
         192  6.9507897E-02
         193  2.4422002E-03
         194  5.1521491E-03
         195 -3.0945338E-02
         196 -0.1472753    
         197 -1.5794958E-03
         198 -2.7403671E-03
         199  1.2565299E-02
         200  6.1181851E-02
         201 -6.0413321E-03
         202  7.2197621E-03
         203  5.8983274E-02
         204 -3.8034726E-02
         205  2.1854579E-03
         206 -1.4707602E-03
         207 -2.0182140E-02
         208  8.4016565E-03
         209  1.1783895E-03
         210 -1.1762200E-03
         211  2.2348678E-02
         212 -2.3181893E-02
         213 -1.1425491E-03
         214  6.3859217E-04
         215 -2.7081415E-03
         216  4.9946411E-03
         217  3.9794426E-03
         218 -3.5926464E-03
         219 -3.1715510E-03
         220 -1.3757049E-02
         221 -4.1159457E-03
         222  3.2404067E-03
         223  8.5359853E-04
         224  3.1701324E-03
         225 -7.4719411E-04
         226  2.7093792E-04
         227  8.0270620E-05
         228  4.6681729E-03
         229 -4.3458893E-04
         230  8.1985508E-04
         231  5.1980623E-04
         232 -1.5926580E-03
         233  3.3485825E-04
         234 -2.0612049E-04
         235 -8.7529642E-04
         236  1.1241157E-03
         237 -5.6124385E-04
         238 -2.6955840E-04
         239 -3.0289084E-04
         240  2.2537608E-03
         241  2.8761005E-04
         242 -7.6667895E-04
         243 -1.6961960E-03
         244  2.7146793E-03
         245 -6.7415310E-04
         246  3.3999645E-04
         247 -2.8205398E-04
         248 -2.1715437E-03
         249 -1.5253838E-03
         250  1.2642903E-03
         251  1.7361066E-03
         252 -1.6308639E-02
         253  3.9639897E-04
         254 -3.2980143E-04
         255 -1.0931171E-03
         256  3.5542878E-03
         257  1.5658821E-03
         258 -1.2422322E-03
         259  4.1367277E-03
         260 -2.1584269E-03
         261 -1.2148871E-03
         262  6.8327226E-04
         263 -6.8303685E-05
         264  3.2984218E-04
         265 -5.7038572E-04
         266  8.4363495E-04
         267 -1.3335231E-03
         268  8.7918929E-04
         269  2.9410707E-04
         270 -4.3998726E-04
         271  6.6732953E-04
         272 -4.2758757E-04
         273 -1.9394908E-04
         274  1.4257252E-05
         275  9.2902752E-05
         276  1.8792829E-04
         277  8.5055108E-05
         278 -7.6546578E-04
         279  1.1344317E-04
         280 -6.8268557E-05
         281 -4.0357444E-04
         282  1.7870541E-04
         283  6.5619714E-04
         284 -1.6168057E-04
         285 -2.8439519E-05
         286  4.6393636E-04
         287  4.3928876E-04
         288 -1.2970319E-03
         289  3.1012070E-04
         290 -8.4047846E-05
         291 -3.1402969E-04
         292  3.5303736E-03
         293  5.1074743E-04
         294  1.2367228E-03
         295 -1.6648575E-03
         296  8.1569824E-04
         297 -6.1975550E-03
         298  6.4887465E-03
         299 -2.2353299E-03
         300  2.4450189E-03
         301  2.9868535E-03
         302 -4.3307049E-03
         303 -1.3565393E-04
         304  4.6216375E-03
         305 -1.1897787E-02
         306  1.4983650E-04
         307 -4.7658170E-03
         308 -9.1111397E-05
         309 -2.4499961E-03
         310 -4.3647168E-03
         311 -9.9248597E-03
         312 -5.2052893E-02
         313 -9.1598305E-04
         314 -6.1826126E-05
         315 -2.8630777E-04
         316  1.3114533E-02
         317  7.8234203E-02
         318 -2.3859176E-04
         319 -1.8038367E-05
         320 -5.4105296E-04
         321  8.6269196E-04
         322  1.6047448E-03
         323  3.1798130E-03
         324 -8.9632778E-04
         325 -2.7027417E-03
         326 -1.2959861E-02
         327 -7.9526536E-02
         328 -2.9367181E-03
         329  6.3771690E-04
         330  5.2740081E-04
         331 -1.3552023E-02
         332 -8.0526322E-02
         333  2.1385500E-04
         334 -8.1130587E-05
         335  6.1955932E-04
         336  1.6847086E-03
         337  5.4504713E-03
         338  5.4494682E-04
         339  2.5838267E-04
         340  1.8404529E-03
         341  1.2027684E-02
         342  7.4615814E-02
         343 -5.7865753E-05
         344  2.4247151E-03
         345  3.3107344E-03
         346 -1.0062557E-02
         347 -5.2653216E-02
         348  2.7831795E-04
         349 -4.2990483E-03
         350  1.1182198E-02
         351 -2.4211374E-03
         352 -4.4315066E-03
         353 -5.1925709E-03
         354  2.5669057E-03
         355 -5.9699767E-05
         356  3.9709331E-03
         357 -3.4894804E-03
         358 -6.7978137E-04
         359 -4.5723480E-04
         360  1.5828132E-03
         361  2.0915948E-04
         362  3.4486869E-04
         363  3.6716284E-04
         364 -1.4161663E-05
         365 -6.2758394E-05
         366 -5.2743906E-04
         367  3.1086066E-04
