 [Molden Format]
 [Atoms] Angs
N       1      7     -1.95993794     -8.23612630      0.16763889
C       2      6     -1.42800068     -7.22000491      0.12144853
C       3      6     -0.72683730     -5.99487167      0.06164411
N       4      7     -1.40692626     -4.85729948      0.11336362
C       5      6     -0.72413069     -3.71325437      0.05755602
C       6      6     -1.42914195     -2.47238872      0.11129815
C       7      6     -2.83030257     -2.46377309      0.18707333
C       8      6     -3.53481544     -1.29511175      0.25647020
C       9      6     -2.85791569     -0.05931284      0.26724180
N      10      7     -3.55465835      1.12101360      0.34083393
C      11      6     -2.94451426      2.39389178      0.26188067
C      12      6     -1.96522549      2.79321342      1.16609761
C      13      6     -1.39862298      4.05089846      1.06697214
C      14      6     -1.81705975      4.92964565      0.07970702
C      15      6     -2.82105502      4.56116288     -0.79639196
C      16      6     -3.38883448      3.29986787     -0.69945382
S      17     16     -4.72157823      2.83442771     -1.77808161
C      18      6     -5.65016274      1.92880079     -0.56626684
C      19      6     -7.03498129      1.99426698     -0.55532640
C      20      6     -7.74428450      1.32391543      0.42440953
C      21      6     -7.07021315      0.62032131      1.41089943
C      22      6     -5.68849700      0.55531399      1.40127482
C      23      6     -4.96707805      1.17728929      0.38770683
C      24      6     -1.46694953     -0.06611282      0.13173648
C      25      6     -0.73025948     -1.24328867      0.06098707
C      26      6      0.72349526     -1.24879272     -0.06421554
C      27      6      1.46881426     -0.07726843     -0.13796502
C      28      6      2.86015688     -0.08092690     -0.26982030
N      29      7      3.56521168      1.09442451     -0.34462442
C      30      6      2.96258397      2.37140237     -0.27434001
C      31      6      1.99189452      2.77320312     -1.18671290
C      32      6      1.43312455      4.03508445     -1.09692811
C      33      6      1.85099027      4.91543263     -0.11084110
C      34      6      2.84606074      4.54382374      0.77408310
C      35      6      3.40581653      3.27824192      0.68666125
S      36     16      4.72658638      2.80777274      1.77779215
C      37      6      5.65867771      1.89123197      0.57694997
C      38      6      7.04395934      1.94699754      0.57753546
C      39      6      7.75683036      1.26877014     -0.39414141
C      40      6      7.08617188      0.56719324     -1.38435948
C      41      6      5.70399011      0.51177227     -1.38616350
C      42      6      4.97836951      1.14143687     -0.38038715
C      43      6      3.52800643     -1.32155393     -0.25402042
C      44      6      2.81482086     -2.48487249     -0.18298884
C      45      6      1.41352961     -2.48309252     -0.10945670
C      46      6      0.69944944     -3.71862971     -0.05246429
N      47      7      1.37386063     -4.86779067     -0.10482309
C      48      6      0.68546034     -6.00021462     -0.04988215
C      49      6      1.37761619     -7.23063523     -0.10625151
N      50      7      1.90213093     -8.25070348     -0.14960802
H      51      1     -3.34193560     -3.41371990      0.18387425
H      52      1     -4.61174229     -1.32502133      0.28184038
H      53      1     -1.65588780      2.11192042      1.94450367
H      54      1     -0.63277530      4.34556763      1.76710550
H      55      1     -1.37684068      5.91114052      0.00365615
H      56      1     -3.17443982      5.24074679     -1.55633603
H      57      1     -7.54236537      2.56902304     -1.31468421
H      58      1     -8.82233118      1.36704434      0.42845722
H      59      1     -7.62096283      0.12206108      2.19376909
H      60      1     -5.15813038      0.01820125      2.17326697
H      61      1     -0.96061465      0.88075021      0.06323848
H      62      1      0.96924234      0.87351904     -0.07408759
H      63      1      1.68285855      2.09039957     -1.96390580
H      64      1      0.67388182      4.33175048     -1.80339781
H      65      1      1.41714462      5.90031701     -0.04231751
H      66      1      3.19847574      5.22419979      1.53376180
H      67      1      7.54892072      2.52052658      1.33943599
H      68      1      8.83515018      1.30426994     -0.38910774
H      69      1      7.63999577      0.06299434     -2.16123291
H      70      1      5.17650159     -0.02348362     -2.16139526
H      71      1      4.60471742     -1.35941584     -0.27686212
H      72      1      3.31952985     -3.43850776     -0.17624922
 [GTO]
           1   0
s              4   1.000000
     53.06351927     -0.01198412
      9.13797710     -0.05472052
      0.73427545      0.58055871
      0.27985055      0.47700799
p              4   1.000000
      6.25470187      0.05713170
      1.62175080      0.28574555
      0.57171734      0.55178731
      0.22761053      0.26323149
s              7   1.000000
      0.47894987     -0.19076417
      0.05878681      0.92170237
      0.02775758      0.24205303
     53.06351927      0.00456719
      9.13797710      0.02085420
      0.73427545     -0.22125313
      0.27985055     -0.18178956
p              7   1.000000
      2.28619608     -0.01184694
      0.12644335      0.58217663
      0.04872781      0.60799699
      6.25470187     -0.02825196
      1.62175080     -0.14130284
      0.57171734     -0.27286204
      0.22761053     -0.13016951
 
           2   0
s              4   1.000000
     32.73776485     -0.01198412
      5.63771400     -0.05472052
      0.45301438      0.58055871
      0.17265499      0.47700799
p              4   1.000000
      5.27654607      0.05713170
      1.36812960      0.28574555
      0.48230802      0.55178731
      0.19201513      0.26323149
s              7   1.000000
      0.38350848     -0.19847768
      0.04707223      0.95897118
      0.02222627      0.25184038
     32.73776485      0.00586766
      5.63771400      0.02679226
      0.45301438     -0.28425307
      0.17265499     -0.23355258
p              7   1.000000
      1.83062075     -0.01173645
      0.10124670      0.57674690
      0.03901771      0.60232648
      5.27654607     -0.02688408
      1.36812960     -0.13446134
      0.48230802     -0.25965080
      0.19201513     -0.12386705
 
           3   0
s              4   1.000000
     35.16853671     -0.01198412
      6.05631303     -0.05472052
      0.48665059      0.58055871
      0.18547459      0.47700799
p              4   1.000000
      5.66832846      0.05713170
      1.46971293      0.28574555
      0.51811929      0.55178731
      0.20627222      0.26323149
s              7   1.000000
      0.38350848     -0.19601421
      0.04707223      0.94706859
      0.02222627      0.24871459
     35.16853671      0.00548061
      6.05631303      0.02502493
      0.48665059     -0.26550264
      0.18547459     -0.21814656
p              7   1.000000
      1.83062075     -0.01159949
      0.10124670      0.57001686
      0.03901771      0.59529794
      5.66832846     -0.02510484
      1.46971293     -0.12556245
      0.51811929     -0.24246665
      0.20627222     -0.11566931
 
           4   0
s              4   1.000000
     57.34728544     -0.01198412
      9.87567708     -0.05472053
      0.79355279      0.58055871
      0.30244261      0.47700799
p              4   1.000000
      6.75963785      0.05713170
      1.75267316      0.28574555
      0.61787152      0.55178731
      0.24598530      0.26323149
s              7   1.000000
      0.47894987     -0.18905132
      0.05878681      0.91342653
      0.02775758      0.23987968
     57.34728544      0.00423307
      9.87567708      0.01932855
      0.79355279     -0.20506674
      0.30244261     -0.16849024
p              7   1.000000
      2.28619608     -0.01168588
      0.12644335      0.57426211
      0.04872781      0.59973145
      6.75963785     -0.02623881
      1.75267316     -0.13123401
      0.61787152     -0.25341869
      0.24598530     -0.12089401
 
           5   0
s              4   1.000000
     35.33003780     -0.01198412
      6.08412485     -0.05472052
      0.48888539      0.58055871
      0.18632632      0.47700800
p              4   1.000000
      5.69435857      0.05713170
      1.47646215      0.28574555
      0.52049860      0.55178731
      0.20721946      0.26323149
s              7   1.000000
      0.38350848     -0.19586635
      0.04707223      0.94635425
      0.02222627      0.24852700
     35.33003780      0.00545667
      6.08412485      0.02491561
      0.48888539     -0.26434275
      0.18632632     -0.21719355
p              7   1.000000
      1.83062075     -0.01159127
      0.10124670      0.56961300
      0.03901771      0.59487615
      5.69435857     -0.02499473
      1.47646215     -0.12501175
      0.52049860     -0.24140322
      0.20721946     -0.11516200
 
           6   0
s              4   1.000000
     35.22033653     -0.01198412
      6.06523339     -0.05472052
      0.48736738      0.58055871
      0.18574777      0.47700799
p              4   1.000000
      5.67667735      0.05713170
      1.47187767      0.28574555
      0.51888243      0.55178730
      0.20657603      0.26323149
s              7   1.000000
      0.38350848     -0.19596659
      0.04707223      0.94683852
      0.02222627      0.24865417
     35.22033653      0.00547291
      6.06523339      0.02498977
      0.48736738     -0.26512954
      0.18574777     -0.21783999
p              7   1.000000
      1.83062075     -0.01159685
      0.10124670      0.56988679
      0.03901771      0.59516209
      5.67667735     -0.02506942
      1.47187767     -0.12538531
      0.51888243     -0.24212458
      0.20657603     -0.11550612
 
           7   0
s              4   1.000000
     35.01725315     -0.01198412
      6.03026075     -0.05472052
      0.48455718      0.58055871
      0.18467674      0.47700799
p              4   1.000000
      5.64394516      0.05713170
      1.46339070      0.28574555
      0.51589051      0.55178731
      0.20538490      0.26323149
s              7   1.000000
      0.38350848     -0.19615435
      0.04707223      0.94774572
      0.02222627      0.24889241
     35.01725315      0.00550322
      6.03026075      0.02512820
      0.48455718     -0.26659824
      0.18467674     -0.21904673
p              7   1.000000
      1.83062075     -0.01160728
      0.10124670      0.57039969
      0.03901771      0.59569773
      5.64394516     -0.02520884
      1.46339070     -0.12608260
      0.51589051     -0.24347109
      0.20538490     -0.11614848
 
           8   0
s              4   1.000000
     35.01308768     -0.01198412
      6.02954342     -0.05472052
      0.48449954      0.58055871
      0.18465477      0.47700799
p              4   1.000000
      5.64327378      0.05713170
      1.46321662      0.28574555
      0.51582914      0.55178731
      0.20536047      0.26323149
s              7   1.000000
      0.38350848     -0.19615823
      0.04707223      0.94776448
      0.02222627      0.24889733
     35.01308768      0.00550385
      6.02954342      0.02513106
      0.48449954     -0.26662853
      0.18465477     -0.21907162
p              7   1.000000
      1.83062075     -0.01160750
      0.10124670      0.57041029
      0.03901771      0.59570882
      5.64327378     -0.02521172
      1.46321662     -0.12609699
      0.51582914     -0.24349886
      0.20536047     -0.11616173
 
           9   0
s              4   1.000000
     35.13378924     -0.01198412
      6.05032923     -0.05472052
      0.48616977      0.58055871
      0.18529133      0.47700799
p              4   1.000000
      5.66272799      0.05713170
      1.46826081      0.28574555
      0.51760737      0.55178731
      0.20606841      0.26323149
s              7   1.000000
      0.38350848     -0.19604625
      0.04707223      0.94722344
      0.02222627      0.24875525
     35.13378924      0.00548579
      6.05032923      0.02504858
      0.48616977     -0.26575350
      0.18529133     -0.21835267
p              7   1.000000
      1.83062075     -0.01160127
      0.10124670      0.57010441
      0.03901771      0.59538938
      5.66272799     -0.02512865
      1.46826081     -0.12568155
      0.51760737     -0.24269664
      0.20606841     -0.11577903
 
          10   0
s              4   1.000000
     61.25318094     -0.01198412
     10.54830461     -0.05472052
      0.84760128      0.58055871
      0.32304183      0.47700800
p              4   1.000000
      7.22003347      0.05713170
      1.87204687      0.28574555
      0.65995445      0.55178731
      0.26273924      0.26323149
s              7   1.000000
      0.47894987     -0.18776741
      0.05878681      0.90722312
      0.02775758      0.23825057
     61.25318094      0.00396638
     10.54830461      0.01811084
      0.84760128     -0.19214739
      0.32304183     -0.15787523
p              7   1.000000
      2.28619608     -0.01156454
      0.12644335      0.56829938
      0.04872781      0.59350429
      7.22003347     -0.02463374
      1.87204687     -0.12320623
      0.65995445     -0.23791669
      0.26273924     -0.11349874
 
          11   0
s              4   1.000000
     35.43187408     -0.01198412
      6.10166190     -0.05472053
      0.49029457      0.58055871
      0.18686340      0.47700799
p              4   1.000000
      5.71077215      0.05713170
      1.48071794      0.28574555
      0.52199890      0.55178731
      0.20781675      0.26323149
s              7   1.000000
      0.38350848     -0.19577405
      0.04707223      0.94590826
      0.02222627      0.24840986
     35.43187408      0.00544167
      6.10166190      0.02484715
      0.49029457     -0.26361646
      0.18686340     -0.21659680
p              7   1.000000
      1.83062075     -0.01158614
      0.10124670      0.56936086
      0.03901771      0.59461286
      5.71077215     -0.02492578
      1.48071794     -0.12466690
      0.52199890     -0.24073730
      0.20781675     -0.11484432
 
          12   0
s              4   1.000000
     35.01151430     -0.01198412
      6.02927247     -0.05472053
      0.48447777      0.58055871
      0.18464647      0.47700799
p              4   1.000000
      5.64302019      0.05713170
      1.46315087      0.28574555
      0.51580596      0.55178731
      0.20535124      0.26323149
s              7   1.000000
      0.38350848     -0.19615970
      0.04707223      0.94777156
      0.02222627      0.24889921
     35.01151430      0.00550409
      6.02927247      0.02513213
      0.48447777     -0.26663997
      0.18464647     -0.21908103
p              7   1.000000
      1.83062075     -0.01160758
      0.10124670      0.57041429
      0.03901771      0.59571302
      5.64302019     -0.02521280
      1.46315087     -0.12610242
      0.51580596     -0.24350935
      0.20535124     -0.11616673
 
          13   0
s              4   1.000000
     34.92617010     -0.01198412
      6.01457549     -0.05472052
      0.48329680      0.58055871
      0.18419637      0.47700799
p              4   1.000000
      5.62926475      0.05713170
      1.45958429      0.28574555
      0.51454863      0.55178731
      0.20485068      0.26323149
s              7   1.000000
      0.38350848     -0.19623950
      0.04707223      0.94815717
      0.02222627      0.24900046
     34.92617010      0.00551693
      6.01457549      0.02519078
      0.48329680     -0.26726214
      0.18419637     -0.21959222
p              7   1.000000
      1.83062075     -0.01161202
      0.10124670      0.57063231
      0.03901771      0.59594067
      5.62926475     -0.02527186
      1.45958429     -0.12639780
      0.51454863     -0.24407974
      0.20485068     -0.11643884
 
          14   0
s              4   1.000000
     34.92952330     -0.01198412
      6.01515294     -0.05472053
      0.48334320      0.58055871
      0.18421406      0.47700799
p              4   1.000000
      5.62980520      0.05713170
      1.45972442      0.28574555
      0.51459803      0.55178730
      0.20487034      0.26323149
s              7   1.000000
      0.38350848     -0.19623636
      0.04707223      0.94814197
      0.02222627      0.24899649
     34.92952330      0.00551642
      6.01515294      0.02518847
      0.48334320     -0.26723765
      0.18421406     -0.21957209
p              7   1.000000
      1.83062075     -0.01161184
      0.10124670      0.57062372
      0.03901771      0.59593173
      5.62980520     -0.02526953
      1.45972442     -0.12638616
      0.51459803     -0.24405728
      0.20487034     -0.11642813
 
          15   0
s              4   1.000000
     35.10702345     -0.01198412
      6.04571994     -0.05472052
      0.48579939      0.58055871
      0.18515017      0.47700799
p              4   1.000000
      5.65841399      0.05713170
      1.46714225      0.28574555
      0.51721304      0.55178731
      0.20591143      0.26323149
s              7   1.000000
      0.38350848     -0.19607099
      0.04707223      0.94734298
      0.02222627      0.24878664
     35.10702345      0.00548978
      6.04571994      0.02506682
      0.48579939     -0.26594705
      0.18515017     -0.21851170
p              7   1.000000
      1.83062075     -0.01160265
      0.10124670      0.57017200
      0.03901771      0.59545997
      5.65841399     -0.02514703
      1.46714225     -0.12577345
      0.51721304     -0.24287409
      0.20591143     -0.11586368
 
          16   0
s              4   1.000000
     35.07066832     -0.01198412
      6.03945928     -0.05472052
      0.48529632      0.58055871
      0.18495844      0.47700799
p              4   1.000000
      5.65255441      0.05713170
      1.46562295      0.28574555
      0.51667744      0.55178731
      0.20569819      0.26323149
s              7   1.000000
      0.38350848     -0.19610468
      0.04707223      0.94750576
      0.02222627      0.24882940
     35.07066832      0.00549522
      6.03945928      0.02509164
      0.48529632     -0.26621039
      0.18495844     -0.21872807
p              7   1.000000
      1.83062075     -0.01160452
      0.10124670      0.57026401
      0.03901771      0.59555605
      5.65255441     -0.02517202
      1.46562295     -0.12589847
      0.51667744     -0.24311552
      0.20569819     -0.11597886
 
          17   0
s              4   1.000000
     12.17709542     -0.03295496
      3.42998871     -0.17245169
      0.61505031      0.75185111
      0.30260726      0.35896273
p              4   1.000000
      7.03149501     -0.01434249
      0.72663441      0.27551776
      0.32841393      0.58467508
      0.15876254      0.21449865
s              7   1.000000
      0.16124732     -0.33766367
      0.03162593      1.06544978
      0.01560824      0.12670137
     12.17709542      0.00423868
      3.42998871      0.02218082
      0.61505031     -0.09670346
      0.30260726     -0.04616996
p              7   1.000000
      0.34551743     -0.06469075
      0.05282782      0.69492704
      0.02597475      0.41381379
      7.03149501      0.00469680
      0.72663441     -0.09022511
      0.32841393     -0.19146633
      0.15876254     -0.07024289
 
          18   0
s              4   1.000000
     35.06994861     -0.01198412
      6.03933534     -0.05472053
      0.48528636      0.58055871
      0.18495465      0.47700799
p              4   1.000000
      5.65243841      0.05713170
      1.46559287      0.28574555
      0.51666684      0.55178731
      0.20569397      0.26323149
s              7   1.000000
      0.38350848     -0.19610535
      0.04707223      0.94750898
      0.02222627      0.24883025
     35.06994861      0.00549533
      6.03933534      0.02509214
      0.48528636     -0.26621561
      0.18495465     -0.21873235
p              7   1.000000
      1.83062075     -0.01160456
      0.10124670      0.57026584
      0.03901771      0.59555796
      5.65243841     -0.02517252
      1.46559287     -0.12590095
      0.51666684     -0.24312031
      0.20569397     -0.11598114
 
          19   0
s              4   1.000000
     35.10646234     -0.01198412
      6.04562331     -0.05472053
      0.48579163      0.58055871
      0.18514721      0.47700799
p              4   1.000000
      5.65832355      0.05713170
      1.46711880      0.28574555
      0.51720478      0.55178731
      0.20590813      0.26323149
s              7   1.000000
      0.38350848     -0.19607151
      0.04707223      0.94734550
      0.02222627      0.24878730
     35.10646234      0.00548987
      6.04562331      0.02506721
      0.48579163     -0.26595111
      0.18514721     -0.21851504
p              7   1.000000
      1.83062075     -0.01160268
      0.10124670      0.57017341
      0.03901771      0.59546143
      5.65832355     -0.02514741
      1.46711880     -0.12577537
      0.51720478     -0.24287781
      0.20590813     -0.11586546
 
          20   0
s              4   1.000000
     34.92404898     -0.01198412
      6.01421022     -0.05472052
      0.48326745      0.58055871
      0.18418519      0.47700799
p              4   1.000000
      5.62892287      0.05713170
      1.45949565      0.28574555
      0.51451738      0.55178730
      0.20483824      0.26323149
s              7   1.000000
      0.38350848     -0.19624149
      0.04707223      0.94816678
      0.02222627      0.24900299
     34.92404898      0.00551725
      6.01421022      0.02519224
      0.48326745     -0.26727764
      0.18418519     -0.21960496
p              7   1.000000
      1.83062075     -0.01161213
      0.10124670      0.57063775
      0.03901771      0.59594637
      5.62892287     -0.02527333
      1.45949565     -0.12640515
      0.51451738     -0.24409395
      0.20483824     -0.11644562
 
          21   0
s              4   1.000000
     34.92094107     -0.01198412
      6.01367501     -0.05472052
      0.48322445      0.58055871
      0.18416880      0.47700799
p              4   1.000000
      5.62842195      0.05713170
      1.45936577      0.28574555
      0.51447159      0.55178731
      0.20482001      0.26323149
s              7   1.000000
      0.38350848     -0.19624441
      0.04707223      0.94818087
      0.02222627      0.24900670
     34.92094107      0.00551772
      6.01367501      0.02519438
      0.48322445     -0.26730036
      0.18416880     -0.21962362
p              7   1.000000
      1.83062075     -0.01161229
      0.10124670      0.57064571
      0.03901771      0.59595467
      5.62842195     -0.02527549
      1.45936577     -0.12641594
      0.51447159     -0.24411477
      0.20482001     -0.11645555
 
          22   0
s              4   1.000000
     35.01056146     -0.01198412
      6.02910838     -0.05472053
      0.48446458      0.58055871
      0.18464144      0.47700800
p              4   1.000000
      5.64286662      0.05713170
      1.46311105      0.28574555
      0.51579192      0.55178731
      0.20534565      0.26323149
s              7   1.000000
      0.38350848     -0.19616059
      0.04707223      0.94777586
      0.02222627      0.24890033
     35.01056146      0.00550423
      6.02910838      0.02513279
      0.48446458     -0.26664690
      0.18464144     -0.21908672
p              7   1.000000
      1.83062075     -0.01160763
      0.10124670      0.57041673
      0.03901771      0.59571553
      5.64286662     -0.02521346
      1.46311105     -0.12610571
      0.51579192     -0.24351571
      0.20534565     -0.11616977
 
          23   0
s              4   1.000000
     35.43932288     -0.01198412
      6.10294465     -0.05472053
      0.49039764      0.58055871
      0.18690268      0.47700799
p              4   1.000000
      5.71197272      0.05713170
      1.48102923      0.28574555
      0.52210864      0.55178731
      0.20786044      0.26323149
s              7   1.000000
      0.38350848     -0.19576733
      0.04707223      0.94587577
      0.02222627      0.24840133
     35.43932288      0.00544058
      6.10294465      0.02484216
      0.49039764     -0.26356349
      0.18690268     -0.21655328
p              7   1.000000
      1.83062075     -0.01158577
      0.10124670      0.56934249
      0.03901771      0.59459365
      5.71197272     -0.02492076
      1.48102923     -0.12464175
      0.52210864     -0.24068873
      0.20786044     -0.11482115
 
          24   0
s              4   1.000000
     35.11827698     -0.01198412
      6.04765789     -0.05472052
      0.48595512      0.58055871
      0.18520952      0.47700799
p              4   1.000000
      5.66022779      0.05713170
      1.46761254      0.28574555
      0.51737884      0.55178731
      0.20597743      0.26323149
s              7   1.000000
      0.38350848     -0.19606059
      0.04707223      0.94729270
      0.02222627      0.24877343
     35.11827698      0.00548810
      6.04765789      0.02505915
      0.48595512     -0.26586564
      0.18520952     -0.21844481
p              7   1.000000
      1.83062075     -0.01160207
      0.10124670      0.57014356
      0.03901771      0.59543028
      5.66022779     -0.02513930
      1.46761254     -0.12573479
      0.51737884     -0.24279945
      0.20597743     -0.11582808
 
          25   0
s              4   1.000000
     35.16453975     -0.01198412
      6.05562472     -0.05472052
      0.48659528      0.58055871
      0.18545351      0.47700800
p              4   1.000000
      5.66768424      0.05713170
      1.46954589      0.28574555
      0.51806040      0.55178731
      0.20624877      0.26323149
s              7   1.000000
      0.38350848     -0.19601789
      0.04707223      0.94708639
      0.02222627      0.24871927
     35.16453975      0.00548120
      6.05562472      0.02502765
      0.48659528     -0.26553148
      0.18545351     -0.21817025
p              7   1.000000
      1.83062075     -0.01159970
      0.10124670      0.57002692
      0.03901771      0.59530846
      5.66768424     -0.02510758
      1.46954589     -0.12557614
      0.51806040     -0.24249309
      0.20624877     -0.11568192
 
          26   0
s              4   1.000000
     35.16451930     -0.01198412
      6.05562120     -0.05472052
      0.48659500      0.58055871
      0.18545340      0.47700800
p              4   1.000000
      5.66768095      0.05713170
      1.46954504      0.28574555
      0.51806010      0.55178731
      0.20624865      0.26323149
s              7   1.000000
      0.38350848     -0.19601791
      0.04707223      0.94708648
      0.02222627      0.24871930
     35.16451930      0.00548121
      6.05562120      0.02502767
      0.48659500     -0.26553162
      0.18545340     -0.21817037
p              7   1.000000
      1.83062075     -0.01159970
      0.10124670      0.57002697
      0.03901771      0.59530850
      5.66768095     -0.02510759
      1.46954504     -0.12557621
      0.51806010     -0.24249322
      0.20624865     -0.11568199
 
          27   0
s              4   1.000000
     35.11847681     -0.01198412
      6.04769230     -0.05472052
      0.48595788      0.58055871
      0.18521058      0.47700799
p              4   1.000000
      5.66025999      0.05713170
      1.46762090      0.28574555
      0.51738178      0.55178731
      0.20597860      0.26323149
s              7   1.000000
      0.38350848     -0.19606040
      0.04707223      0.94729179
      0.02222627      0.24877321
     35.11847681      0.00548807
      6.04769230      0.02505901
      0.48595788     -0.26586420
      0.18521058     -0.21844362
p              7   1.000000
      1.83062075     -0.01160206
      0.10124670      0.57014305
      0.03901771      0.59542975
      5.66025999     -0.02513916
      1.46762090     -0.12573411
      0.51738178     -0.24279813
      0.20597860     -0.11582745
 
          28   0
s              4   1.000000
     35.13378717     -0.01198412
      6.05032887     -0.05472053
      0.48616974      0.58055871
      0.18529132      0.47700799
p              4   1.000000
      5.66272766      0.05713170
      1.46826072      0.28574555
      0.51760734      0.55178731
      0.20606840      0.26323149
s              7   1.000000
      0.38350848     -0.19604625
      0.04707223      0.94722344
      0.02222627      0.24875525
     35.13378717      0.00548579
      6.05032887      0.02504858
      0.48616974     -0.26575352
      0.18529132     -0.21835268
p              7   1.000000
      1.83062075     -0.01160127
      0.10124670      0.57010441
      0.03901771      0.59538938
      5.66272766     -0.02512866
      1.46826072     -0.12568156
      0.51760734     -0.24269666
      0.20606840     -0.11577903
 
          29   0
s              4   1.000000
     61.25279630     -0.01198412
     10.54823837     -0.05472052
      0.84759596      0.58055871
      0.32303980      0.47700799
p              4   1.000000
      7.21998814      0.05713170
      1.87203511      0.28574555
      0.65995031      0.55178731
      0.26273759      0.26323149
s              7   1.000000
      0.47894987     -0.18776752
      0.05878681      0.90722367
      0.02775758      0.23825072
     61.25279630      0.00396641
     10.54823837      0.01811095
      0.84759596     -0.19214859
      0.32303980     -0.15787622
p              7   1.000000
      2.28619608     -0.01156455
      0.12644335      0.56829992
      0.04872781      0.59350484
      7.21998814     -0.02463389
      1.87203511     -0.12320698
      0.65995031     -0.23791813
      0.26273759     -0.11349943
 
          30   0
s              4   1.000000
     35.43194840     -0.01198412
      6.10167470     -0.05472052
      0.49029560      0.58055871
      0.18686379      0.47700799
p              4   1.000000
      5.71078413      0.05713170
      1.48072105      0.28574555
      0.52199999      0.55178731
      0.20781719      0.26323149
s              7   1.000000
      0.38350848     -0.19577398
      0.04707223      0.94590794
      0.02222627      0.24840979
     35.43194840      0.00544166
      6.10167470      0.02484710
      0.49029560     -0.26361593
      0.18686379     -0.21659637
p              7   1.000000
      1.83062075     -0.01158614
      0.10124670      0.56936067
      0.03901771      0.59461266
      5.71078413     -0.02492573
      1.48072105     -0.12466665
      0.52199999     -0.24073681
      0.20781719     -0.11484409
 
          31   0
s              4   1.000000
     35.01151618     -0.01198412
      6.02927279     -0.05472053
      0.48447779      0.58055871
      0.18464648      0.47700799
p              4   1.000000
      5.64302050      0.05713170
      1.46315095      0.28574555
      0.51580599      0.55178731
      0.20535125      0.26323149
s              7   1.000000
      0.38350848     -0.19615970
      0.04707223      0.94777156
      0.02222627      0.24889921
     35.01151618      0.00550409
      6.02927279      0.02513213
      0.48447779     -0.26663996
      0.18464648     -0.21908101
p              7   1.000000
      1.83062075     -0.01160758
      0.10124670      0.57041429
      0.03901771      0.59571298
      5.64302050     -0.02521280
      1.46315095     -0.12610241
      0.51580599     -0.24350934
      0.20535125     -0.11616673
 
          32   0
s              4   1.000000
     34.92607979     -0.01198412
      6.01455994     -0.05472052
      0.48329555      0.58055871
      0.18419590      0.47700799
p              4   1.000000
      5.62925019      0.05713170
      1.45958052      0.28574555
      0.51454730      0.55178731
      0.20485015      0.26323149
s              7   1.000000
      0.38350848     -0.19623959
      0.04707223      0.94815758
      0.02222627      0.24900058
     34.92607979      0.00551694
      6.01455994      0.02519084
      0.48329555     -0.26726280
      0.18419590     -0.21959277
p              7   1.000000
      1.83062075     -0.01161202
      0.10124670      0.57063254
      0.03901771      0.59594091
      5.62925019     -0.02527192
      1.45958052     -0.12639811
      0.51454730     -0.24408034
      0.20485015     -0.11643913
 
          33   0
s              4   1.000000
     34.92955267     -0.01198412
      6.01515800     -0.05472052
      0.48334361      0.58055871
      0.18421421      0.47700799
p              4   1.000000
      5.62980993      0.05713170
      1.45972565      0.28574555
      0.51459846      0.55178731
      0.20487052      0.26323149
s              7   1.000000
      0.38350848     -0.19623633
      0.04707223      0.94814184
      0.02222627      0.24899644
     34.92955267      0.00551642
      6.01515800      0.02518845
      0.48334361     -0.26723743
      0.18421421     -0.21957192
p              7   1.000000
      1.83062075     -0.01161184
      0.10124670      0.57062363
      0.03901771      0.59593165
      5.62980993     -0.02526951
      1.45972565     -0.12638606
      0.51459846     -0.24405708
      0.20487052     -0.11642803
 
          34   0
s              4   1.000000
     35.10698026     -0.01198412
      6.04571250     -0.05472053
      0.48579880      0.58055871
      0.18514995      0.47700800
p              4   1.000000
      5.65840703      0.05713170
      1.46714045      0.28574555
      0.51721241      0.55178731
      0.20591117      0.26323149
s              7   1.000000
      0.38350848     -0.19607103
      0.04707223      0.94734318
      0.02222627      0.24878669
     35.10698026      0.00548979
      6.04571250      0.02506685
      0.48579880     -0.26594737
      0.18514995     -0.21851196
p              7   1.000000
      1.83062075     -0.01160265
      0.10124670      0.57017211
      0.03901771      0.59546005
      5.65840703     -0.02514706
      1.46714045     -0.12577359
      0.51721241     -0.24287438
      0.20591117     -0.11586382
 
          35   0
s              4   1.000000
     35.07055310     -0.01198412
      6.03943944     -0.05472052
      0.48529473      0.58055871
      0.18495783      0.47700799
p              4   1.000000
      5.65253584      0.05713170
      1.46561814      0.28574555
      0.51667575      0.55178731
      0.20569752      0.26323149
s              7   1.000000
      0.38350848     -0.19610479
      0.04707223      0.94750627
      0.02222627      0.24882954
     35.07055310      0.00549524
      6.03943944      0.02509172
      0.48529473     -0.26621123
      0.18495783     -0.21872875
p              7   1.000000
      1.83062075     -0.01160453
      0.10124670      0.57026431
      0.03901771      0.59555638
      5.65253584     -0.02517210
      1.46561814     -0.12589887
      0.51667575     -0.24311629
      0.20569752     -0.11597922
 
          36   0
s              4   1.000000
     12.17707726     -0.03295496
      3.42998359     -0.17245169
      0.61504939      0.75185111
      0.30260681      0.35896273
p              4   1.000000
      7.03148452     -0.01434249
      0.72663333      0.27551776
      0.32841344      0.58467508
      0.15876230      0.21449865
s              7   1.000000
      0.16124732     -0.33766368
      0.03162593      1.06544982
      0.01560824      0.12670137
     12.17707726      0.00423869
      3.42998359      0.02218087
      0.61504939     -0.09670365
      0.30260681     -0.04617005
p              7   1.000000
      0.34551743     -0.06469077
      0.05282782      0.69492715
      0.02597475      0.41381385
      7.03148452      0.00469681
      0.72663333     -0.09022526
      0.32841344     -0.19146666
      0.15876230     -0.07024301
 
          37   0
s              4   1.000000
     35.06996097     -0.01198412
      6.03933747     -0.05472052
      0.48528654      0.58055871
      0.18495471      0.47700800
p              4   1.000000
      5.65244040      0.05713170
      1.46559339      0.28574555
      0.51666702      0.55178731
      0.20569404      0.26323149
s              7   1.000000
      0.38350848     -0.19610534
      0.04707223      0.94750893
      0.02222627      0.24883023
     35.06996097      0.00549532
      6.03933747      0.02509213
      0.48528654     -0.26621552
      0.18495471     -0.21873228
p              7   1.000000
      1.83062075     -0.01160456
      0.10124670      0.57026581
      0.03901771      0.59555791
      5.65244040     -0.02517251
      1.46559339     -0.12590091
      0.51666702     -0.24312022
      0.20569404     -0.11598110
 
          38   0
s              4   1.000000
     35.10667020     -0.01198412
      6.04565910     -0.05472053
      0.48579450      0.58055871
      0.18514831      0.47700799
p              4   1.000000
      5.65835705      0.05713170
      1.46712749      0.28574555
      0.51720784      0.55178731
      0.20590935      0.26323149
s              7   1.000000
      0.38350848     -0.19607132
      0.04707223      0.94734457
      0.02222627      0.24878706
     35.10667020      0.00548983
      6.04565910      0.02506706
      0.48579450     -0.26594961
      0.18514831     -0.21851380
p              7   1.000000
      1.83062075     -0.01160267
      0.10124670      0.57017289
      0.03901771      0.59546090
      5.65835705     -0.02514727
      1.46712749     -0.12577466
      0.51720784     -0.24287644
      0.20590935     -0.11586480
 
          39   0
s              4   1.000000
     34.92403169     -0.01198412
      6.01420724     -0.05472052
      0.48326721      0.58055871
      0.18418510      0.47700799
p              4   1.000000
      5.62892008      0.05713170
      1.45949492      0.28574555
      0.51451713      0.55178731
      0.20483813      0.26323149
s              7   1.000000
      0.38350848     -0.19624151
      0.04707223      0.94816686
      0.02222627      0.24900302
     34.92403169      0.00551725
      6.01420724      0.02519225
      0.48326721     -0.26727777
      0.18418510     -0.21960506
p              7   1.000000
      1.83062075     -0.01161213
      0.10124670      0.57063779
      0.03901771      0.59594641
      5.62892008     -0.02527334
      1.45949492     -0.12640521
      0.51451713     -0.24409406
      0.20483813     -0.11644568
 
          40   0
s              4   1.000000
     34.92096592     -0.01198412
      6.01367929     -0.05472052
      0.48322479      0.58055871
      0.18416893      0.47700799
p              4   1.000000
      5.62842595      0.05713170
      1.45936680      0.28574555
      0.51447196      0.55178731
      0.20482015      0.26323149
s              7   1.000000
      0.38350848     -0.19624439
      0.04707223      0.94818076
      0.02222627      0.24900667
     34.92096592      0.00551771
      6.01367929      0.02519436
      0.48322479     -0.26730018
      0.18416893     -0.21962347
p              7   1.000000
      1.83062075     -0.01161229
      0.10124670      0.57064565
      0.03901771      0.59595463
      5.62842595     -0.02527547
      1.45936680     -0.12641585
      0.51447196     -0.24411460
      0.20482015     -0.11645547
 
          41   0
s              4   1.000000
     35.01051228     -0.01198412
      6.02909991     -0.05472053
      0.48446390      0.58055871
      0.18464119      0.47700799
p              4   1.000000
      5.64285869      0.05713170
      1.46310900      0.28574555
      0.51579120      0.55178731
      0.20534536      0.26323149
s              7   1.000000
      0.38350848     -0.19616063
      0.04707223      0.94777607
      0.02222627      0.24890038
     35.01051228      0.00550424
      6.02909991      0.02513282
      0.48446390     -0.26664726
      0.18464119     -0.21908701
p              7   1.000000
      1.83062075     -0.01160763
      0.10124670      0.57041685
      0.03901771      0.59571565
      5.64285869     -0.02521349
      1.46310900     -0.12610588
      0.51579120     -0.24351603
      0.20534536     -0.11616992
 
          42   0
s              4   1.000000
     35.43879310     -0.01198412
      6.10285342     -0.05472052
      0.49039031      0.58055871
      0.18689989      0.47700800
p              4   1.000000
      5.71188733      0.05713170
      1.48100709      0.28574555
      0.52210083      0.55178731
      0.20785734      0.26323149
s              7   1.000000
      0.38350848     -0.19576781
      0.04707223      0.94587808
      0.02222627      0.24840194
     35.43879310      0.00544066
      6.10285342      0.02484252
      0.49039031     -0.26356726
      0.18689989     -0.21655637
p              7   1.000000
      1.83062075     -0.01158580
      0.10124670      0.56934379
      0.03901771      0.59459502
      5.71188733     -0.02492111
      1.48100709     -0.12464353
      0.52210083     -0.24069218
      0.20785734     -0.11482280
 
          43   0
s              4   1.000000
     35.01286433     -0.01198412
      6.02950496     -0.05472052
      0.48449645      0.58055871
      0.18465359      0.47700800
p              4   1.000000
      5.64323779      0.05713170
      1.46320729      0.28574555
      0.51582585      0.55178731
      0.20535916      0.26323149
s              7   1.000000
      0.38350848     -0.19615844
      0.04707223      0.94776549
      0.02222627      0.24889760
     35.01286433      0.00550388
      6.02950496      0.02513121
      0.48449645     -0.26663015
      0.18465359     -0.21907296
p              7   1.000000
      1.83062075     -0.01160751
      0.10124670      0.57041085
      0.03901771      0.59570942
      5.64323779     -0.02521187
      1.46320729     -0.12609776
      0.51582585     -0.24350035
      0.20535916     -0.11616244
 
          44   0
s              4   1.000000
     35.01725604     -0.01198412
      6.03026125     -0.05472053
      0.48455722      0.58055871
      0.18467675      0.47700800
p              4   1.000000
      5.64394562      0.05713170
      1.46339082      0.28574555
      0.51589055      0.55178731
      0.20538492      0.26323149
s              7   1.000000
      0.38350848     -0.19615435
      0.04707223      0.94774571
      0.02222627      0.24889241
     35.01725604      0.00550322
      6.03026125      0.02512820
      0.48455722     -0.26659821
      0.18467675     -0.21904672
p              7   1.000000
      1.83062075     -0.01160728
      0.10124670      0.57039968
      0.03901771      0.59569773
      5.64394562     -0.02520884
      1.46339082     -0.12608259
      0.51589055     -0.24347107
      0.20538492     -0.11614847
 
          45   0
s              4   1.000000
     35.22031292     -0.01198412
      6.06522932     -0.05472052
      0.48736705      0.58055871
      0.18574765      0.47700799
p              4   1.000000
      5.67667354      0.05713170
      1.47187668      0.28574555
      0.51888208      0.55178731
      0.20657590      0.26323149
s              7   1.000000
      0.38350848     -0.19596661
      0.04707223      0.94683863
      0.02222627      0.24865419
     35.22031292      0.00547291
      6.06522932      0.02498978
      0.48736705     -0.26512971
      0.18574765     -0.21784014
p              7   1.000000
      1.83062075     -0.01159685
      0.10124670      0.56988685
      0.03901771      0.59516217
      5.67667354     -0.02506944
      1.47187668     -0.12538539
      0.51888208     -0.24212473
      0.20657590     -0.11550620
 
          46   0
s              4   1.000000
     35.33001312     -0.01198412
      6.08412060     -0.05472053
      0.48888505      0.58055871
      0.18632619      0.47700799
p              4   1.000000
      5.69435460      0.05713170
      1.47646112      0.28574555
      0.52049823      0.55178731
      0.20721931      0.26323149
s              7   1.000000
      0.38350848     -0.19586638
      0.04707223      0.94635436
      0.02222627      0.24852703
     35.33001312      0.00545667
      6.08412060      0.02491563
      0.48888505     -0.26434293
      0.18632619     -0.21719369
p              7   1.000000
      1.83062075     -0.01159128
      0.10124670      0.56961306
      0.03901771      0.59487623
      5.69435460     -0.02499475
      1.47646112     -0.12501183
      0.52049823     -0.24140338
      0.20721931     -0.11516207
 
          47   0
s              4   1.000000
     57.34722737     -0.01198412
      9.87566708     -0.05472053
      0.79355199      0.58055871
      0.30244231      0.47700799
p              4   1.000000
      6.75963101      0.05713170
      1.75267138      0.28574555
      0.61787090      0.55178731
      0.24598505      0.26323149
s              7   1.000000
      0.47894987     -0.18905135
      0.05878681      0.91342664
      0.02775758      0.23987970
     57.34722737      0.00423307
      9.87566708      0.01932857
      0.79355199     -0.20506694
      0.30244231     -0.16849040
p              7   1.000000
      2.28619608     -0.01168588
      0.12644335      0.57426220
      0.04872781      0.59973157
      6.75963101     -0.02623883
      1.75267138     -0.13123414
      0.61787090     -0.25341894
      0.24598505     -0.12089413
 
          48   0
s              4   1.000000
     35.16853022     -0.01198412
      6.05631191     -0.05472052
      0.48665050      0.58055871
      0.18547455      0.47700799
p              4   1.000000
      5.66832741      0.05713170
      1.46971266      0.28574555
      0.51811919      0.55178731
      0.20627218      0.26323149
s              7   1.000000
      0.38350848     -0.19601421
      0.04707223      0.94706862
      0.02222627      0.24871459
     35.16853022      0.00548061
      6.05631191      0.02502494
      0.48665050     -0.26550269
      0.18547455     -0.21814659
p              7   1.000000
      1.83062075     -0.01159949
      0.10124670      0.57001688
      0.03901771      0.59529794
      5.66832741     -0.02510485
      1.46971266     -0.12556247
      0.51811919     -0.24246669
      0.20627218     -0.11566933
 
          49   0
s              4   1.000000
     32.73773547     -0.01198412
      5.63770894     -0.05472052
      0.45301397      0.58055871
      0.17265484      0.47700800
p              4   1.000000
      5.27654133      0.05713170
      1.36812838      0.28574555
      0.48230759      0.55178731
      0.19201496      0.26323149
s              7   1.000000
      0.38350848     -0.19847771
      0.04707223      0.95897135
      0.02222627      0.25184043
     32.73773547      0.00586767
      5.63770894      0.02679228
      0.45301397     -0.28425331
      0.17265484     -0.23355278
p              7   1.000000
      1.83062075     -0.01173645
      0.10124670      0.57674700
      0.03901771      0.60232656
      5.27654133     -0.02688410
      1.36812838     -0.13446145
      0.48230759     -0.25965102
      0.19201496     -0.12386716
 
          50   0
s              4   1.000000
     53.06352304     -0.01198412
      9.13797775     -0.05472052
      0.73427550      0.58055871
      0.27985057      0.47700799
p              4   1.000000
      6.25470231      0.05713170
      1.62175091      0.28574555
      0.57171738      0.55178731
      0.22761054      0.26323149
s              7   1.000000
      0.47894987     -0.19076417
      0.05878681      0.92170237
      0.02775758      0.24205303
     53.06352304      0.00456719
      9.13797775      0.02085420
      0.73427550     -0.22125312
      0.27985057     -0.18178955
p              7   1.000000
      2.28619608     -0.01184694
      0.12644335      0.58217662
      0.04872781      0.60799699
      6.25470231     -0.02825196
      1.62175091     -0.14130283
      0.57171738     -0.27286202
      0.22761054     -0.13016950
 
          51   0
s              4   1.000000
      8.31015654      0.05675242
      1.52065626      0.26014135
      0.42245496      0.53284611
      0.14020900      0.29162544
s              7   1.000000
      0.92936822     -0.06732687
      0.05643440      0.66943993
      0.02166600      0.51460274
      8.31015654     -0.02901948
      1.52065626     -0.13301928
      0.42245496     -0.27246267
      0.14020900     -0.14911818
p              4   1.000000
      0.64737396      0.05713170
      0.16785440      0.28574555
      0.05917387      0.55178731
      0.02355814      0.26323150
 
          52   0
s              4   1.000000
      8.31070474      0.05675242
      1.52075658      0.26014135
      0.42248283      0.53284611
      0.14021825      0.29162544
s              7   1.000000
      0.92936822     -0.06732616
      0.05643440      0.66943292
      0.02166600      0.51459735
      8.31070474     -0.02901801
      1.52075658     -0.13301256
      0.42248283     -0.27244890
      0.14021825     -0.14911065
p              4   1.000000
      0.64737396      0.05713170
      0.16785440      0.28574555
      0.05917387      0.55178731
      0.02355814      0.26323150
 
          53   0
s              4   1.000000
      8.30955698      0.05675242
      1.52054655      0.26014135
      0.42242448      0.53284611
      0.14019889      0.29162544
s              7   1.000000
      0.92936822     -0.06732764
      0.05643440      0.66944760
      0.02166600      0.51460866
      8.30955698     -0.02902108
      1.52054655     -0.13302663
      0.42242448     -0.27247772
      0.14019889     -0.14912643
p              4   1.000000
      0.64737396      0.05713170
      0.16785440      0.28574555
      0.05917387      0.55178731
      0.02355814      0.26323150
 
          54   0
s              4   1.000000
      8.30923600      0.05675242
      1.52048781      0.26014135
      0.42240816      0.53284611
      0.14019347      0.29162544
s              7   1.000000
      0.92936822     -0.06732805
      0.05643440      0.66945170
      0.02166600      0.51461181
      8.30923600     -0.02902194
      1.52048781     -0.13303057
      0.42240816     -0.27248579
      0.14019347     -0.14913084
p              4   1.000000
      0.64737396      0.05713170
      0.16785440      0.28574555
      0.05917387      0.55178731
      0.02355814      0.26323150
 
          55   0
s              4   1.000000
      8.30915007      0.05675242
      1.52047209      0.26014135
      0.42240380      0.53284611
      0.14019202      0.29162544
s              7   1.000000
      0.92936822     -0.06732816
      0.05643440      0.66945280
      0.02166600      0.51461266
      8.30915007     -0.02902217
      1.52047209     -0.13303162
      0.42240380     -0.27248794
      0.14019202     -0.14913202
p              4   1.000000
      0.64737396      0.05713170
      0.16785440      0.28574555
      0.05917387      0.55178731
      0.02355814      0.26323150
 
          56   0
s              4   1.000000
      8.31023454      0.05675242
      1.52067054      0.26014135
      0.42245893      0.53284611
      0.14021032      0.29162544
s              7   1.000000
      0.92936822     -0.06732677
      0.05643440      0.66943893
      0.02166600      0.51460197
      8.31023454     -0.02901927
      1.52067054     -0.13301833
      0.42245893     -0.27246071
      0.14021032     -0.14911711
p              4   1.000000
      0.64737396      0.05713170
      0.16785440      0.28574555
      0.05917387      0.55178731
      0.02355814      0.26323150
 
          57   0
s              4   1.000000
      8.31018725      0.05675242
      1.52066188      0.26014135
      0.42245652      0.53284611
      0.14020952      0.29162544
s              7   1.000000
      0.92936822     -0.06732683
      0.05643440      0.66943953
      0.02166600      0.51460245
      8.31018725     -0.02901940
      1.52066188     -0.13301890
      0.42245652     -0.27246189
      0.14020952     -0.14911776
p              4   1.000000
      0.64737396      0.05713170
      0.16785440      0.28574555
      0.05917387      0.55178731
      0.02355814      0.26323150
 
          58   0
s              4   1.000000
      8.30895021      0.05675242
      1.52043552      0.26014135
      0.42239364      0.53284611
      0.14018865      0.29162544
s              7   1.000000
      0.92936822     -0.06732842
      0.05643440      0.66945536
      0.02166600      0.51461462
      8.30895021     -0.02902270
      1.52043552     -0.13303407
      0.42239364     -0.27249296
      0.14018865     -0.14913476
p              4   1.000000
      0.64737396      0.05713170
      0.16785440      0.28574555
      0.05917387      0.55178731
      0.02355814      0.26323150
 
          59   0
s              4   1.000000
      8.30897345      0.05675242
      1.52043977      0.26014135
      0.42239482      0.53284611
      0.14018904      0.29162544
s              7   1.000000
      0.92936822     -0.06732839
      0.05643440      0.66945507
      0.02166600      0.51461437
      8.30897345     -0.02902264
      1.52043977     -0.13303379
      0.42239482     -0.27249238
      0.14018904     -0.14913445
p              4   1.000000
      0.64737396      0.05713170
      0.16785440      0.28574555
      0.05917387      0.55178731
      0.02355814      0.26323150
 
          60   0
s              4   1.000000
      8.30949460      0.05675242
      1.52053514      0.26014135
      0.42242131      0.53284611
      0.14019784      0.29162544
s              7   1.000000
      0.92936822     -0.06732772
      0.05643440      0.66944839
      0.02166600      0.51460925
      8.30949460     -0.02902125
      1.52053514     -0.13302740
      0.42242131     -0.27247929
      0.14019784     -0.14912728
p              4   1.000000
      0.64737396      0.05713170
      0.16785440      0.28574555
      0.05917387      0.55178731
      0.02355814      0.26323150
 
          61   0
s              4   1.000000
      8.31194239      0.05675242
      1.52098305      0.26014135
      0.42254575      0.53284611
      0.14023913      0.29162544
s              7   1.000000
      0.92936822     -0.06732457
      0.05643440      0.66941710
      0.02166600      0.51458520
      8.31194239     -0.02901470
      1.52098305     -0.13299739
      0.42254575     -0.27241783
      0.14023913     -0.14909365
p              4   1.000000
      0.64737396      0.05713170
      0.16785440      0.28574555
      0.05917387      0.55178731
      0.02355814      0.26323150
 
          62   0
s              4   1.000000
      8.31194052      0.05675242
      1.52098271      0.26014135
      0.42254565      0.53284611
      0.14023910      0.29162544
s              7   1.000000
      0.92936822     -0.06732458
      0.05643440      0.66941713
      0.02166600      0.51458523
      8.31194052     -0.02901471
      1.52098271     -0.13299741
      0.42254565     -0.27241788
      0.14023910     -0.14909367
p              4   1.000000
      0.64737396      0.05713170
      0.16785440      0.28574555
      0.05917387      0.55178731
      0.02355814      0.26323150
 
          63   0
s              4   1.000000
      8.30955550      0.05675242
      1.52054628      0.26014135
      0.42242441      0.53284611
      0.14019886      0.29162544
s              7   1.000000
      0.92936822     -0.06732764
      0.05643440      0.66944762
      0.02166600      0.51460866
      8.30955550     -0.02902109
      1.52054628     -0.13302665
      0.42242441     -0.27247776
      0.14019886     -0.14912645
p              4   1.000000
      0.64737396      0.05713170
      0.16785440      0.28574555
      0.05917387      0.55178731
      0.02355814      0.26323150
 
          64   0
s              4   1.000000
      8.30922973      0.05675242
      1.52048667      0.26014135
      0.42240785      0.53284611
      0.14019337      0.29162544
s              7   1.000000
      0.92936822     -0.06732806
      0.05643440      0.66945178
      0.02166600      0.51461186
      8.30922973     -0.02902196
      1.52048667     -0.13303065
      0.42240785     -0.27248594
      0.14019337     -0.14913092
p              4   1.000000
      0.64737396      0.05713170
      0.16785440      0.28574555
      0.05917387      0.55178731
      0.02355814      0.26323150
 
          65   0
s              4   1.000000
      8.30915038      0.05675242
      1.52047215      0.26014135
      0.42240381      0.53284611
      0.14019203      0.29162544
s              7   1.000000
      0.92936822     -0.06732816
      0.05643440      0.66945280
      0.02166600      0.51461263
      8.30915038     -0.02902217
      1.52047215     -0.13303162
      0.42240381     -0.27248793
      0.14019203     -0.14913202
p              4   1.000000
      0.64737396      0.05713170
      0.16785440      0.28574555
      0.05917387      0.55178731
      0.02355814      0.26323150
 
          66   0
s              4   1.000000
      8.31023476      0.05675242
      1.52067058      0.26014135
      0.42245894      0.53284611
      0.14021032      0.29162544
s              7   1.000000
      0.92936822     -0.06732677
      0.05643440      0.66943893
      0.02166600      0.51460197
      8.31023476     -0.02901927
      1.52067058     -0.13301832
      0.42245894     -0.27246070
      0.14021032     -0.14911711
p              4   1.000000
      0.64737396      0.05713170
      0.16785440      0.28574555
      0.05917387      0.55178731
      0.02355814      0.26323150
 
          67   0
s              4   1.000000
      8.31018887      0.05675242
      1.52066218      0.26014135
      0.42245660      0.53284611
      0.14020955      0.29162544
s              7   1.000000
      0.92936822     -0.06732683
      0.05643440      0.66943952
      0.02166600      0.51460242
      8.31018887     -0.02901939
      1.52066218     -0.13301889
      0.42245660     -0.27246185
      0.14020955     -0.14911774
p              4   1.000000
      0.64737396      0.05713170
      0.16785440      0.28574555
      0.05917387      0.55178731
      0.02355814      0.26323150
 
          68   0
s              4   1.000000
      8.30895016      0.05675242
      1.52043551      0.26014135
      0.42239363      0.53284611
      0.14018865      0.29162544
s              7   1.000000
      0.92936822     -0.06732842
      0.05643440      0.66945536
      0.02166600      0.51461462
      8.30895016     -0.02902270
      1.52043551     -0.13303407
      0.42239363     -0.27249296
      0.14018865     -0.14913477
p              4   1.000000
      0.64737396      0.05713170
      0.16785440      0.28574555
      0.05917387      0.55178731
      0.02355814      0.26323150
 
          69   0
s              4   1.000000
      8.30897370      0.05675242
      1.52043982      0.26014135
      0.42239483      0.53284611
      0.14018905      0.29162544
s              7   1.000000
      0.92936822     -0.06732839
      0.05643440      0.66945506
      0.02166600      0.51461437
      8.30897370     -0.02902264
      1.52043982     -0.13303378
      0.42239483     -0.27249237
      0.14018905     -0.14913444
p              4   1.000000
      0.64737396      0.05713170
      0.16785440      0.28574555
      0.05917387      0.55178731
      0.02355814      0.26323150
 
          70   0
s              4   1.000000
      8.30949396      0.05675242
      1.52053502      0.26014135
      0.42242128      0.53284611
      0.14019782      0.29162543
s              7   1.000000
      0.92936822     -0.06732772
      0.05643440      0.66944840
      0.02166600      0.51460925
      8.30949396     -0.02902125
      1.52053502     -0.13302741
      0.42242128     -0.27247931
      0.14019782     -0.14912729
p              4   1.000000
      0.64737396      0.05713170
      0.16785440      0.28574555
      0.05917387      0.55178731
      0.02355814      0.26323150
 
          71   0
s              4   1.000000
      8.31070841      0.05675242
      1.52075725      0.26014135
      0.42248302      0.53284611
      0.14021832      0.29162544
s              7   1.000000
      0.92936822     -0.06732616
      0.05643440      0.66943287
      0.02166600      0.51459733
      8.31070841     -0.02901800
      1.52075725     -0.13301252
      0.42248302     -0.27244881
      0.14021832     -0.14911060
p              4   1.000000
      0.64737396      0.05713170
      0.16785440      0.28574555
      0.05917387      0.55178731
      0.02355814      0.26323150
 
          72   0
s              4   1.000000
      8.31015577      0.05675242
      1.52065612      0.26014135
      0.42245492      0.53284611
      0.14020899      0.29162544
s              7   1.000000
      0.92936822     -0.06732687
      0.05643440      0.66943994
      0.02166600      0.51460277
      8.31015577     -0.02901948
      1.52065612     -0.13301929
      0.42245492     -0.27246268
      0.14020899     -0.14911820
p              4   1.000000
      0.64737396      0.05713170
      0.16785440      0.28574555
      0.05917387      0.55178731
      0.02355814      0.26323150
 
 [MO]
 Sym= Hole
 Ene= -0.5642165    
 Spin= Alpha
 Occup= 0
           1  1.9899810E-06
           2 -5.5727270E-03
           3 -1.8805719E-04
           4 -7.2484642E-02
           5  1.0407758E-06
           6  3.6825039E-04
           7  3.4697914E-05
           8  4.8506707E-03
           9 -1.9753598E-04
          10  1.7358146E-03
          11 -1.0122310E-04
          12  2.3751121E-02
          13 -7.9151592E-05
          14 -4.1063715E-05
          15 -3.3172124E-04
          16 -1.6230147E-03
          17  3.8595623E-04
          18  1.1366325E-02
          19  1.1202572E-03
          20  0.1472813    
          21 -1.9717135E-04
          22 -1.0143166E-03
          23 -3.9845050E-04
          24 -1.9878473E-02
          25 -1.3609438E-03
          26 -9.4228862E-03
          27 -1.2538205E-03
          28 -0.1331347    
          29  7.2935910E-04
          30  1.1411103E-03
          31  3.1161995E-04
          32  1.1537803E-02
          33  6.0598546E-04
          34 -7.1126944E-03
          35  9.2547073E-04
          36 -8.2721710E-02
          37 -7.6393473E-05
          38  4.1052807E-04
          39  2.2670810E-04
          40  5.0447877E-03
          41 -4.3249797E-04
          42  1.6892059E-02
          43 -2.1718473E-03
          44  0.2516426    
          45 -5.8200496E-04
          46 -9.2246832E-04
          47 -8.9419115E-04
          48 -1.7677644E-02
          49 -1.3434391E-04
          50  2.3574710E-03
          51 -2.0415145E-03
          52  8.0368757E-02
          53 -5.9649197E-04
          54  8.2964665E-04
          55 -1.9860307E-03
          56 -7.2266376E-03
          57 -4.2042923E-03
          58  1.0002014E-03
          59  8.2994727E-03
          60 -0.1920166    
          61  2.8059131E-03
          62 -3.6581230E-04
          63 -1.1238742E-03
          64  1.3426632E-02
          65 -6.9408631E-03
          66 -6.4287386E-03
          67 -5.0667734E-03
          68 -0.1436063    
          69  5.1365807E-03
          70 -1.1536891E-03
          71  4.0345113E-03
          72  2.0667836E-02
          73  1.0636755E-02
          74  2.5307624E-02
          75 -2.4219886E-03
          76  0.3756304    
          77 -6.1038896E-03
          78 -4.8681446E-03
          79  4.1327272E-03
          80 -4.1738022E-02
          81  5.1215119E-03
          82  2.1747286E-02
          83 -7.9775285E-03
          84 -5.6946490E-02
          85 -4.2829006E-03
          86  5.9576292E-04
          87 -4.6153000E-04
          88  2.2588642E-02
          89 -2.8150281E-02
          90  0.1032752    
          91 -1.8701984E-02
          92 -2.2811256E-02
          93  1.7383836E-02
          94 -1.3687339E-02
          95 -7.9245353E-03
          96 -1.6157784E-03
          97  7.0716571E-03
          98 -2.8843351E-02
          99  4.1162120E-03
         100  1.4451573E-02
         101 -9.7301742E-04
         102  7.5626508E-03
         103 -7.2762242E-04
         104 -3.4845842E-03
         105  3.5089911E-03
         106 -6.3011825E-02
         107  2.7785316E-02
         108  6.1901156E-02
         109  7.0294959E-04
         110  6.8741594E-03
         111 -2.5511349E-03
         112 -7.8006536E-03
         113 -1.7054332E-02
         114  2.4944935E-02
         115  1.3718957E-02
         116 -1.5178718E-02
         117  1.0539698E-02
         118 -3.9796145E-03
         119 -4.7088964E-03
         120 -1.9014264E-03
         121  3.4597173E-02
         122  7.1106024E-02
         123 -7.6945029E-02
         124 -3.5047520E-02
         125 -2.0578738E-02
         126 -8.6678676E-03
         127  2.5908228E-02
         128  4.0099248E-03
         129 -1.1401014E-02
         130 -7.4339315E-02
         131  0.1246516    
         132  2.8320694E-02
         133  7.7266805E-04
         134  6.8537896E-03
         135 -1.2441228E-02
         136 -6.4763627E-03
         137  3.5103235E-02
         138  3.4542076E-02
         139 -9.8656632E-02
         140 -3.0843541E-02
         141 -2.1171492E-02
         142 -1.8603964E-02
         143  1.8895971E-02
         144  3.7773615E-03
         145 -1.7122461E-02
         146 -2.5744261E-02
         147 -1.8485324E-02
         148 -1.4200885E-02
         149  9.8544825E-03
         150  5.8015618E-03
         151  7.4971758E-04
         152 -2.6026852E-03
         153  3.6947196E-03
         154  6.8786149E-03
         155  7.0630677E-02
         156  5.4819163E-02
         157 -1.0349405E-03
         158 -1.1982635E-03
         159 -6.7150858E-03
         160 -7.0727277E-03
         161  8.1445696E-03
         162  1.0261989E-02
         163  2.8824823E-02
         164  1.3478944E-02
         165 -2.7201832E-03
         166 -3.1710947E-03
         167 -6.1818054E-03
         168 -2.9248488E-03
         169 -2.9030323E-02
         170 -3.2682806E-02
         171 -9.9659413E-02
         172 -1.4190240E-02
         173  1.7982641E-02
         174  1.2824217E-02
         175  8.5374638E-03
         176 -4.2124134E-03
         177  5.3032348E-03
         178 -8.6033698E-03
         179 -2.5311934E-02
         180 -5.4035619E-02
         181 -4.3955087E-03
         182  2.0862573E-03
         183  9.3580357E-04
         184  2.1536978E-02
         185 -3.6727798E-03
         186 -3.0313643E-02
         187 -8.4901750E-03
         188 -0.2491596    
         189  2.3316483E-03
         190  3.3256402E-03
         191  9.3518302E-04
         192  1.6445216E-02
         193 -1.4528710E-03
         194  4.7501768E-03
         195  7.2004169E-04
         196  9.1488369E-02
         197  1.0997159E-04
         198  1.6534759E-03
         199 -1.2329706E-03
         200 -4.1381596E-03
         201  1.5047999E-03
         202  4.8285481E-03
         203 -3.0836742E-04
         204  9.1907732E-02
         205 -1.5118555E-04
         206  1.6838609E-03
         207  1.1643436E-03
         208 -4.1326503E-03
         209  3.4911158E-03
         210 -2.9610744E-02
         211  7.5941030E-03
         212 -0.2456061    
         213 -2.2370974E-03
         214  3.3217359E-03
         215 -8.6819648E-04
         216  1.6320106E-02
         217  6.8948641E-03
         218 -5.7258634E-03
         219  4.6626916E-03
         220 -0.1425110    
         221 -5.1350663E-03
         222 -1.3303641E-03
         223 -3.9654649E-03
         224  2.0521106E-02
         225 -1.0884483E-02
         226  2.2407493E-02
         227  3.7398951E-03
         228  0.3710428    
         229  6.1946423E-03
         230 -4.4982340E-03
         231 -4.2049871E-03
         232 -4.1295938E-02
         233 -4.9601626E-03
         234  2.1831635E-02
         235  7.3476504E-03
         236 -5.5903517E-02
         237  4.1375034E-03
         238  4.1944382E-04
         239  6.1716570E-04
         240  2.2314191E-02
         241  2.7819248E-02
         242  0.1022107    
         243  1.7684218E-02
         244 -2.2009104E-02
         245 -1.7193034E-02
         246 -1.3471129E-02
         247  7.9158423E-03
         248 -1.6936765E-03
         249 -6.9720154E-03
         250 -2.8431531E-02
         251 -3.7364720E-03
         252  1.3969743E-02
         253  9.3544967E-04
         254  7.5235087E-03
         255  6.4272480E-04
         256 -3.3902621E-03
         257 -3.4313274E-03
         258 -6.2802054E-02
         259 -2.6687833E-02
         260  6.0808312E-02
         261 -7.3423900E-04
         262  6.8888259E-03
         263  2.4290616E-03
         264 -7.6569119E-03
         265  1.6807562E-02
         266  2.4468280E-02
         267 -1.3777806E-02
         268 -1.4618044E-02
         269 -1.0393104E-02
         270 -3.8713766E-03
         271  4.6278988E-03
         272 -1.9256421E-03
         273 -3.4099292E-02
         274  7.1007632E-02
         275  7.5233757E-02
         276 -3.4289982E-02
         277  2.0253453E-02
         278 -8.7776138E-03
         279 -2.5470825E-02
         280  3.9979899E-03
         281  1.1207310E-02
         282 -7.4174523E-02
         283 -0.1218705    
         284  2.7671266E-02
         285 -7.8694348E-04
         286  6.8835677E-03
         287  1.2174730E-02
         288 -6.3735284E-03
         289 -3.4723241E-02
         290  3.5102502E-02
         291  9.6801326E-02
         292 -3.0224554E-02
         293  2.0906916E-02
         294 -1.8530684E-02
         295 -1.8498290E-02
         296  3.6101458E-03
         297  1.6922086E-02
         298 -2.5198471E-02
         299  1.8369729E-02
         300 -1.4280338E-02
         301 -9.7216535E-03
         302  5.7220277E-03
         303 -8.0328499E-04
         304 -2.5190536E-03
         305 -3.6313701E-03
         306  5.8138035E-03
         307 -6.9357164E-02
         308  5.4185782E-02
         309  1.0213590E-03
         310 -1.0905971E-03
         311  6.5990305E-03
         312 -7.0109633E-03
         313 -8.0200508E-03
         314  9.7806584E-03
         315 -2.8331682E-02
         316  1.3370074E-02
         317  2.6817927E-03
         318 -3.0924140E-03
         319  6.1084167E-03
         320 -2.9062983E-03
         321  2.8659370E-02
         322 -3.1454559E-02
         323  9.8351218E-02
         324 -1.4477379E-02
         325 -1.7802598E-02
         326  1.2651375E-02
         327 -8.5291518E-03
         328 -4.0282039E-03
         329 -5.0496594E-03
         330 -8.1501538E-03
         331  2.4553481E-02
         332 -5.3199526E-02
         333  4.1585537E-03
         334  2.0217812E-03
         335 -8.2761527E-04
         336  2.1245707E-02
         337  4.2745494E-03
         338  1.2449931E-03
         339 -8.4805209E-03
         340 -0.1897875    
         341 -2.8642314E-03
         342 -3.9144576E-04
         343  1.0755773E-03
         344  1.3248640E-02
         345  9.5774303E-05
         346  2.3011661E-03
         347  2.1251936E-03
         348  7.9762921E-02
         349  5.8478955E-04
         350  8.6499064E-04
         351  1.9846912E-03
         352 -7.2372248E-03
         353  4.4791171E-04
         354  1.6218292E-02
         355  2.7380192E-03
         356  0.2482449    
         357  5.6213059E-04
         358 -8.9420303E-04
         359  8.5252314E-04
         360 -1.7501157E-02
         361 -6.2819803E-04
         362 -6.9169751E-03
         363 -1.1319231E-03
         364 -8.4272265E-02
         365  5.2289557E-05
         366  3.8034157E-04
         367 -1.6758485E-04
         368  5.2071395E-03
         369  1.1516599E-03
         370 -9.7531881E-03
         371  9.7816414E-04
         372 -0.1317113    
         373 -6.4764643E-04
         374  1.1414001E-03
         375 -2.9998666E-04
         376  1.1471810E-02
         377 -3.9343911E-04
         378  1.1678849E-02
         379 -7.1441161E-04
         380  0.1488036    
         381  1.7416128E-04
         382 -1.0474796E-03
         383  2.9362843E-04
         384 -1.9968389E-02
         385  2.7142852E-04
         386  1.7210672E-03
         387  2.3702113E-04
         388  2.3893785E-02
         389  4.5091725E-05
         390 -4.7937181E-05
         391  2.8661001E-04
         392 -1.6168256E-03
         393  7.9064612E-06
         394 -5.6694704E-03
         395 -4.9997365E-05
         396 -7.3232502E-02
         397 -1.6466001E-07
         398  3.8124775E-04
         399 -5.2633218E-06
         400  4.8633656E-03
         401  5.3000776E-03
         402 -1.5045926E-03
         403  1.6067566E-04
         404 -1.0187974E-03
         405 -1.1935643E-03
         406  1.8013087E-04
         407  3.7047945E-04
         408 -4.6333708E-03
         409  9.1716473E-04
         410 -1.0248673E-02
         411  1.5357695E-02
         412  1.4757911E-03
         413 -4.1577891E-03
         414 -8.3784712E-03
         415 -5.2057612E-03
         416 -1.5156663E-02
         417  2.1086757E-03
         418 -1.7600376E-04
         419  3.2490911E-03
         420  1.2278911E-03
         421 -4.9732612E-03
         422  9.4702735E-04
         423 -4.8446222E-03
         424  1.9162607E-03
         425  6.2932251E-03
         426  1.3624972E-02
         427  2.3041824E-03
         428 -4.7470611E-03
         429 -5.3511285E-03
         430 -3.1584604E-03
         431  1.4020284E-02
         432  2.5743700E-03
         433  6.8931826E-03
         434  1.3198804E-03
         435 -3.7625260E-03
         436 -4.7273957E-03
         437  2.0238799E-04
         438  4.2574725E-04
         439  6.5615154E-03
         440  6.2941937E-03
         441 -1.4515652E-02
         442  1.0518515E-03
         443 -1.9501662E-03
         444  2.9656598E-03
         445  2.5792648E-03
         446  1.4454796E-02
         447  2.4109038E-03
         448  1.0079004E-02
         449 -1.6801209E-03
         450 -6.5227845E-03
         451  1.0560314E-03
         452  2.0633612E-04
         453 -4.4614170E-04
         454  3.8171574E-03
         455 -1.8825365E-02
         456 -1.0269282E-03
         457 -1.5001651E-04
         458 -3.4889494E-04
         459 -3.8010953E-03
         460 -1.8683923E-02
         461 -1.5153164E-02
         462 -1.4410676E-03
         463 -4.0169298E-03
         464  8.2573537E-03
         465 -5.1816823E-03
         466  1.4927217E-02
         467 -2.0801120E-03
         468 -1.6570758E-04
         469 -3.1778121E-03
         470  1.1960755E-03
         471  4.9156537E-03
         472 -9.3717437E-04
         473 -4.8405025E-03
         474 -1.8120842E-03
         475  6.1801127E-03
         476 -1.3471118E-02
         477 -2.2295672E-03
         478 -4.6141641E-03
         479  5.2598733E-03
         480 -3.1690376E-03
         481 -1.3861752E-02
         482 -2.5150762E-03
         483  6.8130968E-03
         484 -1.3534075E-03
         485 -3.6486830E-03
         486  4.6643722E-03
         487 -1.9281488E-04
         488  3.2447168E-04
         489 -6.4506494E-03
         490  6.2295767E-03
         491  1.4293377E-02
         492 -1.0207898E-03
         493 -1.9716560E-03
         494 -2.9015630E-03
         495  2.5430853E-03
         496 -1.4261775E-02
         497 -2.3637316E-03
         498  1.0039028E-02
         499  1.5925744E-03
         500 -6.3542374E-03
         501 -3.0719172E-04
         502 -3.7672929E-04
         503 -4.5488970E-03
         504 -9.3808467E-04
         505 -1.0138840E-02
         506 -5.1165726E-03
         507  1.4792343E-03
         508  2.2216394E-04
         509  1.0546802E-03
         510 -1.1161399E-03
 Sym= Particle
 Ene= -0.5642165    
 Spin= Alpha
 Occup= 2
           1 -7.0923248E-05
           2  5.3673759E-03
           3  2.4182444E-04
           4  6.7537025E-02
           5  5.2299060E-06
           6 -1.0899325E-03
           7 -1.2798558E-04
           8 -1.4817340E-02
           9  4.7754074E-05
          10 -3.8086111E-03
          11 -1.5087254E-04
          12 -4.8590846E-02
          13  1.1356246E-05
          14  1.5120294E-03
          15  1.1344283E-04
          16  1.9865349E-02
          17  1.7901009E-04
          18 -8.4637273E-03
          19 -2.0953934E-04
          20 -0.1093198    
          21  2.3328778E-06
          22  3.1419001E-03
          23  1.2752056E-04
          24  4.0932186E-02
          25 -2.3334875E-04
          26  1.7354337E-02
          27  6.6825707E-04
          28  0.2121671    
          29  6.0643966E-04
          30 -6.1717834E-03
          31  2.6568290E-04
          32 -6.4718448E-02
          33 -5.8339856E-04
          34 -1.3500016E-02
          35 -1.1725442E-03
          36 -0.1809724    
          37  8.0520561E-04
          38  3.7224104E-03
          39  5.7639735E-04
          40  6.0766838E-02
          41  2.4810582E-04
          42  6.8737576E-03
          43  7.5495604E-04
          44  7.6138787E-02
          45  1.8260596E-05
          46 -4.4356617E-03
          47 -1.2887375E-03
          48 -2.9563693E-02
          49  6.5245484E-05
          50  1.3926747E-02
          51 -9.8318430E-03
          52  0.3126407    
          53 -2.7665577E-04
          54 -4.6263486E-03
          55  3.1821176E-03
          56 -7.4522078E-02
          57  2.2890889E-03
          58 -1.2303063E-02
          59  1.5850753E-02
          60 -0.3307162    
          61 -2.2878288E-03
          62  8.8772463E-04
          63 -5.0694896E-03
          64  8.5153669E-02
          65 -3.3491503E-03
          66 -3.5133285E-03
          67 -1.6533182E-03
          68 -5.1256869E-02
          69  3.2704754E-03
          70 -2.9657206E-03
          71 -6.6752732E-04
          72  1.2958477E-02
          73  5.2989746E-04
          74  6.8034986E-03
          75  1.8660425E-03
          76  4.0922541E-02
          77  1.5924609E-04
          78 -5.7710758E-03
          79 -4.3373522E-03
          80 -1.8876350E-02
          81  2.2080441E-03
          82 -1.3750855E-02
          83  3.0743305E-03
          84  1.2521039E-02
          85 -3.3664373E-03
          86  4.0952475E-03
          87  1.6837387E-03
          88  5.6928601E-03
          89 -1.0445945E-02
          90  1.7959584E-02
          91  9.4434933E-04
          92 -2.0435121E-02
          93  1.4367045E-02
          94 -5.4816627E-03
          95 -7.9626841E-03
          96  6.3979519E-03
          97  2.2019665E-03
          98 -9.4051315E-03
          99 -1.5793203E-03
         100  4.4449973E-03
         101  1.5367419E-03
         102  1.5491649E-03
         103  3.4043211E-03
         104 -3.1379208E-03
         105 -9.1708486E-04
         106 -1.3798004E-02
         107  6.4429836E-03
         108  1.1343351E-02
         109  8.3180907E-04
         110  3.0955477E-03
         111 -1.0848352E-03
         112 -3.8069545E-03
         113 -2.0664155E-03
         114  1.5111645E-02
         115 -5.8339220E-03
         116 -1.3285825E-02
         117  3.5055558E-04
         118 -2.7791106E-03
         119  1.2434422E-03
         120  1.8487260E-03
         121  4.6739900E-03
         122  3.9914367E-03
         123 -6.2540257E-03
         124 -2.8915566E-03
         125 -7.3186303E-03
         126 -2.3647452E-04
         127  8.3015328E-03
         128 -9.2463085E-04
         129 -2.7996374E-03
         130 -4.4004135E-03
         131  7.9531670E-03
         132  1.1009671E-03
         133  3.7138106E-04
         134 -6.8441813E-04
         135 -3.1552708E-03
         136 -8.4243744E-04
         137  2.7740800E-03
         138  1.4626508E-03
         139 -1.8743739E-02
         140 -1.1435695E-02
         141  2.2542996E-03
         142  1.8260414E-03
         143  1.2674424E-03
         144  3.3266188E-03
         145 -2.5348619E-03
         146 -6.1794586E-04
         147  4.6922691E-02
         148  3.4808822E-02
         149  3.1825451E-03
         150  9.0367143E-04
         151 -1.2971717E-02
         152 -9.9497456E-03
         153  1.4332683E-03
         154 -4.9856841E-04
         155 -2.6358087E-02
         156 -1.7186657E-02
         157 -7.0800987E-04
         158 -1.9156780E-04
         159  5.9674252E-03
         160  5.1263217E-03
         161 -8.9123624E-04
         162 -3.5155211E-03
         163 -2.3135671E-02
         164 -1.4431662E-02
         165 -5.4171367E-04
         166  2.0796815E-03
         167  4.4766157E-03
         168  4.9756449E-03
         169  2.2181799E-03
         170  5.5159051E-03
         171  4.0088773E-02
         172  4.1770034E-02
         173 -5.0839181E-03
         174 -6.5739607E-03
         175 -7.2385552E-03
         176 -1.6509578E-02
         177  1.1252472E-04
         178 -5.8971709E-03
         179 -4.1291416E-02
         180 -2.8239476E-02
         181  2.6532877E-03
         182  3.7514633E-03
         183  1.2681087E-02
         184  3.9632572E-03
         185  7.0872268E-04
         186  3.4474108E-02
         187  3.9007829E-03
         188  0.3104199    
         189 -4.2662560E-04
         190 -9.6872449E-03
         191 -3.6124308E-03
         192 -8.5416391E-02
         193  1.3799294E-03
         194 -1.8983765E-02
         195 -1.0774876E-03
         196 -0.2371427    
         197 -1.1925165E-03
         198  5.3473408E-03
         199 -4.3858061E-04
         200  5.6562442E-02
         201 -1.3816968E-03
         202 -1.8430332E-02
         203  4.7883426E-04
         204 -0.2342466    
         205  1.2499588E-03
         206  5.0601154E-03
         207  5.2234216E-04
         208  5.5531271E-02
         209 -8.7128876E-04
         210  3.3654228E-02
         211 -3.0135643E-03
         212  0.3102885    
         213  5.9806003E-04
         214 -9.4396407E-03
         215  3.3528989E-03
         216 -8.5323811E-02
         217  3.3861464E-03
         218 -3.6932724E-03
         219  1.3241527E-03
         220 -5.3594638E-02
         221 -3.2315482E-03
         222 -2.7763895E-03
         223  8.2117226E-04
         224  1.3686863E-02
         225 -6.9120142E-04
         226  6.5798610E-03
         227 -1.6559120E-03
         228  4.1994426E-02
         229 -3.4473192E-05
         230 -5.6668972E-03
         231  4.1248528E-03
         232 -1.9221818E-02
         233 -2.1275948E-03
         234 -1.4204767E-02
         235 -3.2477640E-03
         236  1.2727798E-02
         237  3.3371132E-03
         238  4.1503911E-03
         239 -1.5722046E-03
         240  5.6548370E-03
         241  1.0425180E-02
         242  1.8661236E-02
         243 -8.5695717E-04
         244 -2.0548191E-02
         245 -1.4341078E-02
         246 -5.6502512E-03
         247  7.9598920E-03
         248  6.2750448E-03
         249 -2.2144879E-03
         250 -9.3767829E-03
         251  1.6194087E-03
         252  4.3903049E-03
         253 -1.5241868E-03
         254  1.5004402E-03
         255 -3.3910791E-03
         256 -3.1149599E-03
         257  8.9349848E-04
         258 -1.4353457E-02
         259 -6.5522026E-03
         260  1.1717200E-02
         261 -7.9930539E-04
         262  3.1953549E-03
         263  1.0986152E-03
         264 -3.9054451E-03
         265  2.0754233E-03
         266  1.5560523E-02
         267  5.7620248E-03
         268 -1.3488206E-02
         269 -3.2690281E-04
         270 -2.8682975E-03
         271 -1.1988680E-03
         272  1.8795420E-03
         273 -4.7714771E-03
         274  4.3606805E-03
         275  6.4517213E-03
         276 -3.0060099E-03
         277  7.4196002E-03
         278 -3.7147835E-04
         279 -8.3762389E-03
         280 -8.5697504E-04
         281  2.7388195E-03
         282 -4.5459182E-03
         283 -8.0146557E-03
         284  1.1478221E-03
         285 -2.2918769E-04
         286 -6.5326772E-04
         287  3.1153846E-03
         288 -8.8773592E-04
         289 -2.9047341E-03
         290  1.7953613E-03
         291  1.8759932E-02
         292 -1.1360226E-02
         293 -2.1099742E-03
         294  1.7269970E-03
         295 -1.3138938E-03
         296  3.3133989E-03
         297  2.5638032E-03
         298 -1.3519744E-03
         299 -4.5741998E-02
         300  3.4145482E-02
         301 -3.1684916E-03
         302  1.1274957E-03
         303  1.2643004E-02
         304 -9.7785108E-03
         305 -1.4262646E-03
         306 -1.5012734E-04
         307  2.5393333E-02
         308 -1.6613083E-02
         309  7.0076424E-04
         310 -2.7342228E-04
         311 -5.7725878E-03
         312  4.9769022E-03
         313  8.7155745E-04
         314 -3.2060803E-03
         315  2.2684839E-02
         316 -1.4259472E-02
         317  5.0804543E-04
         318  2.0232608E-03
         319 -4.3596243E-03
         320  4.9234745E-03
         321 -2.0996456E-03
         322  4.7326507E-03
         323 -3.8697358E-02
         324  4.1044254E-02
         325  4.9120928E-03
         326 -6.1993878E-03
         327  6.9333799E-03
         328 -1.6348546E-02
         329 -2.2184329E-06
         330 -5.4944372E-03
         331  4.0189777E-02
         332 -2.7717071E-02
         333 -2.7019598E-03
         334  3.6725216E-03
         335 -1.2271433E-02
         336  3.8657731E-03
         337 -2.2489261E-03
         338 -1.1636806E-02
         339 -1.6581262E-02
         340 -0.3297017    
         341  2.2506278E-03
         342  7.8585302E-04
         343  5.2487170E-03
         344  8.4699944E-02
         345 -1.3117971E-04
         346  1.3421522E-02
         347  1.0560238E-02
         348  0.3128625    
         349  2.9191558E-04
         350 -4.4183638E-03
         351 -3.3467838E-03
         352 -7.4411236E-02
         353 -1.7201109E-04
         354  6.7790281E-03
         355 -4.6171842E-04
         356  7.6211505E-02
         357 -6.1774059E-05
         358 -4.4443589E-03
         359  1.1533920E-03
         360 -2.9789479E-02
         361  5.3657731E-04
         362 -1.3752664E-02
         363  6.9953123E-04
         364 -0.1843569    
         365 -7.2439091E-04
         366  3.7557217E-03
         367 -3.6981498E-04
         368  6.1591204E-02
         369  2.4227046E-04
         370  1.7256198E-02
         371 -1.7292121E-04
         372  0.2113497    
         373 -6.2131794E-04
         374 -6.1299601E-03
         375 -4.2442884E-04
         376 -6.4475223E-02
         377 -1.9584942E-04
         378 -8.1284633E-03
         379 -4.3635428E-05
         380 -0.1050132    
         381  1.1408920E-05
         382  3.0372124E-03
         383 -4.6639485E-05
         384  3.9606076E-02
         385 -4.0447216E-05
         386 -3.6931303E-03
         387  4.5524714E-05
         388 -4.7024615E-02
         389 -2.1496900E-05
         390  1.4793748E-03
         391 -7.8579425E-05
         392  1.9414974E-02
         393  6.2170453E-05
         394  5.1702857E-03
         395 -8.6371867E-05
         396  6.4926818E-02
         397 -1.0519657E-05
         398 -1.0563328E-03
         399  9.1197020E-05
         400 -1.4424771E-02
         401  1.9956324E-03
         402 -7.9848745E-05
         403  2.8418226E-03
         404  4.1058304E-04
         405  8.6210415E-02
         406  5.6122808E-04
         407 -6.1975952E-05
         408  4.3326584E-04
         409  4.9667237E-03
         410 -7.5936384E-02
         411  1.4730566E-03
         412  1.2299623E-02
         413  6.3645365E-03
         414 -2.3395106E-02
         415 -4.7939341E-03
         416  7.3038304E-04
         417  2.1723424E-04
         418 -1.5862384E-03
         419  1.7542210E-03
         420  7.8870659E-04
         421  1.5329863E-03
         422  8.7824024E-05
         423 -1.5809606E-03
         424  8.7501481E-04
         425  2.6823964E-03
         426  1.2662392E-03
         427  4.5927207E-04
         428  2.2610375E-03
         429 -2.2500474E-03
         430 -3.4491543E-03
         431  1.3194728E-03
         432 -1.2072158E-03
         433 -6.5923727E-04
         434  1.3207843E-02
         435  6.6222441E-03
         436 -2.0769904E-03
         437 -8.9511817E-04
         438 -1.1840208E-03
         439 -6.7813252E-03
         440 -4.9035912E-03
         441 -2.8247503E-03
         442  3.8469702E-04
         443  2.7393512E-04
         444 -6.9945022E-03
         445 -3.1424125E-03
         446  3.8099440E-04
         447 -9.9383732E-03
         448 -1.4574928E-02
         449  2.7029855E-02
         450  1.2703135E-02
         451 -2.6916175E-03
         452  1.8068278E-04
         453  1.0864114E-02
         454 -1.4945529E-03
         455  7.2718322E-02
         456  2.6822388E-03
         457 -1.6565606E-04
         458  1.0679049E-02
         459  1.6884784E-03
         460  7.2612360E-02
         461 -1.4382417E-03
         462 -1.2242689E-02
         463  6.6230400E-03
         464  2.3150645E-02
         465 -5.0839898E-03
         466 -6.7206827E-04
         467 -2.4828620E-04
         468 -1.6273179E-03
         469 -1.7340087E-03
         470  7.9320604E-04
         471 -1.5091203E-03
         472 -1.0316661E-04
         473 -1.7176637E-03
         474 -9.0021174E-04
         475  2.7677249E-03
         476 -1.3022427E-03
         477 -4.6886146E-04
         478  2.3860575E-03
         479  2.2911415E-03
         480 -3.4935663E-03
         481 -1.3734280E-03
         482  1.2039392E-03
         483 -7.9139054E-04
         484 -1.2920860E-02
         485  6.4996672E-03
         486  2.0727383E-03
         487  8.7531697E-04
         488 -1.0782870E-03
         489  6.5611438E-03
         490 -4.7799349E-03
         491  2.8414153E-03
         492 -4.1349541E-04
         493  3.5598292E-04
         494  6.8703657E-03
         495 -3.0915411E-03
         496 -4.4926465E-04
         497  9.8840380E-03
         498 -1.4835658E-02
         499 -2.6494371E-02
         500  1.2393033E-02
         501 -5.4807006E-04
         502  5.3908734E-05
         503  5.2517006E-04
         504 -5.1092729E-03
         505 -7.5453013E-02
         506 -1.9311627E-03
         507  5.4563840E-05
         508  2.7166314E-03
         509 -2.3845313E-04
         510  8.5955717E-02
 Sym= Hole
 Ene= -0.3486646    
 Spin= Alpha
 Occup= 0
           1  1.3703067E-04
           2  4.9088560E-03
           3  1.1321784E-04
           4  5.8720469E-02
           5 -1.1054797E-04
           6 -9.6765754E-05
           7 -6.7559718E-05
           8 -7.2850828E-04
           9 -2.6547429E-04
          10 -8.4352196E-04
          11 -1.8113930E-04
          12 -8.2436940E-03
          13 -2.2926399E-05
          14  7.1026210E-05
          15 -1.1016826E-05
          16 -6.9185677E-05
          17  4.2956101E-04
          18 -9.5403502E-03
          19  2.5173850E-04
          20 -0.1186165    
          21 -3.8841733E-04
          22  4.1769180E-04
          23 -3.4225563E-04
          24  5.1369946E-03
          25 -9.0162054E-04
          26 -1.0100387E-02
          27 -1.4167879E-03
          28 -0.1209276    
          29  1.5657739E-04
          30  4.3964319E-04
          31 -3.9261449E-04
          32  5.3867633E-03
          33  7.3157385E-04
          34  8.4544187E-03
          35  8.8457653E-04
          36  9.6543700E-02
          37  5.8052847E-05
          38 -1.5007827E-03
          39  6.7810394E-04
          40 -1.2112284E-02
          41 -1.9221414E-03
          42  1.3998037E-02
          43 -3.8931419E-03
          44  0.2384389    
          45  6.3287996E-05
          46  1.1978858E-04
          47 -2.5535250E-04
          48 -1.2242749E-02
          49  4.0984180E-04
          50  3.7652408E-03
          51 -2.5441123E-03
          52  7.2566345E-02
          53 -7.9225923E-04
          54  8.0960634E-04
          55 -1.8117821E-03
          56  8.4499788E-04
          57 -4.3755705E-03
          58  2.2982359E-03
          59  6.2061441E-03
          60 -0.1363718    
          61  2.6442539E-03
          62 -4.4366665E-04
          63 -1.1615870E-03
          64  1.1786061E-02
          65 -7.8378478E-03
          66  3.0115838E-03
          67 -1.0106739E-02
          68 -9.1860645E-02
          69  5.3250995E-03
          70 -2.3482987E-03
          71  4.7316663E-03
          72  1.2528531E-02
          73  8.2010021E-03
          74  2.1643223E-02
          75  1.0235183E-04
          76  0.3479777    
          77 -5.4825782E-03
          78 -5.0680228E-03
          79  5.0983094E-03
          80 -3.3984728E-02
          81  1.0181045E-02
          82  3.5420965E-02
          83 -1.8006185E-02
          84 -7.4528158E-02
          85 -7.9091871E-03
          86 -7.5402255E-05
          87  1.4346824E-03
          88  2.2055686E-02
          89 -2.6854888E-02
          90  9.8195173E-02
          91 -1.8167226E-02
          92 -1.9097909E-02
          93  1.6726626E-02
          94 -1.1432937E-02
          95 -7.3688272E-03
          96 -3.2789486E-03
          97  8.0529489E-03
          98 -4.0360820E-02
          99  1.2499305E-02
         100  2.7750870E-02
         101 -3.3800597E-03
         102  6.5208455E-03
         103 -3.2762610E-04
         104 -4.2579048E-03
         105  5.4941634E-03
         106 -6.3679412E-02
         107  2.8192576E-02
         108  5.9749264E-02
         109 -2.4660083E-03
         110  5.8366177E-03
         111 -1.8730309E-03
         112 -7.4584316E-03
         113 -1.8320948E-02
         114  3.6463320E-02
         115  1.2377149E-02
         116 -2.3574181E-02
         117  1.1041482E-02
         118 -3.6082559E-03
         119 -4.9928562E-03
         120 -1.7901593E-03
         121  3.2453477E-02
         122  7.1655206E-02
         123 -7.9136588E-02
         124 -3.9417442E-02
         125 -2.0058425E-02
         126 -7.9563633E-03
         127  2.5529180E-02
         128  4.4545368E-03
         129 -1.3859781E-02
         130 -0.1026056    
         131  0.1734561    
         132  4.4990771E-02
         133  3.5708616E-04
         134  9.5195668E-03
         135 -1.5396189E-02
         136 -6.6346820E-03
         137  3.2293316E-02
         138  3.4764636E-02
         139 -0.1062264    
         140 -3.8694873E-02
         141 -2.0158568E-02
         142 -1.7763700E-02
         143  1.9378247E-02
         144  5.2096788E-03
         145 -1.8490240E-02
         146 -2.9544342E-02
         147 -2.8753718E-02
         148 -2.0729421E-02
         149  1.1019050E-02
         150  5.8883149E-03
         151  1.4607229E-03
         152 -2.2991467E-03
         153  4.6129688E-03
         154  8.4985299E-03
         155  7.5882874E-02
         156  5.6405749E-02
         157 -1.2076208E-03
         158 -1.1139488E-03
         159 -6.1614895E-03
         160 -6.3671768E-03
         161  7.9100626E-03
         162  1.1202245E-02
         163  4.9884748E-02
         164  2.7018713E-02
         165 -2.5912034E-03
         166 -2.9194404E-03
         167 -6.5096868E-03
         168 -3.3275320E-03
         169 -2.8110847E-02
         170 -3.1501524E-02
         171 -9.2807688E-02
         172 -1.0268228E-02
         173  1.7249888E-02
         174  1.1646406E-02
         175  6.3302768E-03
         176 -4.9866219E-03
         177  1.0138240E-02
         178 -7.4514104E-03
         179 -4.7552057E-02
         180 -7.4094705E-02
         181 -7.7987625E-03
         182  1.1516538E-03
         183  2.1873775E-03
         184  2.1873415E-02
         185 -4.1340329E-03
         186 -3.8340498E-02
         187 -7.9454398E-03
         188 -0.2926236    
         189  2.1892749E-03
         190  2.0107760E-03
         191 -1.3030344E-04
         192  9.5413448E-03
         193  2.5650309E-03
         194  1.8609593E-03
         195  2.0362423E-03
         196 -5.8090847E-02
         197 -2.5066549E-03
         198  1.0973386E-03
         199 -1.9492244E-03
         200 -3.9036162E-04
         201  2.4185451E-03
         202 -2.0009254E-03
         203  2.1785933E-03
         204  5.6686278E-02
         205 -2.4794473E-03
         206 -1.1464705E-03
         207 -1.9845630E-03
         208  4.4505901E-04
         209 -4.0360373E-03
         210  3.8265880E-02
         211 -7.1617831E-03
         212  0.2958220    
         213  2.1246439E-03
         214 -2.0709620E-03
         215 -1.7430214E-04
         216 -9.7606266E-03
         217 -8.0202101E-03
         218 -3.4618324E-03
         219 -9.9889627E-03
         220  9.3886502E-02
         221  5.4721790E-03
         222  2.5377641E-03
         223  4.7838138E-03
         224 -1.2817804E-02
         225  8.6976616E-03
         226 -1.9505490E-02
         227 -1.1832670E-03
         228 -0.3530189    
         229 -5.7177208E-03
         230  4.8699733E-03
         231  5.2715749E-03
         232  3.4546711E-02
         233  1.0193544E-02
         234 -3.6355071E-02
         235 -1.7521655E-02
         236  7.5091675E-02
         237 -7.9053985E-03
         238  2.4429939E-04
         239  1.2772847E-03
         240 -2.2365576E-02
         241 -2.7243303E-02
         242 -9.9791922E-02
         243 -1.7625311E-02
         244  1.8857278E-02
         245  1.6979083E-02
         246  1.1554085E-02
         247 -7.5495481E-03
         248  3.4119913E-03
         249  8.1242975E-03
         250  4.0986888E-02
         251  1.2107858E-02
         252 -2.7661694E-02
         253 -3.3932761E-03
         254 -6.6617047E-03
         255 -2.5282093E-04
         256  4.2551272E-03
         257  5.5400766E-03
         258  6.5122895E-02
         259  2.7845567E-02
         260 -6.0268600E-02
         261 -2.4648129E-03
         262 -6.0072555E-03
         263 -1.8176818E-03
         264  7.5237965E-03
         265 -1.8536132E-02
         266 -3.6825880E-02
         267  1.2890202E-02
         268  2.3436172E-02
         269  1.1166111E-02
         270  3.5993655E-03
         271 -5.0493851E-03
         272  1.8752039E-03
         273  3.2855317E-02
         274 -7.3511511E-02
         275 -7.9433784E-02
         276  3.9623126E-02
         277 -2.0269891E-02
         278  8.2793813E-03
         279  2.5765043E-02
         280 -4.5405608E-03
         281 -1.3996989E-02
         282  0.1051713    
         283  0.1741182    
         284 -4.5182332E-02
         285  3.9074596E-04
         286 -9.7962618E-03
         287 -1.5461651E-02
         288  6.6977935E-03
         289  3.2810811E-02
         290 -3.6376521E-02
         291 -0.1069944    
         292  3.8993333E-02
         293 -2.0440567E-02
         294  1.8192105E-02
         295  1.9477939E-02
         296 -5.1665953E-03
         297 -1.8752944E-02
         298  2.9564433E-02
         299 -2.9164733E-02
         300  2.1272812E-02
         301  1.1157682E-02
         302 -5.9628878E-03
         303  1.5413979E-03
         304  2.2782148E-03
         305  4.6594054E-03
         306 -7.5536915E-03
         307  7.6550297E-02
         308 -5.7298794E-02
         309 -1.2218007E-03
         310  1.0408297E-03
         311 -6.2186313E-03
         312  6.4816428E-03
         313  7.9943342E-03
         314 -1.0715487E-02
         315  5.0273098E-02
         316 -2.7420834E-02
         317 -2.6223424E-03
         318  2.9098163E-03
         319 -6.5969522E-03
         320  3.3943027E-03
         321 -2.8481996E-02
         322  3.1165415E-02
         323 -9.4157368E-02
         324  1.0925815E-02
         325  1.7519955E-02
         326 -1.1820529E-02
         327  6.5207174E-03
         328  4.9343742E-03
         329  1.0080530E-02
         330  6.8674861E-03
         331 -4.7653627E-02
         332  7.4958101E-02
         333 -7.7313418E-03
         334 -1.0962110E-03
         335  2.1216613E-03
         336 -2.2152212E-02
         337 -4.5297514E-03
         338 -2.5020663E-03
         339  6.5022158E-03
         340  0.1389787    
         341  2.7720581E-03
         342  4.6111201E-04
         343 -1.1505045E-03
         344 -1.1929871E-02
         345  4.2695846E-04
         346 -3.6923585E-03
         347 -2.6739349E-03
         348 -7.3619142E-02
         349 -8.1492006E-04
         350 -8.5337821E-04
         351 -1.8631823E-03
         352 -7.4099709E-04
         353 -1.8738871E-03
         354 -1.3897225E-02
         355 -4.5890249E-03
         356 -0.2417265    
         357  3.2497992E-05
         358 -1.5248844E-04
         359 -2.3284192E-04
         360  1.2470377E-02
         361  7.2258065E-04
         362 -8.3039245E-03
         363  6.9047778E-04
         364 -9.5269501E-02
         365  7.0458635E-05
         366  1.5106681E-03
         367  7.1628619E-04
         368  1.2048152E-02
         369 -9.2877902E-04
         370  1.0222567E-02
         371 -1.1827241E-03
         372  0.1226949    
         373  1.7959290E-04
         374 -4.5515035E-04
         375 -3.8974904E-04
         376 -5.5394419E-03
         377  4.3874455E-04
         378  9.3894210E-03
         379  5.4481567E-04
         380  0.1165757    
         381 -3.9644164E-04
         382 -4.1873311E-04
         383 -3.5814592E-04
         384 -4.8769657E-03
         385 -2.7483882E-04
         386  8.2983373E-04
         387 -1.7778653E-04
         388  7.9232240E-03
         389 -2.6911150E-05
         390 -7.2105409E-05
         391 -1.8577015E-05
         392  9.2093789E-05
         393  1.2398291E-04
         394 -4.8427107E-03
         395  3.3834685E-06
         396 -5.7724476E-02
         397 -1.0777326E-04
         398  9.1530725E-05
         399 -6.3814419E-05
         400  6.6843716E-04
         401  4.5442265E-03
         402 -1.6613191E-03
         403 -4.3926007E-04
         404 -7.9901388E-04
         405 -5.3156200E-03
         406  1.8326904E-03
         407 -1.5910213E-04
         408 -4.4658114E-03
         409  1.2621749E-03
         410 -1.1527753E-02
         411  1.5967410E-02
         412  3.0964918E-03
         413 -3.7143384E-03
         414 -9.3356287E-03
         415 -6.2229414E-03
         416 -1.4065732E-02
         417  8.4317225E-04
         418 -2.8418659E-03
         419  3.4901870E-03
         420  3.1997564E-03
         421 -6.1659697E-03
         422  3.9281498E-04
         423 -4.8976294E-03
         424  2.8218471E-03
         425  6.4547705E-03
         426  1.3384989E-02
         427  4.2178608E-03
         428 -5.7898797E-03
         429 -6.6570239E-03
         430 -3.8887360E-03
         431  1.4087752E-02
         432  3.7678676E-03
         433  7.8450181E-03
         434  2.1903843E-03
         435 -4.6024690E-03
         436 -6.0776100E-03
         437  1.7961381E-04
         438  2.6790798E-04
         439  5.3080101E-03
         440  5.5193622E-03
         441 -1.4415312E-02
         442  9.3885983E-04
         443 -2.0350565E-03
         444  3.6867787E-03
         445  3.0620773E-03
         446  1.5333853E-02
         447  2.9341951E-03
         448  9.6962005E-03
         449 -9.9697616E-04
         450 -6.5776785E-03
         451 -1.0004371E-03
         452  8.6539704E-04
         453 -2.8713697E-04
         454  4.2616148E-03
         455 -7.1966057E-03
         456 -9.2513120E-04
         457  7.8659045E-04
         458  2.5264831E-04
         459  4.3311096E-03
         460  7.4131973E-03
         461  1.6177237E-02
         462  3.1166784E-03
         463  3.6936053E-03
         464 -9.4375797E-03
         465  6.3468320E-03
         466 -1.4264414E-02
         467  8.6560904E-04
         468  2.8669806E-03
         469  3.5090661E-03
         470 -3.2243715E-03
         471 -6.1942413E-03
         472  4.0426978E-04
         473  5.0275219E-03
         474  2.7738723E-03
         475 -6.5124524E-03
         476  1.3597949E-02
         477  4.2314958E-03
         478  5.7691224E-03
         479 -6.7407251E-03
         480  4.0069828E-03
         481  1.4293989E-02
         482  3.7928303E-03
         483 -7.9578236E-03
         484  2.2768930E-03
         485  4.5795296E-03
         486 -6.1513367E-03
         487  1.7866724E-04
         488 -1.9037141E-04
         489  5.3618504E-03
         490 -5.6062578E-03
         491 -1.4581257E-02
         492  9.3669526E-04
         493  2.1159763E-03
         494  3.7083044E-03
         495 -3.1013563E-03
         496  1.5542753E-02
         497  2.9586796E-03
         498 -9.9121137E-03
         499 -9.5222413E-04
         500  6.5761246E-03
         501  1.9237524E-03
         502 -1.2991027E-04
         503  4.4881734E-03
         504  1.3125340E-03
         505  1.1690910E-02
         506  4.5272089E-03
         507 -1.6871454E-03
         508  4.1037437E-04
         509 -8.2173850E-04
         510  5.3148749E-03
 Sym= Particle
 Ene= -0.3486646    
 Spin= Alpha
 Occup= 2
           1  1.0731007E-04
           2  1.8388059E-02
           3  9.8449702E-04
           4  0.2304559    
           5  2.3866191E-05
           6 -2.7746111E-03
           7 -1.6683154E-04
           8 -3.3796258E-02
           9 -2.8464515E-04
          10 -1.0867814E-02
          11 -7.5299107E-04
          12 -0.1352356    
          13  3.1914859E-04
          14  3.0571327E-03
          15  4.8212599E-04
          16  3.6535155E-02
          17  2.4504564E-04
          18 -3.0904531E-02
          19 -1.1093154E-03
          20 -0.3866066    
          21 -1.5233035E-04
          22  9.4309002E-03
          23  3.5519022E-04
          24  0.1166035    
          25 -7.0981383E-05
          26  5.0987378E-03
          27  1.2221321E-04
          28  6.2895134E-02
          29  2.5198265E-04
          30 -1.7170393E-03
          31  1.0353716E-04
          32 -1.7719554E-02
          33 -2.4782342E-04
          34  2.5545480E-02
          35  7.0028276E-05
          36  0.3246242    
          37 -1.1238149E-04
          38 -6.7607104E-03
          39 -4.4906171E-04
          40 -8.2842901E-02
          41  7.7159482E-04
          42  1.6149356E-04
          43  9.3948416E-05
          44  7.4505503E-03
          45 -2.6288285E-04
          46  2.9161862E-05
          47 -4.6843037E-04
          48  1.2723650E-02
          49 -1.3244879E-03
          50 -3.0544233E-03
          51 -6.7917258E-04
          52 -8.0923446E-02
          53  4.2528135E-04
          54 -3.2018084E-04
          55  1.2686176E-03
          56  8.5156010E-03
          57  2.2828993E-03
          58 -7.1563418E-03
          59  2.0487064E-03
          60 -4.0637352E-02
          61 -2.2868055E-03
          62  3.9702975E-03
          63 -1.3704591E-03
          64  2.2209527E-02
          65 -3.2898837E-03
          66  2.4126433E-02
          67 -1.6729850E-02
          68  0.2161293    
          69  5.3172363E-03
          70 -9.4961766E-03
          71  5.8227847E-03
          72 -7.1195424E-02
          73 -6.7865774E-03
          74 -6.8644797E-03
          75  2.7225222E-03
          76 -0.1064879    
          77  4.9130507E-03
          78  3.7350038E-03
          79 -7.6843845E-03
          80  3.2339249E-02
          81  6.5211495E-03
          82  3.2452978E-02
          83 -2.9736511E-02
          84 -3.0460570E-02
          85 -4.0102205E-03
          86 -8.3101550E-03
          87  1.1156075E-02
          88  7.2345552E-03
          89  4.5185583E-03
          90 -4.9970672E-02
          91  2.0429749E-02
          92  2.8911604E-02
          93 -2.3038748E-03
          94  1.5975354E-02
          95 -5.6285728E-03
          96 -2.9345972E-03
          97 -2.3919723E-03
          98 -8.4573040E-03
          99  3.0799818E-03
         100  5.6384802E-03
         101  3.3977628E-03
         102  1.8207311E-03
         103 -8.9550868E-04
         104  1.4475945E-05
         105 -1.3577084E-03
         106  4.4002306E-02
         107 -2.5052803E-02
         108 -4.2328950E-02
         109  2.3401114E-03
         110 -9.5178690E-03
         111  5.6117871E-03
         112  1.0664223E-02
         113  3.6002675E-03
         114 -2.5274461E-02
         115  5.1334687E-03
         116  2.1572141E-02
         117 -1.2741227E-03
         118  4.6902020E-03
         119  6.8796391E-04
         120 -3.1063627E-03
         121 -1.1067155E-02
         122 -3.2790169E-02
         123  2.7165903E-02
         124  2.1467125E-02
         125  8.1126709E-03
         126  7.7621969E-03
         127 -1.0874902E-02
         128 -5.9481654E-03
         129  1.6824919E-03
         130  1.2925693E-02
         131 -2.1851776E-02
         132 -5.9050089E-03
         133  3.2624528E-03
         134 -4.0582856E-03
         135  3.7286053E-03
         136  3.7323760E-03
         137 -1.2849684E-02
         138 -9.9103656E-03
         139  2.2629479E-02
         140  6.6570397E-03
         141  1.2436500E-02
         142  8.8839233E-03
         143 -8.4007969E-03
         144 -2.0723874E-03
         145  3.5708067E-03
         146  1.0093451E-02
         147  6.6003263E-02
         148  4.8448887E-02
         149  1.8476446E-04
         150 -2.9008526E-03
         151 -1.7570384E-02
         152 -1.1642656E-02
         153 -4.7636253E-04
         154 -3.1234710E-03
         155 -7.2366036E-02
         156 -5.1423151E-02
         157  1.0282941E-03
         158  7.3051348E-04
         159  1.5294001E-02
         160  1.2834060E-02
         161 -2.1873715E-03
         162 -2.7753140E-03
         163 -1.8310847E-02
         164 -9.9421078E-03
         165  8.0566481E-04
         166  2.2155340E-03
         167  6.3431598E-03
         168  4.6460638E-03
         169  8.4152883E-03
         170  1.3090675E-02
         171  9.7057663E-02
         172  5.9414271E-02
         173 -9.0089412E-03
         174 -9.3455315E-03
         175 -2.6859852E-02
         176 -1.6704382E-02
         177  5.4246532E-03
         178  4.3756105E-03
         179 -6.9559254E-02
         180 -4.6150140E-02
         181 -1.8135922E-03
         182 -3.3976904E-03
         183  2.2918317E-02
         184  9.2102513E-03
         185  3.9945953E-04
         186 -1.3303146E-03
         187  9.6240110E-04
         188 -1.0353413E-02
         189  1.3973449E-03
         190 -1.0489759E-03
         191 -9.9713681E-04
         192 -3.8432390E-03
         193 -1.4627422E-03
         194 -1.7481048E-02
         195  7.0300637E-05
         196 -0.2346112    
         197  1.6216435E-03
         198  5.5878791E-03
         199 -2.6984763E-04
         200  7.9833224E-02
         201 -1.5562419E-03
         202  1.7656816E-02
         203  8.5823069E-04
         204  0.2374283    
         205  1.6862880E-03
         206 -5.6733275E-03
         207 -5.5379508E-04
         208 -8.0521777E-02
         209  4.0379766E-04
         210  8.2048826E-04
         211  9.1918756E-04
         212  6.6496474E-03
         213  1.3802480E-03
         214  1.2454742E-03
         215 -9.3570456E-04
         216  4.8840218E-03
         217 -3.3617336E-03
         218 -2.3517467E-02
         219 -1.7092636E-02
         220 -0.2155247    
         221  5.3199744E-03
         222  9.3127619E-03
         223  5.9028468E-03
         224  7.1034089E-02
         225 -6.9001419E-03
         226  6.0571707E-03
         227  3.1120516E-03
         228  0.1060586    
         229  4.9594399E-03
         230 -3.5238764E-03
         231 -7.8228414E-03
         232 -3.2123007E-02
         233  6.4970506E-03
         234 -3.2814953E-02
         235 -2.9375549E-02
         236  3.0295707E-02
         237 -4.0459689E-03
         238  8.4159384E-03
         239  1.1090463E-02
         240 -7.3161786E-03
         241  4.4424795E-03
         242  5.0039344E-02
         243  1.9911880E-02
         244 -2.8402051E-02
         245 -2.1970195E-03
         246 -1.5961019E-02
         247 -5.5961302E-03
         248  2.7948492E-03
         249 -2.3561723E-03
         250  8.7799588E-03
         251  3.0874761E-03
         252 -5.8121611E-03
         253  3.3949846E-03
         254 -1.8660001E-03
         255 -8.9032092E-04
         256  4.7214391E-05
         257 -1.3626559E-03
         258 -4.4425175E-02
         259 -2.4508251E-02
         260  4.2088594E-02
         261  2.3309211E-03
         262  9.6582659E-03
         263  5.4729818E-03
         264 -1.0609395E-02
         265  3.5858210E-03
         266  2.5225187E-02
         267  4.7805039E-03
         268 -2.1193827E-02
         269 -1.2892185E-03
         270 -4.6444973E-03
         271  7.4202236E-04
         272  3.0191985E-03
         273 -1.0967274E-02
         274  3.3278245E-02
         275  2.6831996E-02
         276 -2.1473167E-02
         277  7.9668090E-03
         278 -7.9319300E-03
         279 -1.0714306E-02
         280  5.9961397E-03
         281  1.6878672E-03
         282 -1.3103460E-02
         283 -2.1686224E-02
         284  5.9097679E-03
         285  3.2149670E-03
         286  4.1501722E-03
         287  3.6835191E-03
         288 -3.7265234E-03
         289 -1.2873608E-02
         290  1.0151658E-02
         291  2.2273080E-02
         292 -6.4670239E-03
         293  1.2467875E-02
         294 -9.0055047E-03
         295 -8.3031030E-03
         296  1.9708360E-03
         297  3.5718270E-03
         298 -9.2535410E-03
         299  6.6283531E-02
         300 -4.9003888E-02
         301  2.0994928E-04
         302  2.6573692E-03
         303 -1.7655320E-02
         304  1.1796155E-02
         305 -4.6256822E-04
         306  2.1673725E-03
         307 -7.2307892E-02
         308  5.1678270E-02
         309  1.0305458E-03
         310 -5.2148465E-04
         311  1.5282716E-02
         312 -1.2901506E-02
         313 -2.1860136E-03
         314  2.5851675E-03
         315 -1.8554797E-02
         316  1.0156321E-02
         317  8.0561329E-04
         318 -2.1914346E-03
         319  6.3821226E-03
         320 -4.7181523E-03
         321  8.4393006E-03
         322 -1.1978436E-02
         323  9.7143047E-02
         324 -6.0132857E-02
         325 -9.1130361E-03
         326  9.1239074E-03
         327 -2.6891969E-02
         328  1.7049953E-02
         329  5.5779866E-03
         330 -5.4380111E-03
         331 -6.9651552E-02
         332  4.6489559E-02
         333 -1.9672855E-03
         334  3.7559252E-03
         335  2.2958657E-02
         336 -9.2261815E-03
         337  2.3940629E-03
         338  7.2683347E-03
         339  2.4062789E-03
         340  4.4439483E-02
         341 -2.4208820E-03
         342 -3.9828401E-03
         343 -1.5004047E-03
         344 -2.3197915E-02
         345 -1.3151185E-03
         346  2.7229765E-03
         347 -6.3153275E-04
         348  7.7414937E-02
         349  3.9501305E-04
         350  4.3148210E-04
         351  1.3360530E-03
         352 -7.6886895E-03
         353  7.7853142E-04
         354 -2.3196150E-04
         355  1.4162429E-04
         356 -8.3975950E-03
         357 -2.7203080E-04
         358  4.3736494E-05
         359 -5.6134543E-04
         360 -1.2363296E-02
         361 -1.7450059E-04
         362 -2.5365906E-02
         363 -6.6702743E-04
         364 -0.3226881    
         365 -1.6410678E-04
         366  6.7220423E-03
         367 -2.8613597E-04
         368  8.2203224E-02
         369 -1.0585225E-04
         370 -5.2671339E-03
         371 -4.1613348E-05
         372 -6.5057240E-02
         373  2.8127743E-04
         374  1.7813183E-03
         375  1.6246596E-04
         376  1.8396145E-02
         377  2.6313806E-04
         378  3.0996019E-02
         379 -2.4228293E-04
         380  0.3877006    
         381 -1.6162363E-04
         382 -9.4607398E-03
         383  1.0648404E-04
         384 -0.1170169    
         385 -2.9539023E-04
         386  1.0905493E-02
         387 -4.6352443E-04
         388  0.1357053    
         389  3.2434112E-04
         390 -3.0706038E-03
         391  4.1217342E-04
         392 -3.6743212E-02
         393  1.1167191E-04
         394 -1.8441049E-02
         395  4.8114738E-04
         396 -0.2311099    
         397  1.8480763E-05
         398  2.7898860E-03
         399 -9.6646705E-05
         400  3.3934087E-02
         401  4.4831756E-04
         402  1.0171880E-04
         403 -5.7346141E-04
         404  1.1632152E-04
         405  8.1647085E-03
         406  1.6295108E-03
         407 -3.0006666E-03
         408  5.7567386E-03
         409  1.2975624E-03
         410 -2.8147170E-02
         411 -1.5065252E-03
         412  1.0258897E-03
         413 -4.7779176E-03
         414 -1.6566119E-03
         415  8.0787297E-03
         416  3.3868258E-03
         417 -2.0998747E-04
         418  5.4829731E-04
         419  6.0977536E-04
         420  1.4334565E-03
         421  1.4290020E-03
         422 -6.1327539E-04
         423  1.0281111E-02
         424 -4.7371197E-03
         425 -8.7279668E-03
         426 -2.9311031E-03
         427 -1.3734759E-03
         428 -4.0224553E-03
         429  4.2420481E-03
         430  4.6775686E-03
         431 -3.3855799E-03
         432 -6.4592034E-04
         433 -1.7208247E-03
         434  1.4441694E-02
         435  1.0110711E-02
         436  3.4241105E-04
         437 -5.4873433E-04
         438 -1.5374180E-03
         439 -1.5336867E-02
         440 -1.1264094E-02
         441  1.8534194E-03
         442 -4.6704256E-04
         443  4.3300050E-04
         444 -5.1603140E-03
         445 -2.4763674E-03
         446 -5.5363043E-03
         447 -3.3178583E-03
         448 -3.8053675E-03
         449  2.3040524E-02
         450  1.1890158E-02
         451  1.0258073E-03
         452 -2.3190451E-03
         453 -1.2912184E-03
         454 -3.0679533E-03
         455  3.3346850E-03
         456  1.0280546E-03
         457 -2.3216929E-03
         458  1.2170022E-03
         459 -3.0351770E-03
         460 -4.1474919E-03
         461 -1.5219114E-03
         462  1.1677383E-03
         463  4.7118836E-03
         464 -1.9895337E-03
         465 -7.9107601E-03
         466  3.3880235E-03
         467 -2.0578917E-04
         468 -4.6121058E-04
         469  6.2101713E-04
         470 -1.5000665E-03
         471  1.4243221E-03
         472 -6.1025319E-04
         473 -1.0366449E-02
         474 -4.6481253E-03
         475  8.6660432E-03
         476 -2.9329185E-03
         477 -1.3632784E-03
         478  4.0376810E-03
         479  4.1455915E-03
         480 -4.6270597E-03
         481 -3.3777740E-03
         482 -6.6534930E-04
         483  1.9233295E-03
         484  1.4507804E-02
         485 -1.0181024E-02
         486  3.3214758E-04
         487 -5.6645158E-04
         488  1.3584943E-03
         489 -1.5330807E-02
         490  1.1339608E-02
         491  1.7861559E-03
         492 -4.3156728E-04
         493 -5.0830760E-04
         494 -5.2345502E-03
         495  2.5111574E-03
         496 -5.5725323E-03
         497 -3.4478731E-03
         498  4.3523214E-03
         499  2.3224534E-02
         500 -1.1977417E-02
         501  1.5503952E-03
         502 -2.9948300E-03
         503 -5.9327772E-03
         504  1.4261601E-03
         505  2.8948823E-02
         506  4.9848983E-04
         507  9.3547089E-05
         508  5.7387829E-04
         509  1.1822731E-04
         510 -9.1236010E-03
