 [Molden Format]
 [Atoms] Angs
C       1      6      6.97221697      3.01788139      0.30901722
C       2      6      5.75609358      2.26112894     -0.13739062
C       3      6      4.71124608      2.95029825     -0.76076012
C       4      6      3.56197698      2.31487380     -1.18497384
C       5      6      3.46652740      0.94640386     -0.98422610
C       6      6      4.51115167      0.22966632     -0.36189634
C       7      6      5.65275854      0.89599965      0.06139073
C       8      6      4.08883577     -1.14152149     -0.30458379
C       9      6      4.69044950     -2.30797544      0.15033161
C      10      6      4.02281179     -3.51121035      0.01192905
C      11      6      4.62938616     -4.79278993      0.50245820
C      12      6      2.76990095     -3.54096665     -0.61024082
C      13      6      2.15022690     -2.39780480     -1.06953129
C      14      6      2.80149847     -1.19058256     -0.87836005
N      15      7      2.42354827      0.08490557     -1.26015845
C      16      6      1.20108132      0.43549734     -1.83788618
C      17      6      1.19552897      1.06620341     -3.07931357
C      18      6     -0.00107698      1.40438694     -3.68240675
C      19      6     -1.19769342      1.06701187     -3.07886562
C      20      6     -1.20319015      0.43633177     -1.83743267
N      21      7     -2.42563009      0.08659279     -1.25913515
C      22      6     -2.80386551     -1.18850801     -0.87638912
C      23      6     -2.15338043     -2.39614075     -1.06765583
C      24      6     -2.77277044     -3.53867077     -0.60642739
C      25      6     -4.02467457     -3.50787467      0.01772143
C      26      6     -4.63065272     -4.78873639      0.51085556
C      27      6     -4.69183613     -2.30433215      0.15574976
C      28      6     -4.09046800     -1.13848300     -0.30104820
C      29      6     -4.51198783      0.23295426     -0.35826514
C      30      6     -5.65246677      0.90022289      0.06659355
C      31      6     -5.75484375      2.26548197     -0.13178645
C      32      6     -6.96936814      3.02336773      0.31704386
C      33      6     -4.71027498      2.95382608     -0.75653955
C      34      6     -3.56219592      2.31743897     -1.18252252
C      35      6     -3.46762605      0.94887664     -0.98198656
C      36      6     -0.00102341      0.16109156     -1.17621914
P      37     15     -0.00064637     -0.41260563      0.57826494
O      38      8     -0.00053470     -1.86117907      0.79961582
C      39      6      1.42543785      0.40586131      1.36792168
C      40      6      2.24101432     -0.41616344      2.13346910
C      41      6      3.32043036      0.11334314      2.81581191
C      42      6      3.58109449      1.47137480      2.74641553
C      43      6      2.76439557      2.29577673      1.99053148
C      44      6      1.69186252      1.76658547      1.29720715
C      45      6     -1.42603258      0.40582634      1.36920697
C      46      6     -1.69231828      1.76660990      1.29907975
C      47      6     -2.76390800      2.29585558      1.99382162
C      48      6     -3.57981580      1.47144784      2.75055142
C      49      6     -3.31935979      0.11334304      2.81928455
C      50      6     -2.24087714     -0.41622261      2.13550917
H      51      1      7.68038851      2.35783695      0.80324573
H      52      1      6.69440404      3.81127734      1.00216324
H      53      1      7.46798511      3.48091842     -0.54381023
H      54      1      4.80911902      4.01651281     -0.90867240
H      55      1      2.76153396      2.87098493     -1.65066135
H      56      1      6.44924979      0.35023306      0.54538738
H      57      1      5.67223986     -2.27106782      0.59953821
H      58      1      4.72522061     -5.50748216     -0.31425211
H      59      1      3.99507586     -5.24329704      1.26514453
H      60      1      5.61422758     -4.61941864      0.92901695
H      61      1      2.27510170     -4.49291902     -0.73435369
H      62      1      1.19091947     -2.44595139     -1.56000003
H      63      1      2.13725406      1.27504976     -3.56417527
H      64      1     -0.00108422      1.90066321     -4.64111025
H      65      1     -2.13945537      1.27651421     -3.56337225
H      66      1     -1.19482057     -2.44504301     -1.55951969
H      67      1     -2.27845881     -4.49089921     -0.73035284
H      68      1     -5.61314640     -4.61409827      0.94227972
H      69      1     -3.99320409     -5.24034515      1.27025085
H      70      1     -4.73154356     -5.50306796     -0.30557990
H      71      1     -5.67294677     -2.26668748      0.60637260
H      72      1     -6.44878875      0.35509334      0.55158609
H      73      1     -7.67927173      2.36310575      0.80848725
H      74      1     -6.68984380      3.81330441      1.01347771
H      75      1     -7.46369536      3.49103520     -0.53406650
H      76      1     -4.80736832      4.02016664     -0.90405897
H      77      1     -2.76192498      2.87289668     -1.64928812
H      78      1      2.01886776     -1.47284058      2.16998997
H      79      1      3.95923538     -0.53340733      3.39877932
H      80      1      4.42328874      1.88953950      3.27744367
H      81      1      2.97109208      3.35417689      1.93122095
H      82      1      1.07726073      2.41201603      0.68753942
H      83      1     -1.07830171      2.41206045      0.68884968
H      84      1     -2.97043727      3.35431651      1.93503171
H      85      1     -4.42122081      1.88966965      3.28278861
H      86      1     -3.95758895     -0.53340904      3.40288098
H      87      1     -2.01891450     -1.47295415      2.17151865
 [GTO]
           1   0
s              4   1.000000
     36.91316589     -0.01198412
      6.35675261     -0.05472052
      0.51079220      0.58055871
      0.19467555      0.47700799
p              4   1.000000
      5.94952103      0.05713170
      1.54262196      0.28574555
      0.54382198      0.55178731
      0.21650490      0.26323149
s              7   1.000000
      0.38350848     -0.19450745
      0.04707223      0.93978853
      0.02222627      0.24680273
     36.91316589      0.00523236
      6.35675261      0.02389140
      0.51079220     -0.25347633
      0.19467555     -0.20826530
p              7   1.000000
      1.83062075     -0.01151575
      0.10124670      0.56590135
      0.03901771      0.59099990
      5.94952103     -0.02396295
      1.54262196     -0.11985123
      0.54382198     -0.23143804
      0.21650490     -0.11040808
 
           2   0
s              4   1.000000
     34.94176388     -0.01198412
      6.01726087     -0.05472052
      0.48351259      0.58055871
      0.18427861      0.47700800
p              4   1.000000
      5.63177809      0.05713170
      1.46023596      0.28574555
      0.51477836      0.55178731
      0.20494214      0.26323149
s              7   1.000000
      0.38350848     -0.19622488
      0.04707223      0.94808653
      0.02222627      0.24898191
     34.94176388      0.00551458
      6.01726087      0.02518004
      0.48351259     -0.26714825
      0.18427861     -0.21949865
p              7   1.000000
      1.83062075     -0.01161120
      0.10124670      0.57059237
      0.03901771      0.59589896
      5.63177809     -0.02526105
      1.46023596     -0.12634372
      0.51477836     -0.24397533
      0.20494214     -0.11638903
 
           3   0
s              4   1.000000
     35.02437120     -0.01198412
      6.03148653     -0.05472053
      0.48465568      0.58055871
      0.18471428      0.47700799
p              4   1.000000
      5.64509242      0.05713170
      1.46368817      0.28574555
      0.51599537      0.55178731
      0.20542665      0.26323149
s              7   1.000000
      0.38350848     -0.19614772
      0.04707223      0.94771369
      0.02222627      0.24888400
     35.02437120      0.00550216
      6.03148653      0.02512332
      0.48465568     -0.26654649
      0.18471428     -0.21900422
p              7   1.000000
      1.83062075     -0.01160691
      0.10124670      0.57038158
      0.03901771      0.59567884
      5.64509242     -0.02520393
      1.46368817     -0.12605804
      0.51599537     -0.24342365
      0.20542665     -0.11612585
 
           4   0
s              4   1.000000
     34.95324169     -0.01198412
      6.01923745     -0.05472052
      0.48367141      0.58055871
      0.18433915      0.47700799
p              4   1.000000
      5.63362804      0.05713170
      1.46071563      0.28574555
      0.51494746      0.55178731
      0.20500946      0.26323149
s              7   1.000000
      0.38350848     -0.19621413
      0.04707223      0.94803458
      0.02222627      0.24896828
     34.95324169      0.00551285
      6.01923745      0.02517215
      0.48367141     -0.26706448
      0.18433915     -0.21942982
p              7   1.000000
      1.83062075     -0.01161061
      0.10124670      0.57056300
      0.03901771      0.59586829
      5.63362804     -0.02525310
      1.46071563     -0.12630395
      0.51494746     -0.24389853
      0.20500946     -0.11635239
 
           5   0
s              4   1.000000
     35.65990170     -0.01198412
      6.14093015     -0.05472053
      0.49344994      0.58055871
      0.18806599      0.47700799
p              4   1.000000
      5.74752476      0.05713170
      1.49024735      0.28574555
      0.52535831      0.55178731
      0.20915419      0.26323149
s              7   1.000000
      0.38350848     -0.19556991
      0.04707223      0.94492191
      0.02222627      0.24815083
     35.65990170      0.00540839
      6.14093015      0.02469519
      0.49344994     -0.26200426
      0.18806599     -0.21527216
p              7   1.000000
      1.83062075     -0.01157480
      0.10124670      0.56880323
      0.03901771      0.59403050
      5.74752476     -0.02477273
      1.49024735     -0.12390137
      0.52535831     -0.23925904
      0.20915419     -0.11413911
 
           6   0
s              4   1.000000
     35.43491561     -0.01198412
      6.10218568     -0.05472052
      0.49033666      0.58055871
      0.18687944      0.47700799
p              4   1.000000
      5.71126237      0.05713170
      1.48084505      0.28574555
      0.52204370      0.55178731
      0.20783460      0.26323149
s              7   1.000000
      0.38350848     -0.19577130
      0.04707223      0.94589499
      0.02222627      0.24840640
     35.43491561      0.00544123
      6.10218568      0.02484511
      0.49033666     -0.26359483
      0.18687944     -0.21657903
p              7   1.000000
      1.83062075     -0.01158599
      0.10124670      0.56935336
      0.03901771      0.59460501
      5.71126237     -0.02492373
      1.48084505     -0.12465663
      0.52204370     -0.24071746
      0.20783460     -0.11483486
 
           7   0
s              4   1.000000
     35.02524482     -0.01198412
      6.03163698     -0.05472053
      0.48466777      0.58055871
      0.18471888      0.47700799
p              4   1.000000
      5.64523323      0.05713170
      1.46372468      0.28574555
      0.51600824      0.55178731
      0.20543177      0.26323149
s              7   1.000000
      0.38350848     -0.19614690
      0.04707223      0.94770976
      0.02222627      0.24888297
     35.02524482      0.00550202
      6.03163698      0.02512272
      0.48466777     -0.26654014
      0.18471888     -0.21899900
p              7   1.000000
      1.83062075     -0.01160687
      0.10124670      0.57037936
      0.03901771      0.59567649
      5.64523323     -0.02520332
      1.46372468     -0.12605502
      0.51600824     -0.24341783
      0.20543177     -0.11612307
 
           8   0
s              4   1.000000
     35.43625626     -0.01198412
      6.10241655     -0.05472052
      0.49035521      0.58055871
      0.18688651      0.47700799
p              4   1.000000
      5.71147845      0.05713170
      1.48090108      0.28574555
      0.52206346      0.55178731
      0.20784246      0.26323149
s              7   1.000000
      0.38350848     -0.19577009
      0.04707223      0.94588914
      0.02222627      0.24840486
     35.43625626      0.00544103
      6.10241655      0.02484422
      0.49035521     -0.26358529
      0.18688651     -0.21657119
p              7   1.000000
      1.83062075     -0.01158592
      0.10124670      0.56935006
      0.03901771      0.59460158
      5.71147845     -0.02492283
      1.48090108     -0.12465210
      0.52206346     -0.24070872
      0.20784246     -0.11483069
 
           9   0
s              4   1.000000
     35.02155502     -0.01198412
      6.03100157     -0.05472052
      0.48461671      0.58055871
      0.18469942      0.47700799
p              4   1.000000
      5.64463852      0.05713170
      1.46357048      0.28574555
      0.51595388      0.55178731
      0.20541013      0.26323149
s              7   1.000000
      0.38350848     -0.19615034
      0.04707223      0.94772636
      0.02222627      0.24888734
     35.02155502      0.00550258
      6.03100157      0.02512525
      0.48461671     -0.26656696
      0.18469942     -0.21902103
p              7   1.000000
      1.83062075     -0.01160706
      0.10124670      0.57038874
      0.03901771      0.59568632
      5.64463852     -0.02520587
      1.46357048     -0.12606776
      0.51595388     -0.24344242
      0.20541013     -0.11613480
 
          10   0
s              4   1.000000
     34.94081969     -0.01198412
      6.01709827     -0.05472052
      0.48349952      0.58055871
      0.18427363      0.47700799
p              4   1.000000
      5.63162591      0.05713170
      1.46019650      0.28574555
      0.51476445      0.55178731
      0.20493660      0.26323149
s              7   1.000000
      0.38350848     -0.19622577
      0.04707223      0.94809081
      0.02222627      0.24898303
     34.94081969      0.00551472
      6.01709827      0.02518069
      0.48349952     -0.26715514
      0.18427363     -0.21950431
p              7   1.000000
      1.83062075     -0.01161125
      0.10124670      0.57059478
      0.03901771      0.59590151
      5.63162591     -0.02526170
      1.46019650     -0.12634700
      0.51476445     -0.24398165
      0.20493660     -0.11639204
 
          11   0
s              4   1.000000
     36.91279502     -0.01198412
      6.35668874     -0.05472053
      0.51078706      0.58055871
      0.19467359      0.47700799
p              4   1.000000
      5.94946125      0.05713170
      1.54260646      0.28574555
      0.54381651      0.55178731
      0.21650273      0.26323149
s              7   1.000000
      0.38350848     -0.19450775
      0.04707223      0.93978998
      0.02222627      0.24680312
     36.91279502      0.00523241
      6.35668874      0.02389163
      0.51078706     -0.25347877
      0.19467359     -0.20826731
p              7   1.000000
      1.83062075     -0.01151576
      0.10124670      0.56590217
      0.03901771      0.59100075
      5.94946125     -0.02396318
      1.54260646     -0.11985239
      0.54381651     -0.23144028
      0.21650273     -0.11040915
 
          12   0
s              4   1.000000
     35.02635552     -0.01198412
      6.03182825     -0.05472053
      0.48468314      0.58055871
      0.18472474      0.47700799
p              4   1.000000
      5.64541224      0.05713170
      1.46377110      0.28574555
      0.51602461      0.55178731
      0.20543829      0.26323149
s              7   1.000000
      0.38350848     -0.19614587
      0.04707223      0.94770476
      0.02222627      0.24888166
     35.02635552      0.00550186
      6.03182825      0.02512196
      0.48468314     -0.26653207
      0.18472474     -0.21899237
p              7   1.000000
      1.83062075     -0.01160681
      0.10124670      0.57037653
      0.03901771      0.59567358
      5.64541224     -0.02520256
      1.46377110     -0.12605119
      0.51602461     -0.24341043
      0.20543829     -0.11611954
 
          13   0
s              4   1.000000
     34.97963869     -0.01198412
      6.02378323     -0.05472053
      0.48403669      0.58055871
      0.18447836      0.47700800
p              4   1.000000
      5.63788261      0.05713170
      1.46181877      0.28574555
      0.51533635      0.55178731
      0.20516428      0.26323149
s              7   1.000000
      0.38350848     -0.19618944
      0.04707223      0.94791530
      0.02222627      0.24893694
     34.97963869      0.00550888
      6.02378323      0.02515401
      0.48403669     -0.26687202
      0.18447836     -0.21927168
p              7   1.000000
      1.83062075     -0.01160923
      0.10124670      0.57049555
      0.03901771      0.59579786
      5.63788261     -0.02523483
      1.46181877     -0.12621258
      0.51533635     -0.24372209
      0.20516428     -0.11626822
 
          14   0
s              4   1.000000
     35.69777282     -0.01198412
      6.14745187     -0.05472052
      0.49397399      0.58055871
      0.18826571      0.47700799
p              4   1.000000
      5.75362868      0.05713170
      1.49183000      0.28574555
      0.52591624      0.55178731
      0.20937632      0.26323149
s              7   1.000000
      0.38350848     -0.19553634
      0.04707223      0.94475972
      0.02222627      0.24810825
     35.69777282      0.00540290
      6.14745187      0.02467013
      0.49397399     -0.26173837
      0.18826571     -0.21505369
p              7   1.000000
      1.83062075     -0.01157293
      0.10124670      0.56871155
      0.03901771      0.59393474
      5.75362868     -0.02474748
      1.49183000     -0.12377512
      0.52591624     -0.23901523
      0.20937632     -0.11402280
 
          15   0
s              4   1.000000
     61.59833063     -0.01198412
     10.60774224     -0.05472053
      0.85237735      0.58055871
      0.32486211      0.47700799
p              4   1.000000
      7.26071695      0.05713170
      1.88259548      0.28574555
      0.66367316      0.55178731
      0.26421972      0.26323149
s              7   1.000000
      0.47894987     -0.18766459
      0.05878681      0.90672634
      0.02775758      0.23812011
     61.59833063      0.00394433
     10.60774224      0.01801014
      0.85237735     -0.19107900
      0.32486211     -0.15699740
p              7   1.000000
      2.28619608     -0.01155480
      0.12644335      0.56782055
      0.04872781      0.59300422
      7.26071695     -0.02450104
      1.88259548     -0.12254252
      0.66367316     -0.23663503
      0.26421972     -0.11288732
 
          16   0
s              4   1.000000
     35.38486772     -0.01198412
      6.09356702     -0.05472052
      0.48964411      0.58055871
      0.18661549      0.47700799
p              4   1.000000
      5.70319585      0.05713170
      1.47875352      0.28574555
      0.52130638      0.55178731
      0.20754105      0.26323149
s              7   1.000000
      0.38350848     -0.19581657
      0.04707223      0.94611370
      0.02222627      0.24846382
     35.38486772      0.00544858
      6.09356702      0.02487871
      0.48964411     -0.26395122
      0.18661549     -0.21687185
p              7   1.000000
      1.83062075     -0.01158851
      0.10124670      0.56947700
      0.03901771      0.59473415
      5.70319585     -0.02495756
      1.47875352     -0.12482585
      0.52130638     -0.24104423
      0.20754105     -0.11499074
 
          17   0
s              4   1.000000
     35.01817080     -0.01198412
      6.03041877     -0.05472052
      0.48456988      0.58055871
      0.18468157      0.47700799
p              4   1.000000
      5.64409306      0.05713170
      1.46342905      0.28574555
      0.51590403      0.55178731
      0.20539028      0.26323149
s              7   1.000000
      0.38350848     -0.19615349
      0.04707223      0.94774160
      0.02222627      0.24889133
     35.01817080      0.00550309
      6.03041877      0.02512757
      0.48456988     -0.26659156
      0.18468157     -0.21904125
p              7   1.000000
      1.83062075     -0.01160724
      0.10124670      0.57039735
      0.03901771      0.59569530
      5.64409306     -0.02520821
      1.46342905     -0.12607944
      0.51590403     -0.24346497
      0.20539028     -0.11614557
 
          18   0
s              4   1.000000
     34.91498881     -0.01198412
      6.01264998     -0.05472052
      0.48314208      0.58055871
      0.18413741      0.47700800
p              4   1.000000
      5.62746259      0.05713170
      1.45911702      0.28574555
      0.51438390      0.55178731
      0.20478510      0.26323149
s              7   1.000000
      0.38350848     -0.19625000
      0.04707223      0.94820788
      0.02222627      0.24901379
     34.91498881      0.00551862
      6.01264998      0.02519848
      0.48314208     -0.26734387
      0.18413741     -0.21965937
p              7   1.000000
      1.83062075     -0.01161260
      0.10124670      0.57066098
      0.03901771      0.59597061
      5.62746259     -0.02527962
      1.45911702     -0.12643659
      0.51438390     -0.24415466
      0.20478510     -0.11647458
 
          19   0
s              4   1.000000
     35.01812566     -0.01198412
      6.03041100     -0.05472052
      0.48456925      0.58055871
      0.18468134      0.47700799
p              4   1.000000
      5.64408579      0.05713170
      1.46342716      0.28574555
      0.51590336      0.55178731
      0.20539002      0.26323149
s              7   1.000000
      0.38350848     -0.19615353
      0.04707223      0.94774179
      0.02222627      0.24889138
     35.01812566      0.00550309
      6.03041100      0.02512760
      0.48456925     -0.26659189
      0.18468134     -0.21904152
p              7   1.000000
      1.83062075     -0.01160724
      0.10124670      0.57039747
      0.03901771      0.59569542
      5.64408579     -0.02520824
      1.46342716     -0.12607959
      0.51590336     -0.24346527
      0.20539002     -0.11614571
 
          20   0
s              4   1.000000
     35.38464450     -0.01198412
      6.09352858     -0.05472053
      0.48964102      0.58055871
      0.18661431      0.47700800
p              4   1.000000
      5.70315987      0.05713170
      1.47874419      0.28574555
      0.52130309      0.55178731
      0.20753974      0.26323149
s              7   1.000000
      0.38350848     -0.19581677
      0.04707223      0.94611468
      0.02222627      0.24846407
     35.38464450      0.00544862
      6.09352858      0.02487886
      0.48964102     -0.26395281
      0.18661431     -0.21687316
p              7   1.000000
      1.83062075     -0.01158852
      0.10124670      0.56947755
      0.03901771      0.59473472
      5.70315987     -0.02495772
      1.47874419     -0.12482660
      0.52130309     -0.24104569
      0.20753974     -0.11499144
 
          21   0
s              4   1.000000
     61.59817750     -0.01198412
     10.60771587     -0.05472052
      0.85237523      0.58055871
      0.32486130      0.47700799
p              4   1.000000
      7.26069890      0.05713170
      1.88259080      0.28574555
      0.66367151      0.55178731
      0.26421907      0.26323149
s              7   1.000000
      0.47894987     -0.18766464
      0.05878681      0.90672656
      0.02775758      0.23812015
     61.59817750      0.00394434
     10.60771587      0.01801018
      0.85237523     -0.19107947
      0.32486130     -0.15699779
p              7   1.000000
      2.28619608     -0.01155480
      0.12644335      0.56782075
      0.04872781      0.59300443
      7.26069890     -0.02450110
      1.88259080     -0.12254281
      0.66367151     -0.23663560
      0.26421907     -0.11288759
 
          22   0
s              4   1.000000
     35.69797675     -0.01198412
      6.14748699     -0.05472052
      0.49397681      0.58055871
      0.18826679      0.47700800
p              4   1.000000
      5.75366155      0.05713170
      1.49183852      0.28574555
      0.52591924      0.55178731
      0.20937751      0.26323149
s              7   1.000000
      0.38350848     -0.19553616
      0.04707223      0.94475884
      0.02222627      0.24810803
     35.69797675      0.00540288
      6.14748699      0.02467000
      0.49397681     -0.26173694
      0.18826679     -0.21505251
p              7   1.000000
      1.83062075     -0.01157292
      0.10124670      0.56871105
      0.03901771      0.59393421
      5.75366155     -0.02474735
      1.49183852     -0.12377444
      0.52591924     -0.23901392
      0.20937751     -0.11402218
 
          23   0
s              4   1.000000
     34.97972840     -0.01198412
      6.02379868     -0.05472052
      0.48403793      0.58055871
      0.18447884      0.47700799
p              4   1.000000
      5.63789706      0.05713170
      1.46182252      0.28574555
      0.51533768      0.55178731
      0.20516481      0.26323149
s              7   1.000000
      0.38350848     -0.19618936
      0.04707223      0.94791488
      0.02222627      0.24893684
     34.97972840      0.00550886
      6.02379868      0.02515394
      0.48403793     -0.26687136
      0.18447884     -0.21927114
p              7   1.000000
      1.83062075     -0.01160923
      0.10124670      0.57049533
      0.03901771      0.59579762
      5.63789706     -0.02523477
      1.46182252     -0.12621227
      0.51533768     -0.24372149
      0.20516481     -0.11626794
 
          24   0
s              4   1.000000
     35.02638378     -0.01198412
      6.03183312     -0.05472052
      0.48468353      0.58055871
      0.18472489      0.47700799
p              4   1.000000
      5.64541680      0.05713170
      1.46377228      0.28574555
      0.51602502      0.55178730
      0.20543845      0.26323149
s              7   1.000000
      0.38350848     -0.19614584
      0.04707223      0.94770464
      0.02222627      0.24888163
     35.02638378      0.00550185
      6.03183312      0.02512194
      0.48468353     -0.26653186
      0.18472489     -0.21899220
p              7   1.000000
      1.83062075     -0.01160681
      0.10124670      0.57037646
      0.03901771      0.59567350
      5.64541680     -0.02520254
      1.46377228     -0.12605109
      0.51602502     -0.24341024
      0.20543845     -0.11611945
 
          25   0
s              4   1.000000
     34.94084324     -0.01198412
      6.01710233     -0.05472052
      0.48349985      0.58055871
      0.18427376      0.47700799
p              4   1.000000
      5.63162970      0.05713170
      1.46019749      0.28574555
      0.51476480      0.55178731
      0.20493674      0.26323149
s              7   1.000000
      0.38350848     -0.19622575
      0.04707223      0.94809070
      0.02222627      0.24898301
     34.94084324      0.00551472
      6.01710233      0.02518068
      0.48349985     -0.26715497
      0.18427376     -0.21950417
p              7   1.000000
      1.83062075     -0.01161125
      0.10124670      0.57059472
      0.03901771      0.59590143
      5.63162970     -0.02526169
      1.46019749     -0.12634692
      0.51476480     -0.24398149
      0.20493674     -0.11639197
 
          26   0
s              4   1.000000
     36.91280168     -0.01198412
      6.35668989     -0.05472052
      0.51078716      0.58055871
      0.19467363      0.47700800
p              4   1.000000
      5.94946232      0.05713170
      1.54260674      0.28574555
      0.54381661      0.55178731
      0.21650276      0.26323149
s              7   1.000000
      0.38350848     -0.19450775
      0.04707223      0.93978995
      0.02222627      0.24680310
     36.91280168      0.00523241
      6.35668989      0.02389162
      0.51078716     -0.25347873
      0.19467363     -0.20826727
p              7   1.000000
      1.83062075     -0.01151576
      0.10124670      0.56590216
      0.03901771      0.59100075
      5.94946232     -0.02396317
      1.54260674     -0.11985237
      0.54381661     -0.23144024
      0.21650276     -0.11040914
 
          27   0
s              4   1.000000
     35.02156047     -0.01198412
      6.03100250     -0.05472052
      0.48461678      0.58055871
      0.18469945      0.47700799
p              4   1.000000
      5.64463939      0.05713170
      1.46357071      0.28574555
      0.51595396      0.55178731
      0.20541016      0.26323149
s              7   1.000000
      0.38350848     -0.19615034
      0.04707223      0.94772634
      0.02222627      0.24888734
     35.02156047      0.00550258
      6.03100250      0.02512525
      0.48461678     -0.26656692
      0.18469945     -0.21902100
p              7   1.000000
      1.83062075     -0.01160706
      0.10124670      0.57038873
      0.03901771      0.59568628
      5.64463939     -0.02520587
      1.46357071     -0.12606774
      0.51595396     -0.24344238
      0.20541016     -0.11613479
 
          28   0
s              4   1.000000
     35.43626112     -0.01198412
      6.10241739     -0.05472052
      0.49035527      0.58055871
      0.18688653      0.47700799
p              4   1.000000
      5.71147924      0.05713170
      1.48090128      0.28574555
      0.52206353      0.55178731
      0.20784249      0.26323149
s              7   1.000000
      0.38350848     -0.19577009
      0.04707223      0.94588913
      0.02222627      0.24840484
     35.43626112      0.00544103
      6.10241739      0.02484421
      0.49035527     -0.26358526
      0.18688653     -0.21657116
p              7   1.000000
      1.83062075     -0.01158592
      0.10124670      0.56935005
      0.03901771      0.59460154
      5.71147924     -0.02492282
      1.48090128     -0.12465208
      0.52206353     -0.24070869
      0.20784249     -0.11483067
 
          29   0
s              4   1.000000
     35.43493090     -0.01198412
      6.10218831     -0.05472052
      0.49033687      0.58055871
      0.18687952      0.47700799
p              4   1.000000
      5.71126484      0.05713170
      1.48084569      0.28574555
      0.52204393      0.55178731
      0.20783468      0.26323149
s              7   1.000000
      0.38350848     -0.19577129
      0.04707223      0.94589493
      0.02222627      0.24840637
     35.43493090      0.00544122
      6.10218831      0.02484510
      0.49033687     -0.26359472
      0.18687952     -0.21657894
p              7   1.000000
      1.83062075     -0.01158599
      0.10124670      0.56935333
      0.03901771      0.59460497
      5.71126484     -0.02492372
      1.48084569     -0.12465657
      0.52204393     -0.24071736
      0.20783468     -0.11483481
 
          30   0
s              4   1.000000
     35.02525687     -0.01198412
      6.03163906     -0.05472052
      0.48466793      0.58055871
      0.18471895      0.47700799
p              4   1.000000
      5.64523517      0.05713170
      1.46372518      0.28574555
      0.51600842      0.55178731
      0.20543184      0.26323149
s              7   1.000000
      0.38350848     -0.19614690
      0.04707223      0.94770970
      0.02222627      0.24888295
     35.02525687      0.00550202
      6.03163906      0.02512272
      0.48466793     -0.26654005
      0.18471895     -0.21899893
p              7   1.000000
      1.83062075     -0.01160687
      0.10124670      0.57037932
      0.03901771      0.59567649
      5.64523517     -0.02520332
      1.46372518     -0.12605498
      0.51600842     -0.24341775
      0.20543184     -0.11612303
 
          31   0
s              4   1.000000
     34.94177308     -0.01198412
      6.01726246     -0.05472053
      0.48351271      0.58055871
      0.18427866      0.47700799
p              4   1.000000
      5.63177957      0.05713170
      1.46023635      0.28574555
      0.51477850      0.55178731
      0.20494219      0.26323149
s              7   1.000000
      0.38350848     -0.19622488
      0.04707223      0.94808649
      0.02222627      0.24898191
     34.94177308      0.00551458
      6.01726246      0.02518004
      0.48351271     -0.26714818
      0.18427866     -0.21949859
p              7   1.000000
      1.83062075     -0.01161120
      0.10124670      0.57059235
      0.03901771      0.59589896
      5.63177957     -0.02526104
      1.46023635     -0.12634369
      0.51477850     -0.24397526
      0.20494219     -0.11638900
 
          32   0
s              4   1.000000
     36.91317181     -0.01198412
      6.35675363     -0.05472052
      0.51079228      0.58055871
      0.19467558      0.47700799
p              4   1.000000
      5.94952198      0.05713170
      1.54262221      0.28574555
      0.54382206      0.55178731
      0.21650494      0.26323149
s              7   1.000000
      0.38350848     -0.19450745
      0.04707223      0.93978850
      0.02222627      0.24680273
     36.91317181      0.00523236
      6.35675363      0.02389139
      0.51079228     -0.25347629
      0.19467558     -0.20826527
p              7   1.000000
      1.83062075     -0.01151574
      0.10124670      0.56590134
      0.03901771      0.59099990
      5.94952198     -0.02396294
      1.54262221     -0.11985122
      0.54382206     -0.23143800
      0.21650494     -0.11040807
 
          33   0
s              4   1.000000
     35.02437676     -0.01198412
      6.03148749     -0.05472053
      0.48465576      0.58055871
      0.18471430      0.47700799
p              4   1.000000
      5.64509331      0.05713170
      1.46368840      0.28574555
      0.51599545      0.55178731
      0.20542668      0.26323149
s              7   1.000000
      0.38350848     -0.19614771
      0.04707223      0.94771366
      0.02222627      0.24888400
     35.02437676      0.00550215
      6.03148749      0.02512332
      0.48465576     -0.26654645
      0.18471430     -0.21900418
p              7   1.000000
      1.83062075     -0.01160691
      0.10124670      0.57038156
      0.03901771      0.59567880
      5.64509331     -0.02520392
      1.46368840     -0.12605802
      0.51599545     -0.24342361
      0.20542668     -0.11612583
 
          34   0
s              4   1.000000
     34.95321574     -0.01198412
      6.01923298     -0.05472053
      0.48367105      0.58055871
      0.18433901      0.47700799
p              4   1.000000
      5.63362386      0.05713170
      1.46071454      0.28574555
      0.51494708      0.55178731
      0.20500931      0.26323149
s              7   1.000000
      0.38350848     -0.19621416
      0.04707223      0.94803470
      0.02222627      0.24896831
     34.95321574      0.00551285
      6.01923298      0.02517216
      0.48367105     -0.26706467
      0.18433901     -0.21942997
p              7   1.000000
      1.83062075     -0.01161061
      0.10124670      0.57056306
      0.03901771      0.59586837
      5.63362386     -0.02525311
      1.46071454     -0.12630404
      0.51494708     -0.24389870
      0.20500931     -0.11635248
 
          35   0
s              4   1.000000
     35.65989295     -0.01198412
      6.14092864     -0.05472053
      0.49344982      0.58055871
      0.18806594      0.47700799
p              4   1.000000
      5.74752335      0.05713170
      1.49024698      0.28574555
      0.52535818      0.55178731
      0.20915414      0.26323149
s              7   1.000000
      0.38350848     -0.19556991
      0.04707223      0.94492195
      0.02222627      0.24815085
     35.65989295      0.00540839
      6.14092864      0.02469520
      0.49344982     -0.26200432
      0.18806594     -0.21527220
p              7   1.000000
      1.83062075     -0.01157480
      0.10124670      0.56880326
      0.03901771      0.59403050
      5.74752335     -0.02477273
      1.49024698     -0.12390140
      0.52535818     -0.23925910
      0.20915414     -0.11413914
 
          36   0
s              4   1.000000
     35.11392551     -0.01198412
      6.04690853     -0.05472052
      0.48589490      0.58055871
      0.18518657      0.47700799
p              4   1.000000
      5.65952643      0.05713170
      1.46743069      0.28574555
      0.51731473      0.55178731
      0.20595191      0.26323149
s              7   1.000000
      0.38350848     -0.19606461
      0.04707223      0.94731213
      0.02222627      0.24877855
     35.11392551      0.00548875
      6.04690853      0.02506212
      0.48589490     -0.26589712
      0.18518657     -0.21847067
p              7   1.000000
      1.83062075     -0.01160230
      0.10124670      0.57015455
      0.03901771      0.59544173
      5.65952643     -0.02514229
      1.46743069     -0.12574974
      0.51731473     -0.24282831
      0.20595191     -0.11584184
 
          37   0
s              4   1.000000
      4.48694742     -0.03295496
      1.26386289     -0.17245169
      0.22663027      0.75185112
      0.11150302      0.35896273
p              4   1.000000
      8.16879114     -0.01434249
      0.84416255      0.27551776
      0.38153263      0.58467508
      0.18444129      0.21449865
s              7   1.000000
      0.13262137     -0.35450411
      0.02601144      1.11858739
      0.01283734      0.13302039
      4.48694742      0.01143821
      1.26386289      0.05985557
      0.22663027     -0.26095699
      0.11150302     -0.12459093
p              7   1.000000
      0.28417832     -0.06290820
      0.04344939      0.67577835
      0.02136350      0.40241117
      8.16879114      0.00311138
      0.84416255     -0.05976928
      0.38153263     -0.12683615
      0.18444129     -0.04653214
 
          38   0
s              4   1.000000
     72.83793456     -0.01198412
     12.54329504     -0.05472053
      1.00790728      0.58055871
      0.38413841      0.47700799
p              4   1.000000
      7.51125023      0.05713170
      1.94755502      0.28574555
      0.68657341      0.55178731
      0.27333671      0.26323149
s              7   1.000000
      0.57971233     -0.18809825
      0.07115450      0.90882162
      0.03359728      0.23867036
     72.83793456      0.00403661
     12.54329504      0.01843151
      1.00790728     -0.19554957
      0.38413841     -0.16067059
p              7   1.000000
      2.76717072     -0.01186444
      0.15304476      0.58303671
      0.05897927      0.60889523
      7.51125023     -0.02846374
      1.94755502     -0.14236209
      0.68657341     -0.27490750
      0.27333671     -0.13114529
 
          39   0
s              4   1.000000
     35.01475235     -0.01198412
      6.02983009     -0.05472052
      0.48452258      0.58055871
      0.18466355      0.47700799
p              4   1.000000
      5.64354209      0.05713170
      1.46328619      0.28574555
      0.51585366      0.55178731
      0.20537023      0.26323149
s              7   1.000000
      0.38350848     -0.19615668
      0.04707223      0.94775698
      0.02222627      0.24889538
     35.01475235      0.00550360
      6.02983009      0.02512991
      0.48452258     -0.26661642
      0.18466355     -0.21906167
p              7   1.000000
      1.83062075     -0.01160741
      0.10124670      0.57040605
      0.03901771      0.59570441
      5.64354209     -0.02521057
      1.46328619     -0.12609124
      0.51585366     -0.24348776
      0.20537023     -0.11615644
 
          40   0
s              4   1.000000
     35.32941648     -0.01198412
      6.08401786     -0.05472052
      0.48887679      0.58055871
      0.18632305      0.47700799
p              4   1.000000
      5.69425843      0.05713170
      1.47643618      0.28574555
      0.52048944      0.55178731
      0.20721582      0.26323149
s              7   1.000000
      0.38350848     -0.19586692
      0.04707223      0.94635698
      0.02222627      0.24852771
     35.32941648      0.00545676
      6.08401786      0.02491603
      0.48887679     -0.26434720
      0.18632305     -0.21719720
p              7   1.000000
      1.83062075     -0.01159131
      0.10124670      0.56961454
      0.03901771      0.59487777
      5.69425843     -0.02499516
      1.47643618     -0.12501386
      0.52048944     -0.24140729
      0.20721582     -0.11516394
 
          41   0
s              4   1.000000
     34.93436125     -0.01198412
      6.01598608     -0.05472052
      0.48341015      0.58055871
      0.18423957      0.47700799
p              4   1.000000
      5.63058496      0.05713170
      1.45992660      0.28574555
      0.51466930      0.55178731
      0.20489872      0.26323149
s              7   1.000000
      0.38350848     -0.19623182
      0.04707223      0.94812005
      0.02222627      0.24899071
     34.93436125      0.00551569
      6.01598608      0.02518514
      0.48341015     -0.26720231
      0.18423957     -0.21954306
p              7   1.000000
      1.83062075     -0.01161159
      0.10124670      0.57061133
      0.03901771      0.59591878
      5.63058496     -0.02526618
      1.45992660     -0.12636939
      0.51466930     -0.24402488
      0.20489872     -0.11641267
 
          42   0
s              4   1.000000
     34.93666843     -0.01198412
      6.01638339     -0.05472052
      0.48344208      0.58055871
      0.18425174      0.47700799
p              4   1.000000
      5.63095683      0.05713170
      1.46002302      0.28574555
      0.51470330      0.55178731
      0.20491225      0.26323149
s              7   1.000000
      0.38350848     -0.19622966
      0.04707223      0.94810961
      0.02222627      0.24898798
     34.93666843      0.00551535
      6.01638339      0.02518355
      0.48344208     -0.26718546
      0.18425174     -0.21952921
p              7   1.000000
      1.83062075     -0.01161147
      0.10124670      0.57060542
      0.03901771      0.59591259
      5.63095683     -0.02526458
      1.46002302     -0.12636139
      0.51470330     -0.24400944
      0.20491225     -0.11640530
 
          43   0
s              4   1.000000
     34.94441729     -0.01198412
      6.01771781     -0.05472052
      0.48354930      0.58055871
      0.18429261      0.47700799
p              4   1.000000
      5.63220576      0.05713170
      1.46034685      0.28574555
      0.51481745      0.55178731
      0.20495770      0.26323149
s              7   1.000000
      0.38350848     -0.19622240
      0.04707223      0.94807451
      0.02222627      0.24897877
     34.94441729      0.00551418
      6.01771781      0.02517822
      0.48354930     -0.26712888
      0.18429261     -0.21948273
p              7   1.000000
      1.83062075     -0.01161107
      0.10124670      0.57058558
      0.03901771      0.59589188
      5.63220576     -0.02525921
      1.46034685     -0.12633453
      0.51481745     -0.24395757
      0.20495770     -0.11638056
 
          44   0
s              4   1.000000
     35.17463323     -0.01198412
      6.05736290     -0.05472053
      0.48673496      0.58055871
      0.18550674      0.47700800
p              4   1.000000
      5.66931107      0.05713170
      1.46996770      0.28574555
      0.51820910      0.55178730
      0.20630797      0.26323149
s              7   1.000000
      0.38350848     -0.19600859
      0.04707223      0.94704148
      0.02222627      0.24870747
     35.17463323      0.00547970
      6.05736290      0.02502079
      0.48673496     -0.26545868
      0.18550674     -0.21811043
p              7   1.000000
      1.83062075     -0.01159918
      0.10124670      0.57000153
      0.03901771      0.59528192
      5.66931107     -0.02510067
      1.46996770     -0.12554158
      0.51820910     -0.24242634
      0.20630797     -0.11565008
 
          45   0
s              4   1.000000
     35.01472053     -0.01198412
      6.02982461     -0.05472053
      0.48452214      0.58055871
      0.18466338      0.47700799
p              4   1.000000
      5.64353696      0.05713170
      1.46328486      0.28574555
      0.51585320      0.55178731
      0.20537005      0.26323149
s              7   1.000000
      0.38350848     -0.19615671
      0.04707223      0.94775713
      0.02222627      0.24889540
     35.01472053      0.00550360
      6.02982461      0.02512994
      0.48452214     -0.26661665
      0.18466338     -0.21906187
p              7   1.000000
      1.83062075     -0.01160741
      0.10124670      0.57040614
      0.03901771      0.59570449
      5.64353696     -0.02521059
      1.46328486     -0.12609135
      0.51585320     -0.24348797
      0.20537005     -0.11615654
 
          46   0
s              4   1.000000
     35.17467337     -0.01198412
      6.05736981     -0.05472053
      0.48673551      0.58055871
      0.18550695      0.47700799
p              4   1.000000
      5.66931754      0.05713170
      1.46996938      0.28574555
      0.51820970      0.55178731
      0.20630821      0.26323149
s              7   1.000000
      0.38350848     -0.19600855
      0.04707223      0.94704130
      0.02222627      0.24870743
     35.17467337      0.00547969
      6.05736981      0.02502076
      0.48673551     -0.26545839
      0.18550695     -0.21811019
p              7   1.000000
      1.83062075     -0.01159918
      0.10124670      0.57000142
      0.03901771      0.59528180
      5.66931754     -0.02510064
      1.46996938     -0.12554144
      0.51820970     -0.24242608
      0.20630821     -0.11564995
 
          47   0
s              4   1.000000
     34.94442092     -0.01198412
      6.01771843     -0.05472052
      0.48354935      0.58055871
      0.18429263      0.47700800
p              4   1.000000
      5.63220634      0.05713170
      1.46034700      0.28574555
      0.51481751      0.55178731
      0.20495772      0.26323149
s              7   1.000000
      0.38350848     -0.19622239
      0.04707223      0.94807449
      0.02222627      0.24897877
     34.94442092      0.00551418
      6.01771843      0.02517821
      0.48354935     -0.26712885
      0.18429263     -0.21948271
p              7   1.000000
      1.83062075     -0.01161107
      0.10124670      0.57058557
      0.03901771      0.59589188
      5.63220634     -0.02525921
      1.46034700     -0.12633452
      0.51481751     -0.24395754
      0.20495772     -0.11638055
 
          48   0
s              4   1.000000
     34.93666984     -0.01198412
      6.01638364     -0.05472052
      0.48344210      0.58055871
      0.18425175      0.47700799
p              4   1.000000
      5.63095705      0.05713170
      1.46002308      0.28574555
      0.51470332      0.55178731
      0.20491226      0.26323149
s              7   1.000000
      0.38350848     -0.19622966
      0.04707223      0.94810959
      0.02222627      0.24898798
     34.93666984      0.00551535
      6.01638364      0.02518355
      0.48344210     -0.26718545
      0.18425175     -0.21952921
p              7   1.000000
      1.83062075     -0.01161147
      0.10124670      0.57060541
      0.03901771      0.59591259
      5.63095705     -0.02526458
      1.46002308     -0.12636138
      0.51470332     -0.24400942
      0.20491226     -0.11640530
 
          49   0
s              4   1.000000
     34.93436078     -0.01198412
      6.01598600     -0.05472052
      0.48341014      0.58055871
      0.18423957      0.47700799
p              4   1.000000
      5.63058489      0.05713170
      1.45992658      0.28574555
      0.51466930      0.55178731
      0.20489872      0.26323149
s              7   1.000000
      0.38350848     -0.19623182
      0.04707223      0.94812005
      0.02222627      0.24899071
     34.93436078      0.00551569
      6.01598600      0.02518514
      0.48341014     -0.26720231
      0.18423957     -0.21954306
p              7   1.000000
      1.83062075     -0.01161159
      0.10124670      0.57061133
      0.03901771      0.59591878
      5.63058489     -0.02526618
      1.45992658     -0.12636939
      0.51466930     -0.24402489
      0.20489872     -0.11641267
 
          50   0
s              4   1.000000
     35.32945320     -0.01198412
      6.08402418     -0.05472052
      0.48887730      0.58055871
      0.18632324      0.47700799
p              4   1.000000
      5.69426435      0.05713170
      1.47643772      0.28574555
      0.52048998      0.55178730
      0.20721603      0.26323149
s              7   1.000000
      0.38350848     -0.19586689
      0.04707223      0.94635681
      0.02222627      0.24852766
     35.32945320      0.00545675
      6.08402418      0.02491600
      0.48887730     -0.26434693
      0.18632324     -0.21719698
p              7   1.000000
      1.83062075     -0.01159130
      0.10124670      0.56961446
      0.03901771      0.59487769
      5.69426435     -0.02499513
      1.47643772     -0.12501373
      0.52048998     -0.24140705
      0.20721603     -0.11516383
 
          51   0
s              4   1.000000
      8.30631547      0.05675242
      1.51995339      0.26014135
      0.42225970      0.53284611
      0.14014420      0.29162544
s              7   1.000000
      0.92936822     -0.06733181
      0.05643440      0.66948908
      0.02166600      0.51464053
      8.30631547     -0.02902976
      1.51995339     -0.13306639
      0.42225970     -0.27255916
      0.14014420     -0.14917100
p              4   1.000000
      0.64737396      0.05713170
      0.16785440      0.28574555
      0.05917387      0.55178731
      0.02355814      0.26323150
 
          52   0
s              4   1.000000
      8.30602838      0.05675242
      1.51990086      0.26014135
      0.42224510      0.53284611
      0.14013935      0.29162544
s              7   1.000000
      0.92936822     -0.06733218
      0.05643440      0.66949275
      0.02166600      0.51464337
      8.30602838     -0.02903052
      1.51990086     -0.13306991
      0.42224510     -0.27256638
      0.14013935     -0.14917494
p              4   1.000000
      0.64737396      0.05713170
      0.16785440      0.28574555
      0.05917387      0.55178731
      0.02355814      0.26323150
 
          53   0
s              4   1.000000
      8.30596834      0.05675242
      1.51988987      0.26014135
      0.42224205      0.53284611
      0.14013834      0.29162544
s              7   1.000000
      0.92936822     -0.06733226
      0.05643440      0.66949352
      0.02166600      0.51464394
      8.30596834     -0.02903068
      1.51988987     -0.13307065
      0.42224205     -0.27256788
      0.14013834     -0.14917577
p              4   1.000000
      0.64737396      0.05713170
      0.16785440      0.28574555
      0.05917387      0.55178731
      0.02355814      0.26323150
 
          54   0
s              4   1.000000
      8.30936847      0.05675242
      1.52051205      0.26014135
      0.42241490      0.53284611
      0.14019571      0.29162544
s              7   1.000000
      0.92936822     -0.06732788
      0.05643440      0.66945001
      0.02166600      0.51461050
      8.30936847     -0.02902159
      1.52051205     -0.13302894
      0.42241490     -0.27248246
      0.14019571     -0.14912902
p              4   1.000000
      0.64737396      0.05713170
      0.16785440      0.28574555
      0.05917387      0.55178731
      0.02355814      0.26323150
 
          55   0
s              4   1.000000
      8.30936976      0.05675242
      1.52051229      0.26014135
      0.42241496      0.53284611
      0.14019573      0.29162544
s              7   1.000000
      0.92936822     -0.06732788
      0.05643440      0.66944999
      0.02166600      0.51461050
      8.30936976     -0.02902158
      1.52051229     -0.13302893
      0.42241496     -0.27248243
      0.14019573     -0.14912900
p              4   1.000000
      0.64737396      0.05713170
      0.16785440      0.28574555
      0.05917387      0.55178731
      0.02355814      0.26323150
 
          56   0
s              4   1.000000
      8.30934666      0.05675242
      1.52050807      0.26014135
      0.42241379      0.53284611
      0.14019534      0.29162544
s              7   1.000000
      0.92936822     -0.06732791
      0.05643440      0.66945029
      0.02166600      0.51461072
      8.30934666     -0.02902164
      1.52050807     -0.13302921
      0.42241379     -0.27248301
      0.14019534     -0.14912932
p              4   1.000000
      0.64737396      0.05713170
      0.16785440      0.28574555
      0.05917387      0.55178731
      0.02355814      0.26323150
 
          57   0
s              4   1.000000
      8.30926951      0.05675242
      1.52049395      0.26014135
      0.42240987      0.53284611
      0.14019404      0.29162544
s              7   1.000000
      0.92936822     -0.06732801
      0.05643440      0.66945127
      0.02166600      0.51461146
      8.30926951     -0.02902185
      1.52049395     -0.13303016
      0.42240987     -0.27248494
      0.14019404     -0.14913037
p              4   1.000000
      0.64737396      0.05713170
      0.16785440      0.28574555
      0.05917387      0.55178731
      0.02355814      0.26323150
 
          58   0
s              4   1.000000
      8.30599766      0.05675242
      1.51989524      0.26014135
      0.42224354      0.53284611
      0.14013883      0.29162544
s              7   1.000000
      0.92936822     -0.06733222
      0.05643440      0.66949314
      0.02166600      0.51464367
      8.30599766     -0.02903061
      1.51989524     -0.13307029
      0.42224354     -0.27256715
      0.14013883     -0.14917537
p              4   1.000000
      0.64737396      0.05713170
      0.16785440      0.28574555
      0.05917387      0.55178731
      0.02355814      0.26323150
 
          59   0
s              4   1.000000
      8.30603997      0.05675242
      1.51990298      0.26014135
      0.42224569      0.53284611
      0.14013955      0.29162544
s              7   1.000000
      0.92936822     -0.06733217
      0.05643440      0.66949261
      0.02166600      0.51464324
      8.30603997     -0.02903049
      1.51990298     -0.13306977
      0.42224569     -0.27256608
      0.14013955     -0.14917479
p              4   1.000000
      0.64737396      0.05713170
      0.16785440      0.28574555
      0.05917387      0.55178731
      0.02355814      0.26323150
 
          60   0
s              4   1.000000
      8.30627624      0.05675242
      1.51994622      0.26014135
      0.42225770      0.53284611
      0.14014354      0.29162544
s              7   1.000000
      0.92936822     -0.06733186
      0.05643440      0.66948958
      0.02166600      0.51464091
      8.30627624     -0.02902986
      1.51994622     -0.13306687
      0.42225770     -0.27256015
      0.14014354     -0.14917154
p              4   1.000000
      0.64737396      0.05713170
      0.16785440      0.28574555
      0.05917387      0.55178731
      0.02355814      0.26323150
 
          61   0
s              4   1.000000
      8.30947416      0.05675242
      1.52053139      0.26014135
      0.42242027      0.53284611
      0.14019749      0.29162544
s              7   1.000000
      0.92936822     -0.06732775
      0.05643440      0.66944866
      0.02166600      0.51460945
      8.30947416     -0.02902130
      1.52053139     -0.13302765
      0.42242027     -0.27247980
      0.14019749     -0.14912756
p              4   1.000000
      0.64737396      0.05713170
      0.16785440      0.28574555
      0.05917387      0.55178731
      0.02355814      0.26323150
 
          62   0
s              4   1.000000
      8.31040661      0.05675242
      1.52070202      0.26014135
      0.42246767      0.53284611
      0.14021322      0.29162544
s              7   1.000000
      0.92936822     -0.06732655
      0.05643440      0.66943673
      0.02166600      0.51460028
      8.31040661     -0.02901881
      1.52070202     -0.13301622
      0.42246767     -0.27245639
      0.14021322     -0.14911475
p              4   1.000000
      0.64737396      0.05713170
      0.16785440      0.28574555
      0.05917387      0.55178731
      0.02355814      0.26323150
 
          63   0
s              4   1.000000
      8.30956865      0.05675242
      1.52054869      0.26014135
      0.42242507      0.53284611
      0.14019909      0.29162543
s              7   1.000000
      0.92936822     -0.06732763
      0.05643440      0.66944745
      0.02166600      0.51460853
      8.30956865     -0.02902105
      1.52054869     -0.13302649
      0.42242507     -0.27247743
      0.14019909     -0.14912626
p              4   1.000000
      0.64737396      0.05713170
      0.16785440      0.28574555
      0.05917387      0.55178731
      0.02355814      0.26323150
 
          64   0
s              4   1.000000
      8.30901144      0.05675242
      1.52044672      0.26014135
      0.42239675      0.53284611
      0.14018968      0.29162544
s              7   1.000000
      0.92936822     -0.06732834
      0.05643440      0.66945457
      0.02166600      0.51461400
      8.30901144     -0.02902254
      1.52044672     -0.13303332
      0.42239675     -0.27249142
      0.14018968     -0.14913392
p              4   1.000000
      0.64737396      0.05713170
      0.16785440      0.28574555
      0.05917387      0.55178731
      0.02355814      0.26323150
 
          65   0
s              4   1.000000
      8.30956777      0.05675242
      1.52054852      0.26014135
      0.42242503      0.53284611
      0.14019907      0.29162544
s              7   1.000000
      0.92936822     -0.06732763
      0.05643440      0.66944746
      0.02166600      0.51460853
      8.30956777     -0.02902105
      1.52054852     -0.13302650
      0.42242503     -0.27247745
      0.14019907     -0.14912627
p              4   1.000000
      0.64737396      0.05713170
      0.16785440      0.28574555
      0.05917387      0.55178731
      0.02355814      0.26323150
 
          66   0
s              4   1.000000
      8.31040578      0.05675242
      1.52070187      0.26014135
      0.42246763      0.53284611
      0.14021321      0.29162544
s              7   1.000000
      0.92936822     -0.06732655
      0.05643440      0.66943675
      0.02166600      0.51460031
      8.31040578     -0.02901881
      1.52070187     -0.13301623
      0.42246763     -0.27245641
      0.14021321     -0.14911476
p              4   1.000000
      0.64737396      0.05713170
      0.16785440      0.28574555
      0.05917387      0.55178731
      0.02355814      0.26323150
 
          67   0
s              4   1.000000
      8.30947435      0.05675242
      1.52053143      0.26014135
      0.42242028      0.53284611
      0.14019749      0.29162544
s              7   1.000000
      0.92936822     -0.06732775
      0.05643440      0.66944866
      0.02166600      0.51460945
      8.30947435     -0.02902130
      1.52053143     -0.13302765
      0.42242028     -0.27247980
      0.14019749     -0.14912756
p              4   1.000000
      0.64737396      0.05713170
      0.16785440      0.28574555
      0.05917387      0.55178731
      0.02355814      0.26323150
 
          68   0
s              4   1.000000
      8.30627644      0.05675242
      1.51994625      0.26014135
      0.42225771      0.53284611
      0.14014354      0.29162544
s              7   1.000000
      0.92936822     -0.06733186
      0.05643440      0.66948958
      0.02166600      0.51464091
      8.30627644     -0.02902986
      1.51994625     -0.13306687
      0.42225771     -0.27256014
      0.14014354     -0.14917153
p              4   1.000000
      0.64737396      0.05713170
      0.16785440      0.28574555
      0.05917387      0.55178731
      0.02355814      0.26323150
 
          69   0
s              4   1.000000
      8.30604219      0.05675242
      1.51990339      0.26014135
      0.42224580      0.53284611
      0.14013959      0.29162544
s              7   1.000000
      0.92936822     -0.06733216
      0.05643440      0.66949257
      0.02166600      0.51464322
      8.30604219     -0.02903049
      1.51990339     -0.13306974
      0.42224580     -0.27256603
      0.14013959     -0.14917476
p              4   1.000000
      0.64737396      0.05713170
      0.16785440      0.28574555
      0.05917387      0.55178731
      0.02355814      0.26323150
 
          70   0
s              4   1.000000
      8.30599550      0.05675242
      1.51989484      0.26014135
      0.42224343      0.53284611
      0.14013880      0.29162544
s              7   1.000000
      0.92936822     -0.06733222
      0.05643440      0.66949318
      0.02166600      0.51464369
      8.30599550     -0.02903061
      1.51989484     -0.13307032
      0.42224343     -0.27256720
      0.14013880     -0.14917540
p              4   1.000000
      0.64737396      0.05713170
      0.16785440      0.28574555
      0.05917387      0.55178731
      0.02355814      0.26323150
 
          71   0
s              4   1.000000
      8.30926974      0.05675242
      1.52049399      0.26014135
      0.42240988      0.53284611
      0.14019404      0.29162544
s              7   1.000000
      0.92936822     -0.06732801
      0.05643440      0.66945127
      0.02166600      0.51461146
      8.30926974     -0.02902185
      1.52049399     -0.13303016
      0.42240988     -0.27248494
      0.14019404     -0.14913037
p              4   1.000000
      0.64737396      0.05713170
      0.16785440      0.28574555
      0.05917387      0.55178731
      0.02355814      0.26323150
 
          72   0
s              4   1.000000
      8.30934686      0.05675242
      1.52050810      0.26014135
      0.42241380      0.53284611
      0.14019534      0.29162544
s              7   1.000000
      0.92936822     -0.06732791
      0.05643440      0.66945028
      0.02166600      0.51461072
      8.30934686     -0.02902164
      1.52050810     -0.13302921
      0.42241380     -0.27248300
      0.14019534     -0.14912932
p              4   1.000000
      0.64737396      0.05713170
      0.16785440      0.28574555
      0.05917387      0.55178731
      0.02355814      0.26323150
 
          73   0
s              4   1.000000
      8.30631555      0.05675242
      1.51995341      0.26014135
      0.42225970      0.53284611
      0.14014420      0.29162544
s              7   1.000000
      0.92936822     -0.06733181
      0.05643440      0.66948907
      0.02166600      0.51464053
      8.30631555     -0.02902976
      1.51995341     -0.13306639
      0.42225970     -0.27255916
      0.14014420     -0.14917099
p              4   1.000000
      0.64737396      0.05713170
      0.16785440      0.28574555
      0.05917387      0.55178731
      0.02355814      0.26323150
 
          74   0
s              4   1.000000
      8.30602744      0.05675242
      1.51990069      0.26014135
      0.42224505      0.53284611
      0.14013934      0.29162544
s              7   1.000000
      0.92936822     -0.06733218
      0.05643440      0.66949277
      0.02166600      0.51464337
      8.30602744     -0.02903053
      1.51990069     -0.13306993
      0.42224505     -0.27256640
      0.14013934     -0.14917495
p              4   1.000000
      0.64737396      0.05713170
      0.16785440      0.28574555
      0.05917387      0.55178731
      0.02355814      0.26323150
 
          75   0
s              4   1.000000
      8.30596943      0.05675242
      1.51989007      0.26014135
      0.42224210      0.53284611
      0.14013836      0.29162544
s              7   1.000000
      0.92936822     -0.06733226
      0.05643440      0.66949351
      0.02166600      0.51464394
      8.30596943     -0.02903068
      1.51989007     -0.13307064
      0.42224210     -0.27256786
      0.14013836     -0.14917575
p              4   1.000000
      0.64737396      0.05713170
      0.16785440      0.28574555
      0.05917387      0.55178731
      0.02355814      0.26323150
 
          76   0
s              4   1.000000
      8.30936840      0.05675242
      1.52051204      0.26014135
      0.42241490      0.53284611
      0.14019571      0.29162544
s              7   1.000000
      0.92936822     -0.06732788
      0.05643440      0.66945001
      0.02166600      0.51461050
      8.30936840     -0.02902159
      1.52051204     -0.13302894
      0.42241490     -0.27248246
      0.14019571     -0.14912902
p              4   1.000000
      0.64737396      0.05713170
      0.16785440      0.28574555
      0.05917387      0.55178731
      0.02355814      0.26323150
 
          77   0
s              4   1.000000
      8.30936913      0.05675242
      1.52051218      0.26014135
      0.42241493      0.53284611
      0.14019572      0.29162544
s              7   1.000000
      0.92936822     -0.06732788
      0.05643440      0.66945000
      0.02166600      0.51461050
      8.30936913     -0.02902158
      1.52051218     -0.13302894
      0.42241493     -0.27248244
      0.14019572     -0.14912901
p              4   1.000000
      0.64737396      0.05713170
      0.16785440      0.28574555
      0.05917387      0.55178731
      0.02355814      0.26323150
 
          78   0
s              4   1.000000
      8.31285897      0.05675242
      1.52115077      0.26014135
      0.42259234      0.53284611
      0.14025460      0.29162544
s              7   1.000000
      0.92936822     -0.06732340
      0.05643440      0.66940538
      0.02166600      0.51457618
      8.31285897     -0.02901225
      1.52115077     -0.13298616
      0.42259234     -0.27239482
      0.14025460     -0.14908105
p              4   1.000000
      0.64737396      0.05713170
      0.16785440      0.28574555
      0.05917387      0.55178731
      0.02355814      0.26323150
 
          79   0
s              4   1.000000
      8.30905071      0.05675242
      1.52045391      0.26014135
      0.42239875      0.53284611
      0.14019035      0.29162544
s              7   1.000000
      0.92936822     -0.06732829
      0.05643440      0.66945407
      0.02166600      0.51461363
      8.30905071     -0.02902244
      1.52045391     -0.13303284
      0.42239875     -0.27249044
      0.14019035     -0.14913338
p              4   1.000000
      0.64737396      0.05713170
      0.16785440      0.28574555
      0.05917387      0.55178731
      0.02355814      0.26323150
 
          80   0
s              4   1.000000
      8.30902396      0.05675242
      1.52044901      0.26014135
      0.42239739      0.53284611
      0.14018990      0.29162544
s              7   1.000000
      0.92936822     -0.06732833
      0.05643440      0.66945441
      0.02166600      0.51461387
      8.30902396     -0.02902251
      1.52044901     -0.13303317
      0.42239739     -0.27249111
      0.14018990     -0.14913375
p              4   1.000000
      0.64737396      0.05713170
      0.16785440      0.28574555
      0.05917387      0.55178731
      0.02355814      0.26323150
 
          81   0
s              4   1.000000
      8.30920112      0.05675242
      1.52048143      0.26014135
      0.42240639      0.53284611
      0.14019288      0.29162544
s              7   1.000000
      0.92936822     -0.06732810
      0.05643440      0.66945215
      0.02166600      0.51461214
      8.30920112     -0.02902203
      1.52048143     -0.13303100
      0.42240639     -0.27248666
      0.14019288     -0.14913131
p              4   1.000000
      0.64737396      0.05713170
      0.16785440      0.28574555
      0.05917387      0.55178731
      0.02355814      0.26323150
 
          82   0
s              4   1.000000
      8.31103137      0.05675242
      1.52081635      0.26014135
      0.42249943      0.53284611
      0.14022376      0.29162544
s              7   1.000000
      0.92936822     -0.06732574
      0.05643440      0.66942875
      0.02166600      0.51459415
      8.31103137     -0.02901714
      1.52081635     -0.13300856
      0.42249943     -0.27244070
      0.14022376     -0.14910616
p              4   1.000000
      0.64737396      0.05713170
      0.16785440      0.28574555
      0.05917387      0.55178731
      0.02355814      0.26323150
 
          83   0
s              4   1.000000
      8.31103229      0.05675242
      1.52081651      0.26014135
      0.42249948      0.53284611
      0.14022378      0.29162544
s              7   1.000000
      0.92936822     -0.06732574
      0.05643440      0.66942874
      0.02166600      0.51459415
      8.31103229     -0.02901714
      1.52081651     -0.13300855
      0.42249948     -0.27244068
      0.14022378     -0.14910615
p              4   1.000000
      0.64737396      0.05713170
      0.16785440      0.28574555
      0.05917387      0.55178731
      0.02355814      0.26323150
 
          84   0
s              4   1.000000
      8.30920155      0.05675242
      1.52048151      0.26014135
      0.42240641      0.53284611
      0.14019289      0.29162544
s              7   1.000000
      0.92936822     -0.06732810
      0.05643440      0.66945215
      0.02166600      0.51461214
      8.30920155     -0.02902203
      1.52048151     -0.13303099
      0.42240641     -0.27248665
      0.14019289     -0.14913131
p              4   1.000000
      0.64737396      0.05713170
      0.16785440      0.28574555
      0.05917387      0.55178731
      0.02355814      0.26323150
 
          85   0
s              4   1.000000
      8.30902376      0.05675242
      1.52044898      0.26014135
      0.42239738      0.53284611
      0.14018989      0.29162544
s              7   1.000000
      0.92936822     -0.06732833
      0.05643440      0.66945441
      0.02166600      0.51461390
      8.30902376     -0.02902251
      1.52044898     -0.13303317
      0.42239738     -0.27249112
      0.14018989     -0.14913376
p              4   1.000000
      0.64737396      0.05713170
      0.16785440      0.28574555
      0.05917387      0.55178731
      0.02355814      0.26323150
 
          86   0
s              4   1.000000
      8.30905071      0.05675242
      1.52045391      0.26014135
      0.42239875      0.53284611
      0.14019035      0.29162544
s              7   1.000000
      0.92936822     -0.06732829
      0.05643440      0.66945407
      0.02166600      0.51461363
      8.30905071     -0.02902244
      1.52045391     -0.13303284
      0.42239875     -0.27249044
      0.14019035     -0.14913338
p              4   1.000000
      0.64737396      0.05713170
      0.16785440      0.28574555
      0.05917387      0.55178731
      0.02355814      0.26323150
 
          87   0
s              4   1.000000
      8.31285945      0.05675242
      1.52115086      0.26014135
      0.42259237      0.53284611
      0.14025461      0.29162544
s              7   1.000000
      0.92936822     -0.06732339
      0.05643440      0.66940537
      0.02166600      0.51457618
      8.31285945     -0.02901225
      1.52115086     -0.13298615
      0.42259237     -0.27239481
      0.14025461     -0.14908105
p              4   1.000000
      0.64737396      0.05713170
      0.16785440      0.28574555
      0.05917387      0.55178731
      0.02355814      0.26323150
 
 [MO]
 Sym= Hole
 Ene= -0.5976710    
 Spin= Alpha
 Occup= 0
           1 -3.7729307E-05
           2 -6.5109236E-03
           3  2.1867468E-03
           4  1.2854019E-02
           5  1.7059268E-05
           6  1.6177649E-03
           7 -7.3778443E-04
           8 -3.3005334E-03
           9 -6.1639555E-04
          10  8.2877509E-02
          11 -2.9811954E-02
          12 -0.1730558    
          13 -1.1404652E-05
          14 -3.6373360E-03
          15  1.4932925E-03
          16  9.0655843E-03
          17 -6.8266335E-04
          18 -9.9707786E-03
          19  4.6499381E-03
          20  2.4872592E-02
          21 -9.9972807E-05
          22  1.3883534E-04
          23  5.9274526E-04
          24  1.8425046E-03
          25 -1.5672245E-03
          26 -8.5323341E-02
          27  3.3535600E-02
          28  0.1844964    
          29  8.1438379E-04
          30  5.0952937E-03
          31 -1.9975863E-03
          32 -8.3865197E-03
          33 -3.4581521E-03
          34 -5.3078523E-03
          35  9.1090854E-03
          36  3.8645763E-02
          37  2.7077585E-03
          38  4.0543699E-03
          39 -5.7065315E-03
          40 -1.4233492E-02
          41  2.4286362E-03
          42 -8.6648576E-02
          43  3.7618089E-02
          44  0.1649961    
          45 -1.5320353E-03
          46  3.6446031E-03
          47 -2.5929983E-03
          48 -6.8775420E-03
          49 -1.4306634E-03
          50  4.2180900E-02
          51 -1.4607507E-02
          52 -8.1265509E-02
          53 -8.1618578E-05
          54 -3.0323446E-03
          55  7.2989665E-04
          56  6.5307249E-03
          57  6.0604955E-03
          58 -7.9559483E-02
          59  2.7542692E-02
          60  0.1603149    
          61 -2.8007124E-03
          62  2.9223291E-03
          63 -9.2336861E-04
          64 -7.3245061E-03
          65 -1.1390951E-03
          66  4.6350732E-02
          67 -1.6051898E-02
          68 -9.8816231E-02
          69 -2.0470294E-04
          70 -2.8762608E-03
          71  9.8578923E-04
          72  6.4320820E-03
          73  3.6172889E-04
          74  8.3987236E-02
          75 -2.6389997E-02
          76 -0.1738764    
          77 -3.6221783E-04
          78 -3.2203312E-03
          79  1.1325693E-03
          80  8.2179233E-03
          81  1.9865356E-04
          82 -6.3875699E-03
          83  1.9471700E-03
          84  1.3336539E-02
          85 -8.0781152E-05
          86  1.5547724E-03
          87 -4.3029923E-04
          88 -3.3864179E-03
          89 -3.9915787E-04
          90 -1.7138498E-02
          91  5.5859848E-03
          92  3.6140453E-02
          93  3.1283128E-04
          94 -1.0411503E-03
          95  1.2628485E-04
          96  1.4505769E-03
          97 -1.5920285E-03
          98 -0.1031098    
          99  1.6121315E-02
         100  0.1880565    
         101  1.8281637E-03
         102  3.1249535E-03
         103  2.2647160E-03
         104 -7.1649197E-03
         105 -5.8720470E-04
         106 -1.5228507E-02
         107  4.3067229E-03
         108  4.1079205E-02
         109  6.9839187E-04
         110  5.6612790E-03
         111 -1.1592023E-03
         112 -1.5867496E-02
         113  1.1075753E-02
         114  0.1353388    
         115 -6.4310350E-02
         116 -0.3834493    
         117 -2.5260106E-03
         118 -1.3604905E-02
         119  1.0674464E-03
         120  3.1296112E-02
         121 -1.2598105E-02
         122 -6.2556909E-03
         123  2.1376284E-02
         124  5.8691390E-02
         125  3.5667934E-03
         126  3.3216253E-03
         127 -3.8012082E-03
         128 -7.3258891E-03
         129 -3.6923341E-02
         130 -1.2997646E-02
         131  5.1539168E-02
         132 -7.3271699E-02
         133  1.9533738E-02
         134  8.5726837E-03
         135 -4.7390959E-03
         136  8.2273725E-03
         137  2.1562139E-02
         138  8.4407722E-05
         139 -3.1765193E-02
         140  2.5313739E-02
         141 -5.0762361E-03
         142 -7.1477348E-07
         143  7.0764334E-03
         144  1.1811745E-03
         145 -3.6695413E-02
         146  1.3047743E-02
         147  5.0268348E-02
         148 -7.3487006E-02
         149  1.9427028E-02
         150 -8.5545322E-03
         151 -4.6435692E-03
         152  8.2504787E-03
         153 -1.2687802E-02
         154  6.2078871E-03
         155  2.1268509E-02
         156  5.8322467E-02
         157  3.6117812E-03
         158 -3.3263376E-03
         159 -3.7620468E-03
         160 -7.2354339E-03
         161  1.1296162E-02
         162 -0.1346739    
         163 -6.3838154E-02
         164 -0.3810586    
         165 -2.6103510E-03
         166  1.3569529E-02
         167  1.0351845E-03
         168  3.1099347E-02
         169 -6.2293449E-04
         170  1.5120650E-02
         171  4.1960115E-03
         172  4.0876783E-02
         173  7.4156362E-04
         174 -5.6067929E-03
         175 -1.1100917E-03
         176 -1.5786864E-02
         177 -1.5738670E-03
         178  0.1027741    
         179  1.6121158E-02
         180  0.1867213    
         181  1.8383624E-03
         182 -3.0893127E-03
         183  2.2625504E-03
         184 -7.0999358E-03
         185 -4.2817171E-04
         186  1.7059026E-02
         187  5.5657881E-03
         188  3.5878167E-02
         189  3.2570746E-04
         190  1.0414096E-03
         191  1.1611146E-04
         192  1.4421659E-03
         193  3.5735336E-04
         194 -8.3740465E-02
         195 -2.6442263E-02
         196 -0.1726304    
         197 -3.5931592E-04
         198  3.2010071E-03
         199  1.1347159E-03
         200  8.1589855E-03
         201  2.0161722E-04
         202  6.3627716E-03
         203  1.9659142E-03
         204  1.3241543E-02
         205 -8.4571133E-05
         206 -1.5511668E-03
         207 -4.3039917E-04
         208 -3.3639346E-03
         209 -1.1530868E-03
         210 -4.6205185E-02
         211 -1.6059810E-02
         212 -9.8090492E-02
         213 -2.0421577E-04
         214  2.8496010E-03
         215  9.7788183E-04
         216  6.3915811E-03
         217  6.0436372E-03
         218  7.9378054E-02
         219  2.7450284E-02
         220  0.1591712    
         221 -2.7902452E-03
         222 -2.9238346E-03
         223 -9.1685337E-04
         224 -7.2713820E-03
         225  2.4509707E-03
         226  8.6403295E-02
         227  3.7351694E-02
         228  0.1637889    
         229 -1.5294093E-03
         230 -3.6330405E-03
         231 -2.5748170E-03
         232 -6.8239798E-03
         233 -1.4405744E-03
         234 -4.2066090E-02
         235 -1.4473969E-02
         236 -8.0686621E-02
         237 -7.7196150E-05
         238  3.0174332E-03
         239  7.2113372E-04
         240  6.4884350E-03
         241 -5.9090572E-04
         242 -8.2648076E-02
         243 -2.9459313E-02
         244 -0.1718147    
         245 -1.3720067E-05
         246  3.6224222E-03
         247  1.4765938E-03
         248  9.0034371E-03
         249 -4.4884982E-05
         250  6.4911614E-03
         251  2.1764059E-03
         252  1.2753950E-02
         253  2.3652487E-05
         254 -1.6123245E-03
         255 -7.3456304E-04
         256 -3.2788506E-03
         257 -7.0538092E-04
         258  9.9314461E-03
         259  4.6340921E-03
         260  2.4738111E-02
         261 -8.7919179E-05
         262 -1.4406609E-04
         263  5.9033319E-04
         264  1.8366380E-03
         265 -1.5420876E-03
         266  8.5116006E-02
         267  3.3235852E-02
         268  0.1832009    
         269  8.1159838E-04
         270 -5.0858329E-03
         271 -1.9888640E-03
         272 -8.3212126E-03
         273 -3.5067471E-03
         274  5.1930817E-03
         275  9.1246953E-03
         276  3.8427014E-02
         277  2.7368411E-03
         278 -4.0265708E-03
         279 -5.6960722E-03
         280 -1.4151871E-02
         281  6.4294763E-02
         282  4.3210780E-04
         283  0.2418881    
         284  1.5412463E-02
         285 -3.1474367E-02
         286 -7.7766730E-05
         287 -1.0770286E-02
         288 -7.2680535E-03
         289 -9.8839374E-03
         290  8.5103820E-05
         291 -9.2279649E-04
         292  5.2945830E-02
         293 -3.6340553E-04
         294 -3.8608057E-05
         295 -8.8486075E-04
         296 -3.6372677E-03
         297  1.7034163E-05
         298 -2.0514715E-04
         299  2.4203999E-02
         300 -3.6612183E-02
         301 -2.3538369E-04
         302  1.0739648E-05
         303  5.8048707E-03
         304  6.6742813E-03
         305  2.4585794E-03
         306  2.2920608E-03
         307  4.5333533E-03
         308 -5.4062605E-03
         309 -2.9740997E-03
         310 -6.9486792E-03
         311  1.9909970E-03
         312  1.0156329E-02
         313 -9.6309773E-04
         314  1.6255181E-02
         315 -4.3133306E-03
         316 -2.2447696E-02
         317 -1.8282874E-03
         318  3.1823716E-03
         319 -1.2744822E-03
         320  5.6507746E-03
         321 -4.3044222E-04
         322 -5.4409327E-03
         323  9.7075250E-04
         324  7.9504326E-03
         325  6.3135382E-04
         326  2.2579515E-03
         327 -5.1428168E-04
         328 -1.9227921E-03
         329 -3.1915691E-04
         330 -2.1166807E-02
         331  6.5305657E-03
         332  3.0487251E-02
         333  5.5381266E-04
         334  3.7597492E-04
         335 -9.6717838E-04
         336 -2.5595184E-03
         337 -8.8095403E-04
         338  1.3931590E-03
         339 -8.5765542E-04
         340 -1.8820433E-04
         341  6.0850487E-04
         342  1.7911672E-03
         343  4.9402051E-06
         344 -4.9465906E-04
         345  1.0228385E-03
         346  1.7845497E-02
         347 -1.5183524E-02
         348 -2.2310482E-02
         349 -1.6105667E-03
         350 -2.1092156E-03
         351  6.1982670E-03
         352  5.4919720E-03
         353  2.3959551E-03
         354 -2.2946855E-03
         355  4.5720804E-03
         356 -5.2873143E-03
         357 -2.9009357E-03
         358  6.9341348E-03
         359  1.9589812E-03
         360  1.0032751E-02
         361  1.0245618E-03
         362 -1.7761517E-02
         363 -1.5110413E-02
         364 -2.2154706E-02
         365 -1.5901645E-03
         366  2.1083783E-03
         367  6.1565209E-03
         368  5.4463991E-03
         369 -8.8012085E-04
         370 -1.4164803E-03
         371 -8.4628316E-04
         372 -1.9511118E-04
         373  5.9879589E-04
         374 -1.7844876E-03
         375  1.2453694E-05
         376 -4.8152937E-04
         377 -3.1717049E-04
         378  2.1047190E-02
         379  6.4682811E-03
         380  3.0218307E-02
         381  5.4743822E-04
         382 -3.8035985E-04
         383 -9.5351250E-04
         384 -2.5369525E-03
         385 -4.2908386E-04
         386  5.4055406E-03
         387  9.6324820E-04
         388  7.8953262E-03
         389  6.1987084E-04
         390 -2.2548898E-03
         391 -5.0466426E-04
         392 -1.8984462E-03
         393 -9.6827239E-04
         394 -1.6170712E-02
         395 -4.2811306E-03
         396 -2.2249494E-02
         397 -1.8062425E-03
         398 -3.1633433E-03
         399 -1.2627660E-03
         400  5.6027337E-03
         401  1.7101687E-03
         402 -4.0398072E-04
         403 -3.8879129E-04
         404  2.0074470E-04
         405  1.6662332E-03
         406  4.1848980E-02
         407 -9.7546680E-03
         408  2.3073573E-03
         409  4.6353899E-03
         410  4.9677361E-03
         411 -4.3624464E-02
         412  1.0100461E-02
         413 -5.6192335E-03
         414 -3.2737933E-03
         415  2.4672223E-03
         416  6.5189332E-04
         417 -3.0824784E-04
         418 -2.6577484E-04
         419  5.5543572E-04
         420  1.1189901E-03
         421  3.3402846E-03
         422 -8.0797845E-04
         423 -5.1674615E-03
         424  3.5055415E-03
         425  1.0766216E-02
         426  4.0237261E-03
         427 -8.5974199E-04
         428  2.8290900E-03
         429 -1.1140052E-03
         430 -5.2333395E-03
         431 -2.2870237E-04
         432 -3.7544698E-04
         433  2.2551541E-03
         434 -5.4086238E-04
         435 -6.2076091E-03
         436 -4.2329222E-02
         437  9.7119659E-03
         438 -2.7741445E-03
         439  5.7615242E-03
         440  2.2946992E-03
         441  4.3494824E-02
         442 -9.9206557E-03
         443 -5.2635610E-04
         444 -4.5898394E-03
         445  4.8541278E-03
         446 -8.8968570E-04
         447  3.6310972E-04
         448 -8.7946712E-04
         449  2.1587906E-04
         450  1.4726911E-03
         451 -4.4307648E-03
         452  4.9439730E-04
         453 -7.7211775E-04
         454 -1.4005593E-04
         455  1.3581106E-03
         456  2.3281472E-03
         457  1.7849298E-04
         458 -4.7058901E-03
         459  1.2149054E-03
         460  1.2039009E-02
         461  2.2582358E-02
         462  4.0261550E-03
         463  6.4906171E-03
         464 -8.8410098E-03
         465  6.4385412E-03
         466 -5.3413533E-02
         467  5.9501769E-04
         468 -1.5588088E-05
         469 -4.7920239E-05
         470 -5.3757103E-03
         471  2.2505919E-02
         472  3.9994773E-03
         473 -6.4446991E-03
         474 -8.8698994E-03
         475  6.3389335E-03
         476  2.3454556E-03
         477  1.7951032E-04
         478  4.7085686E-03
         479  1.2074629E-03
         480  1.1986369E-02
         481 -4.4247010E-03
         482  4.9664854E-04
         483  7.6790497E-04
         484 -1.4722058E-04
         485  1.3444161E-03
         486 -6.9209572E-04
         487  3.1359639E-04
         488  8.5761707E-04
         489  1.9679377E-04
         490  1.4737915E-03
         491  4.3124385E-02
         492 -9.8414011E-03
         493  5.3441292E-04
         494 -4.5465375E-03
         495  4.8213033E-03
         496 -4.2171743E-02
         497  9.6716974E-03
         498  2.7748197E-03
         499  5.7394877E-03
         500  2.2691465E-03
         501 -2.1570867E-04
         502 -3.7739068E-04
         503 -2.2522830E-03
         504 -5.5111968E-04
         505 -6.1626444E-03
         506  4.0285708E-03
         507 -8.5978233E-04
         508 -2.8111560E-03
         509 -1.1041990E-03
         510 -5.2019181E-03
         511  1.4903586E-03
         512 -3.5366724E-04
         513  4.1936504E-04
         514  1.9171255E-04
         515  1.6413750E-03
         516  4.1690484E-02
         517 -9.7198514E-03
         518 -2.2889059E-03
         519  4.6136961E-03
         520  4.9617575E-03
         521 -4.3235533E-02
         522  1.0012265E-02
         523  5.5630477E-03
         524 -3.2605841E-03
         525  2.4358556E-03
         526  6.4323546E-04
         527 -3.0524217E-04
         528  2.7297833E-04
         529  5.4576085E-04
         530  1.1078762E-03
         531  3.3609304E-03
         532 -8.2402758E-04
         533  5.1295352E-03
         534  3.5005854E-03
         535  1.0694631E-02
         536  5.6401518E-04
         537 -1.6692817E-03
         538  3.0491925E-03
         539  2.1006916E-04
         540 -2.3747985E-03
         541  6.4875040E-04
         542  1.0852553E-03
         543  1.3169330E-04
         544  1.1294447E-03
         545 -1.5478556E-03
         546  1.4665269E-03
         547 -7.6941193E-05
         548 -2.7622262E-03
         549  1.9686388E-05
         550  2.8635538E-03
         551  2.0633920E-03
         552  3.9902926E-04
         553 -4.5615062E-04
         554 -2.0182543E-03
         555 -2.6068671E-03
         556 -1.3229215E-03
         557  1.5847859E-04
         558 -1.8073608E-03
         559 -6.8896194E-04
         560 -4.8371893E-03
         561 -1.3034744E-03
         562  1.6440976E-04
         563  1.8171456E-03
         564 -6.9146778E-04
         565 -4.8268833E-03
         566  2.0751210E-03
         567  3.8617008E-04
         568  4.5446015E-04
         569 -1.9993891E-03
         570 -2.5871317E-03
         571  1.4505417E-03
         572 -7.1957329E-05
         573  2.7429315E-03
         574  1.9976827E-05
         575  2.8322230E-03
         576  6.5334950E-04
         577  1.0710531E-03
         578 -1.3321241E-04
         579  1.1291951E-03
         580 -1.5235289E-03
         581  5.7503267E-04
         582 -1.6629332E-03
         583 -3.0188169E-03
         584  2.0658839E-04
         585 -2.3581951E-03
 Sym= Particle
 Ene= -0.5976710    
 Spin= Alpha
 Occup= 2
           1  3.0166953E-04
           2 -1.1513653E-03
           3  4.6337980E-05
           4  3.7837292E-03
           5 -6.6817983E-04
           6 -8.7268034E-04
           7  1.6286408E-03
           8  4.4112368E-03
           9  8.5449964E-04
          10 -4.1429162E-02
          11  1.4678762E-02
          12  8.8719964E-02
          13  1.5655991E-04
          14  1.0295319E-02
          15 -4.6455180E-03
          16 -2.1629652E-02
          17  4.8763799E-03
          18 -2.6320972E-02
          19  3.5927098E-03
          20  3.6176126E-02
          21 -1.2122918E-03
          22  8.4654652E-03
          23 -2.4911331E-03
          24 -6.0251914E-03
          25 -1.0057393E-02
          26  6.5180898E-02
          27 -1.7745178E-02
          28 -0.1175754    
          29  8.2325116E-03
          30 -1.7242225E-02
          31  3.9460319E-03
          32  3.3790678E-02
          33  3.0987222E-02
          34 -9.0308450E-02
          35 -6.6609611E-03
          36  8.4940784E-02
          37 -2.5976956E-02
          38  4.2530444E-02
          39  9.6814480E-04
          40 -2.2461493E-02
          41 -2.5200348E-03
          42  4.6993960E-03
          43 -1.5333609E-02
          44  1.3786098E-02
          45 -1.6932546E-04
          46 -3.0693528E-03
          47  6.5060081E-03
          48  7.3765457E-04
          49  2.8963482E-03
          50  4.8492212E-02
          51 -2.3181021E-02
          52 -0.1057472    
          53  1.4093791E-03
          54 -1.7691657E-02
          55  4.2475299E-03
          56  3.0306779E-02
          57  2.2973809E-03
          58 -1.6550416E-02
          59 -7.5008264E-03
          60  3.1164167E-03
          61  1.1310998E-03
          62  5.2378294E-03
          63  3.0197038E-03
          64  1.1473569E-03
          65 -5.1043523E-03
          66  3.2259379E-02
          67 -1.5618734E-02
          68 -6.9020718E-02
          69  2.7418023E-03
          70 -7.4401316E-03
          71  1.4596448E-03
          72  1.8990817E-02
          73 -1.8195960E-03
          74 -2.6912695E-02
          75  8.9100823E-03
          76  5.6503739E-02
          77  3.2142496E-03
          78  4.8899748E-03
          79 -2.7373654E-03
          80 -1.5440785E-02
          81 -5.3829950E-04
          82 -2.3214279E-03
          83  1.7129077E-03
          84  1.1230891E-03
          85  3.2148976E-03
          86 -2.4181553E-03
          87  2.2978629E-03
          88  2.0794598E-03
          89 -3.8910781E-03
          90 -1.3122629E-02
          91  2.6123342E-03
          92  3.4023091E-02
          93  5.1322570E-03
          94  2.2117354E-03
          95 -1.9043722E-03
          96 -1.3774808E-02
          97 -1.5438120E-04
          98  5.6437574E-02
          99 -3.2418380E-03
         100 -8.5028417E-02
         101  8.6765653E-03
         102 -2.7678085E-02
         103  6.8206247E-03
         104  1.7664727E-02
         105 -3.1238297E-02
         106 -1.1418827E-03
         107 -4.1682601E-02
         108  7.1434721E-02
         109  2.8953057E-02
         110 -1.7529577E-02
         111  1.5286922E-02
         112 -2.7610311E-02
         113  1.8032626E-03
         114 -1.3658357E-02
         115  3.1413483E-03
         116  3.0952159E-02
         117 -2.7820731E-03
         118 -1.1717892E-03
         119 -2.0027949E-02
         120 -6.8810484E-03
         121  2.2937329E-03
         122 -2.6188022E-02
         123 -0.4023628    
         124 -0.2012180    
         125 -2.9039227E-03
         126  7.0477100E-03
         127  0.1417429    
         128  7.6336704E-02
         129 -4.6483925E-04
         130  1.1223651E-02
         131  0.3814108    
         132  0.1998846    
         133  6.7612930E-04
         134 -8.3259949E-03
         135 -0.1092501    
         136 -5.8904480E-02
         137 -2.4887247E-06
         138 -5.6229071E-03
         139  9.1936439E-04
         140  5.0769374E-04
         141  4.6809968E-05
         142 -2.0218806E-03
         143 -2.3080892E-04
         144 -1.1118175E-04
         145  3.6759872E-04
         146  1.0976965E-02
         147 -0.3822045    
         148 -0.2002807    
         149 -5.2633730E-04
         150 -8.2759429E-03
         151  0.1093880    
         152  5.8975399E-02
         153 -2.3282766E-03
         154 -2.5687739E-02
         155  0.4007606    
         156  0.2003470    
         157  2.9646931E-03
         158  6.8786708E-03
         159 -0.1410578    
         160 -7.6014318E-02
         161 -1.6538789E-03
         162 -1.3560484E-02
         163 -3.1035396E-03
         164 -3.0869361E-02
         165  2.6621241E-03
         166 -1.1589774E-03
         167  1.9914908E-02
         168  6.8874382E-03
         169  3.1042036E-02
         170 -1.3419451E-03
         171  4.1405648E-02
         172 -7.1403399E-02
         173 -2.8779685E-02
         174 -1.7423932E-02
         175 -1.5168007E-02
         176  2.7587069E-02
         177  2.1176859E-04
         178  5.6294482E-02
         179  3.2592374E-03
         180  8.4367543E-02
         181 -8.7250890E-03
         182 -2.7659744E-02
         183 -6.8345843E-03
         184 -1.7484481E-02
         185  3.8440728E-03
         186 -1.2925842E-02
         187 -2.5464252E-03
         188 -3.3369120E-02
         189 -5.1059891E-03
         190  2.1989853E-03
         191  1.8603721E-03
         192  1.3591085E-02
         193  1.8001189E-03
         194 -2.6945310E-02
         195 -8.9303767E-03
         196 -5.6365911E-02
         197 -3.1771106E-03
         198  4.9083740E-03
         199  2.7401673E-03
         200  1.5416631E-02
         201  5.4752821E-04
         202 -2.3150342E-03
         203 -1.6735652E-03
         204 -1.1560171E-03
         205 -3.2264094E-03
         206 -2.4138498E-03
         207 -2.3376623E-03
         208 -2.0311819E-03
         209  5.0460966E-03
         210  3.2089010E-02
         211  1.5536428E-02
         212  6.8314560E-02
         213 -2.6797454E-03
         214 -7.4219713E-03
         215 -1.4346262E-03
         216 -1.8780878E-02
         217 -2.2483296E-03
         218 -1.6264228E-02
         219  7.5612688E-03
         220 -2.6457317E-03
         221 -1.1422429E-03
         222  5.1623997E-03
         223 -3.0756372E-03
         224 -1.2473657E-03
         225  2.5180748E-03
         226  4.8201457E-03
         227  1.5382539E-02
         228 -1.3496391E-02
         229  1.5949456E-04
         230 -3.0821359E-03
         231 -6.5642158E-03
         232 -7.4974500E-04
         233 -2.8889580E-03
         234  4.8067145E-02
         235  2.2893894E-02
         236  0.1045073    
         237 -1.4388106E-03
         238 -1.7537180E-02
         239 -4.1705207E-03
         240 -2.9956229E-02
         241 -8.7384676E-04
         242 -4.1218437E-02
         243 -1.4516771E-02
         244 -8.7882638E-02
         245 -9.9890400E-05
         246  1.0208121E-02
         247  4.6972698E-03
         248  2.1369200E-02
         249 -3.5307044E-04
         250 -1.0811611E-03
         251 -6.0020659E-05
         252 -3.7619018E-03
         253  7.3257810E-04
         254 -9.5134461E-04
         255 -1.6083978E-03
         256 -4.3357955E-03
         257 -4.8474716E-03
         258 -2.6132602E-02
         259 -3.4728199E-03
         260 -3.5598464E-02
         261  1.2228405E-03
         262  8.3837453E-03
         263  2.4734701E-03
         264  5.8957702E-03
         265  1.0042718E-02
         266  6.4862512E-02
         267  1.7469939E-02
         268  0.1162870    
         269 -8.2153790E-03
         270 -1.7222445E-02
         271 -3.8206510E-03
         272 -3.3358138E-02
         273 -3.0924965E-02
         274 -8.9991771E-02
         275  6.7837336E-03
         276 -8.4170222E-02
         277  2.5925320E-02
         278  4.2382874E-02
         279 -1.0606172E-03
         280  2.2210356E-02
         281 -8.8651017E-05
         282 -9.2758983E-03
         283  1.5259959E-03
         284  4.8620231E-04
         285  7.6159042E-05
         286  2.2233855E-03
         287 -5.1029969E-04
         288 -1.8255078E-04
         289  2.0035815E-05
         290 -5.5089040E-04
         291  1.1209484E-04
         292 -1.3469876E-04
         293 -2.2011080E-05
         294 -5.4190046E-04
         295  5.9465503E-05
         296  5.5359953E-05
         297  6.6173896E-05
         298  6.3354061E-03
         299  1.4054714E-04
         300 -3.9766648E-05
         301 -8.0999656E-05
         302 -4.2002518E-03
         303 -1.1024211E-04
         304  3.0626576E-05
         305 -1.3637639E-03
         306  1.5219579E-02
         307 -4.2557283E-03
         308 -1.8411446E-02
         309  9.9754088E-06
         310  1.8642136E-03
         311 -3.8587670E-03
         312  9.1613261E-03
         313 -1.4125500E-04
         314 -3.3612994E-03
         315  5.0203613E-04
         316  4.6644649E-03
         317  5.0148240E-04
         318  3.0654632E-03
         319 -7.1735420E-05
         320 -6.0182111E-03
         321  1.0785800E-03
         322 -9.0939719E-03
         323  1.9615993E-03
         324  1.5419087E-02
         325 -2.7169399E-03
         326 -1.7764223E-04
         327 -1.3111267E-03
         328 -5.4009873E-03
         329  7.6670921E-04
         330  1.4335893E-02
         331 -2.9602854E-03
         332 -1.8586062E-02
         333 -1.7864794E-03
         334 -5.0827330E-03
         335  1.7695439E-03
         336  3.2534976E-03
         337  3.3542772E-05
         338  7.1788963E-04
         339  1.6997958E-03
         340  4.9158564E-04
         341 -2.6256910E-03
         342  3.2667774E-03
         343 -1.8823841E-03
         344 -3.5459845E-04
         345  3.1905209E-03
         346 -1.3616780E-02
         347  6.7970622E-03
         348  1.2353580E-02
         349 -7.5171064E-03
         350  1.0014464E-02
         351 -5.9531610E-03
         352  7.2814394E-03
         353  1.2427426E-03
         354  1.4889890E-02
         355  4.2349747E-03
         356  1.8157694E-02
         357  1.5854721E-04
         358  1.9616499E-03
         359  3.8848377E-03
         360 -9.1285445E-03
         361 -3.2140918E-03
         362 -1.3530168E-02
         363 -6.7381235E-03
         364 -1.2103893E-02
         365  7.5896429E-03
         366  1.0039269E-02
         367  5.8803991E-03
         368 -7.3192902E-03
         369 -5.4607426E-05
         370  7.4523961E-04
         371 -1.7033025E-03
         372 -4.3009315E-04
         373  2.6479377E-03
         374  3.2420913E-03
         375  1.8850840E-03
         376  3.4665078E-04
         377 -7.7810872E-04
         378  1.4129801E-02
         379  2.9100291E-03
         380  1.8260343E-02
         381  1.7960120E-03
         382 -4.9765739E-03
         383 -1.7726478E-03
         384 -3.1338916E-03
         385 -1.0982022E-03
         386 -9.0066418E-03
         387 -1.8940936E-03
         388 -1.5197740E-02
         389  2.7278606E-03
         390 -1.7585188E-04
         391  1.2886933E-03
         392  5.3450395E-03
         393  1.4419701E-04
         394 -3.2294532E-03
         395 -4.3679209E-04
         396 -4.5196516E-03
         397 -4.6737812E-04
         398  2.9762052E-03
         399  2.8290817E-05
         400  5.9259445E-03
         401 -1.5919462E-03
         402 -5.1649282E-04
         403  2.0392858E-03
         404  5.8356224E-04
         405 -1.6442047E-03
         406 -1.9302318E-02
         407  8.5965255E-03
         408 -6.0850298E-03
         409 -5.7033175E-03
         410 -3.7737568E-03
         411  1.9752771E-02
         412 -1.0844301E-02
         413  1.0276092E-02
         414  5.6827427E-03
         415  6.4410752E-04
         416 -2.8956244E-03
         417 -2.5271266E-03
         418 -3.0615316E-03
         419  2.0001209E-03
         420  9.6988427E-03
         421 -6.2869028E-03
         422  1.0482645E-02
         423  2.6877797E-03
         424 -3.5115969E-03
         425 -5.3570550E-02
         426 -8.9298394E-03
         427  4.0952200E-03
         428  9.6710548E-03
         429 -7.1260892E-03
         430 -2.5444858E-02
         431  9.3355542E-03
         432 -1.8343729E-03
         433  9.9916998E-03
         434 -5.0028996E-03
         435 -1.7093578E-02
         436  1.2158775E-02
         437 -3.0285160E-03
         438  3.1335358E-04
         439 -3.8379987E-03
         440  2.3959778E-05
         441 -1.2944948E-02
         442  9.0177869E-03
         443 -2.9090072E-03
         444  7.3597883E-03
         445 -4.3538408E-03
         446  7.3040737E-04
         447  2.2973288E-03
         448  4.2191060E-04
         449  1.7198299E-03
         450 -5.4374360E-04
         451  8.8238129E-03
         452  8.5075723E-04
         453 -3.8516251E-03
         454  1.1980017E-03
         455  5.5430001E-03
         456  1.2738104E-02
         457  1.0637315E-03
         458  1.0568086E-02
         459  1.3357112E-02
         460 -2.4045927E-02
         461  3.5176449E-03
         462 -2.7441811E-03
         463  4.8648873E-03
         464  9.6193641E-02
         465  4.4203304E-02
         466  1.5204924E-05
         467  1.1926521E-05
         468 -2.4009254E-03
         469  2.1898007E-04
         470  1.1478207E-04
         471 -3.3793030E-03
         472  2.7430432E-03
         473  4.6791602E-03
         474 -9.6257731E-02
         475 -4.4324324E-02
         476 -1.2691024E-02
         477 -1.1440049E-03
         478  1.0401013E-02
         479 -1.3400123E-02
         480  2.3824619E-02
         481 -8.7433169E-03
         482 -9.3261118E-04
         483 -3.8140232E-03
         484 -1.2255789E-03
         485 -5.4340018E-03
         486 -6.8863947E-04
         487 -2.2971374E-03
         488  3.9474844E-04
         489 -1.7082141E-03
         490  5.3561252E-04
         491  1.2919893E-02
         492 -9.0408809E-03
         493 -2.9085129E-03
         494 -7.3537393E-03
         495  4.3341112E-03
         496 -1.2180311E-02
         497  3.0281970E-03
         498  3.2125480E-04
         499  3.8510542E-03
         500  1.4128120E-06
         501 -9.2713507E-03
         502  1.8184629E-03
         503  9.9066040E-03
         504  4.9955156E-03
         505  1.6940508E-02
         506  8.9146961E-03
         507 -4.1533788E-03
         508  9.6438732E-03
         509  7.0361043E-03
         510  2.5160238E-02
         511  1.5605176E-03
         512  4.9504172E-04
         513  1.9814142E-03
         514 -5.5002375E-04
         515  1.6870676E-03
         516  1.9231256E-02
         517 -8.5631358E-03
         518 -5.9678550E-03
         519  5.6049451E-03
         520  3.8616185E-03
         521 -1.9481350E-02
         522  1.0696659E-02
         523  1.0169527E-02
         524 -5.7323701E-03
         525 -7.6737365E-04
         526  2.8034628E-03
         527  2.5828094E-03
         528 -3.0568591E-03
         529 -2.0704982E-03
         530 -9.5614959E-03
         531  6.2410343E-03
         532 -1.0491476E-02
         533  2.5738555E-03
         534  3.5200252E-03
         535  5.3284436E-02
         536 -8.7079225E-04
         537  1.6789023E-03
         538 -2.5173897E-04
         539 -1.5348541E-03
         540  4.2612068E-04
         541 -3.3939583E-04
         542 -1.9716446E-03
         543 -4.4023888E-03
         544 -4.3676278E-04
         545  7.0533878E-03
         546 -7.8041299E-04
         547 -1.3922068E-03
         548  3.1054944E-03
         549  1.2680296E-03
         550 -2.6693824E-03
         551 -3.0999788E-04
         552 -1.8291037E-03
         553  3.2306672E-03
         554  4.9103377E-04
         555  2.3165934E-03
         556  1.2330868E-05
         557 -8.6313030E-03
         558 -1.0063586E-02
         559  6.2945927E-03
         560  2.0945881E-02
         561 -1.9227084E-05
         562  8.6832670E-03
         563 -9.8999878E-03
         564 -6.3710907E-03
         565 -2.0922612E-02
         566  3.6177321E-04
         567  1.7621313E-03
         568  3.1639906E-03
         569 -4.6429076E-04
         570 -2.3437042E-03
         571  7.8459794E-04
         572  1.3687484E-03
         573  3.0861041E-03
         574 -1.2690404E-03
         575  2.6438253E-03
         576  3.5597401E-04
         577  1.9323463E-03
         578 -4.3821721E-03
         579  4.8521455E-04
         580 -6.9890609E-03
         581  9.0684317E-04
         582 -1.7366007E-03
         583 -2.6224737E-04
         584  1.5276161E-03
         585 -4.7531174E-04
 Sym= Hole
 Ene= -0.3300881    
 Spin= Alpha
 Occup= 0
           1 -5.0150376E-04
           2  7.0230863E-03
           3 -1.8246667E-03
           4 -1.3834373E-02
           5  8.2108461E-05
           6 -1.5426102E-03
           7  6.1197154E-04
           8  3.1912974E-03
           9  7.9962256E-04
          10 -8.4650934E-02
          11  3.2249581E-02
          12  0.1755495    
          13 -1.4542983E-04
          14  4.3714140E-03
          15 -1.4512636E-03
          16 -9.0655079E-03
          17 -1.3646665E-03
          18  1.3543010E-02
          19 -2.8643415E-03
          20 -2.2713330E-02
          21  8.1002398E-04
          22 -5.7624897E-04
          23 -4.3948254E-04
          24 -1.7918017E-03
          25  3.6920616E-03
          26  7.8836732E-02
          27 -3.1831082E-02
          28 -0.1818146    
          29 -2.0443669E-03
          30 -3.1902296E-03
          31  1.8005050E-03
          32  9.2881536E-03
          33 -4.2617647E-03
          34  1.6934454E-02
          35 -3.3610687E-04
          36 -2.7563365E-02
          37  3.2706224E-04
          38 -4.0845494E-03
          39  4.2931200E-03
          40  1.2880094E-02
          41  2.1250071E-03
          42  8.0183491E-02
          43 -3.5379294E-02
          44 -0.1676612    
          45  1.9073075E-04
          46 -2.7384961E-03
          47  2.3373712E-03
          48  7.4819820E-03
          49 -7.4933539E-04
          50 -4.0960297E-02
          51  1.6207283E-02
          52  8.6431086E-02
          53  6.0175243E-04
          54  2.8947364E-03
          55 -1.5344316E-03
          56 -6.3981041E-03
          57 -3.3385970E-03
          58  8.0181368E-02
          59 -2.6587244E-02
          60 -0.1710854    
          61  1.8850995E-03
          62 -1.5311535E-03
          63  1.8753923E-03
          64  7.1706465E-03
          65 -7.1138260E-04
          66 -4.6912171E-02
          67  1.3864877E-02
          68  0.1016648    
          69  3.7010794E-04
          70  4.2739003E-03
          71 -1.1944072E-03
          72 -6.3802088E-03
          73  3.9735375E-04
          74 -8.9388661E-02
          75  2.7801199E-02
          76  0.1839362    
          77  5.2353431E-04
          78  4.7294423E-03
          79 -1.6168087E-03
          80 -8.3550690E-03
          81 -8.5486250E-04
          82  7.7116280E-03
          83 -2.0609275E-03
          84 -1.5349347E-02
          85  2.8624735E-04
          86 -1.1456157E-03
          87  4.0423154E-04
          88  2.8239833E-03
          89 -1.6870347E-03
          90  1.4439162E-02
          91 -5.7937740E-03
          92 -2.5880728E-02
          93  1.5384664E-03
          94  4.0161845E-05
          95 -2.6964906E-04
          96 -1.3302588E-03
          97  1.6462525E-03
          98  0.1014343    
          99 -1.6571891E-02
         100 -0.1884818    
         101  2.0534524E-03
         102 -6.7882426E-03
         103  6.7445479E-04
         104  9.4814645E-03
         105 -1.5187963E-03
         106  2.4398267E-02
         107 -1.0674994E-02
         108 -5.3475160E-02
         109  3.6492471E-03
         110 -9.5249247E-03
         111  3.2501442E-03
         112  1.3879723E-02
         113  1.2489135E-02
         114 -0.1602518    
         115  6.5247431E-02
         116  0.3583159    
         117 -4.2502889E-03
         118  8.8494793E-03
         119 -3.5919670E-03
         120 -3.0345099E-02
         121 -1.1902168E-02
         122  2.7662504E-02
         123 -2.7057347E-03
         124 -4.5251247E-02
         125  2.0706670E-03
         126 -4.2590150E-03
         127  8.0376137E-03
         128  1.2502293E-02
         129  3.5508096E-02
         130 -5.6164525E-03
         131 -0.1819824    
         132 -2.8857440E-02
         133 -1.8989693E-02
         134 -3.1556629E-03
         135  1.5538544E-02
         136  1.9757038E-03
         137  6.0488357E-05
         138 -2.4116052E-02
         139 -7.3597766E-05
         140  9.5200383E-05
         141 -1.1829725E-05
         142  2.6767470E-03
         143  2.6248503E-05
         144 -9.0512566E-07
         145 -3.5741601E-02
         146 -5.3859837E-03
         147  0.1823308    
         148  2.8439289E-02
         149  1.9129850E-02
         150 -3.2288856E-03
         151 -1.5566295E-02
         152 -1.9209342E-03
         153  1.1780383E-02
         154  2.7766559E-02
         155  2.8326814E-03
         156  4.5554027E-02
         157 -2.0063445E-03
         158 -4.3317960E-03
         159 -8.0757160E-03
         160 -1.2531535E-02
         161 -1.2268917E-02
         162 -0.1614275    
         163 -6.5573521E-02
         164 -0.3606102    
         165  4.1734548E-03
         166  8.9573283E-03
         167  3.5914688E-03
         168  3.0541135E-02
         169  1.4894267E-03
         170  2.4490479E-02
         171  1.0645446E-02
         172  5.3704970E-02
         173 -3.6236790E-03
         174 -9.5645506E-03
         175 -3.2300090E-03
         176 -1.3980555E-02
         177 -1.6545631E-03
         178  0.1023640    
         179  1.6771726E-02
         180  0.1894967    
         181 -2.0400607E-03
         182 -6.8286303E-03
         183 -6.6380523E-04
         184 -9.5197214E-03
         185  1.6669930E-03
         186  1.4590112E-02
         187  5.8562341E-03
         188  2.6097147E-02
         189 -1.5378791E-03
         190  4.2889624E-05
         191  2.5739404E-04
         192  1.3409934E-03
         193 -3.9978471E-04
         194 -9.0209745E-02
         195 -2.8198021E-02
         196 -0.1848308    
         197 -5.2626192E-04
         198  4.7605876E-03
         199  1.6333001E-03
         200  8.4006796E-03
         201  8.6510921E-04
         202  7.7780904E-03
         203  2.1120054E-03
         204  1.5416517E-02
         205 -2.9265409E-04
         206 -1.1562383E-03
         207 -4.0829225E-04
         208 -2.8427853E-03
         209  6.9241558E-04
         210 -4.7360975E-02
         211 -1.4066917E-02
         212 -0.1021993    
         213 -3.7482116E-04
         214  4.2917267E-03
         215  1.1966953E-03
         216  6.4211385E-03
         217  3.3803454E-03
         218  8.0981679E-02
         219  2.6835049E-02
         220  0.1719331    
         221 -1.9058222E-03
         222 -1.5608338E-03
         223 -1.8851833E-03
         224 -7.2089406E-03
         225 -2.0974372E-03
         226  8.1027962E-02
         227  3.5586055E-02
         228  0.1686183    
         229 -2.0039084E-04
         230 -2.7690767E-03
         231 -2.3535956E-03
         232 -7.5185462E-03
         233  7.3489855E-04
         234 -4.1356713E-02
         235 -1.6256254E-02
         236 -8.6849801E-02
         237 -6.0201640E-04
         238  2.9164199E-03
         239  1.5411820E-03
         240  6.4381287E-03
         241 -7.8579254E-04
         242 -8.5505925E-02
         243 -3.2290202E-02
         244 -0.1765195    
         245  1.4225327E-04
         246  4.4048987E-03
         247  1.4518671E-03
         248  9.1180792E-03
         249  4.9856008E-04
         250  7.0931874E-03
         251  1.8366807E-03
         252  1.3898058E-02
         253 -7.5757984E-05
         254 -1.5561478E-03
         255 -6.1791012E-04
         256 -3.2122771E-03
         257  1.3484193E-03
         258  1.3629845E-02
         259  2.8860802E-03
         260  2.2812646E-02
         261 -8.0392312E-04
         262 -5.8278366E-04
         263  4.4414704E-04
         264  1.8077786E-03
         265 -3.7017502E-03
         266  7.9656214E-02
         267  3.1948030E-02
         268  0.1828541    
         269  2.0579793E-03
         270 -3.2407118E-03
         271 -1.8113409E-03
         272 -9.3335910E-03
         273  4.2031985E-03
         274  1.6954711E-02
         275  4.2588936E-04
         276  2.7820773E-02
         277 -2.7780017E-04
         278 -4.1052117E-03
         279 -4.3498161E-03
         280 -1.2972041E-02
         281  2.1186996E-04
         282 -0.1149928    
         283  7.6902367E-04
         284  6.2587831E-05
         285 -9.3234754E-05
         286  2.1472596E-02
         287 -4.5278979E-05
         288 -2.7142893E-05
         289 -1.7836748E-05
         290 -1.9073095E-02
         291  1.0141634E-06
         292  1.6134469E-04
         293  9.6950635E-06
         294  9.0336362E-03
         295 -1.6796348E-06
         296 -1.5954041E-05
         297 -1.1949274E-05
         298  6.7662157E-02
         299  7.8013705E-05
         300 -1.2107034E-04
         301  2.2355221E-07
         302 -1.6540396E-03
         303  1.1116839E-05
         304  2.0185134E-05
         305 -9.7937267E-03
         306  1.2537912E-02
         307  2.0902478E-03
         308  8.3753271E-03
         309  1.0378344E-02
         310  1.5670360E-03
         311 -2.7403983E-03
         312 -1.7450564E-02
         313  1.0451546E-03
         314 -9.4280122E-03
         315  4.9492409E-03
         316  1.1558399E-02
         317  2.6753962E-03
         318 -2.2456271E-03
         319  1.0008989E-03
         320 -5.4943585E-03
         321 -5.9293467E-04
         322  6.8239244E-03
         323 -6.7589869E-04
         324 -7.9731904E-03
         325 -8.1565604E-04
         326 -9.2126388E-04
         327  9.0236368E-04
         328  3.2995273E-03
         329 -8.3611565E-05
         330  1.4532224E-02
         331 -4.3640221E-03
         332 -2.2064790E-02
         333 -3.9751633E-04
         334 -8.2781145E-05
         335  2.0262112E-03
         336  2.6376669E-03
         337 -4.5086307E-04
         338 -1.1226726E-03
         339  2.0167630E-03
         340  4.2511644E-03
         341 -6.4704672E-04
         342 -8.5939141E-04
         343  1.1926807E-03
         344  1.0259108E-03
         345  5.3818268E-04
         346 -1.1964536E-02
         347  8.3601885E-03
         348  1.3445190E-02
         349  2.7836664E-03
         350  3.1142691E-04
         351 -5.5286428E-03
         352 -7.9464428E-03
         353  9.7831972E-03
         354  1.2564952E-02
         355 -2.0276867E-03
         356 -8.3690863E-03
         357 -1.0378288E-02
         358  1.6116066E-03
         359  2.7388309E-03
         360  1.7498696E-02
         361 -5.3749123E-04
         362 -1.2065694E-02
         363 -8.4451893E-03
         364 -1.3525565E-02
         365 -2.7858161E-03
         366  3.2739749E-04
         367  5.5612335E-03
         368  7.9852538E-03
         369  4.5170443E-04
         370 -1.1631136E-03
         371 -2.0173246E-03
         372 -4.2756819E-03
         373  6.4895279E-04
         374 -8.6763961E-04
         375 -1.1942844E-03
         376 -1.0221190E-03
         377  7.8177014E-05
         378  1.4632502E-02
         379  4.3804119E-03
         380  2.2142002E-02
         381  3.9741569E-04
         382 -8.8432018E-05
         383 -2.0283854E-03
         384 -2.6468618E-03
         385  5.9708138E-04
         386  6.8688327E-03
         387  6.7129283E-04
         388  8.0143241E-03
         389  8.1746071E-04
         390 -9.3283434E-04
         391 -9.0417347E-04
         392 -3.3116832E-03
         393 -1.0598376E-03
         394 -9.5040696E-03
         395 -4.9774237E-03
         396 -1.1584453E-02
         397 -2.6809820E-03
         398 -2.2685607E-03
         399 -1.0045954E-03
         400  5.5180341E-03
         401 -1.7272450E-03
         402 -8.1013328E-05
         403  6.0614018E-04
         404 -2.1629297E-04
         405 -1.3131812E-03
         406 -4.3098975E-02
         407  9.5107835E-03
         408 -2.1444317E-03
         409 -4.3306760E-03
         410 -4.2716707E-03
         411  4.4994269E-02
         412 -1.0309811E-02
         413  6.0535213E-03
         414  3.3557271E-03
         415 -2.4433795E-03
         416 -2.2427780E-04
         417  6.2900607E-04
         418  5.8851013E-04
         419 -4.6218265E-04
         420 -2.1843254E-03
         421  6.1465497E-04
         422 -2.1296472E-03
         423  9.2042349E-03
         424 -1.7566244E-04
         425 -1.0048173E-02
         426 -9.2164456E-04
         427  5.6942820E-04
         428 -2.8850138E-03
         429  1.1802220E-03
         430  5.4334765E-03
         431  1.0454016E-03
         432 -1.5145562E-04
         433 -2.7294806E-03
         434  1.0083346E-03
         435  6.1219884E-03
         436  4.5226183E-02
         437 -1.0182134E-02
         438  2.5602730E-03
         439 -5.6715445E-03
         440 -2.6884335E-03
         441 -4.7347054E-02
         442  9.5898714E-03
         443  7.3105958E-04
         444  4.2060269E-03
         445 -4.5958143E-03
         446  1.3174163E-03
         447 -5.3217611E-04
         448  9.1260107E-04
         449 -3.6684092E-04
         450 -1.2199616E-03
         451  3.6007655E-03
         452 -3.3727643E-04
         453  7.6426903E-04
         454  8.8833731E-06
         455 -2.4925009E-03
         456 -2.6288063E-03
         457  1.2740503E-03
         458  2.2571026E-03
         459 -1.4304495E-03
         460 -6.5389732E-03
         461 -1.3866196E-02
         462 -4.3687313E-03
         463 -8.8814003E-03
         464 -5.4745399E-03
         465 -1.6649924E-02
         466 -1.6225317E-04
         467 -4.0408099E-06
         468  3.9514285E-03
         469 -3.2569685E-06
         470 -2.1479056E-05
         471  1.4005572E-02
         472  4.3907086E-03
         473 -8.9168008E-03
         474  5.4242504E-03
         475  1.6694108E-02
         476  2.6689342E-03
         477 -1.2827830E-03
         478  2.2991966E-03
         479  1.4381936E-03
         480  6.6072186E-03
         481 -3.6492411E-03
         482  3.4001813E-04
         483  7.7014312E-04
         484 -1.9026251E-05
         485  2.5000884E-03
         486 -1.1206116E-03
         487  4.8625265E-04
         488  9.0104347E-04
         489  3.4914946E-04
         490  1.2355546E-03
         491  4.7513381E-02
         492 -9.6291611E-03
         493  7.4608147E-04
         494 -4.2192643E-03
         495  4.6205116E-03
         496 -4.5607511E-02
         497  1.0263043E-02
         498  2.5940901E-03
         499  5.7217060E-03
         500  2.6946007E-03
         501 -1.0394974E-03
         502  1.4797044E-04
         503 -2.7586361E-03
         504 -1.0284896E-03
         505 -6.1545908E-03
         506  9.6177001E-04
         507 -5.7749049E-04
         508 -2.9032980E-03
         509 -1.1851207E-03
         510 -5.4690843E-03
         511  1.5184095E-03
         512  1.2977656E-04
         513  6.4321578E-04
         514  2.1168655E-04
         515  1.3084651E-03
         516  4.3483600E-02
         517 -9.6006477E-03
         518 -2.1576406E-03
         519  4.3676705E-03
         520  4.3251659E-03
         521 -4.5163054E-02
         522  1.0351459E-02
         523  6.0729804E-03
         524 -3.3861122E-03
         525  2.4415790E-03
         526  2.2743430E-04
         527 -6.3135714E-04
         528  5.9882592E-04
         529  4.5744219E-04
         530  2.1890998E-03
         531 -5.8180525E-04
         532  2.1169286E-03
         533  9.2574535E-03
         534  1.9391655E-04
         535  1.0105559E-02
         536  1.8223727E-03
         537  1.4313454E-03
         538 -2.9692866E-03
         539 -2.1201652E-03
         540  9.2809426E-04
         541  1.3673696E-03
         542 -1.4206362E-03
         543 -2.0830325E-04
         544 -8.0548029E-04
         545  2.1406710E-03
         546 -1.5951727E-03
         547  6.4732356E-04
         548  1.4164614E-03
         549 -9.7141950E-05
         550 -2.8249058E-03
         551  4.6503762E-04
         552 -1.0241024E-03
         553 -2.2572045E-04
         554  1.9399703E-03
         555  3.0120339E-03
         556  4.4366852E-03
         557  1.0367236E-03
         558 -1.8863243E-03
         559 -2.7532433E-03
         560 -1.7350032E-05
         561 -4.4507338E-03
         562 -1.0396851E-03
         563 -1.8739247E-03
         564  2.7635871E-03
         565 -3.4797615E-06
         566 -4.3677221E-04
         567  1.0198198E-03
         568 -2.2511469E-04
         569 -1.9442830E-03
         570 -3.0251637E-03
         571  1.5977389E-03
         572 -6.4965565E-04
         573  1.4198547E-03
         574  9.8325865E-05
         575  2.8324223E-03
         576 -1.3638287E-03
         577  1.4211282E-03
         578 -2.1658475E-04
         579  8.1965636E-04
         580 -2.1364363E-03
         581 -1.8146418E-03
         582 -1.4491478E-03
         583 -2.9745351E-03
         584  2.1317881E-03
         585 -9.3311770E-04
 Sym= Particle
 Ene= -0.3300881    
 Spin= Alpha
 Occup= 2
           1  2.7597349E-03
           2  1.7571284E-03
           3 -7.2783558E-04
           4 -3.6008719E-03
           5 -2.8157411E-03
           6 -6.3261256E-04
           7 -1.6714359E-03
           8 -5.8167796E-03
           9 -1.4073125E-03
          10  4.4080678E-02
          11 -1.7273517E-02
          12 -9.1400720E-02
          13 -1.3132514E-03
          14 -1.3390113E-02
          15  5.6971437E-03
          16  2.3372799E-02
          17  7.9224388E-05
          18  4.6655454E-02
          19 -1.7185256E-02
          20 -9.6685432E-02
          21 -1.7704577E-03
          22 -1.3962485E-02
          23  4.9101575E-03
          24  2.3592729E-02
          25  1.5334131E-03
          26 -7.6034620E-02
          27  2.2818504E-02
          28  0.1711555    
          29 -4.1878369E-04
          30  1.3923418E-02
          31 -7.9878429E-03
          32 -5.3236526E-02
          33 -1.7741691E-02
          34  6.1164800E-02
          35 -6.2898424E-04
          36 -7.2342277E-02
          37  1.5547108E-02
          38 -3.1048791E-02
          39  7.7557568E-03
          40  2.2546897E-02
          41  1.0071645E-03
          42  2.7407521E-02
          43 -1.5841537E-03
          44 -6.7375630E-02
          45 -1.6564369E-03
          46 -3.6688384E-03
          47 -2.5395264E-03
          48  1.0760834E-02
          49 -7.6409959E-04
          50 -8.3587907E-02
          51  3.3185411E-02
          52  0.1730845    
          53 -2.2976212E-03
          54  2.5041873E-02
          55 -8.2004778E-03
          56 -5.2533217E-02
          57 -3.0720611E-03
          58  4.1090135E-02
          59 -4.8150425E-03
          60 -6.4489551E-02
          61 -8.9414389E-04
          62 -7.9277661E-03
          63  1.6522938E-03
          64  1.1668359E-02
          65  3.9407485E-03
          66 -6.2407125E-02
          67  2.5279062E-02
          68  0.1364737    
          69 -1.3427153E-03
          70  1.5020398E-02
          71 -2.2619627E-03
          72 -3.9498817E-02
          73 -6.1114639E-04
          74  2.7159758E-02
          75 -8.3912443E-03
          76 -5.2363064E-02
          77  3.2308139E-04
          78 -6.2611806E-03
          79  3.3331658E-03
          80  1.3270483E-02
          81  8.0612046E-04
          82  1.7965941E-03
          83  1.1745135E-07
          84 -1.6082664E-03
          85 -1.7395257E-03
          86  2.2238186E-03
          87 -1.3633789E-03
          88 -2.5847615E-03
          89  5.1557762E-03
          90  4.6094958E-02
          91 -7.7283219E-03
          92 -0.1009451    
          93 -1.3197274E-03
          94 -9.5780538E-03
          95  2.1883710E-03
          96  2.6713178E-02
          97 -8.9408532E-03
          98 -6.0997128E-02
          99  9.9602519E-03
         100  0.1295315    
         101  8.3229411E-03
         102  1.6546477E-02
         103 -9.1922475E-04
         104 -3.3587653E-02
         105  2.4610650E-02
         106 -1.7970779E-03
         107  3.2682251E-02
         108 -4.6981920E-02
         109 -2.0387268E-02
         110  7.8868838E-03
         111 -1.6311357E-02
         112  2.3450442E-02
         113 -1.3604866E-02
         114  2.1359863E-02
         115 -3.2308765E-04
         116 -1.1394102E-02
         117  9.2132892E-03
         118 -7.5061776E-04
         119  1.2896905E-02
         120 -1.3473821E-03
         121  2.0714453E-03
         122  2.3329098E-02
         123  0.2626268    
         124  0.1367819    
         125 -4.6187220E-03
         126 -9.8003587E-03
         127 -0.1126757    
         128 -4.8595190E-02
         129  1.2480940E-02
         130  1.1887999E-02
         131  0.1158994    
         132  5.9967522E-02
         133 -1.8871663E-02
         134 -6.1851963E-03
         135 -1.4881915E-02
         136 -8.8686282E-03
         137  4.5914021E-05
         138 -1.5740092E-04
         139 -0.2827695    
         140 -0.1555344    
         141 -1.2729984E-02
         142  4.1317711E-05
         143  7.0897326E-02
         144  3.5996165E-02
         145  1.2438315E-02
         146 -1.1680469E-02
         147  0.1135020    
         148  5.8712389E-02
         149 -1.8831616E-02
         150  6.0740132E-03
         151 -1.4175944E-02
         152 -8.4849400E-03
         153  2.0914662E-03
         154 -2.3279037E-02
         155  0.2651605    
         156  0.1380259    
         157 -4.6458929E-03
         158  9.7561087E-03
         159 -0.1135947    
         160 -4.9056288E-02
         161 -1.3621623E-02
         162 -2.1487692E-02
         163 -2.5037618E-04
         164 -1.1577950E-02
         165  9.2362100E-03
         166  7.9215493E-04
         167  1.2922651E-02
         168 -1.3067806E-03
         169  2.4805330E-02
         170  1.6124110E-03
         171  3.2920077E-02
         172 -4.7778044E-02
         173 -2.0563366E-02
         174 -7.9063745E-03
         175 -1.6403938E-02
         176  2.3771331E-02
         177 -8.9194067E-03
         178  6.1726522E-02
         179  1.0067046E-02
         180  0.1302275    
         181  8.2443971E-03
         182 -1.6833778E-02
         183 -9.3254313E-04
         184 -3.3752367E-02
         185  5.1648747E-03
         186 -4.6351735E-02
         187 -7.7975136E-03
         188 -0.1010763    
         189 -1.3502936E-03
         190  9.6494984E-03
         191  2.2006482E-03
         192  2.6751103E-02
         193 -6.0251419E-04
         194 -2.7529448E-02
         195 -8.5344175E-03
         196 -5.2977752E-02
         197  3.0750368E-04
         198  6.2972945E-03
         199  3.3928356E-03
         200  1.3448120E-02
         201  8.2776754E-04
         202 -1.8083730E-03
         203  8.4377889E-06
         204 -1.6519364E-03
         205 -1.7889024E-03
         206 -2.2442096E-03
         207 -1.4167058E-03
         208 -2.5865613E-03
         209  3.9420393E-03
         210  6.2964424E-02
         211  2.5534136E-02
         212  0.1370297    
         213 -1.3048940E-03
         214 -1.5208394E-02
         215 -2.3038324E-03
         216 -3.9648108E-02
         217 -3.0524302E-03
         218 -4.1244708E-02
         219 -4.7431416E-03
         220 -6.4365856E-02
         221 -9.1001828E-04
         222  7.9679964E-03
         223  1.5863706E-03
         224  1.1615691E-02
         225  1.0097832E-03
         226 -2.7497565E-02
         227 -1.4223533E-03
         228 -6.7570187E-02
         229 -1.6533074E-03
         230  3.6675241E-03
         231 -2.6504558E-03
         232  1.0824494E-02
         233 -7.4798503E-04
         234  8.4051907E-02
         235  3.3172324E-02
         236  0.1734640    
         237 -2.3662210E-03
         238 -2.5178028E-02
         239 -8.1523238E-03
         240 -5.2653365E-02
         241 -1.4262975E-03
         242 -4.4371895E-02
         243 -1.7244859E-02
         244 -9.1586545E-02
         245 -1.2813233E-03
         246  1.3446330E-02
         247  5.7345005E-03
         248  2.3384398E-02
         249  2.7125983E-03
         250 -1.7479371E-03
         251 -7.2811730E-04
         252 -3.6047099E-03
         253 -2.7440062E-03
         254  5.9913029E-04
         255 -1.6852934E-03
         256 -5.8266595E-03
         257  7.9071935E-05
         258 -4.7029693E-02
         259 -1.7146895E-02
         260 -9.6947633E-02
         261 -1.7826831E-03
         262  1.4078973E-02
         263  4.9018129E-03
         264  2.3672119E-02
         265  1.5946617E-03
         266  7.6636471E-02
         267  2.2766227E-02
         268  0.1716208    
         269 -4.8848940E-04
         270 -1.4082652E-02
         271 -7.9214266E-03
         272 -5.3385571E-02
         273 -1.7952414E-02
         274 -6.1736371E-02
         275 -4.7213730E-04
         276 -7.2502889E-02
         277  1.5710969E-02
         278  3.1349484E-02
         279  7.7011436E-03
         280  2.2534486E-02
         281  2.9266579E-02
         282 -2.1883726E-04
         283 -0.4870870    
         284 -0.1560669    
         285 -2.2466697E-02
         286  5.5603043E-05
         287  0.1679052    
         288  5.2853100E-02
         289 -9.5282504E-03
         290  1.1634943E-05
         291 -3.5622638E-02
         292  4.7207803E-02
         293  1.5817840E-02
         294 -1.1386155E-05
         295 -1.6739447E-02
         296 -1.9998670E-02
         297 -2.3161452E-02
         298  4.9262853E-05
         299 -4.5541249E-02
         300  1.4036819E-02
         301  2.8017420E-02
         302 -2.5374940E-05
         303  2.1893704E-02
         304 -1.0814538E-02
         305  1.5997041E-02
         306 -5.2111365E-02
         307  8.4063335E-04
         308  3.4659129E-02
         309 -1.9733584E-02
         310  1.4461663E-02
         311  2.3976925E-03
         312  6.6017010E-03
         313 -5.3494652E-03
         314  1.8471098E-02
         315 -4.6563698E-03
         316 -1.5983237E-02
         317  1.4633480E-03
         318 -1.1026818E-02
         319  3.3168977E-03
         320  1.0529528E-02
         321  2.3614066E-03
         322  1.5839040E-02
         323 -7.0913900E-03
         324 -3.4074843E-02
         325 -3.7350805E-04
         326 -6.0205901E-04
         327  3.5134053E-03
         328  1.0095914E-02
         329  2.1580564E-04
         330 -3.2950923E-02
         331  7.9740416E-03
         332  4.3343946E-02
         333 -5.8579136E-04
         334  1.1270196E-02
         335 -2.5139791E-03
         336 -1.0747971E-02
         337 -3.0282140E-04
         338  1.0626301E-03
         339 -2.7727260E-04
         340 -1.7221338E-03
         341 -7.5355830E-04
         342 -3.7861366E-03
         343 -2.6073112E-04
         344 -2.6147156E-03
         345  3.8392688E-03
         346  2.4229150E-02
         347 -9.1940723E-03
         348 -4.2620279E-02
         349 -9.5657138E-03
         350 -2.4851696E-03
         351  1.0847608E-02
         352  1.4433264E-02
         353  1.5981335E-02
         354  5.2176066E-02
         355  8.7904767E-04
         356  3.4667715E-02
         357 -1.9711308E-02
         358 -1.4408281E-02
         359  2.4152503E-03
         360  6.5961471E-03
         361  3.8101648E-03
         362 -2.4462629E-02
         363 -9.2553655E-03
         364 -4.2789694E-02
         365 -9.5275184E-03
         366  2.6401673E-03
         367  1.0932432E-02
         368  1.4461510E-02
         369 -2.7978711E-04
         370 -9.5975044E-04
         371 -2.5168082E-04
         372 -1.5796091E-03
         373 -7.7931659E-04
         374  3.8073251E-03
         375 -2.5765615E-04
         376 -2.6480120E-03
         377  1.8165832E-04
         378  3.3063393E-02
         379  7.9644425E-03
         380  4.3335941E-02
         381 -5.4141402E-04
         382 -1.1323199E-02
         383 -2.5170669E-03
         384 -1.0708653E-02
         385  2.3626704E-03
         386 -1.6016982E-02
         387 -7.0869997E-03
         388 -3.4205042E-02
         389 -3.4316292E-04
         390  6.5587962E-04
         391  3.5117115E-03
         392  1.0119139E-02
         393 -5.3492342E-03
         394 -1.8381059E-02
         395 -4.6125064E-03
         396 -1.5851080E-02
         397  1.4870552E-03
         398  1.0985641E-02
         399  3.2934928E-03
         400  1.0511599E-02
         401 -7.8087172E-04
         402  1.4618719E-03
         403 -4.7063725E-03
         404  1.0024565E-03
         405  2.7565730E-03
         406  1.8291360E-02
         407 -8.9915525E-03
         408  9.9932514E-03
         409  4.1484325E-03
         410  1.6929379E-03
         411 -2.1603055E-02
         412  1.2628925E-02
         413 -1.4553919E-02
         414 -5.9588151E-03
         415  3.2237374E-05
         416  5.4407432E-03
         417 -9.8808703E-04
         418  9.0549076E-03
         419 -4.6299538E-03
         420 -1.8980509E-02
         421  4.9637216E-03
         422  9.4330066E-04
         423 -2.6101105E-02
         424 -8.2098432E-03
         425  4.6361387E-02
         426  5.8125318E-03
         427 -2.9534921E-03
         428 -1.8030068E-02
         429  9.2595574E-03
         430  3.7877813E-02
         431 -7.3620873E-03
         432  2.3385463E-03
         433 -1.8475089E-02
         434  7.9969903E-03
         435  3.0114433E-02
         436 -1.1393180E-02
         437  4.9220454E-03
         438 -3.3865136E-03
         439  5.8362386E-03
         440 -2.1807777E-03
         441  1.1487498E-02
         442 -7.2246557E-03
         443  4.2999559E-03
         444 -6.0285744E-03
         445  4.3239351E-03
         446 -1.0364198E-03
         447 -1.4307712E-03
         448 -2.0046544E-03
         449 -1.3702121E-03
         450  3.1706106E-03
         451 -5.3893127E-03
         452  1.1725819E-03
         453  9.3429415E-03
         454 -1.6909614E-03
         455 -1.8702693E-02
         456 -7.4905534E-03
         457  9.6446481E-03
         458 -3.3320110E-02
         459  1.5136956E-02
         460  4.2533338E-02
         461 -1.7515786E-02
         462 -4.8890444E-03
         463 -1.2718691E-02
         464  1.0311455E-02
         465  1.0505336E-02
         466 -4.9590906E-03
         467 -4.9741887E-03
         468 -2.6945134E-05
         469 -6.5334789E-02
         470 -3.2911934E-02
         471 -1.7474953E-02
         472 -4.9218563E-03
         473  1.2703344E-02
         474  9.7735412E-03
         475  1.0211222E-02
         476 -7.6232357E-03
         477  9.6749822E-03
         478  3.3452928E-02
         479  1.5105492E-02
         480  4.2732552E-02
         481 -5.4033403E-03
         482  1.0985441E-03
         483 -9.3683405E-03
         484 -1.7678224E-03
         485 -1.8750489E-02
         486 -1.0228717E-03
         487 -1.4395521E-03
         488  2.0303486E-03
         489 -1.3197130E-03
         490  3.1607037E-03
         491  1.1618759E-02
         492 -7.3353443E-03
         493 -4.3408670E-03
         494 -6.1609801E-03
         495  4.3599973E-03
         496 -1.1574229E-02
         497  4.9717422E-03
         498  3.4436709E-03
         499  5.8738384E-03
         500 -2.1485765E-03
         501 -7.4107465E-03
         502  2.3770223E-03
         503  1.8582489E-02
         504  8.0589438E-03
         505  3.0229012E-02
         506  5.8281305E-03
         507 -2.9780639E-03
         508  1.8203802E-02
         509  9.3078893E-03
         510  3.7928969E-02
         511 -8.2436239E-04
         512  1.4556585E-03
         513  4.7358437E-03
         514  1.0220004E-03
         515  2.7683903E-03
         516  1.8437723E-02
         517 -9.0459874E-03
         518 -9.9665849E-03
         519  4.1692429E-03
         520  1.7851215E-03
         521 -2.1571701E-02
         522  1.2647917E-02
         523  1.4557511E-02
         524 -6.0512610E-03
         525 -9.3838542E-05
         526  5.4015457E-03
         527 -9.2176779E-04
         528 -9.1163004E-03
         529 -4.7134859E-03
         530 -1.8999798E-02
         531  5.0352789E-03
         532  8.5373467E-04
         533  2.6149016E-02
         534 -8.2149655E-03
         535  4.6611637E-02
         536 -1.6737588E-03
         537  3.2046501E-04
         538  1.0217767E-03
         539 -3.1050821E-03
         540 -2.7604233E-03
         541 -2.2950443E-03
         542  1.3838193E-03
         543  8.5597774E-03
         544 -2.6248691E-03
         545 -1.0957269E-02
         546  6.3550257E-04
         547 -4.8417429E-04
         548 -2.8413809E-03
         549 -1.1227237E-03
         550  7.9280259E-03
         551 -2.8053431E-03
         552  8.2306162E-04
         553 -3.5730971E-03
         554 -7.9823128E-04
         555 -4.3406379E-03
         556 -3.9758012E-03
         557 -3.0896121E-03
         558  2.8499942E-02
         559  7.5569320E-03
         560 -9.6071484E-03
         561 -3.9560227E-03
         562 -3.0414022E-03
         563 -2.8580271E-02
         564  7.5646620E-03
         565 -9.7252000E-03
         566 -2.8004986E-03
         567  8.2166144E-04
         568  3.6523025E-03
         569 -8.1486418E-04
         570 -4.3486105E-03
         571  6.7702401E-04
         572 -4.9514655E-04
         573  2.8068777E-03
         574 -1.1226569E-03
         575  7.9479879E-03
         576 -2.3319216E-03
         577  1.4349436E-03
         578 -8.5834004E-03
         579 -2.6010966E-03
         580 -1.1056009E-02
         581 -1.6890544E-03
         582  3.2802930E-04
         583 -1.0406326E-03
         584 -3.0553711E-03
         585 -2.7528973E-03
