 [Molden Format]
 [Atoms] Angs
C       1      6      9.59960470     -2.99440524      0.83392527
C       2      6      8.53490267     -3.58097795      0.17069708
C       3      6      7.35162207     -2.88628642      0.00319715
C       4      6      7.21367699     -1.58950089      0.49302005
C       5      6      5.95756197     -0.84688587      0.30973155
C       6      6      4.72744330     -1.49332886      0.49165744
C       7      6      3.52335538     -0.84010318      0.32657870
C       8      6      3.55297764      0.49565020     -0.04809806
C       9      6      4.78271999      1.17251255     -0.21156137
C      10      6      5.98078096      0.49870362     -0.03332617
C      11      6      4.45940568      2.53268214     -0.54283771
C      12      6      5.22772621      3.65159272     -0.83419195
C      13      6      4.58433059      4.83372323     -1.14191152
C      14      6      3.19368086      4.90313429     -1.17738034
C      15      6      2.40808185      3.80280390     -0.89112685
C      16      6      3.04857843      2.61904733     -0.55469899
N      17      7      2.51234363      1.38048354     -0.25552159
C      18      6      1.15039130      1.07403600     -0.18039385
C      19      6      0.64129670     -0.04128408     -0.84376389
C      20      6     -0.70151617     -0.33957924     -0.76243430
C      21      6     -1.57216622      0.47196982     -0.03505432
C      22      6     -2.99623463      0.12349831      0.01375387
C      23      6     -3.99745836      1.06292476      0.25826384
C      24      6     -5.31381596      0.60265965      0.27234522
C      25      6     -6.46036899      1.48652078      0.52062059
C      26      6     -7.62250674      0.94869876      1.07083654
C      27      6     -8.71590931      1.75418422      1.32235496
C      28      6     -8.66735370      3.10551562      1.01962324
C      29      6     -7.52146073      3.64552080      0.45941735
C      30      6     -6.42245573      2.84404387      0.21188104
N      31      7     -5.58965956     -0.68362083      0.07393549
C      32      6     -4.57707401     -1.50922221     -0.16490473
C      33      6     -4.89558299     -2.92090180     -0.39855511
C      34      6     -3.87433232     -3.86192299     -0.51099906
C      35      6     -4.17795352     -5.19135715     -0.73193134
C      36      6     -5.49949956     -5.59421252     -0.84308535
C      37      6     -6.51945947     -4.66229850     -0.73217085
C      38      6     -6.22217194     -3.33146190     -0.51067812
N      39      7     -3.29860232     -1.15365662     -0.20900409
C      40      6     -1.05644404      1.58304490      0.62932944
C      41      6      0.28962142      1.87854688      0.56342918
C      42      6      8.29212495     -1.00924734      1.15704099
C      43      6      9.47334085     -1.70666352      1.32731602
H      44      1     10.52326971     -3.53846623      0.96604744
H      45      1      8.62865871     -4.58407429     -0.22002835
H      46      1      6.53085377     -3.34341985     -0.53055885
H      47      1      4.72477122     -2.52955907      0.79609532
H      48      1      2.58987585     -1.35387324      0.49990860
H      49      1      6.91976804      1.01141017     -0.17770336
H      50      1      6.30556096      3.59176094     -0.82462500
H      51      1      5.16280231      5.71670057     -1.36930163
H      52      1      2.71803715      5.83692980     -1.43882816
H      53      1      1.33142856      3.86327047     -0.94196851
H      54      1      1.30319789     -0.65668658     -1.43432811
H      55      1     -1.10673604     -1.19893038     -1.27334901
H      56      1     -3.76580250      2.10049051      0.42915920
H      57      1     -7.64424205     -0.10569805      1.29892794
H      58      1     -9.61021967      1.32934178      1.75419769
H      59      1     -9.52221910      3.73621833      1.21457495
H      60      1     -7.48528057      4.69648262      0.21175599
H      61      1     -5.54313727      3.27316471     -0.24579832
H      62      1     -2.85155604     -3.53175101     -0.41780514
H      63      1     -3.38379398     -5.91890248     -0.81763113
H      64      1     -5.73446495     -6.63440936     -1.01646917
H      65      1     -7.54915503     -4.97732040     -0.82008831
H      66      1     -7.00324087     -2.59217379     -0.42571627
H      67      1     -1.70158883      2.20552700      1.23117069
H      68      1      0.68808246      2.72340189      1.10511725
H      69      1      8.19396950     -0.01132950      1.55956240
H      70      1     10.29901467     -1.24515319      1.84978129
 [GTO]
           1   0
s              4   1.000000
     34.91932362     -0.01198412
      6.01339647     -0.05472053
      0.48320207      0.58055871
      0.18416027      0.47700799
p              4   1.000000
      5.62816126      0.05713170
      1.45929817      0.28574555
      0.51444776      0.55178731
      0.20481052      0.26323149
s              7   1.000000
      0.38350848     -0.19624593
      0.04707223      0.94818822
      0.02222627      0.24900862
     34.91932362      0.00551796
      6.01339647      0.02519549
      0.48320207     -0.26731218
      0.18416027     -0.21963333
p              7   1.000000
      1.83062075     -0.01161237
      0.10124670      0.57064986
      0.03901771      0.59595900
      5.62816126     -0.02527661
      1.45929817     -0.12642155
      0.51444776     -0.24412561
      0.20481052     -0.11646072
 
           2   0
s              4   1.000000
     34.91767444     -0.01198412
      6.01311247     -0.05472052
      0.48317924      0.58055871
      0.18415157      0.47700800
p              4   1.000000
      5.62789545      0.05713170
      1.45922925      0.28574555
      0.51442347      0.55178731
      0.20480085      0.26323149
s              7   1.000000
      0.38350848     -0.19624748
      0.04707223      0.94819569
      0.02222627      0.24901057
     34.91767444      0.00551821
      6.01311247      0.02519663
      0.48317924     -0.26732423
      0.18415157     -0.21964324
p              7   1.000000
      1.83062075     -0.01161246
      0.10124670      0.57065409
      0.03901771      0.59596345
      5.62789545     -0.02527775
      1.45922925     -0.12642727
      0.51442347     -0.24413666
      0.20480085     -0.11646599
 
           3   0
s              4   1.000000
     35.01576308     -0.01198412
      6.03000415     -0.05472052
      0.48453656      0.58055871
      0.18466888      0.47700799
p              4   1.000000
      5.64370500      0.05713170
      1.46332843      0.28574555
      0.51586855      0.55178730
      0.20537616      0.26323149
s              7   1.000000
      0.38350848     -0.19615574
      0.04707223      0.94775242
      0.02222627      0.24889418
     35.01576308      0.00550345
      6.03000415      0.02512922
      0.48453656     -0.26660907
      0.18466888     -0.21905564
p              7   1.000000
      1.83062075     -0.01160736
      0.10124670      0.57040348
      0.03901771      0.59570170
      5.64370500     -0.02520987
      1.46332843     -0.12608775
      0.51586855     -0.24348102
      0.20537616     -0.11615322
 
           4   0
s              4   1.000000
     35.09436070     -0.01198412
      6.04353931     -0.05472052
      0.48562417      0.58055871
      0.18508339      0.47700799
p              4   1.000000
      5.65637306      0.05713170
      1.46661307      0.28574555
      0.51702649      0.55178731
      0.20583715      0.26323149
s              7   1.000000
      0.38350848     -0.19608272
      0.04707223      0.94739963
      0.02222627      0.24880154
     35.09436070      0.00549167
      6.04353931      0.02507546
      0.48562417     -0.26603872
      0.18508339     -0.21858701
p              7   1.000000
      1.83062075     -0.01160330
      0.10124670      0.57020402
      0.03901771      0.59549339
      5.65637306     -0.02515573
      1.46661307     -0.12581697
      0.51702649     -0.24295813
      0.20583715     -0.11590377
 
           5   0
s              4   1.000000
     35.09126928     -0.01198412
      6.04300694     -0.05472053
      0.48558139      0.58055871
      0.18506709      0.47700799
p              4   1.000000
      5.65587479      0.05713170
      1.46648388      0.28574555
      0.51698095      0.55178731
      0.20581902      0.26323149
s              7   1.000000
      0.38350848     -0.19608558
      0.04707223      0.94741346
      0.02222627      0.24880517
     35.09126928      0.00549214
      6.04300694      0.02507757
      0.48558139     -0.26606111
      0.18506709     -0.21860541
p              7   1.000000
      1.83062075     -0.01160346
      0.10124670      0.57021184
      0.03901771      0.59550156
      5.65587479     -0.02515785
      1.46648388     -0.12582760
      0.51698095     -0.24297866
      0.20581902     -0.11591356
 
           6   0
s              4   1.000000
     35.02931999     -0.01198412
      6.03233876     -0.05472053
      0.48472416      0.58055871
      0.18474038      0.47700799
p              4   1.000000
      5.64589004      0.05713170
      1.46389498      0.28574555
      0.51606828      0.55178731
      0.20545568      0.26323149
s              7   1.000000
      0.38350848     -0.19614311
      0.04707223      0.94769143
      0.02222627      0.24887815
     35.02931999      0.00550141
      6.03233876      0.02511993
      0.48472416     -0.26651052
      0.18474038     -0.21897467
p              7   1.000000
      1.83062075     -0.01160666
      0.10124670      0.57036899
      0.03901771      0.59566569
      5.64589004     -0.02520051
      1.46389498     -0.12604096
      0.51606828     -0.24339068
      0.20545568     -0.11611012
 
           7   0
s              4   1.000000
     34.93802934     -0.01198412
      6.01661775     -0.05472052
      0.48346091      0.58055871
      0.18425892      0.47700799
p              4   1.000000
      5.63117617      0.05713170
      1.46007989      0.28574555
      0.51472335      0.55178730
      0.20492023      0.26323149
s              7   1.000000
      0.38350848     -0.19622838
      0.04707223      0.94810344
      0.02222627      0.24898635
     34.93802934      0.00551514
      6.01661775      0.02518261
      0.48346091     -0.26717552
      0.18425892     -0.21952105
p              7   1.000000
      1.83062075     -0.01161140
      0.10124670      0.57060193
      0.03901771      0.59590895
      5.63117617     -0.02526364
      1.46007989     -0.12635667
      0.51472335     -0.24400032
      0.20492023     -0.11640095
 
           8   0
s              4   1.000000
     35.62405991     -0.01198412
      6.13475789     -0.05472052
      0.49295397      0.58055871
      0.18787696      0.47700799
p              4   1.000000
      5.74174792      0.05713170
      1.48874950      0.28574555
      0.52483027      0.55178731
      0.20894397      0.26323149
s              7   1.000000
      0.38350848     -0.19560176
      0.04707223      0.94507583
      0.02222627      0.24819127
     35.62405991      0.00541360
      6.13475789      0.02471896
      0.49295397     -0.26225639
      0.18787696     -0.21547931
p              7   1.000000
      1.83062075     -0.01157657
      0.10124670      0.56889025
      0.03901771      0.59412136
      5.74174792     -0.02479666
      1.48874950     -0.12402110
      0.52483027     -0.23949023
      0.20894397     -0.11424940
 
           9   0
s              4   1.000000
     35.41290064     -0.01198412
      6.09839452     -0.05472053
      0.49003202      0.58055871
      0.18676333      0.47700799
p              4   1.000000
      5.70771409      0.05713170
      1.47992503      0.28574555
      0.52171937      0.55178731
      0.20770547      0.26323149
s              7   1.000000
      0.38350848     -0.19579120
      0.04707223      0.94599109
      0.02222627      0.24843163
     35.41290064      0.00544446
      6.09839452      0.02485988
      0.49003202     -0.26375148
      0.18676333     -0.21670774
p              7   1.000000
      1.83062075     -0.01158710
      0.10124670      0.56940770
      0.03901771      0.59466173
      5.70771409     -0.02493860
      1.47992503     -0.12473101
      0.52171937     -0.24086110
      0.20770547     -0.11490338
 
          10   0
s              4   1.000000
     35.03541301     -0.01198412
      6.03338803     -0.05472053
      0.48480847      0.58055871
      0.18477251      0.47700799
p              4   1.000000
      5.64687209      0.05713170
      1.46414961      0.28574555
      0.51615805      0.55178731
      0.20549141      0.26323149
s              7   1.000000
      0.38350848     -0.19613744
      0.04707223      0.94766403
      0.02222627      0.24887096
     35.03541301      0.00550050
      6.03338803      0.02511576
      0.48480847     -0.26646626
      0.18477251     -0.21893829
p              7   1.000000
      1.83062075     -0.01160634
      0.10124670      0.57035350
      0.03901771      0.59564951
      5.64687209     -0.02519631
      1.46414961     -0.12601994
      0.51615805     -0.24335009
      0.20549141     -0.11609076
 
          11   0
s              4   1.000000
     35.41991098     -0.01198412
      6.09960176     -0.05472053
      0.49012903      0.58055871
      0.18680030      0.47700799
p              4   1.000000
      5.70884399      0.05713170
      1.48021800      0.28574555
      0.52182265      0.55178731
      0.20774659      0.26323149
s              7   1.000000
      0.38350848     -0.19578486
      0.04707223      0.94596048
      0.02222627      0.24842358
     35.41991098      0.00544343
      6.09960176      0.02485518
      0.49012903     -0.26370158
      0.18680030     -0.21666674
p              7   1.000000
      1.83062075     -0.01158674
      0.10124670      0.56939038
      0.03901771      0.59464369
      5.70884399     -0.02493387
      1.48021800     -0.12470731
      0.52182265     -0.24081534
      0.20774659     -0.11488155
 
          12   0
s              4   1.000000
     34.93809874     -0.01198412
      6.01662970     -0.05472052
      0.48346187      0.58055871
      0.18425928      0.47700799
p              4   1.000000
      5.63118736      0.05713170
      1.46008279      0.28574555
      0.51472437      0.55178731
      0.20492064      0.26323149
s              7   1.000000
      0.38350848     -0.19622832
      0.04707223      0.94810312
      0.02222627      0.24898627
     34.93809874      0.00551513
      6.01662970      0.02518256
      0.48346187     -0.26717501
      0.18425928     -0.21952063
p              7   1.000000
      1.83062075     -0.01161140
      0.10124670      0.57060175
      0.03901771      0.59590879
      5.63118736     -0.02526359
      1.46008279     -0.12635643
      0.51472437     -0.24399986
      0.20492064     -0.11640073
 
          13   0
s              4   1.000000
     34.92233658     -0.01198412
      6.01391533     -0.05472052
      0.48324376      0.58055871
      0.18417616      0.47700800
p              4   1.000000
      5.62864687      0.05713170
      1.45942408      0.28574555
      0.51449215      0.55178731
      0.20482819      0.26323149
s              7   1.000000
      0.38350848     -0.19624310
      0.04707223      0.94817454
      0.02222627      0.24900504
     34.92233658      0.00551751
      6.01391533      0.02519342
      0.48324376     -0.26729016
      0.18417616     -0.21961524
p              7   1.000000
      1.83062075     -0.01161222
      0.10124670      0.57064213
      0.03901771      0.59595094
      5.62864687     -0.02527452
      1.45942408     -0.12641109
      0.51449215     -0.24410542
      0.20482819     -0.11645109
 
          14   0
s              4   1.000000
     34.93551938     -0.01198412
      6.01618552     -0.05472053
      0.48342618      0.58055871
      0.18424568      0.47700799
p              4   1.000000
      5.63077163      0.05713170
      1.45997500      0.28574555
      0.51468637      0.55178731
      0.20490551      0.26323149
s              7   1.000000
      0.38350848     -0.19623074
      0.04707223      0.94811480
      0.02222627      0.24898934
     34.93551938      0.00551552
      6.01618552      0.02518434
      0.48342618     -0.26719385
      0.18424568     -0.21953611
p              7   1.000000
      1.83062075     -0.01161153
      0.10124670      0.57060835
      0.03901771      0.59591567
      5.63077163     -0.02526538
      1.45997500     -0.12636537
      0.51468637     -0.24401713
      0.20490551     -0.11640897
 
          15   0
s              4   1.000000
     34.94266737     -0.01198412
      6.01741646     -0.05472053
      0.48352509      0.58055871
      0.18428338      0.47700799
p              4   1.000000
      5.63192371      0.05713170
      1.46027372      0.28574555
      0.51479167      0.55178731
      0.20494744      0.26323149
s              7   1.000000
      0.38350848     -0.19622404
      0.04707223      0.94808244
      0.02222627      0.24898084
     34.94266737      0.00551444
      6.01741646      0.02517942
      0.48352509     -0.26714165
      0.18428338     -0.21949323
p              7   1.000000
      1.83062075     -0.01161116
      0.10124670      0.57059005
      0.03901771      0.59589657
      5.63192371     -0.02526042
      1.46027372     -0.12634059
      0.51479167     -0.24396928
      0.20494744     -0.11638614
 
          16   0
s              4   1.000000
     35.62460764     -0.01198412
      6.13485222     -0.05472052
      0.49296155      0.58055871
      0.18787985      0.47700800
p              4   1.000000
      5.74183620      0.05713170
      1.48877239      0.28574555
      0.52483834      0.55178730
      0.20894719      0.26323149
s              7   1.000000
      0.38350848     -0.19560127
      0.04707223      0.94507348
      0.02222627      0.24819063
     35.62460764      0.00541352
      6.13485222      0.02471860
      0.49296155     -0.26225253
      0.18787985     -0.21547615
p              7   1.000000
      1.83062075     -0.01157654
      0.10124670      0.56888892
      0.03901771      0.59411999
      5.74183620     -0.02479630
      1.48877239     -0.12401927
      0.52483834     -0.23948669
      0.20894719     -0.11424771
 
          17   0
s              4   1.000000
     61.42058639     -0.01198412
     10.57713321     -0.05472052
      0.84991778      0.58055871
      0.32392470      0.47700799
p              4   1.000000
      7.23976588      0.05713170
      1.87716319      0.28574555
      0.66175811      0.55178731
      0.26345731      0.26323149
s              7   1.000000
      0.47894987     -0.18771734
      0.05878681      0.90698120
      0.02775758      0.23818704
     61.42058639      0.00395566
     10.57713321      0.01806187
      0.84991778     -0.19162781
      0.32392470     -0.15744832
p              7   1.000000
      2.28619608     -0.01155980
      0.12644335      0.56806624
      0.04872781      0.59326079
      7.23976588     -0.02456920
      1.87716319     -0.12288345
      0.66175811     -0.23729339
      0.26345731     -0.11320139
 
          18   0
s              4   1.000000
     35.13361348     -0.01198412
      6.05029896     -0.05472052
      0.48616734      0.58055871
      0.18529041      0.47700799
p              4   1.000000
      5.66269966      0.05713170
      1.46825347      0.28574555
      0.51760478      0.55178731
      0.20606738      0.26323149
s              7   1.000000
      0.38350848     -0.19604641
      0.04707223      0.94722422
      0.02222627      0.24875547
     35.13361348      0.00548581
      6.05029896      0.02504870
      0.48616734     -0.26575477
      0.18529041     -0.21835371
p              7   1.000000
      1.83062075     -0.01160128
      0.10124670      0.57010485
      0.03901771      0.59538982
      5.66269966     -0.02512877
      1.46825347     -0.12568216
      0.51760478     -0.24269781
      0.20606738     -0.11577958
 
          19   0
s              4   1.000000
     35.00530563     -0.01198412
      6.02820329     -0.05472052
      0.48439185      0.58055871
      0.18461373      0.47700799
p              4   1.000000
      5.64201950      0.05713170
      1.46289141      0.28574555
      0.51571449      0.55178731
      0.20531483      0.26323149
s              7   1.000000
      0.38350848     -0.19616549
      0.04707223      0.94779953
      0.02222627      0.24890654
     35.00530563      0.00550502
      6.02820329      0.02513639
      0.48439185     -0.26668514
      0.18461373     -0.21911813
p              7   1.000000
      1.83062075     -0.01160790
      0.10124670      0.57043010
      0.03901771      0.59572953
      5.64201950     -0.02521709
      1.46289141     -0.12612386
      0.51571449     -0.24355076
      0.20531483     -0.11618649
 
          20   0
s              4   1.000000
     35.03176431     -0.01198412
      6.03275969     -0.05472052
      0.48475798      0.58055871
      0.18475327      0.47700799
p              4   1.000000
      5.64628401      0.05713170
      1.46399713      0.28574555
      0.51610429      0.55178731
      0.20547001      0.26323149
s              7   1.000000
      0.38350848     -0.19614083
      0.04707223      0.94768044
      0.02222627      0.24887527
     35.03176431      0.00550105
      6.03275969      0.02511826
      0.48475798     -0.26649276
      0.18475327     -0.21896007
p              7   1.000000
      1.83062075     -0.01160653
      0.10124670      0.57036278
      0.03901771      0.59565922
      5.64628401     -0.02519883
      1.46399713     -0.12603253
      0.51610429     -0.24337439
      0.20547001     -0.11610235
 
          21   0
s              4   1.000000
     35.10620387     -0.01198412
      6.04557880     -0.05472053
      0.48578805      0.58055871
      0.18514585      0.47700799
p              4   1.000000
      5.65828189      0.05713170
      1.46710800      0.28574555
      0.51720097      0.55178731
      0.20590662      0.26323149
s              7   1.000000
      0.38350848     -0.19607175
      0.04707223      0.94734665
      0.02222627      0.24878762
     35.10620387      0.00548990
      6.04557880      0.02506738
      0.48578805     -0.26595299
      0.18514585     -0.21851657
p              7   1.000000
      1.83062075     -0.01160269
      0.10124670      0.57017406
      0.03901771      0.59546211
      5.65828189     -0.02514759
      1.46710800     -0.12577626
      0.51720097     -0.24287953
      0.20590662     -0.11586628
 
          22   0
s              4   1.000000
     35.24627737     -0.01198412
      6.06970061     -0.05472053
      0.48772634      0.58055871
      0.18588458      0.47700799
p              4   1.000000
      5.68085839      0.05713170
      1.47296175      0.28574555
      0.51926460      0.55178731
      0.20672818      0.26323149
s              7   1.000000
      0.38350848     -0.19594281
      0.04707223      0.94672364
      0.02222627      0.24862402
     35.24627737      0.00546906
      6.06970061      0.02497219
      0.48772634     -0.26494307
      0.18588458     -0.21768679
p              7   1.000000
      1.83062075     -0.01159552
      0.10124670      0.56982184
      0.03901771      0.59509429
      5.68085839     -0.02505172
      1.47296175     -0.12529678
      0.51926460     -0.24195362
      0.20672818     -0.11542457
 
          23   0
s              4   1.000000
     35.05046782     -0.01198412
      6.03598059     -0.05472052
      0.48501680      0.58055871
      0.18485191      0.47700799
p              4   1.000000
      5.64929857      0.05713170
      1.46477876      0.28574555
      0.51637984      0.55178731
      0.20557971      0.26323149
s              7   1.000000
      0.38350848     -0.19612344
      0.04707223      0.94759640
      0.02222627      0.24885321
     35.05046782      0.00549824
      6.03598059      0.02510546
      0.48501680     -0.26635694
      0.18485191     -0.21884847
p              7   1.000000
      1.83062075     -0.01160557
      0.10124670      0.57031526
      0.03901771      0.59560958
      5.64929857     -0.02518593
      1.46477876     -0.12596804
      0.51637984     -0.24324987
      0.20557971     -0.11604295
 
          24   0
s              4   1.000000
     35.24773745     -0.01198412
      6.06995205     -0.05472052
      0.48774655      0.58055871
      0.18589228      0.47700800
p              4   1.000000
      5.68109372      0.05713170
      1.47302277      0.28574555
      0.51928611      0.55178731
      0.20673675      0.26323149
s              7   1.000000
      0.38350848     -0.19594147
      0.04707223      0.94671719
      0.02222627      0.24862231
     35.24773745      0.00546884
      6.06995205      0.02497120
      0.48774655     -0.26493258
      0.18589228     -0.21767818
p              7   1.000000
      1.83062075     -0.01159545
      0.10124670      0.56981820
      0.03901771      0.59509045
      5.68109372     -0.02505073
      1.47302277     -0.12529180
      0.51928611     -0.24194401
      0.20673675     -0.11541998
 
          25   0
s              4   1.000000
     35.10847920     -0.01198412
      6.04597063     -0.05472053
      0.48581954      0.58055871
      0.18515785      0.47700800
p              4   1.000000
      5.65864862      0.05713170
      1.46720309      0.28574555
      0.51723449      0.55178731
      0.20591996      0.26323149
s              7   1.000000
      0.38350848     -0.19606965
      0.04707223      0.94733647
      0.02222627      0.24878494
     35.10847920      0.00548956
      6.04597063      0.02506583
      0.48581954     -0.26593652
      0.18515785     -0.21850304
p              7   1.000000
      1.83062075     -0.01160258
      0.10124670      0.57016831
      0.03901771      0.59545613
      5.65864862     -0.02514603
      1.46720309     -0.12576844
      0.51723449     -0.24286443
      0.20591996     -0.11585908
 
          26   0
s              4   1.000000
     35.02941019     -0.01198412
      6.03235429     -0.05472053
      0.48472541      0.58055871
      0.18474085      0.47700799
p              4   1.000000
      5.64590458      0.05713170
      1.46389875      0.28574555
      0.51606961      0.55178731
      0.20545620      0.26323149
s              7   1.000000
      0.38350848     -0.19614303
      0.04707223      0.94769102
      0.02222627      0.24887805
     35.02941019      0.00550140
      6.03235429      0.02511987
      0.48472541     -0.26650987
      0.18474085     -0.21897413
p              7   1.000000
      1.83062075     -0.01160665
      0.10124670      0.57036876
      0.03901771      0.59566545
      5.64590458     -0.02520045
      1.46389875     -0.12604065
      0.51606961     -0.24339008
      0.20545620     -0.11610983
 
          27   0
s              4   1.000000
     34.91602237     -0.01198412
      6.01282797     -0.05472053
      0.48315638      0.58055871
      0.18414286      0.47700799
p              4   1.000000
      5.62762917      0.05713170
      1.45916021      0.28574555
      0.51439913      0.55178731
      0.20479116      0.26323149
s              7   1.000000
      0.38350848     -0.19624903
      0.04707223      0.94820318
      0.02222627      0.24901255
     34.91602237      0.00551846
      6.01282797      0.02519777
      0.48315638     -0.26733631
      0.18414286     -0.21965316
p              7   1.000000
      1.83062075     -0.01161255
      0.10124670      0.57065832
      0.03901771      0.59596785
      5.62762917     -0.02527890
      1.45916021     -0.12643301
      0.51439913     -0.24414773
      0.20479116     -0.11647127
 
          28   0
s              4   1.000000
     34.92054246     -0.01198412
      6.01360637     -0.05472052
      0.48321893      0.58055871
      0.18416669      0.47700800
p              4   1.000000
      5.62835770      0.05713170
      1.45934911      0.28574555
      0.51446572      0.55178731
      0.20481767      0.26323149
s              7   1.000000
      0.38350848     -0.19624479
      0.04707223      0.94818268
      0.02222627      0.24900716
     34.92054246      0.00551778
      6.01360637      0.02519465
      0.48321893     -0.26730327
      0.18416669     -0.21962602
p              7   1.000000
      1.83062075     -0.01161231
      0.10124670      0.57064673
      0.03901771      0.59595576
      5.62835770     -0.02527576
      1.45934911     -0.12641732
      0.51446572     -0.24411744
      0.20481767     -0.11645683
 
          29   0
s              4   1.000000
     34.91865537     -0.01198412
      6.01328139     -0.05472052
      0.48319282      0.58055871
      0.18415674      0.47700799
p              4   1.000000
      5.62805355      0.05713170
      1.45927024      0.28574555
      0.51443792      0.55178731
      0.20480660      0.26323149
s              7   1.000000
      0.38350848     -0.19624656
      0.04707223      0.94819124
      0.02222627      0.24900940
     34.91865537      0.00551806
      6.01328139      0.02519595
      0.48319282     -0.26731706
      0.18415674     -0.21963735
p              7   1.000000
      1.83062075     -0.01161241
      0.10124670      0.57065157
      0.03901771      0.59596082
      5.62805355     -0.02527707
      1.45927024     -0.12642387
      0.51443792     -0.24413009
      0.20480660     -0.11646286
 
          30   0
s              4   1.000000
     35.00446781     -0.01198412
      6.02805901     -0.05472052
      0.48438026      0.58055871
      0.18460931      0.47700799
p              4   1.000000
      5.64188447      0.05713170
      1.46285639      0.28574555
      0.51570215      0.55178731
      0.20530991      0.26323149
s              7   1.000000
      0.38350848     -0.19616627
      0.04707223      0.94780331
      0.02222627      0.24890754
     35.00446781      0.00550514
      6.02805901      0.02513697
      0.48438026     -0.26669123
      0.18460931     -0.21912314
p              7   1.000000
      1.83062075     -0.01160795
      0.10124670      0.57043224
      0.03901771      0.59573175
      5.64188447     -0.02521767
      1.46285639     -0.12612676
      0.51570215     -0.24355635
      0.20530991     -0.11618915
 
          31   0
s              4   1.000000
     57.37151952     -0.01198412
      9.87985039     -0.05472052
      0.79388813      0.58055871
      0.30257042      0.47700799
p              4   1.000000
      6.76249437      0.05713170
      1.75341381      0.28574555
      0.61813263      0.55178731
      0.24608925      0.26323149
s              7   1.000000
      0.47894987     -0.18904262
      0.05878681      0.91338446
      0.02775758      0.23986862
     57.37151952      0.00423131
      9.87985039      0.01932052
      0.79388813     -0.20498156
      0.30257042     -0.16842025
p              7   1.000000
      2.28619608     -0.01168506
      0.12644335      0.57422176
      0.04872781      0.59968932
      6.76249437     -0.02622822
      1.75341381     -0.13118107
      0.61813263     -0.25331645
      0.24608925     -0.12084523
 
          32   0
s              4   1.000000
     35.37131069     -0.01198412
      6.09123239     -0.05472052
      0.48945651      0.58055871
      0.18654399      0.47700799
p              4   1.000000
      5.70101078      0.05713170
      1.47818696      0.28574555
      0.52110665      0.55178731
      0.20746154      0.26323149
s              7   1.000000
      0.38350848     -0.19582886
      0.04707223      0.94617309
      0.02222627      0.24847942
     35.37131069      0.00545058
      6.09123239      0.02488782
      0.48945651     -0.26404792
      0.18654399     -0.21695131
p              7   1.000000
      1.83062075     -0.01158919
      0.10124670      0.56951058
      0.03901771      0.59476918
      5.70101078     -0.02496674
      1.47818696     -0.12487176
      0.52110665     -0.24113290
      0.20746154     -0.11503304
 
          33   0
s              4   1.000000
     35.13593555     -0.01198412
      6.05069884     -0.05472053
      0.48619947      0.58055871
      0.18530265      0.47700799
p              4   1.000000
      5.66307393      0.05713170
      1.46835051      0.28574555
      0.51763899      0.55178731
      0.20608100      0.26323149
s              7   1.000000
      0.38350848     -0.19604427
      0.04707223      0.94721386
      0.02222627      0.24875274
     35.13593555      0.00548547
      6.05069884      0.02504712
      0.48619947     -0.26573799
      0.18530265     -0.21833993
p              7   1.000000
      1.83062075     -0.01160116
      0.10124670      0.57009899
      0.03901771      0.59538371
      5.66307393     -0.02512718
      1.46835051     -0.12567419
      0.51763899     -0.24268242
      0.20608100     -0.11577225
 
          34   0
s              4   1.000000
     35.01882707     -0.01198412
      6.03053179     -0.05472053
      0.48457896      0.58055871
      0.18468504      0.47700799
p              4   1.000000
      5.64419884      0.05713170
      1.46345648      0.28574555
      0.51591369      0.55178731
      0.20539413      0.26323149
s              7   1.000000
      0.38350848     -0.19615288
      0.04707223      0.94773864
      0.02222627      0.24889055
     35.01882707      0.00550299
      6.03053179      0.02512712
      0.48457896     -0.26658679
      0.18468504     -0.21903733
p              7   1.000000
      1.83062075     -0.01160720
      0.10124670      0.57039568
      0.03901771      0.59569356
      5.64419884     -0.02520775
      1.46345648     -0.12607717
      0.51591369     -0.24346060
      0.20539413     -0.11614347
 
          35   0
s              4   1.000000
     34.91673105     -0.01198412
      6.01295001     -0.05472052
      0.48316619      0.58055871
      0.18414659      0.47700799
p              4   1.000000
      5.62774340      0.05713170
      1.45918983      0.28574555
      0.51440957      0.55178731
      0.20479531      0.26323149
s              7   1.000000
      0.38350848     -0.19624836
      0.04707223      0.94819998
      0.02222627      0.24901172
     34.91673105      0.00551835
      6.01295001      0.02519728
      0.48316619     -0.26733113
      0.18414659     -0.21964891
p              7   1.000000
      1.83062075     -0.01161251
      0.10124670      0.57065651
      0.03901771      0.59596595
      5.62774340     -0.02527841
      1.45918983     -0.12643055
      0.51440957     -0.24414298
      0.20479531     -0.11646901
 
          36   0
s              4   1.000000
     34.92123990     -0.01198412
      6.01372647     -0.05472053
      0.48322858      0.58055871
      0.18417037      0.47700799
p              4   1.000000
      5.62847011      0.05713170
      1.45937825      0.28574555
      0.51447599      0.55178731
      0.20482176      0.26323149
s              7   1.000000
      0.38350848     -0.19624413
      0.04707223      0.94817953
      0.02222627      0.24900633
     34.92123990      0.00551767
      6.01372647      0.02519417
      0.48322858     -0.26729817
      0.18417037     -0.21962183
p              7   1.000000
      1.83062075     -0.01161227
      0.10124670      0.57064495
      0.03901771      0.59595390
      5.62847011     -0.02527528
      1.45937825     -0.12641490
      0.51447599     -0.24411277
      0.20482176     -0.11645460
 
          37   0
s              4   1.000000
     34.91676436     -0.01198412
      6.01295575     -0.05472053
      0.48316665      0.58055871
      0.18414677      0.47700799
p              4   1.000000
      5.62774876      0.05713170
      1.45919122      0.28574555
      0.51441006      0.55178731
      0.20479551      0.26323149
s              7   1.000000
      0.38350848     -0.19624833
      0.04707223      0.94819982
      0.02222627      0.24901167
     34.91676436      0.00551835
      6.01295575      0.02519726
      0.48316665     -0.26733089
      0.18414677     -0.21964871
p              7   1.000000
      1.83062075     -0.01161251
      0.10124670      0.57065642
      0.03901771      0.59596587
      5.62774876     -0.02527838
      1.45919122     -0.12643043
      0.51441006     -0.24414276
      0.20479551     -0.11646890
 
          38   0
s              4   1.000000
     35.01894993     -0.01198412
      6.03055295     -0.05472052
      0.48458066      0.58055871
      0.18468568      0.47700799
p              4   1.000000
      5.64421864      0.05713170
      1.46346161      0.28574555
      0.51591551      0.55178730
      0.20539485      0.26323149
s              7   1.000000
      0.38350848     -0.19615277
      0.04707223      0.94773808
      0.02222627      0.24889041
     35.01894993      0.00550297
      6.03055295      0.02512704
      0.48458066     -0.26658590
      0.18468568     -0.21903660
p              7   1.000000
      1.83062075     -0.01160720
      0.10124670      0.57039536
      0.03901771      0.59569324
      5.64421864     -0.02520767
      1.46346161     -0.12607675
      0.51591551     -0.24345978
      0.20539485     -0.11614309
 
          39   0
s              4   1.000000
     57.37648059     -0.01198412
      9.88070473     -0.05472053
      0.79395678      0.58055871
      0.30259658      0.47700799
p              4   1.000000
      6.76307914      0.05713170
      1.75356543      0.28574555
      0.61818608      0.55178731
      0.24611053      0.26323149
s              7   1.000000
      0.47894987     -0.18904084
      0.05878681      0.91337584
      0.02775758      0.23986637
     57.37648059      0.00423095
      9.88070473      0.01931888
      0.79395678     -0.20496413
      0.30259658     -0.16840593
p              7   1.000000
      2.28619608     -0.01168489
      0.12644335      0.57421350
      0.04872781      0.59968070
      6.76307914     -0.02622606
      1.75356543     -0.13117023
      0.61818608     -0.25329553
      0.24611053     -0.12083525
 
          40   0
s              4   1.000000
     35.00340010     -0.01198412
      6.02787514     -0.05472052
      0.48436549      0.58055871
      0.18460368      0.47700800
p              4   1.000000
      5.64171238      0.05713170
      1.46281178      0.28574555
      0.51568642      0.55178731
      0.20530365      0.26323149
s              7   1.000000
      0.38350848     -0.19616726
      0.04707223      0.94780811
      0.02222627      0.24890881
     35.00340010      0.00550530
      6.02787514      0.02513770
      0.48436549     -0.26669900
      0.18460368     -0.21912953
p              7   1.000000
      1.83062075     -0.01160800
      0.10124670      0.57043497
      0.03901771      0.59573459
      5.64171238     -0.02521840
      1.46281178     -0.12613044
      0.51568642     -0.24356347
      0.20530365     -0.11619255
 
          41   0
s              4   1.000000
     35.00923127     -0.01198412
      6.02887931     -0.05472053
      0.48444618      0.58055871
      0.18463443      0.47700799
p              4   1.000000
      5.64265222      0.05713170
      1.46305546      0.28574555
      0.51577233      0.55178731
      0.20533785      0.26323149
s              7   1.000000
      0.38350848     -0.19616182
      0.04707223      0.94778185
      0.02222627      0.24890191
     35.00923127      0.00550443
      6.02887931      0.02513370
      0.48444618     -0.26665658
      0.18463443     -0.21909467
p              7   1.000000
      1.83062075     -0.01160770
      0.10124670      0.57042012
      0.03901771      0.59571909
      5.64265222     -0.02521438
      1.46305546     -0.12611030
      0.51577233     -0.24352458
      0.20533785     -0.11617400
 
          42   0
s              4   1.000000
     35.01621803     -0.01198412
      6.03008249     -0.05472052
      0.48454286      0.58055871
      0.18467128      0.47700799
p              4   1.000000
      5.64377832      0.05713170
      1.46334744      0.28574555
      0.51587526      0.55178731
      0.20537883      0.26323149
s              7   1.000000
      0.38350848     -0.19615531
      0.04707223      0.94775038
      0.02222627      0.24889365
     35.01621803      0.00550338
      6.03008249      0.02512891
      0.48454286     -0.26660576
      0.18467128     -0.21905292
p              7   1.000000
      1.83062075     -0.01160734
      0.10124670      0.57040232
      0.03901771      0.59570048
      5.64377832     -0.02520955
      1.46334744     -0.12608618
      0.51587526     -0.24347799
      0.20537883     -0.11615178
 
          43   0
s              4   1.000000
     34.91760715     -0.01198412
      6.01310088     -0.05472052
      0.48317831      0.58055871
      0.18415122      0.47700799
p              4   1.000000
      5.62788460      0.05713170
      1.45922644      0.28574555
      0.51442248      0.55178731
      0.20480045      0.26323149
s              7   1.000000
      0.38350848     -0.19624754
      0.04707223      0.94819599
      0.02222627      0.24901067
     34.91760715      0.00551822
      6.01310088      0.02519668
      0.48317831     -0.26732473
      0.18415122     -0.21964364
p              7   1.000000
      1.83062075     -0.01161246
      0.10124670      0.57065426
      0.03901771      0.59596361
      5.62788460     -0.02527780
      1.45922644     -0.12642751
      0.51442248     -0.24413711
      0.20480045     -0.11646621
 
          44   0
s              4   1.000000
      8.30875553      0.05675242
      1.52039989      0.26014135
      0.42238374      0.53284611
      0.14018537      0.29162544
s              7   1.000000
      0.92936822     -0.06732867
      0.05643440      0.66945785
      0.02166600      0.51461653
      8.30875553     -0.02902323
      1.52039989     -0.13303646
      0.42238374     -0.27249785
      0.14018537     -0.14913744
p              4   1.000000
      0.64737396      0.05713170
      0.16785440      0.28574555
      0.05917387      0.55178731
      0.02355814      0.26323150
 
          45   0
s              4   1.000000
      8.30883889      0.05675242
      1.52041515      0.26014135
      0.42238798      0.53284611
      0.14018677      0.29162544
s              7   1.000000
      0.92936822     -0.06732856
      0.05643440      0.66945679
      0.02166600      0.51461571
      8.30883889     -0.02902300
      1.52041515     -0.13303544
      0.42238798     -0.27249576
      0.14018677     -0.14913629
p              4   1.000000
      0.64737396      0.05713170
      0.16785440      0.28574555
      0.05917387      0.55178731
      0.02355814      0.26323150
 
          46   0
s              4   1.000000
      8.30938201      0.05675242
      1.52051453      0.26014135
      0.42241559      0.53284611
      0.14019594      0.29162544
s              7   1.000000
      0.92936822     -0.06732787
      0.05643440      0.66944983
      0.02166600      0.51461037
      8.30938201     -0.02902155
      1.52051453     -0.13302878
      0.42241559     -0.27248212
      0.14019594     -0.14912883
p              4   1.000000
      0.64737396      0.05713170
      0.16785440      0.28574555
      0.05917387      0.55178731
      0.02355814      0.26323150
 
          47   0
s              4   1.000000
      8.30962633      0.05675242
      1.52055924      0.26014135
      0.42242801      0.53284611
      0.14020006      0.29162544
s              7   1.000000
      0.92936822     -0.06732755
      0.05643440      0.66944671
      0.02166600      0.51460796
      8.30962633     -0.02902090
      1.52055924     -0.13302578
      0.42242801     -0.27247598
      0.14020006     -0.14912547
p              4   1.000000
      0.64737396      0.05713170
      0.16785440      0.28574555
      0.05917387      0.55178731
      0.02355814      0.26323150
 
          48   0
s              4   1.000000
      8.30932567      0.05675242
      1.52050422      0.26014135
      0.42241272      0.53284611
      0.14019498      0.29162544
s              7   1.000000
      0.92936822     -0.06732794
      0.05643440      0.66945056
      0.02166600      0.51461092
      8.30932567     -0.02902170
      1.52050422     -0.13302947
      0.42241272     -0.27248353
      0.14019498     -0.14912961
p              4   1.000000
      0.64737396      0.05713170
      0.16785440      0.28574555
      0.05917387      0.55178731
      0.02355814      0.26323150
 
          49   0
s              4   1.000000
      8.30951555      0.05675242
      1.52053897      0.26014135
      0.42242238      0.53284611
      0.14019819      0.29162544
s              7   1.000000
      0.92936822     -0.06732769
      0.05643440      0.66944812
      0.02166600      0.51460905
      8.30951555     -0.02902119
      1.52053897     -0.13302714
      0.42242238     -0.27247876
      0.14019819     -0.14912700
p              4   1.000000
      0.64737396      0.05713170
      0.16785440      0.28574555
      0.05917387      0.55178731
      0.02355814      0.26323150
 
          50   0
s              4   1.000000
      8.30894009      0.05675242
      1.52043367      0.26014135
      0.42239312      0.53284611
      0.14018848      0.29162544
s              7   1.000000
      0.92936822     -0.06732843
      0.05643440      0.66945549
      0.02166600      0.51461472
      8.30894009     -0.02902273
      1.52043367     -0.13303420
      0.42239312     -0.27249322
      0.14018848     -0.14913491
p              4   1.000000
      0.64737396      0.05713170
      0.16785440      0.28574555
      0.05917387      0.55178731
      0.02355814      0.26323150
 
          51   0
s              4   1.000000
      8.30893567      0.05675242
      1.52043286      0.26014135
      0.42239290      0.53284611
      0.14018840      0.29162544
s              7   1.000000
      0.92936822     -0.06732844
      0.05643440      0.66945554
      0.02166600      0.51461474
      8.30893567     -0.02902274
      1.52043286     -0.13303425
      0.42239290     -0.27249333
      0.14018840     -0.14913497
p              4   1.000000
      0.64737396      0.05713170
      0.16785440      0.28574555
      0.05917387      0.55178731
      0.02355814      0.26323150
 
          52   0
s              4   1.000000
      8.30899560      0.05675242
      1.52044382      0.26014135
      0.42239594      0.53284611
      0.14018942      0.29162544
s              7   1.000000
      0.92936822     -0.06732836
      0.05643440      0.66945478
      0.02166600      0.51461417
      8.30899560     -0.02902258
      1.52044382     -0.13303352
      0.42239594     -0.27249182
      0.14018942     -0.14913414
p              4   1.000000
      0.64737396      0.05713170
      0.16785440      0.28574555
      0.05917387      0.55178731
      0.02355814      0.26323150
 
          53   0
s              4   1.000000
      8.30927293      0.05675242
      1.52049457      0.26014135
      0.42241004      0.53284611
      0.14019409      0.29162544
s              7   1.000000
      0.92936822     -0.06732801
      0.05643440      0.66945123
      0.02166600      0.51461144
      8.30927293     -0.02902184
      1.52049457     -0.13303012
      0.42241004     -0.27248486
      0.14019409     -0.14913033
p              4   1.000000
      0.64737396      0.05713170
      0.16785440      0.28574555
      0.05917387      0.55178731
      0.02355814      0.26323150
 
          54   0
s              4   1.000000
      8.30956398      0.05675242
      1.52054783      0.26014135
      0.42242484      0.53284611
      0.14019901      0.29162544
s              7   1.000000
      0.92936822     -0.06732763
      0.05643440      0.66944751
      0.02166600      0.51460858
      8.30956398     -0.02902106
      1.52054783     -0.13302655
      0.42242484     -0.27247755
      0.14019901     -0.14912633
p              4   1.000000
      0.64737396      0.05713170
      0.16785440      0.28574555
      0.05917387      0.55178731
      0.02355814      0.26323150
 
          55   0
s              4   1.000000
      8.31000420      0.05675242
      1.52062839      0.26014135
      0.42244722      0.53284611
      0.14020643      0.29162544
s              7   1.000000
      0.92936822     -0.06732707
      0.05643440      0.66944188
      0.02166600      0.51460426
      8.31000420     -0.02901989
      1.52062839     -0.13302115
      0.42244722     -0.27246649
      0.14020643     -0.14912028
p              4   1.000000
      0.64737396      0.05713170
      0.16785440      0.28574555
      0.05917387      0.55178731
      0.02355814      0.26323150
 
          56   0
s              4   1.000000
      8.30955892      0.05675242
      1.52054691      0.26014135
      0.42242458      0.53284611
      0.14019892      0.29162544
s              7   1.000000
      0.92936822     -0.06732764
      0.05643440      0.66944757
      0.02166600      0.51460863
      8.30955892     -0.02902108
      1.52054691     -0.13302661
      0.42242458     -0.27247768
      0.14019892     -0.14912640
p              4   1.000000
      0.64737396      0.05713170
      0.16785440      0.28574555
      0.05917387      0.55178731
      0.02355814      0.26323150
 
          57   0
s              4   1.000000
      8.30981736      0.05675242
      1.52059420      0.26014135
      0.42243772      0.53284611
      0.14020328      0.29162544
s              7   1.000000
      0.92936822     -0.06732731
      0.05643440      0.66944427
      0.02166600      0.51460607
      8.30981736     -0.02902038
      1.52059420     -0.13302344
      0.42243772     -0.27247118
      0.14020328     -0.14912285
p              4   1.000000
      0.64737396      0.05713170
      0.16785440      0.28574555
      0.05917387      0.55178731
      0.02355814      0.26323150
 
          58   0
s              4   1.000000
      8.30886075      0.05675242
      1.52041915      0.26014135
      0.42238909      0.53284611
      0.14018714      0.29162544
s              7   1.000000
      0.92936822     -0.06732854
      0.05643440      0.66945650
      0.02166600      0.51461549
      8.30886075     -0.02902294
      1.52041915     -0.13303517
      0.42238909     -0.27249521
      0.14018714     -0.14913599
p              4   1.000000
      0.64737396      0.05713170
      0.16785440      0.28574555
      0.05917387      0.55178731
      0.02355814      0.26323150
 
          59   0
s              4   1.000000
      8.30877315      0.05675242
      1.52040312      0.26014135
      0.42238464      0.53284611
      0.14018566      0.29162544
s              7   1.000000
      0.92936822     -0.06732865
      0.05643440      0.66945762
      0.02166600      0.51461636
      8.30877315     -0.02902318
      1.52040312     -0.13303624
      0.42238464     -0.27249741
      0.14018566     -0.14913720
p              4   1.000000
      0.64737396      0.05713170
      0.16785440      0.28574555
      0.05917387      0.55178731
      0.02355814      0.26323150
 
          60   0
s              4   1.000000
      8.30886169      0.05675242
      1.52041932      0.26014135
      0.42238914      0.53284611
      0.14018716      0.29162544
s              7   1.000000
      0.92936822     -0.06732853
      0.05643440      0.66945649
      0.02166600      0.51461549
      8.30886169     -0.02902294
      1.52041932     -0.13303516
      0.42238914     -0.27249519
      0.14018716     -0.14913598
p              4   1.000000
      0.64737396      0.05713170
      0.16785440      0.28574555
      0.05917387      0.55178731
      0.02355814      0.26323150
 
          61   0
s              4   1.000000
      8.30936992      0.05675242
      1.52051232      0.26014135
      0.42241497      0.53284611
      0.14019573      0.29162544
s              7   1.000000
      0.92936822     -0.06732788
      0.05643440      0.66944999
      0.02166600      0.51461050
      8.30936992     -0.02902158
      1.52051232     -0.13302893
      0.42241497     -0.27248242
      0.14019573     -0.14912900
p              4   1.000000
      0.64737396      0.05713170
      0.16785440      0.28574555
      0.05917387      0.55178731
      0.02355814      0.26323150
 
          62   0
s              4   1.000000
      8.30982810      0.05675242
      1.52059616      0.26014135
      0.42243826      0.53284611
      0.14020346      0.29162544
s              7   1.000000
      0.92936822     -0.06732729
      0.05643440      0.66944413
      0.02166600      0.51460597
      8.30982810     -0.02902036
      1.52059616     -0.13302331
      0.42243826     -0.27247091
      0.14020346     -0.14912270
p              4   1.000000
      0.64737396      0.05713170
      0.16785440      0.28574555
      0.05917387      0.55178731
      0.02355814      0.26323150
 
          63   0
s              4   1.000000
      8.30884229      0.05675242
      1.52041577      0.26014135
      0.42238815      0.53284611
      0.14018683      0.29162543
s              7   1.000000
      0.92936822     -0.06732856
      0.05643440      0.66945674
      0.02166600      0.51461566
      8.30884229     -0.02902299
      1.52041577     -0.13303540
      0.42238815     -0.27249567
      0.14018683     -0.14913625
p              4   1.000000
      0.64737396      0.05713170
      0.16785440      0.28574555
      0.05917387      0.55178731
      0.02355814      0.26323150
 
          64   0
s              4   1.000000
      8.30875305      0.05675242
      1.52039944      0.26014135
      0.42238361      0.53284611
      0.14018532      0.29162544
s              7   1.000000
      0.92936822     -0.06732868
      0.05643440      0.66945788
      0.02166600      0.51461656
      8.30875305     -0.02902323
      1.52039944     -0.13303649
      0.42238361     -0.27249792
      0.14018532     -0.14913747
p              4   1.000000
      0.64737396      0.05713170
      0.16785440      0.28574555
      0.05917387      0.55178731
      0.02355814      0.26323150
 
          65   0
s              4   1.000000
      8.30884308      0.05675242
      1.52041591      0.26014135
      0.42238819      0.53284611
      0.14018684      0.29162544
s              7   1.000000
      0.92936822     -0.06732856
      0.05643440      0.66945673
      0.02166600      0.51461566
      8.30884308     -0.02902299
      1.52041591     -0.13303539
      0.42238819     -0.27249565
      0.14018684     -0.14913624
p              4   1.000000
      0.64737396      0.05713170
      0.16785440      0.28574555
      0.05917387      0.55178731
      0.02355814      0.26323150
 
          66   0
s              4   1.000000
      8.30981970      0.05675242
      1.52059462      0.26014135
      0.42243784      0.53284611
      0.14020332      0.29162544
s              7   1.000000
      0.92936822     -0.06732730
      0.05643440      0.66944423
      0.02166600      0.51460607
      8.30981970     -0.02902038
      1.52059462     -0.13302341
      0.42243784     -0.27247113
      0.14020332     -0.14912282
p              4   1.000000
      0.64737396      0.05713170
      0.16785440      0.28574555
      0.05917387      0.55178731
      0.02355814      0.26323150
 
          67   0
s              4   1.000000
      8.30951702      0.05675242
      1.52053924      0.26014135
      0.42242245      0.53284611
      0.14019821      0.29162544
s              7   1.000000
      0.92936822     -0.06732769
      0.05643440      0.66944811
      0.02166600      0.51460903
      8.30951702     -0.02902119
      1.52053924     -0.13302712
      0.42242245     -0.27247873
      0.14019821     -0.14912698
p              4   1.000000
      0.64737396      0.05713170
      0.16785440      0.28574555
      0.05917387      0.55178731
      0.02355814      0.26323150
 
          68   0
s              4   1.000000
      8.30955905      0.05675242
      1.52054693      0.26014135
      0.42242459      0.53284611
      0.14019892      0.29162544
s              7   1.000000
      0.92936822     -0.06732764
      0.05643440      0.66944757
      0.02166600      0.51460863
      8.30955905     -0.02902108
      1.52054693     -0.13302661
      0.42242459     -0.27247767
      0.14019892     -0.14912640
p              4   1.000000
      0.64737396      0.05713170
      0.16785440      0.28574555
      0.05917387      0.55178731
      0.02355814      0.26323150
 
          69   0
s              4   1.000000
      8.30939375      0.05675242
      1.52051668      0.26014135
      0.42241618      0.53284611
      0.14019613      0.29162544
s              7   1.000000
      0.92936822     -0.06732785
      0.05643440      0.66944969
      0.02166600      0.51461025
      8.30939375     -0.02902152
      1.52051668     -0.13302863
      0.42241618     -0.27248182
      0.14019613     -0.14912867
p              4   1.000000
      0.64737396      0.05713170
      0.16785440      0.28574555
      0.05917387      0.55178731
      0.02355814      0.26323150
 
          70   0
s              4   1.000000
      8.30883667      0.05675242
      1.52041474      0.26014135
      0.42238786      0.53284611
      0.14018674      0.29162544
s              7   1.000000
      0.92936822     -0.06732857
      0.05643440      0.66945681
      0.02166600      0.51461574
      8.30883667     -0.02902301
      1.52041474     -0.13303546
      0.42238786     -0.27249582
      0.14018674     -0.14913632
p              4   1.000000
      0.64737396      0.05713170
      0.16785440      0.28574555
      0.05917387      0.55178731
      0.02355814      0.26323150
 
 [MO]
 Sym= Hole
 Ene= -0.9581544    
 Spin= Alpha
 Occup= 0
           1  3.4563435E-04
           2  2.7975244E-02
           3  2.9187476E-02
           4 -7.8223445E-02
           5 -1.8423238E-04
           6 -8.4081461E-04
           7 -2.2617458E-04
           8  5.4988489E-03
           9  6.2585170E-03
          10 -4.5647440E-03
          11  8.6046448E-03
          12 -5.3578103E-03
          13 -2.2601767E-03
          14  1.1325765E-03
          15 -1.9607020E-03
          16  1.7168885E-03
          17 -1.8722592E-02
          18 -2.4779901E-02
          19 -6.4426251E-02
          20  7.1946181E-02
          21  1.0195368E-02
          22  2.0689103E-03
          23  4.8294729E-03
          24 -1.4335476E-03
          25  4.8096856E-04
          26 -3.9393124E-03
          27  3.5373415E-03
          28  3.5264004E-02
          29  8.4066378E-05
          30  1.7991917E-03
          31  2.1388181E-03
          32 -4.5677475E-03
          33 -6.3937745E-04
          34 -1.1144424E-03
          35 -7.9871051E-02
          36 -0.3146252    
          37  4.7582496E-04
          38  1.4511177E-03
          39  3.6797374E-03
          40  1.2186792E-02
          41 -7.3786266E-04
          42 -2.1909990E-03
          43  3.1050227E-03
          44  6.2624454E-03
          45  2.2004012E-04
          46  1.6488255E-03
          47  9.9017413E-04
          48  2.6360683E-03
          49 -2.0854271E-03
          50  1.1677637E-02
          51  8.9163385E-02
          52  0.2935420    
          53  1.0239251E-03
          54  5.6017720E-04
          55 -4.5254566E-03
          56 -1.1667173E-02
          57 -2.2101277E-03
          58  2.7869437E-03
          59  2.7750846E-02
          60  0.1154164    
          61  1.5680990E-03
          62 -8.7758388E-05
          63 -2.8225996E-03
          64 -2.0923557E-02
          65 -3.2229987E-03
          66 -1.7717012E-03
          67  6.1438300E-02
          68  0.2499324    
          69  1.2433016E-03
          70  8.2289416E-04
          71 -1.5280126E-03
          72 -1.2562864E-02
          73 -6.3609023E-04
          74  1.0879737E-03
          75 -4.6727434E-02
          76 -0.1792764    
          77 -4.4602959E-04
          78  1.3169475E-03
          79  3.2463374E-03
          80  1.0224624E-02
          81  3.0348906E-03
          82  1.9015373E-03
          83  5.7871137E-02
          84  0.2394089    
          85 -1.1685576E-03
          86 -1.3033283E-03
          87 -1.7533776E-03
          88 -1.1298836E-02
          89  1.6149365E-04
          90 -8.4078358E-04
          91 -4.1671742E-02
          92 -0.1630166    
          93 -6.7526897E-05
          94 -2.4795800E-04
          95  2.9999621E-03
          96  1.1014911E-02
          97  6.8151089E-04
          98  1.2885174E-03
          99 -7.6401249E-02
         100 -0.2914492    
         101 -1.4132258E-04
         102 -2.8586431E-04
         103  2.2265611E-03
         104  9.9231191E-03
         105 -2.9641591E-04
         106  3.6747949E-04
         107  1.0223491E-02
         108  3.7107620E-02
         109  6.8415754E-04
         110 -1.2088753E-03
         111 -6.1968050E-04
         112  2.8771856E-03
         113  2.8870555E-03
         114 -1.4358965E-02
         115  8.2486011E-02
         116  0.2877034    
         117 -1.5873611E-03
         118 -1.3889276E-04
         119 -4.4654892E-03
         120 -1.1314394E-02
         121  1.0454287E-03
         122 -8.3527184E-04
         123  1.6441520E-02
         124  7.7312253E-02
         125 -1.7445169E-03
         126 -4.6271988E-04
         127 -1.9105854E-03
         128 -1.8392960E-02
         129 -4.0114255E-04
         130 -1.5574176E-03
         131 -0.1154751    
         132 -0.4833341    
         133  4.4770790E-05
         134 -1.4865973E-03
         135  1.4200591E-02
         136  3.6163323E-02
         137  1.7896360E-04
         138  4.2512398E-03
         139  3.2312499E-04
         140  6.0792856E-02
         141 -2.6273265E-04
         142 -4.3325499E-04
         143 -3.1359596E-03
         144 -2.4404753E-02
         145 -3.5364643E-02
         146 -5.0420553E-04
         147 -0.1398715    
         148  9.1546893E-02
         149  2.0178894E-02
         150  1.0876746E-02
         151  1.5657840E-02
         152 -5.8238208E-03
         153  9.9444948E-03
         154  1.2084951E-02
         155  1.1106907E-02
         156 -5.5712755E-03
         157 -3.0550219E-03
         158 -1.3766312E-03
         159 -3.2314928E-03
         160  2.6481340E-03
         161  5.3277967E-04
         162 -2.2729229E-02
         163  7.6010376E-02
         164 -0.1326169    
         165 -2.9412625E-04
         166  8.1159716E-04
         167 -3.7788597E-03
         168  1.1745393E-02
         169 -8.3755126E-04
         170 -5.5673619E-04
         171  1.8669602E-04
         172 -1.5161850E-02
         173 -3.3834123E-04
         174 -5.3881539E-04
         175  1.4002038E-03
         176 -1.4731577E-03
         177 -4.8015709E-03
         178 -2.2205301E-03
         179 -8.4172217E-03
         180  5.9664212E-02
         181  3.5911649E-03
         182  3.3357280E-04
         183 -5.4549502E-04
         184 -4.9773715E-03
         185  1.5906919E-03
         186  4.9913535E-03
         187 -4.1161282E-03
         188  2.0544689E-02
         189 -4.3773191E-04
         190 -1.0909903E-03
         191 -8.9434412E-05
         192 -1.9286587E-03
         193 -9.0677338E-04
         194 -2.1237687E-03
         195  1.4887175E-03
         196 -1.8425233E-03
         197  5.8964425E-04
         198  2.0658041E-04
         199 -2.4939538E-04
         200 -5.6318165E-04
         201 -1.0578138E-05
         202 -3.3253613E-03
         203 -1.9940378E-03
         204 -6.7706583E-03
         205  2.3131173E-04
         206  2.5961045E-04
         207  7.7688484E-04
         208 -2.3975874E-04
         209 -3.1281120E-04
         210  7.3877600E-04
         211  8.4884930E-04
         212  7.6416001E-04
         213  1.4236939E-04
         214  1.9702059E-04
         215 -1.0879593E-04
         216  1.2793871E-04
         217  1.4517647E-04
         218  2.9663965E-03
         219  1.0956984E-03
         220  7.1591060E-03
         221 -9.5222706E-05
         222 -2.2177699E-04
         223  1.4337641E-04
         224 -3.1280829E-04
         225 -7.1383506E-04
         226 -8.9491549E-04
         227  6.6473614E-04
         228  3.4414986E-04
         229  2.1206857E-04
         230  1.9518912E-04
         231  9.6852709E-05
         232 -1.0756958E-04
         233  1.0509386E-03
         234 -1.9366388E-03
         235 -3.2491565E-03
         236 -7.2044795E-03
         237 -4.5587512E-04
         238  2.8881713E-04
         239 -1.3288710E-04
         240  5.1217654E-04
         241 -3.1164661E-04
         242 -3.8055372E-03
         243  8.7555191E-03
         244 -4.4510655E-02
         245  4.6386197E-04
         246  5.5399793E-04
         247 -8.0188055E-04
         248  3.8430279E-03
         249 -1.9218869E-03
         250 -3.0237548E-03
         251 -1.3284606E-03
         252 -2.5765758E-03
         253  5.6491984E-04
         254  1.0259810E-03
         255  2.9017893E-04
         256  1.3590436E-03
         257  1.0782088E-03
         258  6.3471613E-04
         259  1.8350320E-03
         260  8.5113029E-04
         261 -5.1413267E-04
         262 -3.4874443E-05
         263 -6.0388982E-05
         264  6.9959140E-05
         265  1.6953137E-04
         266  3.7091455E-04
         267  3.1025056E-04
         268  1.0211722E-03
         269 -2.9336044E-04
         270  3.0778168E-04
         271  3.2386818E-04
         272  6.4068561E-04
         273 -2.2900027E-05
         274  1.5622252E-04
         275 -8.3281038E-06
         276 -2.0711324E-03
         277 -5.5977485E-05
         278 -2.2511245E-04
         279 -1.4079157E-04
         280 -2.0928442E-04
         281  1.2378550E-04
         282  2.2541887E-04
         283  1.8853464E-04
         284 -1.9657030E-03
         285  1.2019664E-04
         286 -3.4834142E-05
         287  1.2847550E-04
         288  1.9112864E-04
         289  3.2372802E-04
         290  3.1663739E-04
         291  7.3724601E-04
         292  1.5510096E-03
         293 -2.5124971E-05
         294  4.6040146E-05
         295  1.1638854E-04
         296  2.6409983E-04
         297 -5.0074380E-04
         298 -7.0312811E-04
         299 -1.2183979E-03
         300  1.9366342E-03
         301  4.0271715E-04
         302 -1.3234359E-04
         303  1.8622346E-04
         304 -9.4812887E-04
         305  5.3566867E-03
         306  6.7009078E-03
         307 -2.2407956E-03
         308  4.5102101E-02
         309 -2.7582699E-03
         310  1.0659071E-03
         311 -6.3059927E-04
         312 -4.8152627E-03
         313 -9.9451523E-03
         314 -1.6691554E-02
         315  5.5542085E-03
         316 -4.4783843E-03
         317  3.0728935E-03
         318  3.4054760E-03
         319 -2.8522466E-03
         320  1.4423977E-03
         321  3.5194661E-02
         322  6.9879279E-02
         323 -0.1249183    
         324  8.8368937E-02
         325 -2.0540049E-02
         326 -1.6840275E-02
         327  9.3808016E-03
         328 -4.4933958E-03
         329  1.9919187E-02
         330 -5.9433427E-02
         331 -4.1496195E-02
         332  6.9070354E-02
         333 -1.0832223E-02
         334  3.4992190E-03
         335  4.1220686E-03
         336 -9.6871075E-04
         337 -6.5561766E-03
         338  1.1308776E-02
         339 -1.3579648E-03
         340 -2.1402163E-03
         341  2.6132413E-03
         342 -2.9949911E-03
         343  3.0169659E-04
         344  1.1592974E-03
         345 -4.9327849E-04
         346 -2.9493676E-05
         347  2.5485291E-03
         348  2.7225949E-03
         349 -7.0242984E-03
         350 -9.1773700E-03
         351  6.6345208E-04
         352  1.5790841E-03
         353  9.9578756E-04
         354 -1.3045011E-03
         355  5.9694746E-03
         356  5.7413022E-04
         357 -6.2447889E-03
         358 -3.0956282E-03
         359  2.3811567E-03
         360  3.8110712E-03
         361 -1.2099833E-03
         362  1.2381009E-03
         363  4.8287938E-04
         364  2.5732489E-03
         365 -1.1479759E-03
         366  8.5541647E-04
         367 -3.2263245E-03
         368  2.6893897E-03
         369  1.4793823E-02
         370  2.5926034E-03
         371 -5.4980058E-04
         372 -9.2167397E-07
         373 -4.0747318E-04
         374 -4.1963258E-03
         375 -1.4553824E-03
         376  8.6236233E-04
         377 -1.1970022E-04
         378 -1.0499206E-03
         379 -3.3007003E-03
         380 -6.0829538E-04
         381  1.7006880E-04
         382  3.2185184E-05
         383 -3.3163752E-03
         384 -1.3565828E-02
         385 -3.6641797E-03
         386  1.2917457E-03
         387 -1.7455268E-04
         388  9.5282152E-04
         389  4.4316831E-03
         390  1.3383811E-03
         391 -9.4558467E-04
         392  3.5650306E-03
         393  3.9413637E-03
         394  1.4166712E-02
         395  1.4660831E-02
         396  3.2180375E-03
         397  1.2417249E-02
         398  3.6876800E-03
         399  8.0928523E-03
         400 -2.0241695E-02
         401  1.4366781E-03
         402 -8.7851571E-04
         403 -4.1880403E-04
         404 -7.6173781E-04
         405  3.9386217E-04
         406  6.3844502E-04
         407  9.5729297E-04
         408  3.7414680E-04
         409  4.1831429E-03
         410  6.8151770E-05
         411 -7.1765570E-04
         412 -1.9533513E-03
         413  7.6971611E-04
         414 -8.2924200E-04
         415 -9.6306810E-04
         416 -2.8219356E-04
         417 -9.5261472E-05
         418  3.1883428E-05
         419  4.4002387E-04
         420 -5.7749526E-04
         421 -1.9377290E-04
         422  7.6293596E-05
         423  1.9111167E-04
         424  6.2174560E-04
         425  4.7423615E-04
         426 -1.5142166E-04
         427  9.2958144E-05
         428  9.1143229E-05
         429 -9.1152346E-05
         430  1.3402035E-04
         431 -6.0094538E-04
         432 -8.6529704E-04
         433  5.4177380E-04
         434 -7.1217546E-05
         435  1.3727535E-04
         436  7.5074018E-04
         437  1.1084657E-04
         438  1.2881367E-04
         439  1.6435961E-03
         440  1.8769190E-04
         441  2.6767812E-04
         442  3.9486863E-06
         443  2.0145030E-04
         444 -4.8467115E-04
         445  2.5957366E-04
         446  2.2554216E-04
         447 -9.3552269E-05
         448  2.4971107E-04
         449 -9.2210605E-05
         450 -6.0539861E-04
         451  1.4729160E-04
         452  2.0593453E-04
         453  8.4017620E-06
         454  5.4835912E-04
         455 -2.8026389E-04
         456  5.3616619E-04
         457  2.8178954E-04
         458  1.1467084E-03
         459 -1.6760967E-03
         460  2.0227058E-02
         461 -1.9540207E-03
         462  2.0899235E-03
         463  4.4796578E-04
         464 -1.7820249E-03
         465 -1.4128117E-02
         466 -3.5230960E-03
         467 -1.1922300E-02
         468 -2.0295447E-03
         469  9.8989289E-03
         470 -4.7524795E-03
         471 -1.2193059E-03
         472  9.4343210E-04
         473 -6.5111262E-03
         474  3.5605584E-03
         475  9.0316953E-03
         476 -4.3854697E-04
         477  3.3573498E-04
         478  1.5938868E-03
         479 -1.5480199E-03
 Sym= Particle
 Ene= -0.9581544    
 Spin= Alpha
 Occup= 2
           1 -1.5980816E-03
           2  2.2359236E-05
           3 -1.3429547E-03
           4  2.7183138E-03
           5  2.0311081E-03
           6 -1.6644883E-03
           7  9.8950707E-04
           8 -4.7434485E-04
           9  1.6025080E-03
          10 -3.1785963E-03
          11  1.1881823E-03
          12 -8.9905661E-04
          13 -5.6383893E-04
          14  2.6667467E-03
          15 -2.9171049E-04
          16  6.6850154E-04
          17 -2.9486963E-03
          18  7.0495848E-03
          19  5.6773447E-03
          20  1.5228385E-03
          21  1.8704465E-03
          22 -3.3121814E-03
          23 -3.8776102E-03
          24 -2.9673909E-03
          25 -9.5648150E-04
          26  3.8088852E-04
          27 -7.7054265E-04
          28  3.4092602E-04
          29 -2.1590693E-03
          30  4.4058617E-03
          31 -2.4577875E-03
          32  1.6479569E-03
          33  1.7562629E-04
          34  5.2919029E-03
          35  3.2683129E-03
          36  1.3763680E-02
          37 -3.4194037E-03
          38 -3.1969366E-03
          39 -6.3730346E-05
          40 -9.1093942E-04
          41  5.2472800E-03
          42 -6.3963011E-03
          43 -9.9487513E-02
          44 -0.3500511    
          45 -5.3672874E-03
          46  3.6422312E-05
          47  2.7732084E-02
          48  8.9284770E-02
          49 -1.2567361E-03
          50  5.9394371E-03
          51  7.5607106E-02
          52  0.2575063    
          53 -1.1322295E-03
          54 -2.0544105E-03
          55 -2.0449093E-02
          56 -6.7539304E-02
          57  7.5930855E-03
          58 -1.5047610E-02
          59  5.0500702E-02
          60  0.1601107    
          61 -7.2844722E-03
          62  8.1121735E-03
          63 -1.8798867E-02
          64 -6.4684428E-02
          65  4.4434969E-04
          66  5.5668121E-03
          67 -6.8614356E-02
          68 -0.3057176    
          69 -2.4321161E-03
          70 -2.9955464E-03
          71  1.6691253E-02
          72  7.6250613E-02
          73  5.3909519E-03
          74  7.6164008E-04
          75  8.9147814E-02
          76  0.3392991    
          77 -5.8338223E-03
          78 -3.1102886E-03
          79 -2.3077825E-02
          80 -9.2742153E-02
          81 -9.9290116E-04
          82 -9.3282154E-03
          83 -6.9856681E-02
          84 -0.2966056    
          85  8.4694294E-04
          86  2.8905591E-03
          87  1.6821275E-02
          88  7.1988612E-02
          89 -1.0570409E-03
          90  2.4072584E-03
          91  8.4966540E-02
          92  0.3230506    
          93  9.0217603E-05
          94 -5.5989705E-04
          95 -2.1171257E-02
          96 -8.5658714E-02
          97 -1.6085253E-04
          98 -2.3465138E-03
          99  6.7537897E-03
         100  2.0941891E-02
         101 -1.0157255E-04
         102  1.4187538E-03
         103 -1.1630354E-03
         104 -2.1505647E-03
         105 -1.3560038E-03
         106  7.3369276E-03
         107 -8.9867540E-02
         108 -0.3402065    
         109  6.3446409E-05
         110 -1.9881900E-03
         111  2.2663720E-02
         112  8.4363632E-02
         113  1.0819158E-03
         114 -8.6201373E-03
         115  6.6528358E-02
         116  0.2371597    
         117 -8.2678208E-04
         118  2.8655955E-03
         119 -1.8144863E-02
         120 -5.9569251E-02
         121 -5.7669957E-03
         122  9.1984458E-03
         123  5.9197333E-02
         124  0.1724094    
         125  4.5018848E-03
         126 -6.2885978E-03
         127 -2.3173138E-02
         128 -6.9060750E-02
         129 -9.0954028E-04
         130  2.0015461E-04
         131 -3.2025710E-02
         132 -0.1256287    
         133  3.1894635E-04
         134 -1.1452388E-03
         135  1.4442459E-02
         136  4.0822390E-02
         137  7.5495779E-04
         138 -2.5293615E-02
         139  8.5017316E-02
         140 -0.1249943    
         141 -1.4518354E-03
         142  8.5885506E-03
         143 -2.8716369E-02
         144  4.5142580E-02
         145 -5.3240634E-03
         146  1.6151233E-02
         147 -7.1535200E-02
         148  6.7329086E-02
         149  2.2468595E-04
         150 -6.8640495E-03
         151  2.4765689E-02
         152 -1.7788410E-02
         153  8.8841963E-04
         154  1.4132313E-02
         155 -4.0208917E-02
         156  5.0089750E-02
         157 -2.0241619E-03
         158 -2.8642742E-03
         159  7.8080073E-03
         160 -9.3662180E-03
         161  5.6764681E-04
         162 -2.1770800E-02
         163  7.3736578E-02
         164 -0.1133559    
         165 -6.7432772E-04
         166  4.5840209E-03
         167 -1.7748283E-02
         168  2.7202561E-02
         169 -8.0857554E-04
         170 -3.9869528E-03
         171  1.0409024E-02
         172 -5.6250494E-02
         173 -3.7128088E-04
         174 -6.0813280E-04
         175  3.5431394E-03
         176  6.9848760E-03
         177 -3.7606012E-03
         178 -1.3190488E-03
         179 -5.3244210E-03
         180  5.0876409E-02
         181  3.7848486E-03
         182  2.7902082E-03
         183  1.7239313E-03
         184 -1.2102711E-02
         185  1.0897777E-03
         186  4.0429058E-03
         187 -5.1111700E-03
         188  2.8971875E-02
         189 -1.1122519E-04
         190 -9.6278178E-04
         191  9.2372159E-04
         192 -4.2579379E-03
         193 -8.6002221E-04
         194 -1.1065112E-03
         195  9.3487545E-04
         196 -1.4111665E-03
         197  8.0339779E-04
         198  9.8908867E-04
         199 -5.0798949E-04
         200  1.0069937E-03
         201 -3.0304695E-04
         202 -4.0624943E-03
         203 -2.9880484E-03
         204 -7.1217567E-03
         205  5.1757850E-04
         206  7.9120195E-04
         207  1.0371760E-03
         208 -5.6681776E-04
         209 -1.4767963E-04
         210  5.1890302E-04
         211  7.4819132E-04
         212  1.3066528E-03
         213  1.5681529E-04
         214 -9.0099966E-05
         215 -3.0497648E-04
         216 -4.3603391E-04
         217  3.6429574E-05
         218  2.3834244E-03
         219  8.6008920E-04
         220  6.1816401E-03
         221 -9.0490685E-06
         222 -8.0690806E-05
         223  4.0158059E-04
         224 -1.1860814E-04
         225 -5.7667762E-04
         226 -5.7117373E-04
         227  7.5777160E-04
         228  8.6036522E-04
         229  3.3252747E-04
         230  2.6939862E-04
         231 -4.3385534E-04
         232 -8.9862791E-04
         233  1.4490719E-03
         234 -2.2404904E-03
         235 -3.4914350E-03
         236 -7.8885369E-03
         237 -7.7417708E-04
         238  1.1328451E-04
         239  3.1733885E-04
         240  1.2375597E-03
         241 -2.3861340E-04
         242 -4.1972580E-03
         243  9.2275133E-03
         244 -4.7023624E-02
         245  4.1968710E-04
         246  9.8890846E-04
         247 -1.4418907E-03
         248  7.1340529E-03
         249 -1.0579812E-03
         250 -1.3529017E-03
         251 -1.5601871E-03
         252  4.3151858E-03
         253  1.6110764E-04
         254  3.8474798E-04
         255 -1.2658675E-04
         256  2.5662901E-03
         257  1.0367831E-03
         258  5.8087852E-04
         259  2.8405755E-03
         260 -8.1800744E-03
         261 -5.8022497E-04
         262 -1.8266907E-04
         263 -9.4315677E-04
         264  3.2188762E-03
         265 -8.8254492E-05
         266 -1.5511946E-04
         267 -4.4010763E-04
         268  1.3382905E-03
         269 -1.4151999E-04
         270  2.7259922E-04
         271  6.7224471E-05
         272  3.9747541E-04
         273  9.2714385E-05
         274 -1.1172554E-05
         275  5.4636814E-05
         276  1.4089309E-03
         277 -3.1914808E-06
         278 -4.0435971E-06
         279  2.0720734E-04
         280 -1.3209248E-03
         281 -3.7900987E-05
         282  1.8733476E-04
         283  6.1911711E-04
         284 -3.8852275E-03
         285  1.3091767E-04
         286 -1.6788910E-04
         287 -1.6185503E-04
         288  1.4641555E-03
         289  3.8050651E-04
         290 -2.2709295E-04
         291 -2.6854803E-04
         292  4.7388761E-03
         293 -9.0171394E-05
         294  1.5401309E-04
         295  6.6371103E-05
         296 -7.3550193E-04
         297 -5.5503449E-04
         298 -4.1670643E-04
         299 -6.4621156E-04
         300  1.1896179E-03
         301  4.7552391E-04
         302 -7.9890779E-05
         303  7.0635241E-04
         304 -2.5885392E-03
         305  4.1542705E-03
         306  6.1169518E-03
         307 -4.3723974E-03
         308  5.8501143E-02
         309 -3.3840486E-03
         310 -3.2278749E-03
         311  3.8632675E-04
         312 -1.4602122E-02
         313 -1.2408721E-03
         314  9.3135480E-03
         315 -4.0868957E-02
         316  4.9561888E-02
         317  1.3295832E-03
         318 -1.1037721E-03
         319  7.8194719E-03
         320 -1.1682347E-02
         321  5.5931904E-03
         322  2.3333136E-02
         323 -6.9001250E-02
         324  6.6578254E-02
         325 -2.0004422E-03
         326 -6.3596712E-03
         327  2.4305895E-02
         328 -1.8362502E-02
         329 -4.3005948E-03
         330  3.0360962E-03
         331 -5.2616317E-03
         332 -5.1365951E-03
         333  2.5968587E-03
         334  2.8221068E-04
         335  4.1886456E-03
         336  2.8062791E-03
         337  2.0233917E-03
         338 -3.2611857E-03
         339  2.4671513E-03
         340 -2.1638011E-04
         341 -7.2965882E-04
         342  2.0676763E-03
         343 -1.7429364E-03
         344 -6.2405760E-04
         345  2.1484802E-03
         346  2.0153788E-03
         347 -2.1265543E-03
         348  7.2405534E-04
         349  3.1953491E-04
         350  2.4049196E-03
         351  6.2572927E-04
         352  5.1770860E-04
         353  1.0284652E-03
         354  6.4306514E-04
         355  9.5056568E-04
         356  6.1731329E-03
         357 -1.3322064E-02
         358  7.8913579E-03
         359 -1.8460538E-03
         360 -4.7178874E-03
         361 -1.6525886E-03
         362 -2.7340113E-03
         363 -1.6983945E-02
         364 -7.2600879E-02
         365 -2.2992173E-03
         366  1.6541787E-03
         367 -4.4001318E-03
         368  1.2965845E-02
         369  4.7278162E-02
         370 -8.8759977E-03
         371 -4.4139208E-05
         372 -3.9763297E-03
         373  1.8415131E-02
         374  6.7659900E-02
         375  3.7951681E-03
         376 -2.0717641E-03
         377  1.6947916E-04
         378  1.9367993E-02
         379  6.7160159E-02
         380 -1.9376466E-04
         381  2.8263862E-04
         382  2.7304553E-04
         383  6.1042717E-04
         384  3.7809701E-03
         385 -3.2131611E-05
         386  2.8033748E-05
         387  1.0175708E-03
         388 -1.9447658E-02
         389 -7.3758997E-02
         390  1.5845691E-03
         391 -2.9036761E-03
         392  4.2200256E-03
         393  1.2648819E-02
         394  4.2229421E-02
         395 -6.8405562E-04
         396 -6.0860254E-03
         397 -1.1201344E-02
         398 -4.1709803E-03
         399  1.0821405E-02
         400 -5.7984376E-03
         401  1.5403848E-03
         402  5.5428050E-03
         403 -5.1663634E-03
         404  1.0261610E-02
         405  8.4885873E-04
         406  1.2617483E-03
         407  1.7137026E-03
         408 -1.0129653E-03
         409  6.1886287E-03
         410  3.3317250E-04
         411 -3.0654922E-04
         412 -2.3297591E-03
         413  1.2945674E-03
         414 -1.4170969E-03
         415 -4.3587745E-04
         416 -1.8251879E-04
         417 -8.0944636E-05
         418 -7.5569267E-05
         419  8.5621473E-04
         420 -1.3729453E-04
         421 -3.3382644E-04
         422 -1.6109890E-04
         423  5.2126218E-04
         424  5.5254705E-04
         425  3.2455305E-04
         426  7.1987248E-05
         427  2.3019081E-04
         428  7.2168768E-05
         429 -2.8396764E-05
         430 -2.7086399E-04
         431 -2.4702636E-04
         432 -9.7387546E-04
         433  1.2095249E-03
         434  4.0761949E-04
         435 -1.1114806E-04
         436  3.9797113E-04
         437  2.2853594E-04
         438  1.7608903E-04
         439  4.2998763E-03
         440  1.1055220E-04
         441 -7.7211444E-05
         442 -6.4803266E-05
         443  1.3104467E-04
         444 -3.9236346E-04
         445  1.9570887E-04
         446  1.2137846E-04
         447 -8.1301579E-05
         448  3.0466041E-04
         449 -1.1345641E-03
         450 -2.9484078E-04
         451  3.2503856E-04
         452  3.8755446E-04
         453 -5.6854904E-05
         454  1.5453204E-03
         455 -1.2215512E-04
         456  6.3578819E-04
         457  1.1128795E-04
         458  1.5232075E-03
         459 -2.2192651E-03
         460  5.7704132E-03
         461 -2.0356227E-03
         462  7.9742324E-04
         463 -5.9717312E-03
         464  9.2554996E-03
         465  7.1856455E-04
         466  4.3209568E-03
         467  1.2243779E-02
         468 -1.0677114E-04
         469  9.7196642E-03
         470  1.4097425E-03
         471  5.5933320E-03
         472 -1.3199848E-02
         473  6.8114754E-03
         474 -2.9681246E-03
         475  1.7419719E-03
         476  6.1765040E-04
         477 -3.8125858E-04
         478 -7.9149997E-04
         479 -7.6707517E-04
