 [Molden Format]
 [Atoms] Angs
C       1      6     -5.92648420     -0.48151091     -1.43447913
C       2      6     -5.56381423     -1.55835344     -0.46114586
C       3      6     -6.55774246     -2.27783438      0.18605432
C       4      6     -6.24609712     -3.28499180      1.08307803
C       5      6     -4.92051766     -3.59145157      1.33232186
C       6      6     -3.91749470     -2.88062995      0.69701639
C       7      6     -4.21999803     -1.84679807     -0.18364267
P       8     15     -2.93813826     -0.91114562     -1.11120614
C       9      6     -1.39447022     -1.40225507     -0.19788102
P      10     15     -0.00246678     -0.35474753     -0.87212208
C      11      6      1.39872976     -1.39789405     -0.21145547
P      12     15      2.94077778     -0.87334942     -1.10858513
C      13      6      4.22622736     -1.83579938     -0.21381539
C      14      6      3.92915741     -2.89292101      0.64065031
C      15      6      4.93622595     -3.62199338      1.24834583
C      16      6      6.26026303     -3.31015546      0.99754884
C      17      6      6.56635621     -2.27803267      0.12740017
C      18      6      5.56834327     -1.53975235     -0.49170133
C      19      6      5.92461061     -0.43439591     -1.43496272
C      20      6      3.17402476      0.74783647     -0.26409892
C      21      6      3.47487565      0.80268327      1.09083117
C      22      6      3.65470497      2.01838181      1.72360902
C      23      6      3.54158572      3.19087873      0.99737936
C      24      6      3.24329504      3.14076027     -0.35277379
C      25      6      3.05227499      1.92837619     -1.00086165
C      26      6      2.72101167      1.88186599     -2.45998650
C      27      6     -0.00369029      0.98969691      0.38129612
C      28      6     -0.01838912      2.29988196     -0.07993502
C      29      6     -0.02390168      3.35964233      0.80742074
C      30      6     -0.01438657      3.12087768      2.16965458
C      31      6      0.00066040      1.81830109      2.63914994
C      32      6      0.00584531      0.75933382      1.75194082
C      33      6     -3.17262052      0.73692034     -0.32111839
C      34      6     -3.47118812      0.83746414      1.03168062
C      35      6     -3.65252445      2.07377735      1.62273297
C      36      6     -3.54343782      3.22096604      0.85654369
C      37      6     -3.24716409      3.12529902     -0.49160821
C      38      6     -3.05427281      1.89183969     -1.09802758
C      39      6     -2.72331589      1.79639870     -2.55488329
H      40      1     -5.24810538     -0.50430618     -2.28872869
H      41      1     -6.94777854     -0.60402435     -1.78809169
H      42      1     -5.83848626      0.49875296     -0.96374834
H      43      1     -7.59429612     -2.04918579     -0.02090179
H      44      1     -7.03467211     -3.83410076      1.57728836
H      45      1     -4.66410776     -4.38595863      2.01911961
H      46      1     -2.88922506     -3.14480212      0.89597196
H      47      1     -1.17918303     -2.44115748     -0.47180426
H      48      1     -1.49986947     -1.30620597      0.88613732
H      49      1      1.19483759     -2.43265176     -0.50922486
H      50      1      1.49817080     -1.32516162      0.87498191
H      51      1      2.90217885     -3.16116131      0.84087328
H      52      1      4.68425411     -4.43473095      1.91512588
H      53      1      7.05182856     -3.87396305      1.46996317
H      54      1      7.60155029     -2.04400711     -0.08029929
H      55      1      5.83493119      0.53161504     -0.93587131
H      56      1      6.94515083     -0.54330303     -1.79506433
H      57      1      5.24351665     -0.43463192     -2.28736924
H      58      1      3.57953470     -0.11538721      1.65463912
H      59      1      3.88589223      2.04948010      2.77899332
H      60      1      3.68443100      4.14524549      1.48380894
H      61      1      3.15508118      4.06096676     -0.91346115
H      62      1      1.84434623      1.25378747     -2.62333665
H      63      1      3.54772308      1.44922357     -3.02346039
H      64      1      2.52176355      2.87811470     -2.84704827
H      65      1     -0.02606532      2.48406110     -1.14418602
H      66      1     -0.03595767      4.37394971      0.43614828
H      67      1     -0.01868516      3.94595523      2.86726246
H      68      1      0.00836129      1.62649960      3.70328176
H      69      1      0.01741776     -0.24967364      2.14344129
H      70      1     -3.57295535     -0.06099353      1.62679242
H      71      1     -3.88188354      2.14052825      2.67683843
H      72      1     -3.68802607      4.19102251      1.31034996
H      73      1     -3.16179742      4.02584218     -1.08385693
H      74      1     -3.54461015      1.33311103     -3.10161271
H      75      1     -2.53658269      2.78036118     -2.97791981
H      76      1     -1.83891367      1.17378588     -2.69618547
 [GTO]
           1   0
s              4   1.000000
     37.02365993     -0.01198412
      6.37578060     -0.05472052
      0.51232118      0.58055871
      0.19525828      0.47700799
p              4   1.000000
      5.96733003      0.05713170
      1.54723957      0.28574555
      0.54544983      0.55178731
      0.21715297      0.26323149
s              7   1.000000
      0.38350848     -0.19441837
      0.04707223      0.93935810
      0.02222627      0.24668971
     37.02365993      0.00521737
      6.37578060      0.02382297
      0.51232118     -0.25275035
      0.19525828     -0.20766881
p              7   1.000000
      1.83062075     -0.01151079
      0.10124670      0.56565806
      0.03901771      0.59074580
      5.96733003     -0.02389400
      1.54723957     -0.11950638
      0.54544983     -0.23077212
      0.21715297     -0.11009040
 
           2   0
s              4   1.000000
     35.23801737     -0.01198412
      6.06827817     -0.05472053
      0.48761204      0.58055871
      0.18584102      0.47700799
p              4   1.000000
      5.67952708      0.05713170
      1.47261656      0.28574555
      0.51914291      0.55178731
      0.20667974      0.26323149
s              7   1.000000
      0.38350848     -0.19595038
      0.04707223      0.94676020
      0.02222627      0.24863359
     35.23801737      0.00547028
      6.06827817      0.02497779
      0.48761204     -0.26500242
      0.18584102     -0.21773555
p              7   1.000000
      1.83062075     -0.01159595
      0.10124670      0.56984251
      0.03901771      0.59511585
      5.67952708     -0.02505736
      1.47261656     -0.12532495
      0.51914291     -0.24200803
      0.20667974     -0.11545053
 
           3   0
s              4   1.000000
     35.00343422     -0.01198412
      6.02788101     -0.05472053
      0.48436596      0.58055871
      0.18460386      0.47700799
p              4   1.000000
      5.64171788      0.05713170
      1.46281320      0.28574555
      0.51568692      0.55178731
      0.20530385      0.26323149
s              7   1.000000
      0.38350848     -0.19616723
      0.04707223      0.94780796
      0.02222627      0.24890876
     35.00343422      0.00550530
      6.02788101      0.02513767
      0.48436596     -0.26669876
      0.18460386     -0.21912932
p              7   1.000000
      1.83062075     -0.01160800
      0.10124670      0.57043488
      0.03901771      0.59573450
      5.64171788     -0.02521838
      1.46281320     -0.12613033
      0.51568692     -0.24356324
      0.20530385     -0.11619244
 
           4   0
s              4   1.000000
     34.91362971     -0.01198412
      6.01241593     -0.05472052
      0.48312327      0.58055871
      0.18413024      0.47700800
p              4   1.000000
      5.62724353      0.05713170
      1.45906022      0.28574555
      0.51436388      0.55178731
      0.20477712      0.26323149
s              7   1.000000
      0.38350848     -0.19625127
      0.04707223      0.94821404
      0.02222627      0.24901540
     34.91362971      0.00551882
      6.01241593      0.02519942
      0.48312327     -0.26735381
      0.18413024     -0.21966754
p              7   1.000000
      1.83062075     -0.01161267
      0.10124670      0.57066447
      0.03901771      0.59597425
      5.62724353     -0.02528056
      1.45906022     -0.12644131
      0.51436388     -0.24416377
      0.20477712     -0.11647893
 
           5   0
s              4   1.000000
     34.91863423     -0.01198412
      6.01327775     -0.05472052
      0.48319252      0.58055871
      0.18415663      0.47700800
p              4   1.000000
      5.62805014      0.05713170
      1.45926936      0.28574555
      0.51443761      0.55178731
      0.20480648      0.26323149
s              7   1.000000
      0.38350848     -0.19624658
      0.04707223      0.94819134
      0.02222627      0.24900943
     34.91863423      0.00551807
      6.01327775      0.02519597
      0.48319252     -0.26731722
      0.18415663     -0.21963747
p              7   1.000000
      1.83062075     -0.01161241
      0.10124670      0.57065163
      0.03901771      0.59596086
      5.62805014     -0.02527709
      1.45926936     -0.12642394
      0.51443761     -0.24413023
      0.20480648     -0.11646292
 
           6   0
s              4   1.000000
     35.15123359     -0.01198412
      6.05333329     -0.05472052
      0.48641116      0.58055871
      0.18538333      0.47700799
p              4   1.000000
      5.66553961      0.05713170
      1.46898982      0.28574555
      0.51786437      0.55178731
      0.20617073      0.26323149
s              7   1.000000
      0.38350848     -0.19603015
      0.04707223      0.94714565
      0.02222627      0.24873482
     35.15123359      0.00548319
      6.05333329      0.02503670
      0.48641116     -0.26562750
      0.18538333     -0.21824915
p              7   1.000000
      1.83062075     -0.01160038
      0.10124670      0.57006042
      0.03901771      0.59534346
      5.66553961     -0.02511669
      1.46898982     -0.12562173
      0.51786437     -0.24258113
      0.20617073     -0.11572392
 
           7   0
s              4   1.000000
     35.02942857     -0.01198412
      6.03235746     -0.05472053
      0.48472566      0.58055871
      0.18474095      0.47700800
p              4   1.000000
      5.64590755      0.05713170
      1.46389952      0.28574555
      0.51606988      0.55178730
      0.20545631      0.26323149
s              7   1.000000
      0.38350848     -0.19614301
      0.04707223      0.94769095
      0.02222627      0.24887802
     35.02942857      0.00550140
      6.03235746      0.02511986
      0.48472566     -0.26650973
      0.18474095     -0.21897402
p              7   1.000000
      1.83062075     -0.01160665
      0.10124670      0.57036872
      0.03901771      0.59566541
      5.64590755     -0.02520044
      1.46389952     -0.12604059
      0.51606988     -0.24338995
      0.20545631     -0.11610977
 
           8   0
s              4   1.000000
      4.25896531     -0.03295496
      1.19964593     -0.17245169
      0.21511517      0.75185111
      0.10583754      0.35896272
p              4   1.000000
      7.75373430     -0.01434249
      0.80127059      0.27551776
      0.36214693      0.58467508
      0.17506982      0.21449865
s              7   1.000000
      0.13262137     -0.35689621
      0.02601144      1.12613535
      0.01283734      0.13391797
      4.25896531      0.01213714
      1.19964593      0.06351305
      0.21511517     -0.27690280
      0.10583754     -0.13220408
p              7   1.000000
      0.28417832     -0.06310108
      0.04344939      0.67785024
      0.02136350      0.40364497
      7.75373430      0.00331714
      0.80127059     -0.06372196
      0.36214693     -0.13522412
      0.17506982     -0.04960942
 
           9   0
s              4   1.000000
     36.85107225     -0.01198412
      6.34605957     -0.05472053
      0.50993296      0.58055871
      0.19434808      0.47700799
p              4   1.000000
      5.93951301      0.05713170
      1.54002703      0.28574555
      0.54290719      0.55178731
      0.21614071      0.26323149
s              7   1.000000
      0.38350848     -0.19455783
      0.04707223      0.94003192
      0.02222627      0.24686665
     36.85107225      0.00524081
      6.34605957      0.02393002
      0.50993296     -0.25388609
      0.19434808     -0.20860197
p              7   1.000000
      1.83062075     -0.01151854
      0.10124670      0.56603894
      0.03901771      0.59114360
      5.93951301     -0.02400186
      1.54002703     -0.12004587
      0.54290719     -0.23181389
      0.21614071     -0.11058739
 
          10   0
s              4   1.000000
      4.29775164     -0.03295496
      1.21057108     -0.17245169
      0.21707422      0.75185111
      0.10680140      0.35896273
p              4   1.000000
      7.82434743     -0.01434249
      0.80856775      0.27551776
      0.36544500      0.58467508
      0.17666418      0.21449865
s              7   1.000000
      0.13262137     -0.35646238
      0.02601144      1.12476645
      0.01283734      0.13375521
      4.29775164      0.01201306
      1.21057108      0.06286373
      0.21707422     -0.27407193
      0.10680140     -0.13085251
p              7   1.000000
      0.28417832     -0.06306595
      0.04344939      0.67747289
      0.02136350      0.40342019
      7.82434743      0.00328058
      0.80856775     -0.06301963
      0.36544500     -0.13373369
      0.17666418     -0.04906263
 
          11   0
s              4   1.000000
     36.85043511     -0.01198412
      6.34594985     -0.05472052
      0.50992415      0.58055871
      0.19434471      0.47700799
p              4   1.000000
      5.93941032      0.05713170
      1.54000041      0.28574555
      0.54289780      0.55178731
      0.21613697      0.26323149
s              7   1.000000
      0.38350848     -0.19455835
      0.04707223      0.94003443
      0.02222627      0.24686730
     36.85043511      0.00524090
      6.34594985      0.02393041
      0.50992415     -0.25389030
      0.19434471     -0.20860544
p              7   1.000000
      1.83062075     -0.01151857
      0.10124670      0.56604035
      0.03901771      0.59114506
      5.93941032     -0.02400226
      1.54000041     -0.12004787
      0.54289780     -0.23181775
      0.21613697     -0.11058923
 
          12   0
s              4   1.000000
      4.25901054     -0.03295496
      1.19965867     -0.17245170
      0.21511745      0.75185111
      0.10583866      0.35896273
p              4   1.000000
      7.75381664     -0.01434249
      0.80127910      0.27551776
      0.36215078      0.58467508
      0.17507168      0.21449865
s              7   1.000000
      0.13262137     -0.35689570
      0.02601144      1.12613373
      0.01283734      0.13391778
      4.25901054      0.01213699
      1.19965867      0.06351229
      0.21511745     -0.27689947
      0.10583866     -0.13220249
p              7   1.000000
      0.28417832     -0.06310103
      0.04344939      0.67784982
      0.02136350      0.40364463
      7.75381664      0.00331710
      0.80127910     -0.06372114
      0.36215078     -0.13522236
      0.17507168     -0.04960878
 
          13   0
s              4   1.000000
     35.02953908     -0.01198412
      6.03237649     -0.05472052
      0.48472719      0.58055871
      0.18474153      0.47700799
p              4   1.000000
      5.64592536      0.05713170
      1.46390414      0.28574555
      0.51607151      0.55178731
      0.20545696      0.26323149
s              7   1.000000
      0.38350848     -0.19614291
      0.04707223      0.94769045
      0.02222627      0.24887790
     35.02953908      0.00550138
      6.03237649      0.02511978
      0.48472719     -0.26650893
      0.18474153     -0.21897335
p              7   1.000000
      1.83062075     -0.01160665
      0.10124670      0.57036844
      0.03901771      0.59566512
      5.64592536     -0.02520036
      1.46390414     -0.12604021
      0.51607151     -0.24338922
      0.20545696     -0.11610942
 
          14   0
s              4   1.000000
     35.14973969     -0.01198412
      6.05307603     -0.05472052
      0.48639049      0.58055871
      0.18537545      0.47700800
p              4   1.000000
      5.66529882      0.05713170
      1.46892739      0.28574555
      0.51784236      0.55178731
      0.20616197      0.26323149
s              7   1.000000
      0.38350848     -0.19603153
      0.04707223      0.94715231
      0.02222627      0.24873658
     35.14973969      0.00548341
      6.05307603      0.02503772
      0.48639049     -0.26563829
      0.18537545     -0.21825801
p              7   1.000000
      1.83062075     -0.01160046
      0.10124670      0.57006419
      0.03901771      0.59534738
      5.66529882     -0.02511772
      1.46892739     -0.12562685
      0.51784236     -0.24259102
      0.20616197     -0.11572864
 
          15   0
s              4   1.000000
     34.91866980     -0.01198412
      6.01328388     -0.05472053
      0.48319302      0.58055871
      0.18415682      0.47700799
p              4   1.000000
      5.62805588      0.05713170
      1.45927085      0.28574555
      0.51443813      0.55178731
      0.20480668      0.26323149
s              7   1.000000
      0.38350848     -0.19624654
      0.04707223      0.94819117
      0.02222627      0.24900940
     34.91866980      0.00551806
      6.01328388      0.02519594
      0.48319302     -0.26731696
      0.18415682     -0.21963726
p              7   1.000000
      1.83062075     -0.01161241
      0.10124670      0.57065153
      0.03901771      0.59596078
      5.62805588     -0.02527706
      1.45927085     -0.12642382
      0.51443813     -0.24412999
      0.20480668     -0.11646281
 
          16   0
s              4   1.000000
     34.91359861     -0.01198412
      6.01241058     -0.05472052
      0.48312284      0.58055871
      0.18413007      0.47700799
p              4   1.000000
      5.62723852      0.05713170
      1.45905892      0.28574555
      0.51436342      0.55178731
      0.20477694      0.26323149
s              7   1.000000
      0.38350848     -0.19625131
      0.04707223      0.94821418
      0.02222627      0.24901545
     34.91359861      0.00551883
      6.01241058      0.02519944
      0.48312284     -0.26735403
      0.18413007     -0.21966772
p              7   1.000000
      1.83062075     -0.01161267
      0.10124670      0.57066454
      0.03901771      0.59597433
      5.62723852     -0.02528058
      1.45905892     -0.12644142
      0.51436342     -0.24416398
      0.20477694     -0.11647903
 
          17   0
s              4   1.000000
     35.00327556     -0.01198412
      6.02785369     -0.05472053
      0.48436376      0.58055871
      0.18460302      0.47700799
p              4   1.000000
      5.64169230      0.05713170
      1.46280657      0.28574555
      0.51568458      0.55178731
      0.20530292      0.26323149
s              7   1.000000
      0.38350848     -0.19616738
      0.04707223      0.94780868
      0.02222627      0.24890896
     35.00327556      0.00550532
      6.02785369      0.02513778
      0.48436376     -0.26669991
      0.18460302     -0.21913027
p              7   1.000000
      1.83062075     -0.01160801
      0.10124670      0.57043529
      0.03901771      0.59573491
      5.64169230     -0.02521849
      1.46280657     -0.12613087
      0.51568458     -0.24356430
      0.20530292     -0.11619295
 
          18   0
s              4   1.000000
     35.23969918     -0.01198412
      6.06856779     -0.05472052
      0.48763532      0.58055871
      0.18584989      0.47700799
p              4   1.000000
      5.67979815      0.05713170
      1.47268685      0.28574555
      0.51916769      0.55178731
      0.20668960      0.26323149
s              7   1.000000
      0.38350848     -0.19594884
      0.04707223      0.94675276
      0.02222627      0.24863164
     35.23969918      0.00547003
      6.06856779      0.02497665
      0.48763532     -0.26499033
      0.18584989     -0.21772562
p              7   1.000000
      1.83062075     -0.01159586
      0.10124670      0.56983831
      0.03901771      0.59511144
      5.67979815     -0.02505621
      1.47268685     -0.12531921
      0.51916769     -0.24199695
      0.20668960     -0.11544524
 
          19   0
s              4   1.000000
     37.02479432     -0.01198412
      6.37597595     -0.05472052
      0.51233687      0.58055871
      0.19526426      0.47700799
p              4   1.000000
      5.96751286      0.05713170
      1.54728698      0.28574555
      0.54546654      0.55178731
      0.21715963      0.26323149
s              7   1.000000
      0.38350848     -0.19441746
      0.04707223      0.93935370
      0.02222627      0.24668854
     37.02479432      0.00521722
      6.37597595      0.02382227
      0.51233687     -0.25274292
      0.19526426     -0.20766270
p              7   1.000000
      1.83062075     -0.01151074
      0.10124670      0.56565556
      0.03901771      0.59074321
      5.96751286     -0.02389329
      1.54728698     -0.11950285
      0.54546654     -0.23076530
      0.21715963     -0.11008715
 
          20   0
s              4   1.000000
     35.08380865     -0.01198412
      6.04172216     -0.05472053
      0.48547815      0.58055871
      0.18502774      0.47700799
p              4   1.000000
      5.65467232      0.05713170
      1.46617209      0.28574555
      0.51687103      0.55178731
      0.20577527      0.26323149
s              7   1.000000
      0.38350848     -0.19609249
      0.04707223      0.94744688
      0.02222627      0.24881394
     35.08380865      0.00549325
      6.04172216      0.02508267
      0.48547815     -0.26611515
      0.18502774     -0.21864982
p              7   1.000000
      1.83062075     -0.01160385
      0.10124670      0.57023072
      0.03901771      0.59552130
      5.65467232     -0.02516298
      1.46617209     -0.12585325
      0.51687103     -0.24302820
      0.20577527     -0.11593720
 
          21   0
s              4   1.000000
     35.19964072     -0.01198412
      6.06166940     -0.05472052
      0.48708100      0.58055871
      0.18563863      0.47700800
p              4   1.000000
      5.67334168      0.05713170
      1.47101278      0.28574555
      0.51857753      0.55178731
      0.20645465      0.26323149
s              7   1.000000
      0.38350848     -0.19598559
      0.04707223      0.94693034
      0.02222627      0.24867827
     35.19964072      0.00547598
      6.06166940      0.02500381
      0.48708100     -0.26527848
      0.18563863     -0.21796238
p              7   1.000000
      1.83062075     -0.01159790
      0.10124670      0.56993870
      0.03901771      0.59521630
      5.67334168     -0.02508356
      1.47101278     -0.12545602
      0.51857753     -0.24226114
      0.20645465     -0.11557127
 
          22   0
s              4   1.000000
     34.92623120     -0.01198412
      6.01458601     -0.05472052
      0.48329765      0.58055871
      0.18419670      0.47700799
p              4   1.000000
      5.62927459      0.05713170
      1.45958684      0.28574555
      0.51454953      0.55178731
      0.20485103      0.26323149
s              7   1.000000
      0.38350848     -0.19623945
      0.04707223      0.94815690
      0.02222627      0.24900039
     34.92623120      0.00551692
      6.01458601      0.02519073
      0.48329765     -0.26726170
      0.18419670     -0.21959186
p              7   1.000000
      1.83062075     -0.01161201
      0.10124670      0.57063215
      0.03901771      0.59594051
      5.62927459     -0.02527182
      1.45958684     -0.12639758
      0.51454953     -0.24407933
      0.20485103     -0.11643865
 
          23   0
s              4   1.000000
     34.92511896     -0.01198412
      6.01439448     -0.05472053
      0.48328226      0.58055871
      0.18419083      0.47700799
p              4   1.000000
      5.62909533      0.05713170
      1.45954036      0.28574555
      0.51453314      0.55178731
      0.20484451      0.26323149
s              7   1.000000
      0.38350848     -0.19624049
      0.04707223      0.94816194
      0.02222627      0.24900173
     34.92511896      0.00551709
      6.01439448      0.02519150
      0.48328226     -0.26726982
      0.18419083     -0.21959853
p              7   1.000000
      1.83062075     -0.01161207
      0.10124670      0.57063500
      0.03901771      0.59594350
      5.62909533     -0.02527259
      1.45954036     -0.12640144
      0.51453314     -0.24408678
      0.20484451     -0.11644220
 
          24   0
s              4   1.000000
     35.01245654     -0.01198412
      6.02943473     -0.05472052
      0.48449081      0.58055871
      0.18465144      0.47700799
p              4   1.000000
      5.64317206      0.05713170
      1.46319025      0.28574555
      0.51581984      0.55178731
      0.20535677      0.26323149
s              7   1.000000
      0.38350848     -0.19615882
      0.04707223      0.94776732
      0.02222627      0.24889808
     35.01245654      0.00550394
      6.02943473      0.02513149
      0.48449081     -0.26663312
      0.18465144     -0.21907539
p              7   1.000000
      1.83062075     -0.01160753
      0.10124670      0.57041190
      0.03901771      0.59571051
      5.64317206     -0.02521215
      1.46319025     -0.12609916
      0.51581984     -0.24350307
      0.20535677     -0.11616374
 
          25   0
s              4   1.000000
     35.21742757     -0.01198412
      6.06473244     -0.05472052
      0.48732713      0.58055871
      0.18573243      0.47700799
p              4   1.000000
      5.67620850      0.05713170
      1.47175610      0.28574555
      0.51883957      0.55178731
      0.20655897      0.26323149
s              7   1.000000
      0.38350848     -0.19596926
      0.04707223      0.94685142
      0.02222627      0.24865755
     35.21742757      0.00547334
      6.06473244      0.02499174
      0.48732713     -0.26515046
      0.18573243     -0.21785719
p              7   1.000000
      1.83062075     -0.01159699
      0.10124670      0.56989409
      0.03901771      0.59516970
      5.67620850     -0.02507141
      1.47175610     -0.12539524
      0.51883957     -0.24214376
      0.20655897     -0.11551528
 
          26   0
s              4   1.000000
     37.00887402     -0.01198412
      6.37323434     -0.05472053
      0.51211657      0.58055871
      0.19518030      0.47700799
p              4   1.000000
      5.96494689      0.05713170
      1.54662166      0.28574555
      0.54523199      0.55178731
      0.21706625      0.26323149
s              7   1.000000
      0.38350848     -0.19443025
      0.04707223      0.93941549
      0.02222627      0.24670477
     37.00887402      0.00521937
      6.37323434      0.02383210
      0.51211657     -0.25284726
      0.19518030     -0.20774844
p              7   1.000000
      1.83062075     -0.01151145
      0.10124670      0.56569050
      0.03901771      0.59077970
      5.96494689     -0.02390320
      1.54662166     -0.11955242
      0.54523199     -0.23086101
      0.21706625     -0.11013282
 
          27   0
s              4   1.000000
     34.99283684     -0.01198412
      6.02605606     -0.05472052
      0.48421932      0.58055871
      0.18454797      0.47700800
p              4   1.000000
      5.64000983      0.05713170
      1.46237033      0.28574555
      0.51553079      0.55178731
      0.20524169      0.26323149
s              7   1.000000
      0.38350848     -0.19617712
      0.04707223      0.94785574
      0.02222627      0.24892131
     34.99283684      0.00550689
      6.02605606      0.02514494
      0.48421932     -0.26677589
      0.18454797     -0.21919270
p              7   1.000000
      1.83062075     -0.01160855
      0.10124670      0.57046188
      0.03901771      0.59576270
      5.64000983     -0.02522570
      1.46237033     -0.12616695
      0.51553079     -0.24363396
      0.20524169     -0.11622618
 
          28   0
s              4   1.000000
     35.27322616     -0.01198412
      6.07434142     -0.05472052
      0.48809925      0.58055871
      0.18602671      0.47700800
p              4   1.000000
      5.68520189      0.05713170
      1.47408796      0.28574555
      0.51966162      0.55178731
      0.20688625      0.26323149
s              7   1.000000
      0.38350848     -0.19591816
      0.04707223      0.94660455
      0.02222627      0.24859272
     35.27322616      0.00546506
      6.07434142      0.02495396
      0.48809925     -0.26474964
      0.18602671     -0.21752786
p              7   1.000000
      1.83062075     -0.01159415
      0.10124670      0.56975450
      0.03901771      0.59502394
      5.68520189     -0.02503336
      1.47408796     -0.12520493
      0.51966162     -0.24177627
      0.20688625     -0.11533996
 
          29   0
s              4   1.000000
     34.93815405     -0.01198412
      6.01663923     -0.05472052
      0.48346263      0.58055871
      0.18425958      0.47700799
p              4   1.000000
      5.63119627      0.05713170
      1.46008511      0.28574555
      0.51472518      0.55178731
      0.20492097      0.26323149
s              7   1.000000
      0.38350848     -0.19622827
      0.04707223      0.94810287
      0.02222627      0.24898620
     34.93815405      0.00551512
      6.01663923      0.02518253
      0.48346263     -0.26717461
      0.18425958     -0.21952030
p              7   1.000000
      1.83062075     -0.01161139
      0.10124670      0.57060161
      0.03901771      0.59590863
      5.63119627     -0.02526355
      1.46008511     -0.12635624
      0.51472518     -0.24399949
      0.20492097     -0.11640055
 
          30   0
s              4   1.000000
     34.93278409     -0.01198412
      6.01571448     -0.05472052
      0.48338833      0.58055871
      0.18423126      0.47700799
p              4   1.000000
      5.63033076      0.05713170
      1.45986069      0.28574555
      0.51464607      0.55178731
      0.20488947      0.26323149
s              7   1.000000
      0.38350848     -0.19623330
      0.04707223      0.94812720
      0.02222627      0.24899259
     34.93278409      0.00551593
      6.01571448      0.02518622
      0.48338833     -0.26721382
      0.18423126     -0.21955252
p              7   1.000000
      1.83062075     -0.01161167
      0.10124670      0.57061537
      0.03901771      0.59592299
      5.63033076     -0.02526727
      1.45986069     -0.12637486
      0.51464607     -0.24403544
      0.20488947     -0.11641771
 
          31   0
s              4   1.000000
     34.93307902     -0.01198412
      6.01576527     -0.05472052
      0.48339241      0.58055871
      0.18423281      0.47700799
p              4   1.000000
      5.63037830      0.05713170
      1.45987302      0.28574555
      0.51465041      0.55178731
      0.20489120      0.26323149
s              7   1.000000
      0.38350848     -0.19623302
      0.04707223      0.94812586
      0.02222627      0.24899224
     34.93307902      0.00551589
      6.01576527      0.02518602
      0.48339241     -0.26721167
      0.18423281     -0.21955076
p              7   1.000000
      1.83062075     -0.01161166
      0.10124670      0.57061461
      0.03901771      0.59592218
      5.63037830     -0.02526707
      1.45987302     -0.12637383
      0.51465041     -0.24403347
      0.20489120     -0.11641677
 
          32   0
s              4   1.000000
     35.16687260     -0.01198412
      6.05602645     -0.05472053
      0.48662757      0.58055871
      0.18546581      0.47700800
p              4   1.000000
      5.66806024      0.05713170
      1.46964338      0.28574555
      0.51809477      0.55178731
      0.20626246      0.26323149
s              7   1.000000
      0.38350848     -0.19601574
      0.04707223      0.94707601
      0.02222627      0.24871654
     35.16687260      0.00548086
      6.05602645      0.02502607
      0.48662757     -0.26551465
      0.18546581     -0.21815642
p              7   1.000000
      1.83062075     -0.01159958
      0.10124670      0.57002105
      0.03901771      0.59530231
      5.66806024     -0.02510598
      1.46964338     -0.12556815
      0.51809477     -0.24247766
      0.20626246     -0.11567456
 
          33   0
s              4   1.000000
     35.08543667     -0.01198412
      6.04200251     -0.05472052
      0.48550068      0.58055871
      0.18503633      0.47700799
p              4   1.000000
      5.65493471      0.05713170
      1.46624013      0.28574555
      0.51689502      0.55178731
      0.20578481      0.26323149
s              7   1.000000
      0.38350848     -0.19609099
      0.04707223      0.94743958
      0.02222627      0.24881202
     35.08543667      0.00549301
      6.04200251      0.02508156
      0.48550068     -0.26610336
      0.18503633     -0.21864012
p              7   1.000000
      1.83062075     -0.01160376
      0.10124670      0.57022661
      0.03901771      0.59551697
      5.65493471     -0.02516186
      1.46624013     -0.12584765
      0.51689502     -0.24301739
      0.20578481     -0.11593204
 
          34   0
s              4   1.000000
     35.19946739     -0.01198412
      6.06163955     -0.05472053
      0.48707860      0.58055871
      0.18563771      0.47700800
p              4   1.000000
      5.67331374      0.05713170
      1.47100554      0.28574555
      0.51857497      0.55178731
      0.20645363      0.26323149
s              7   1.000000
      0.38350848     -0.19598575
      0.04707223      0.94693111
      0.02222627      0.24867849
     35.19946739      0.00547601
      6.06163955      0.02500392
      0.48707860     -0.26527973
      0.18563771     -0.21796340
p              7   1.000000
      1.83062075     -0.01159791
      0.10124670      0.56993913
      0.03901771      0.59521675
      5.67331374     -0.02508368
      1.47100554     -0.12545662
      0.51857497     -0.24226228
      0.20645363     -0.11557181
 
          35   0
s              4   1.000000
     34.92651408     -0.01198412
      6.01463473     -0.05472052
      0.48330156      0.58055871
      0.18419819      0.47700799
p              4   1.000000
      5.62932019      0.05713170
      1.45959866      0.28574555
      0.51455370      0.55178730
      0.20485269      0.26323149
s              7   1.000000
      0.38350848     -0.19623918
      0.04707223      0.94815560
      0.02222627      0.24900007
     34.92651408      0.00551688
      6.01463473      0.02519054
      0.48330156     -0.26725963
      0.18419819     -0.21959016
p              7   1.000000
      1.83062075     -0.01161200
      0.10124670      0.57063142
      0.03901771      0.59593978
      5.62932019     -0.02527162
      1.45959866     -0.12639660
      0.51455370     -0.24407743
      0.20485269     -0.11643774
 
          36   0
s              4   1.000000
     34.92537761     -0.01198412
      6.01443902     -0.05472052
      0.48328584      0.58055871
      0.18419220      0.47700800
p              4   1.000000
      5.62913701      0.05713170
      1.45955117      0.28574555
      0.51453695      0.55178731
      0.20484603      0.26323149
s              7   1.000000
      0.38350848     -0.19624025
      0.04707223      0.94816076
      0.02222627      0.24900141
     34.92537761      0.00551705
      6.01443902      0.02519132
      0.48328584     -0.26726793
      0.18419220     -0.21959698
p              7   1.000000
      1.83062075     -0.01161206
      0.10124670      0.57063433
      0.03901771      0.59594281
      5.62913701     -0.02527241
      1.45955117     -0.12640054
      0.51453695     -0.24408505
      0.20484603     -0.11644137
 
          37   0
s              4   1.000000
     35.01248461     -0.01198412
      6.02943957     -0.05472053
      0.48449120      0.58055871
      0.18465159      0.47700799
p              4   1.000000
      5.64317658      0.05713170
      1.46319142      0.28574555
      0.51582025      0.55178731
      0.20535693      0.26323149
s              7   1.000000
      0.38350848     -0.19615879
      0.04707223      0.94776720
      0.02222627      0.24889806
     35.01248461      0.00550394
      6.02943957      0.02513147
      0.48449120     -0.26663291
      0.18465159     -0.21907523
p              7   1.000000
      1.83062075     -0.01160753
      0.10124670      0.57041182
      0.03901771      0.59571043
      5.64317658     -0.02521213
      1.46319142     -0.12609907
      0.51582025     -0.24350288
      0.20535693     -0.11616365
 
          38   0
s              4   1.000000
     35.21826811     -0.01198412
      6.06487719     -0.05472052
      0.48733876      0.58055871
      0.18573686      0.47700800
p              4   1.000000
      5.67634397      0.05713170
      1.47179123      0.28574555
      0.51885195      0.55178731
      0.20656390      0.26323149
s              7   1.000000
      0.38350848     -0.19596849
      0.04707223      0.94684770
      0.02222627      0.24865658
     35.21826811      0.00547321
      6.06487719      0.02499117
      0.48733876     -0.26514441
      0.18573686     -0.21785222
p              7   1.000000
      1.83062075     -0.01159695
      0.10124670      0.56989197
      0.03901771      0.59516751
      5.67634397     -0.02507084
      1.47179123     -0.12539237
      0.51885195     -0.24213822
      0.20656390     -0.11551263
 
          39   0
s              4   1.000000
     37.00897949     -0.01198412
      6.37325250     -0.05472052
      0.51211803      0.58055871
      0.19518086      0.47700799
p              4   1.000000
      5.96496389      0.05713170
      1.54662607      0.28574555
      0.54523355      0.55178731
      0.21706687      0.26323149
s              7   1.000000
      0.38350848     -0.19443016
      0.04707223      0.93941508
      0.02222627      0.24670467
     37.00897949      0.00521936
      6.37325250      0.02383204
      0.51211803     -0.25284657
      0.19518086     -0.20774787
p              7   1.000000
      1.83062075     -0.01151145
      0.10124670      0.56569026
      0.03901771      0.59077946
      5.96496389     -0.02390313
      1.54662607     -0.11955209
      0.54523355     -0.23086038
      0.21706687     -0.11013251
 
          40   0
s              4   1.000000
      8.31258688      0.05675242
      1.52110098      0.26014135
      0.42257851      0.53284611
      0.14025001      0.29162544
s              7   1.000000
      0.92936822     -0.06732375
      0.05643440      0.66940886
      0.02166600      0.51457887
      8.31258688     -0.02901298
      1.52110098     -0.13298949
      0.42257851     -0.27240165
      0.14025001     -0.14908479
p              4   1.000000
      0.64737396      0.05713170
      0.16785440      0.28574555
      0.05917387      0.55178731
      0.02355814      0.26323150
 
          41   0
s              4   1.000000
      8.30638584      0.05675242
      1.51996627      0.26014135
      0.42226327      0.53284611
      0.14014539      0.29162544
s              7   1.000000
      0.92936822     -0.06733172
      0.05643440      0.66948817
      0.02166600      0.51463984
      8.30638584     -0.02902957
      1.51996627     -0.13306553
      0.42226327     -0.27255739
      0.14014539     -0.14917003
p              4   1.000000
      0.64737396      0.05713170
      0.16785440      0.28574555
      0.05917387      0.55178731
      0.02355814      0.26323150
 
          42   0
s              4   1.000000
      8.30717869      0.05675242
      1.52011135      0.26014135
      0.42230358      0.53284611
      0.14015876      0.29162544
s              7   1.000000
      0.92936822     -0.06733070
      0.05643440      0.66947803
      0.02166600      0.51463204
      8.30717869     -0.02902744
      1.52011135     -0.13305580
      0.42230358     -0.27253747
      0.14015876     -0.14915913
p              4   1.000000
      0.64737396      0.05713170
      0.16785440      0.28574555
      0.05917387      0.55178731
      0.02355814      0.26323150
 
          43   0
s              4   1.000000
      8.30920008      0.05675242
      1.52048124      0.26014135
      0.42240634      0.53284611
      0.14019287      0.29162544
s              7   1.000000
      0.92936822     -0.06732810
      0.05643440      0.66945216
      0.02166600      0.51461216
      8.30920008     -0.02902204
      1.52048124     -0.13303101
      0.42240634     -0.27248669
      0.14019287     -0.14913133
p              4   1.000000
      0.64737396      0.05713170
      0.16785440      0.28574555
      0.05917387      0.55178731
      0.02355814      0.26323150
 
          44   0
s              4   1.000000
      8.30876345      0.05675242
      1.52040134      0.26014135
      0.42238414      0.53284611
      0.14018550      0.29162544
s              7   1.000000
      0.92936822     -0.06732866
      0.05643440      0.66945775
      0.02166600      0.51461646
      8.30876345     -0.02902320
      1.52040134     -0.13303636
      0.42238414     -0.27249766
      0.14018550     -0.14913733
p              4   1.000000
      0.64737396      0.05713170
      0.16785440      0.28574555
      0.05917387      0.55178731
      0.02355814      0.26323150
 
          45   0
s              4   1.000000
      8.30879543      0.05675242
      1.52040720      0.26014135
      0.42238577      0.53284611
      0.14018604      0.29162544
s              7   1.000000
      0.92936822     -0.06732862
      0.05643440      0.66945733
      0.02166600      0.51461614
      8.30879543     -0.02902312
      1.52040720     -0.13303597
      0.42238577     -0.27249685
      0.14018604     -0.14913689
p              4   1.000000
      0.64737396      0.05713170
      0.16785440      0.28574555
      0.05917387      0.55178731
      0.02355814      0.26323150
 
          46   0
s              4   1.000000
      8.31105331      0.05675242
      1.52082036      0.26014135
      0.42250055      0.53284611
      0.14022413      0.29162544
s              7   1.000000
      0.92936822     -0.06732572
      0.05643440      0.66942846
      0.02166600      0.51459392
      8.31105331     -0.02901708
      1.52082036     -0.13300829
      0.42250055     -0.27244015
      0.14022413     -0.14910586
p              4   1.000000
      0.64737396      0.05713170
      0.16785440      0.28574555
      0.05917387      0.55178731
      0.02355814      0.26323150
 
          47   0
s              4   1.000000
      8.33548609      0.05675242
      1.52529126      0.26014135
      0.42374261      0.53284611
      0.14063636      0.29162544
s              7   1.000000
      0.92936822     -0.06729441
      0.05643440      0.66911714
      0.02166600      0.51435463
      8.33548609     -0.02895191
      1.52529126     -0.13270956
      0.42374261     -0.27182826
      0.14063636     -0.14877097
p              4   1.000000
      0.64737396      0.05713170
      0.16785440      0.28574555
      0.05917387      0.55178731
      0.02355814      0.26323150
 
          48   0
s              4   1.000000
      8.32680201      0.05675242
      1.52370218      0.26014135
      0.42330115      0.53284611
      0.14048985      0.29162544
s              7   1.000000
      0.92936822     -0.06730551
      0.05643440      0.66922755
      0.02166600      0.51443951
      8.32680201     -0.02897503
      1.52370218     -0.13281556
      0.42330115     -0.27204539
      0.14048985     -0.14888981
p              4   1.000000
      0.64737396      0.05713170
      0.16785440      0.28574555
      0.05917387      0.55178731
      0.02355814      0.26323150
 
          49   0
s              4   1.000000
      8.33580307      0.05675242
      1.52534926      0.26014135
      0.42375873      0.53284611
      0.14064171      0.29162544
s              7   1.000000
      0.92936822     -0.06729400
      0.05643440      0.66911312
      0.02166600      0.51435153
      8.33580307     -0.02895106
      1.52534926     -0.13270569
      0.42375873     -0.27182034
      0.14064171     -0.14876664
p              4   1.000000
      0.64737396      0.05713170
      0.16785440      0.28574555
      0.05917387      0.55178731
      0.02355814      0.26323150
 
          50   0
s              4   1.000000
      8.32663859      0.05675242
      1.52367228      0.26014135
      0.42329284      0.53284611
      0.14048709      0.29162544
s              7   1.000000
      0.92936822     -0.06730572
      0.05643440      0.66922964
      0.02166600      0.51444110
      8.32663859     -0.02897547
      1.52367228     -0.13281756
      0.42329284     -0.27204948
      0.14048709     -0.14889204
p              4   1.000000
      0.64737396      0.05713170
      0.16785440      0.28574555
      0.05917387      0.55178731
      0.02355814      0.26323150
 
          51   0
s              4   1.000000
      8.31103579      0.05675242
      1.52081715      0.26014135
      0.42249966      0.53284611
      0.14022384      0.29162544
s              7   1.000000
      0.92936822     -0.06732574
      0.05643440      0.66942869
      0.02166600      0.51459410
      8.31103579     -0.02901713
      1.52081715     -0.13300850
      0.42249966     -0.27244059
      0.14022384     -0.14910610
p              4   1.000000
      0.64737396      0.05713170
      0.16785440      0.28574555
      0.05917387      0.55178731
      0.02355814      0.26323150
 
          52   0
s              4   1.000000
      8.30879781      0.05675242
      1.52040763      0.26014135
      0.42238589      0.53284611
      0.14018608      0.29162544
s              7   1.000000
      0.92936822     -0.06732862
      0.05643440      0.66945731
      0.02166600      0.51461611
      8.30879781     -0.02902311
      1.52040763     -0.13303594
      0.42238589     -0.27249679
      0.14018608     -0.14913686
p              4   1.000000
      0.64737396      0.05713170
      0.16785440      0.28574555
      0.05917387      0.55178731
      0.02355814      0.26323150
 
          53   0
s              4   1.000000
      8.30876281      0.05675242
      1.52040123      0.26014135
      0.42238411      0.53284611
      0.14018549      0.29162544
s              7   1.000000
      0.92936822     -0.06732866
      0.05643440      0.66945776
      0.02166600      0.51461646
      8.30876281     -0.02902321
      1.52040123     -0.13303637
      0.42238411     -0.27249767
      0.14018549     -0.14913734
p              4   1.000000
      0.64737396      0.05713170
      0.16785440      0.28574555
      0.05917387      0.55178731
      0.02355814      0.26323150
 
          54   0
s              4   1.000000
      8.30919996      0.05675242
      1.52048122      0.26014135
      0.42240633      0.53284611
      0.14019286      0.29162544
s              7   1.000000
      0.92936822     -0.06732810
      0.05643440      0.66945216
      0.02166600      0.51461216
      8.30919996     -0.02902204
      1.52048122     -0.13303101
      0.42240633     -0.27248669
      0.14019286     -0.14913134
p              4   1.000000
      0.64737396      0.05713170
      0.16785440      0.28574555
      0.05917387      0.55178731
      0.02355814      0.26323150
 
          55   0
s              4   1.000000
      8.30719168      0.05675242
      1.52011373      0.26014135
      0.42230424      0.53284611
      0.14015898      0.29162544
s              7   1.000000
      0.92936822     -0.06733068
      0.05643440      0.66947786
      0.02166600      0.51463191
      8.30719168     -0.02902741
      1.52011373     -0.13305564
      0.42230424     -0.27253714
      0.14015898     -0.14915894
p              4   1.000000
      0.64737396      0.05713170
      0.16785440      0.28574555
      0.05917387      0.55178731
      0.02355814      0.26323150
 
          56   0
s              4   1.000000
      8.30638726      0.05675242
      1.51996653      0.26014135
      0.42226335      0.53284611
      0.14014541      0.29162544
s              7   1.000000
      0.92936822     -0.06733172
      0.05643440      0.66948816
      0.02166600      0.51463981
      8.30638726     -0.02902956
      1.51996653     -0.13306551
      0.42226335     -0.27255736
      0.14014541     -0.14917001
p              4   1.000000
      0.64737396      0.05713170
      0.16785440      0.28574555
      0.05917387      0.55178731
      0.02355814      0.26323150
 
          57   0
s              4   1.000000
      8.31259768      0.05675242
      1.52110296      0.26014135
      0.42257906      0.53284611
      0.14025019      0.29162544
s              7   1.000000
      0.92936822     -0.06732373
      0.05643440      0.66940872
      0.02166600      0.51457877
      8.31259768     -0.02901295
      1.52110296     -0.13298936
      0.42257906     -0.27240138
      0.14025019     -0.14908464
p              4   1.000000
      0.64737396      0.05713170
      0.16785440      0.28574555
      0.05917387      0.55178731
      0.02355814      0.26323150
 
          58   0
s              4   1.000000
      8.31146827      0.05675242
      1.52089629      0.26014135
      0.42252164      0.53284611
      0.14023114      0.29162544
s              7   1.000000
      0.92936822     -0.06732518
      0.05643440      0.66942316
      0.02166600      0.51458985
      8.31146827     -0.02901597
      1.52089629     -0.13300320
      0.42252164     -0.27242973
      0.14023114     -0.14910016
p              4   1.000000
      0.64737396      0.05713170
      0.16785440      0.28574555
      0.05917387      0.55178731
      0.02355814      0.26323150
 
          59   0
s              4   1.000000
      8.30888848      0.05675242
      1.52042422      0.26014135
      0.42239050      0.53284611
      0.14018761      0.29162544
s              7   1.000000
      0.92936822     -0.06732850
      0.05643440      0.66945615
      0.02166600      0.51461522
      8.30888848     -0.02902287
      1.52042422     -0.13303483
      0.42239050     -0.27249451
      0.14018761     -0.14913561
p              4   1.000000
      0.64737396      0.05713170
      0.16785440      0.28574555
      0.05917387      0.55178731
      0.02355814      0.26323150
 
          60   0
s              4   1.000000
      8.30889918      0.05675242
      1.52042618      0.26014135
      0.42239104      0.53284611
      0.14018779      0.29162544
s              7   1.000000
      0.92936822     -0.06732849
      0.05643440      0.66945601
      0.02166600      0.51461512
      8.30889918     -0.02902284
      1.52042618     -0.13303470
      0.42239104     -0.27249424
      0.14018779     -0.14913547
p              4   1.000000
      0.64737396      0.05713170
      0.16785440      0.28574555
      0.05917387      0.55178731
      0.02355814      0.26323150
 
          61   0
s              4   1.000000
      8.30930671      0.05675242
      1.52050076      0.26014135
      0.42241176      0.53284611
      0.14019467      0.29162544
s              7   1.000000
      0.92936822     -0.06732796
      0.05643440      0.66945080
      0.02166600      0.51461112
      8.30930671     -0.02902175
      1.52050076     -0.13302970
      0.42241176     -0.27248401
      0.14019467     -0.14912987
p              4   1.000000
      0.64737396      0.05713170
      0.16785440      0.28574555
      0.05917387      0.55178731
      0.02355814      0.26323150
 
          62   0
s              4   1.000000
      8.31042563      0.05675242
      1.52070550      0.26014135
      0.42246864      0.53284611
      0.14021354      0.29162544
s              7   1.000000
      0.92936822     -0.06732652
      0.05643440      0.66943649
      0.02166600      0.51460011
      8.31042563     -0.02901876
      1.52070550     -0.13301598
      0.42246864     -0.27245591
      0.14021354     -0.14911448
p              4   1.000000
      0.64737396      0.05713170
      0.16785440      0.28574555
      0.05917387      0.55178731
      0.02355814      0.26323150
 
          63   0
s              4   1.000000
      8.30731858      0.05675242
      1.52013695      0.26014135
      0.42231069      0.53284611
      0.14016112      0.29162544
s              7   1.000000
      0.92936822     -0.06733052
      0.05643440      0.66947624
      0.02166600      0.51463067
      8.30731858     -0.02902707
      1.52013695     -0.13305409
      0.42231069     -0.27253395
      0.14016112     -0.14915720
p              4   1.000000
      0.64737396      0.05713170
      0.16785440      0.28574555
      0.05917387      0.55178731
      0.02355814      0.26323150
 
          64   0
s              4   1.000000
      8.30649488      0.05675242
      1.51998622      0.26014135
      0.42226882      0.53284611
      0.14014722      0.29162544
s              7   1.000000
      0.92936822     -0.06733158
      0.05643440      0.66948678
      0.02166600      0.51463877
      8.30649488     -0.02902927
      1.51998622     -0.13306419
      0.42226882     -0.27255465
      0.14014722     -0.14916853
p              4   1.000000
      0.64737396      0.05713170
      0.16785440      0.28574555
      0.05917387      0.55178731
      0.02355814      0.26323150
 
          65   0
s              4   1.000000
      8.31219360      0.05675242
      1.52102902      0.26014135
      0.42255852      0.53284611
      0.14024337      0.29162544
s              7   1.000000
      0.92936822     -0.06732425
      0.05643440      0.66941389
      0.02166600      0.51458274
      8.31219360     -0.02901403
      1.52102902     -0.13299431
      0.42255852     -0.27241152
      0.14024337     -0.14909019
p              4   1.000000
      0.64737396      0.05713170
      0.16785440      0.28574555
      0.05917387      0.55178731
      0.02355814      0.26323150
 
          66   0
s              4   1.000000
      8.30912557      0.05675242
      1.52046761      0.26014135
      0.42240255      0.53284611
      0.14019161      0.29162544
s              7   1.000000
      0.92936822     -0.06732820
      0.05643440      0.66945312
      0.02166600      0.51461288
      8.30912557     -0.02902224
      1.52046761     -0.13303192
      0.42240255     -0.27248856
      0.14019161     -0.14913236
p              4   1.000000
      0.64737396      0.05713170
      0.16785440      0.28574555
      0.05917387      0.55178731
      0.02355814      0.26323150
 
          67   0
s              4   1.000000
      8.30889939      0.05675242
      1.52042622      0.26014135
      0.42239105      0.53284611
      0.14018779      0.29162544
s              7   1.000000
      0.92936822     -0.06732849
      0.05643440      0.66945601
      0.02166600      0.51461512
      8.30889939     -0.02902284
      1.52042622     -0.13303470
      0.42239105     -0.27249424
      0.14018779     -0.14913547
p              4   1.000000
      0.64737396      0.05713170
      0.16785440      0.28574555
      0.05917387      0.55178731
      0.02355814      0.26323150
 
          68   0
s              4   1.000000
      8.30893329      0.05675242
      1.52043242      0.26014135
      0.42239278      0.53284611
      0.14018837      0.29162544
s              7   1.000000
      0.92936822     -0.06732844
      0.05643440      0.66945558
      0.02166600      0.51461477
      8.30893329     -0.02902275
      1.52043242     -0.13303428
      0.42239278     -0.27249339
      0.14018837     -0.14913500
p              4   1.000000
      0.64737396      0.05713170
      0.16785440      0.28574555
      0.05917387      0.55178731
      0.02355814      0.26323150
 
          69   0
s              4   1.000000
      8.31070074      0.05675242
      1.52075585      0.26014135
      0.42248263      0.53284611
      0.14021819      0.29162544
s              7   1.000000
      0.92936822     -0.06732617
      0.05643440      0.66943296
      0.02166600      0.51459740
      8.31070074     -0.02901802
      1.52075585     -0.13301261
      0.42248263     -0.27244900
      0.14021819     -0.14911071
p              4   1.000000
      0.64737396      0.05713170
      0.16785440      0.28574555
      0.05917387      0.55178731
      0.02355814      0.26323150
 
          70   0
s              4   1.000000
      8.31145934      0.05675242
      1.52089466      0.26014135
      0.42252119      0.53284611
      0.14023099      0.29162544
s              7   1.000000
      0.92936822     -0.06732519
      0.05643440      0.66942327
      0.02166600      0.51458995
      8.31145934     -0.02901599
      1.52089466     -0.13300331
      0.42252119     -0.27242995
      0.14023099     -0.14910028
p              4   1.000000
      0.64737396      0.05713170
      0.16785440      0.28574555
      0.05917387      0.55178731
      0.02355814      0.26323150
 
          71   0
s              4   1.000000
      8.30889504      0.05675242
      1.52042542      0.26014135
      0.42239083      0.53284611
      0.14018772      0.29162544
s              7   1.000000
      0.92936822     -0.06732849
      0.05643440      0.66945606
      0.02166600      0.51461514
      8.30889504     -0.02902285
      1.52042542     -0.13303475
      0.42239083     -0.27249435
      0.14018772     -0.14913553
p              4   1.000000
      0.64737396      0.05713170
      0.16785440      0.28574555
      0.05917387      0.55178731
      0.02355814      0.26323150
 
          72   0
s              4   1.000000
      8.30889997      0.05675242
      1.52042633      0.26014135
      0.42239108      0.53284611
      0.14018780      0.29162544
s              7   1.000000
      0.92936822     -0.06732849
      0.05643440      0.66945600
      0.02166600      0.51461512
      8.30889997     -0.02902284
      1.52042633     -0.13303469
      0.42239108     -0.27249423
      0.14018780     -0.14913546
p              4   1.000000
      0.64737396      0.05713170
      0.16785440      0.28574555
      0.05917387      0.55178731
      0.02355814      0.26323150
 
          73   0
s              4   1.000000
      8.30929953      0.05675242
      1.52049944      0.26014135
      0.42241139      0.53284611
      0.14019454      0.29162544
s              7   1.000000
      0.92936822     -0.06732797
      0.05643440      0.66945089
      0.02166600      0.51461117
      8.30929953     -0.02902177
      1.52049944     -0.13302979
      0.42241139     -0.27248419
      0.14019454     -0.14912996
p              4   1.000000
      0.64737396      0.05713170
      0.16785440      0.28574555
      0.05917387      0.55178731
      0.02355814      0.26323150
 
          74   0
s              4   1.000000
      8.30735852      0.05675242
      1.52014426      0.26014135
      0.42231272      0.53284611
      0.14016180      0.29162544
s              7   1.000000
      0.92936822     -0.06733047
      0.05643440      0.66947573
      0.02166600      0.51463027
      8.30735852     -0.02902696
      1.52014426     -0.13305360
      0.42231272     -0.27253295
      0.14016180     -0.14915665
p              4   1.000000
      0.64737396      0.05713170
      0.16785440      0.28574555
      0.05917387      0.55178731
      0.02355814      0.26323150
 
          75   0
s              4   1.000000
      8.30649249      0.05675242
      1.51998579      0.26014135
      0.42226870      0.53284611
      0.14014718      0.29162544
s              7   1.000000
      0.92936822     -0.06733158
      0.05643440      0.66948682
      0.02166600      0.51463880
      8.30649249     -0.02902928
      1.51998579     -0.13306422
      0.42226870     -0.27255471
      0.14014718     -0.14916856
p              4   1.000000
      0.64737396      0.05713170
      0.16785440      0.28574555
      0.05917387      0.55178731
      0.02355814      0.26323150
 
          76   0
s              4   1.000000
      8.31034810      0.05675242
      1.52069132      0.26014135
      0.42246470      0.53284611
      0.14021224      0.29162544
s              7   1.000000
      0.92936822     -0.06732662
      0.05643440      0.66943748
      0.02166600      0.51460086
      8.31034810     -0.02901897
      1.52069132     -0.13301693
      0.42246470     -0.27245786
      0.14021224     -0.14911555
p              4   1.000000
      0.64737396      0.05713170
      0.16785440      0.28574555
      0.05917387      0.55178731
      0.02355814      0.26323150
 
 [MO]
 Sym= Hole
 Ene= -0.1752597    
 Spin= Alpha
 Occup= 0
           1 -2.8593750E-03
           2 -5.5520851E-03
           3 -2.1365095E-02
           4 -1.5592655E-02
           5  7.9309652E-03
           6  3.4710974E-03
           7 -2.4642556E-03
           8 -3.1296909E-04
           9 -8.9609558E-03
          10 -1.8078547E-02
          11  0.1634848    
          12  0.1765413    
          13  1.2118295E-02
          14  8.9524714E-03
          15  5.2323123E-03
          16  6.9485436E-04
          17  8.4498862E-04
          18  5.3625456E-03
          19 -0.1514360    
          20 -0.1684828    
          21  6.0732488E-04
          22 -1.4565847E-03
          23 -2.7422695E-03
          24 -1.2343676E-03
          25 -1.1086596E-04
          26 -5.7538813E-03
          27 -0.3107451    
          28 -0.3554519    
          29 -8.6343545E-04
          30 -1.8728343E-03
          31 -5.5581667E-03
          32 -4.8147533E-03
          33 -1.1882054E-03
          34 -1.2094082E-03
          35 -0.1313623    
          36 -0.1485330    
          37  9.2094083E-04
          38 -1.6939323E-03
          39 -2.6815997E-03
          40 -2.8246286E-04
          41 -8.8553695E-04
          42  2.3960622E-03
          43  0.1932821    
          44  0.2238371    
          45  5.5112476E-03
          46 -2.5352431E-03
          47  7.7337469E-03
          48  1.1713745E-03
          49  6.2664654E-03
          50  9.2006540E-03
          51  0.3038866    
          52  0.3447693    
          53  7.5075384E-03
          54  6.2534753E-03
          55  1.3216271E-02
          56 -5.1393132E-03
          57  0.1126698    
          58 -1.6175073E-02
          59 -3.5289548E-02
          60 -0.2416899    
          61 -2.3098813E-02
          62  1.3786922E-03
          63  3.5725243E-04
          64  1.3488809E-02
          65 -3.7634335E-02
          66  6.0048983E-02
          67 -2.3512796E-02
          68  3.7626803E-02
          69  2.5287993E-02
          70 -6.8030059E-03
          71 -3.3657353E-03
          72 -1.2046902E-02
          73 -1.9458373E-03
          74  1.8466647E-03
          75  3.5227661E-04
          76 -1.7589166E-04
          77  1.7999683E-02
          78 -1.2870490E-02
          79 -4.1912505E-03
          80 -3.9973282E-03
          81 -6.1629298E-03
          82 -2.5988731E-04
          83 -3.5424449E-03
          84  2.8558609E-03
          85  2.3005770E-03
          86  7.0928675E-03
          87  1.3945559E-03
          88  1.0745272E-03
          89  9.5537556E-03
          90 -1.8002436E-03
          91 -3.7769710E-03
          92 -1.7193964E-02
          93 -1.2927596E-04
          94 -8.1508646E-05
          95  2.4133999E-04
          96  8.2384620E-04
          97 -2.7675467E-04
          98 -1.1718759E-04
          99  1.9683970E-02
         100  2.3422547E-02
         101  7.6490949E-04
         102 -2.1673503E-04
         103  1.5616661E-03
         104 -8.8348938E-04
         105 -3.8373051E-04
         106 -1.2682777E-04
         107  1.0161771E-02
         108  1.3399086E-02
         109  4.9866323E-04
         110  5.0611346E-04
         111  1.0275203E-04
         112  1.8580424E-04
         113 -3.0710924E-04
         114  2.7529404E-05
         115 -1.0745638E-02
         116 -1.3155028E-02
         117 -2.3067719E-04
         118  7.6934876E-04
         119 -4.4798444E-04
         120  1.3791282E-04
         121  1.8072089E-04
         122  1.4615140E-04
         123 -2.0722559E-02
         124 -2.5426777E-02
         125 -1.7891327E-04
         126  3.8353907E-04
         127 -2.2554277E-04
         128 -3.8352972E-04
         129 -1.5961712E-04
         130 -1.2486937E-03
         131 -8.7713087E-03
         132 -9.9711530E-03
         133 -1.6759308E-05
         134  1.1876076E-04
         135 -1.3632869E-04
         136  9.7914213E-05
         137 -4.3011663E-04
         138  1.4313580E-03
         139  1.1422059E-02
         140  1.3536413E-02
         141  7.2664453E-04
         142 -2.9956638E-05
         143  4.5504814E-04
         144  1.6677237E-04
         145 -2.2204946E-04
         146  4.5956430E-04
         147 -4.1187974E-03
         148 -4.2853733E-03
         149  4.8688980E-04
         150 -9.4313342E-05
         151 -2.5631482E-04
         152 -3.5305443E-04
         153 -3.5479218E-03
         154 -1.4558659E-02
         155  6.4023221E-03
         156  7.3619774E-03
         157  2.0701089E-03
         158 -9.5084507E-04
         159 -3.8029853E-04
         160 -1.2592014E-03
         161  3.3090074E-04
         162 -2.8593573E-04
         163  1.6126450E-03
         164 -3.2083204E-03
         165  2.4681579E-04
         166  3.9419907E-04
         167  1.1172218E-03
         168 -4.4919585E-04
         169 -6.1473431E-04
         170  1.5555091E-02
         171  1.2855120E-04
         172 -3.4388958E-03
         173 -6.2329101E-04
         174  1.1376177E-03
         175  8.4745360E-04
         176  3.6878505E-04
         177  5.2099091E-05
         178  1.4512938E-02
         179  2.2712502E-05
         180 -3.1644856E-03
         181 -8.1156153E-04
         182  8.9291844E-04
         183  7.5651420E-04
         184  4.5809092E-04
         185 -7.5774046E-04
         186 -2.4041312E-03
         187  1.7562637E-03
         188  9.4521797E-04
         189 -6.6284213E-04
         190  3.4749921E-04
         191  9.4513927E-04
         192 -2.7159674E-04
         193  5.0855309E-05
         194 -1.7241130E-02
         195  1.8281875E-04
         196  2.6434399E-03
         197  5.7739957E-04
         198 -6.7352940E-04
         199 -6.5142137E-04
         200 -7.7821809E-04
         201 -3.5794333E-04
         202  4.3899128E-03
         203  1.0532367E-03
         204  1.6179940E-03
         205  7.7057193E-04
         206  4.1381027E-05
         207 -5.3057262E-05
         208  3.1454897E-06
         209 -2.0756512E-03
         210  9.3687940E-03
         211  7.7421201E-04
         212  1.6226915E-03
         213 -2.2993883E-04
         214  7.3960340E-03
         215  5.4292255E-03
         216  3.3595869E-03
         217 -3.2820948E-04
         218 -6.0497405E-04
         219  1.0267934E-03
         220  1.2114674E-04
         221 -1.2519892E-03
         222  1.8453033E-03
         223  5.0706500E-03
         224  1.4164965E-03
         225  7.0925342E-04
         226 -1.0071262E-02
         227  7.4661564E-04
         228 -5.5391976E-04
         229 -1.8348329E-03
         230 -2.7324622E-03
         231  9.8547246E-04
         232  3.6074268E-04
         233 -1.0585469E-04
         234 -1.0417813E-02
         235  8.9174556E-04
         236  1.2215450E-04
         237 -1.1008293E-03
         238 -1.5671771E-03
         239  4.2755643E-04
         240 -9.5418212E-04
         241  3.9477294E-04
         242  5.6712306E-03
         243 -8.7042915E-04
         244 -4.9479026E-04
         245 -3.5517811E-04
         246 -9.6083466E-05
         247  1.5373456E-03
         248  7.5673321E-05
         249 -1.9062120E-03
         250  1.5879309E-02
         251  3.4047072E-03
         252 -1.0850647E-03
         253  6.4118562E-04
         254  3.9418256E-03
         255  2.7172130E-03
         256  3.0577865E-03
         257 -4.8394442E-02
         258  0.1688004    
         259  9.2918739E-02
         260  8.8211291E-02
         261  2.6409416E-02
         262  7.8053237E-03
         263 -5.7006706E-03
         264 -1.1079591E-02
         265  1.5531263E-03
         266  0.1507917    
         267  1.8999690E-02
         268 -9.3837157E-03
         269  4.6557136E-04
         270  5.2082064E-03
         271  1.0712613E-02
         272  4.9305474E-03
         273 -6.0032927E-03
         274 -4.3393277E-02
         275  7.3957499E-03
         276  6.5835507E-04
         277 -3.4601046E-03
         278 -2.0805444E-03
         279  5.7443399E-03
         280  6.6569489E-03
         281 -2.8971974E-03
         282 -0.1798211    
         283 -3.7156614E-03
         284 -4.4276040E-02
         285 -3.9876108E-03
         286 -4.5598219E-03
         287  4.6589752E-03
         288  2.0575279E-03
         289 -7.0242262E-03
         290 -0.1186775    
         291  7.6733110E-03
         292 -1.7682513E-02
         293 -2.9546670E-03
         294 -2.3990434E-03
         295  8.0747781E-03
         296 -2.1120969E-03
         297 -7.6493033E-04
         298  7.2510451E-02
         299 -2.1624318E-03
         300  1.3129063E-02
         301  5.8326949E-03
         302  2.4981487E-03
         303 -5.8939244E-04
         304 -3.1029610E-03
         305 -7.3246728E-04
         306 -2.2444719E-02
         307  1.2316869E-02
         308  1.4061419E-02
         309  3.8403019E-03
         310  4.2056956E-04
         311  1.2769414E-03
         312 -3.7363279E-03
         313  4.2342242E-02
         314  3.7985598E-03
         315  1.7464815E-02
         316 -8.7155122E-03
         317  4.8504649E-03
         318  2.3604432E-02
         319 -2.9805577E-03
         320 -3.7927590E-03
         321  3.3740629E-04
         322 -4.7474336E-03
         323 -6.8884835E-02
         324  4.1201287E-03
         325 -4.2918967E-03
         326 -7.4060267E-04
         327 -3.8949517E-03
         328 -7.9065515E-03
         329 -1.0987519E-03
         330 -1.9637018E-03
         331  6.0651400E-03
         332  6.2175174E-03
         333  5.3622719E-04
         334 -1.5508351E-03
         335 -1.0270329E-05
         336  7.1862270E-03
         337  7.6328451E-03
         338  1.2604600E-03
         339 -1.0022379E-03
         340  4.7002270E-04
         341  1.6385138E-03
         342  3.6561154E-03
         343 -6.1700540E-03
         344 -8.8938192E-05
         345 -5.0350600E-03
         346 -3.2090561E-03
         347 -4.9760556E-03
         348 -3.3065325E-03
         349  7.6270681E-03
         350 -1.1357018E-02
         351  3.3645588E-03
         352 -5.5031474E-03
         353  3.3949610E-02
         354 -2.6751647E-03
         355  2.9738166E-03
         356  4.8981642E-04
         357  7.2438633E-03
         358  3.1095889E-04
         359 -3.0323246E-03
         360  6.4245793E-03
         361 -1.1000748E-03
         362  2.6624228E-03
         363  2.4951668E-03
         364 -1.7749708E-03
         365 -9.2925722E-05
         366  5.3881353E-04
         367  2.0300895E-03
         368  4.5985555E-05
         369  2.1849183E-04
         370 -3.7867983E-04
         371 -9.1758434E-04
         372  3.3636298E-04
         373 -1.3879487E-04
         374 -4.9277669E-04
         375  2.0275112E-04
         376 -3.6691988E-05
         377  5.3320499E-04
         378  4.1099112E-05
         379 -3.1554865E-04
         380  1.0180735E-04
         381  5.1455380E-04
         382  5.1569764E-04
         383 -1.3848552E-03
         384 -5.5632053E-04
         385  2.8774035E-04
         386  3.4098659E-04
         387  4.2613145E-04
         388 -8.8652372E-03
         389 -1.0471196E-03
         390  3.0767068E-04
         391  1.9146722E-04
         392  1.3415546E-04
         393  2.9155603E-03
         394  1.8623003E-05
         395  5.3899159E-04
         396  3.5731320E-04
         397  7.1226394E-05
         398  5.5242106E-03
         399  8.4346451E-04
         400 -1.3762373E-03
         401 -6.5343222E-05
         402  4.7097652E-04
         403 -9.4079360E-04
         404 -1.0881471E-03
         405  8.5318560E-04
         406  3.8658417E-04
         407  7.2965131E-04
         408  5.7411566E-04
         409 -1.1363848E-03
         410 -1.4811053E-04
         411  2.4018889E-04
         412  7.8159536E-04
         413  3.1873042E-04
         414 -3.2725776E-04
         415 -5.1655085E-04
         416  3.5055945E-04
         417  3.3998108E-04
         418  8.7829318E-04
         419 -5.8096467E-04
         420  4.7675063E-04
         421  5.5347499E-04
         422 -2.1059612E-04
         423 -6.1404863E-03
         424 -8.3906320E-04
         425  1.5245285E-03
         426  7.5333890E-05
         427  6.0841895E-04
         428  4.3917275E-03
         429 -1.4574814E-04
         430 -1.1638639E-05
         431 -3.9461182E-04
         432  1.2374135E-04
         433 -7.9672172E-04
         434 -5.3687621E-04
         435 -2.7413570E-04
         436  3.7465588E-04
         437 -8.7984494E-04
         438 -1.9843401E-04
         439 -2.6423924E-03
         440  2.2168746E-03
         441  1.6559360E-03
         442 -3.9137460E-04
         443  6.7240663E-04
         444 -1.2109559E-03
         445 -2.5462033E-04
         446 -3.6580503E-04
         447  7.0933536E-05
         448  4.0443827E-04
         449 -1.1048149E-03
         450  2.9707389E-04
         451  2.9875978E-04
         452  8.3877426E-04
         453  2.0850998E-04
         454 -1.0976953E-03
         455 -3.1843744E-04
         456 -3.8242820E-04
         457  2.6305861E-04
         458 -2.0909382E-03
         459 -1.8755638E-03
         460  1.1680330E-03
         461 -1.0974527E-03
         462  1.0669730E-03
         463 -4.9038013E-03
         464 -8.1848856E-03
         465 -3.1271563E-03
         466  1.1807593E-03
         467  7.7472380E-03
         468  1.8538639E-02
         469 -7.0601488E-03
         470 -5.2844518E-04
         471 -1.9357273E-04
         472  3.3385395E-03
         473 -2.1873789E-03
         474 -3.7627199E-03
         475  2.5898933E-03
         476  2.0312408E-03
         477  1.1335999E-03
         478  5.6743724E-03
         479 -5.2648638E-03
         480  3.2568562E-03
         481  3.5258892E-03
         482 -2.7364243E-03
         483  1.6230023E-02
         484  1.0685480E-03
         485 -1.7720641E-03
         486 -6.2308977E-03
         487  2.7368872E-03
         488  3.0243043E-03
         489 -5.9670368E-03
         490  9.8815910E-04
         491  3.8728926E-03
         492 -3.1679564E-03
         493 -3.0152252E-02
         494  3.0514901E-03
         495 -2.6188761E-03
         496 -7.7084908E-03
         497  4.3121679E-03
 Sym= Particle
 Ene= -0.1752597    
 Spin= Alpha
 Occup= 2
           1  3.8292410E-03
           2 -3.5715697E-03
           3 -1.7719829E-02
           4 -2.7408466E-02
           5 -4.1207583E-03
           6  2.0804475E-03
           7 -1.1755993E-02
           8 -1.2259880E-02
           9  2.2821471E-03
          10  5.1644924E-03
          11 -0.3235202    
          12 -0.3553225    
          13 -5.4849205E-03
          14 -5.3974283E-03
          15  0.1051543    
          16  0.1124055    
          17  1.5837917E-03
          18 -1.4730438E-03
          19  0.2968837    
          20  0.3289900    
          21 -2.5986549E-03
          22  4.5178458E-04
          23 -8.8393509E-02
          24 -9.9202313E-02
          25  2.7414184E-04
          26  2.3700402E-03
          27  1.2625312E-02
          28  1.8606085E-02
          29 -1.7716188E-03
          30 -2.5662626E-03
          31 -2.9453423E-03
          32 -7.8861127E-03
          33  1.8267196E-03
          34 -4.9924920E-03
          35 -0.3052959    
          36 -0.3519322    
          37 -3.2342139E-03
          38 -1.0557305E-03
          39  8.6862467E-02
          40  0.1016266    
          41 -2.6129133E-03
          42  9.2583355E-03
          43  0.2806503    
          44  0.3362112    
          45 -4.6703519E-04
          46 -6.5157614E-03
          47 -8.9311734E-02
          48 -0.1083835    
          49  6.1143474E-03
          50  7.8278771E-03
          51  1.7695304E-02
          52  1.0969604E-02
          53 -7.9540331E-03
          54 -5.2943747E-03
          55 -1.1387051E-02
          56 -1.1187685E-02
          57  5.2688364E-03
          58  5.4757940E-03
          59  3.2459267E-03
          60 -9.3379244E-03
          61 -7.9392409E-03
          62  3.2932453E-03
          63  8.3776079E-03
          64  1.4243704E-02
          65 -1.1878065E-02
          66  9.9676084E-03
          67 -1.3297854E-02
          68 -9.9495137E-03
          69  1.2205898E-02
          70 -7.4412506E-03
          71  8.6055323E-03
          72  4.9019782E-03
          73 -1.2237633E-03
          74 -4.3693096E-03
          75 -2.9663378E-03
          76  3.8355126E-03
          77  2.9405174E-03
          78 -1.5364162E-03
          79  1.1056515E-03
          80  1.4516015E-03
          81  1.2219639E-03
          82  2.5116964E-04
          83  2.5163146E-03
          84 -1.5387905E-03
          85 -1.1296186E-03
          86  7.0242916E-04
          87 -3.5889985E-03
          88 -1.1473972E-03
          89  1.8850238E-04
          90 -1.9052987E-04
          91 -4.7176325E-04
          92  4.8809807E-04
          93 -8.1398926E-04
          94  1.2370397E-04
          95 -2.9033339E-05
          96  2.3736416E-04
          97 -4.0207416E-04
          98  9.1348507E-04
          99  1.1661178E-03
         100  2.5044109E-03
         101 -1.5781244E-04
         102 -3.9933182E-04
         103 -9.2799331E-05
         104 -6.2224502E-04
         105  3.1877679E-04
         106  2.6676449E-04
         107 -1.8305648E-02
         108 -2.3000011E-02
         109 -3.9766761E-04
         110  1.5345069E-04
         111  5.8410298E-03
         112  7.7220253E-03
         113 -3.1434120E-05
         114 -2.0713391E-04
         115  1.7381143E-02
         116  2.1525627E-02
         117 -4.2161540E-05
         118  3.4531875E-04
         119 -4.8439037E-03
         120 -6.1292038E-03
         121  2.1900688E-04
         122  2.8423039E-04
         123  1.2822890E-03
         124  1.6145905E-03
         125 -1.6155925E-04
         126 -2.5897680E-04
         127 -2.5256368E-04
         128 -5.6938449E-04
         129 -2.3812570E-06
         130 -3.9978768E-05
         131 -1.9134618E-02
         132 -2.2701636E-02
         133 -2.4910760E-04
         134  1.7071521E-04
         135  5.6620343E-03
         136  7.0196283E-03
         137  3.6971702E-05
         138  3.3800950E-04
         139  1.8715525E-02
         140  2.1986861E-02
         141 -6.1820814E-04
         142  2.1015538E-04
         143 -6.2715840E-03
         144 -7.2483052E-03
         145  1.6216966E-04
         146 -1.2171829E-04
         147  1.1529430E-03
         148  1.7524238E-03
         149 -4.2641020E-04
         150 -2.2376227E-04
         151  9.1167330E-04
         152  2.1853640E-04
         153 -2.1569619E-04
         154  9.9998070E-03
         155 -1.5199757E-05
         156 -2.2849054E-03
         157 -3.0992611E-04
         158 -1.9901204E-03
         159 -7.1169471E-04
         160  9.8010525E-04
         161  5.4850586E-04
         162 -2.2206007E-02
         163 -1.2704827E-05
         164  5.2343318E-03
         165 -6.3989626E-04
         166  7.6612858E-03
         167 -2.8340498E-04
         168 -2.1884788E-03
         169  1.2003800E-04
         170  1.2603873E-02
         171 -1.5322119E-04
         172 -2.3913872E-03
         173 -6.5366109E-04
         174 -3.2308733E-03
         175 -2.5210541E-04
         176  1.8072844E-04
         177  9.3339528E-05
         178  9.4132209E-03
         179 -6.0514972E-04
         180 -2.1268476E-03
         181 -6.3456461E-04
         182 -2.0305887E-03
         183  5.9083110E-04
         184  5.8266072E-04
         185  9.0594353E-05
         186 -2.1929964E-02
         187  5.6436117E-04
         188  5.0550993E-03
         189 -6.5001159E-04
         190  7.1612843E-03
         191 -5.6415124E-06
         192 -1.2000215E-03
         193  2.8048005E-04
         194  1.3428914E-02
         195 -8.2819775E-04
         196 -2.8735327E-03
         197 -9.0219185E-04
         198 -3.9042209E-03
         199 -2.7719350E-05
         200  1.1466682E-03
         201  1.6107751E-04
         202  5.3491368E-04
         203 -8.4207568E-04
         204  1.5298065E-04
         205 -4.5062791E-04
         206  1.1216021E-03
         207  2.6414962E-04
         208 -2.6443330E-04
         209  1.3709868E-03
         210 -6.8925330E-03
         211 -1.7320176E-03
         212 -2.0448975E-03
         213 -1.1710720E-03
         214  4.5545795E-03
         215 -1.2699880E-03
         216  3.2498839E-03
         217 -1.0980208E-03
         218  2.9321101E-03
         219  8.0088968E-05
         220  3.4036715E-05
         221  6.5263564E-04
         222  3.2177635E-03
         223  3.6926251E-03
         224  3.6545407E-03
         225 -8.0030272E-04
         226  6.2667131E-03
         227 -1.5794453E-03
         228  8.5614121E-04
         229  1.8251269E-03
         230 -5.6512421E-03
         231  3.1511628E-03
         232 -1.1195244E-03
         233 -1.2364615E-05
         234 -7.3957355E-03
         235 -6.8563601E-04
         236 -7.7455101E-05
         237 -2.1336169E-03
         238  4.3711783E-03
         239  2.4150554E-03
         240  5.9563197E-05
         241 -3.2071903E-04
         242 -6.1738130E-04
         243 -7.9425925E-05
         244 -7.3318754E-04
         245 -2.0507774E-03
         246  6.2602428E-03
         247  7.7537121E-04
         248  1.9263637E-03
         249 -1.5157353E-03
         250  1.0074419E-02
         251  2.5745798E-03
         252  5.7276303E-04
         253  2.0221900E-03
         254 -1.4280410E-03
         255 -1.3494507E-05
         256 -1.7277352E-03
         257 -6.7106524E-04
         258  4.4433400E-02
         259  3.3669476E-03
         260  1.2554104E-02
         261  3.2807842E-03
         262 -9.8155132E-03
         263  1.4889055E-03
         264 -1.0685667E-02
         265 -6.1995247E-03
         266  0.1246060    
         267  1.5804155E-02
         268  2.1776393E-02
         269  8.1063407E-03
         270 -3.3799458E-02
         271 -2.6868747E-03
         272 -3.4839439E-03
         273 -5.7264933E-05
         274 -0.1681066    
         275 -1.0581664E-02
         276 -3.8806867E-02
         277  1.9444930E-03
         278  4.7610138E-02
         279  7.4318899E-03
         280  1.3454940E-02
         281 -9.0727874E-04
         282  3.9655983E-02
         283  1.4423190E-03
         284  7.6111201E-03
         285  2.0862296E-03
         286 -1.2685023E-02
         287 -9.2578266E-04
         288 -1.0736164E-03
         289 -5.1746785E-04
         290  0.1304854    
         291  6.4672665E-03
         292  2.8178092E-02
         293  1.9683191E-03
         294 -4.1399851E-02
         295 -3.7536088E-03
         296 -9.1401981E-03
         297 -2.8459581E-03
         298 -0.1723240    
         299 -5.2536456E-03
         300 -3.9036077E-02
         301  3.9233435E-03
         302  5.4241110E-02
         303  1.0039801E-03
         304  1.0418778E-02
         305  2.0976004E-03
         306 -1.5116770E-02
         307 -2.2164474E-03
         308 -4.3125986E-03
         309 -2.3210456E-03
         310 -3.5747483E-03
         311 -2.4837500E-03
         312 -2.3381244E-03
         313 -7.3548354E-02
         314  3.6575932E-02
         315 -6.1743171E-03
         316 -2.8016923E-02
         317  2.8109467E-02
         318 -4.1335255E-02
         319  1.7954452E-02
         320  2.0135932E-02
         321  2.3677012E-04
         322  1.0077313E-02
         323  0.1079798    
         324 -5.1688552E-02
         325 -1.4094565E-02
         326  4.8726425E-02
         327 -2.0082857E-02
         328  1.7760722E-03
         329 -1.8379418E-03
         330  8.0805382E-04
         331  7.2656527E-02
         332  8.5959129E-02
         333 -2.8824538E-04
         334 -6.0276297E-04
         335  2.8292253E-04
         336  5.8463626E-03
         337  4.9161497E-03
         338 -2.6989528E-03
         339 -1.0701144E-03
         340 -2.4622749E-03
         341 -7.6999500E-02
         342 -8.7205909E-02
         343 -2.8210424E-03
         344 -1.0332979E-03
         345  1.2048578E-03
         346  6.3113891E-02
         347  7.6567151E-02
         348  4.7426028E-03
         349 -7.5765341E-03
         350  1.6308878E-02
         351  8.6309919E-03
         352  9.4562303E-04
         353  3.2601571E-03
         354  1.2834041E-02
         355 -2.4675904E-02
         356 -2.2278308E-04
         357  1.3704515E-02
         358 -4.4192758E-04
         359  5.6614645E-04
         360 -6.5744191E-04
         361 -1.8166705E-03
         362 -9.8597968E-04
         363 -8.0235547E-04
         364 -6.8637426E-04
         365  7.4582017E-04
         366  6.7647162E-04
         367 -1.7758929E-03
         368  9.6791322E-05
         369  3.2771251E-04
         370 -1.4148769E-04
         371 -4.3017198E-03
         372 -5.1053087E-03
         373  2.5132202E-05
         374  3.9228846E-04
         375  6.7049783E-05
         376  4.5005786E-03
         377  5.2117235E-03
         378 -3.8543946E-04
         379  5.9103628E-04
         380 -3.6677567E-04
         381  3.6951638E-04
         382 -1.7761986E-04
         383 -1.9600584E-05
         384  3.0814536E-04
         385 -4.1057319E-05
         386 -4.7754380E-03
         387 -5.6922906E-03
         388 -6.7918072E-03
         389  2.9980619E-03
         390 -1.3845084E-03
         391 -3.3713316E-03
         392 -4.1791835E-04
         393  2.4279461E-03
         394 -9.9997281E-04
         395  1.1601297E-03
         396  8.9067644E-06
         397 -6.2732009E-04
         398  4.3733767E-03
         399 -2.3395871E-03
         400 -3.2969474E-04
         401  2.4744829E-03
         402 -8.5039140E-04
         403 -5.7433930E-04
         404 -1.4571613E-04
         405 -4.0258127E-03
         406  1.7459602E-03
         407  8.6052089E-05
         408 -1.3623451E-04
         409 -4.6590294E-04
         410  3.5778852E-03
         411 -1.6829379E-04
         412 -1.2203663E-03
         413  4.6164749E-04
         414 -6.5713533E-04
         415  3.0612256E-03
         416  5.4152176E-04
         417 -6.9177675E-04
         418  3.7838839E-04
         419 -8.0242066E-04
         420 -5.0660535E-03
         421  3.0118876E-04
         422  1.4214374E-03
         423  1.9773704E-03
         424 -1.4438994E-03
         425  5.8018224E-05
         426  4.1279750E-04
         427 -2.2962103E-03
         428 -2.7502016E-03
         429  1.0392969E-03
         430 -4.2364217E-04
         431 -7.8482617E-04
         432  1.8901783E-03
         433  8.5580820E-04
         434 -8.3467871E-04
         435 -1.0031658E-03
         436  2.7300740E-04
         437 -8.3543273E-05
         438 -1.7041671E-04
         439 -1.7179083E-03
         440  5.1082647E-03
         441  4.0446417E-03
         442 -1.5581887E-03
         443 -1.0151941E-03
         444  2.3840507E-03
         445 -4.7731805E-03
         446 -3.1708146E-04
         447 -1.5897448E-03
         448  9.7916194E-04
         449 -2.7294043E-03
         450 -1.0098621E-03
         451  1.4877126E-03
         452  1.3623401E-03
         453  1.5870309E-03
         454 -3.7199021E-03
         455  2.5815030E-03
         456  4.4645646E-04
         457  3.7869639E-03
         458 -1.4612232E-03
         459  1.2485510E-03
         460  1.7639677E-03
         461  2.6222566E-04
         462 -1.8228375E-03
         463  5.1769312E-03
         464  2.9613755E-03
         465  3.5578474E-02
         466 -2.4672497E-02
         467  1.3668928E-02
         468  3.9761649E-03
         469 -2.0864287E-03
         470 -4.2032667E-02
         471 -1.7510630E-03
         472 -6.7993877E-03
         473  1.0759549E-03
         474 -1.5684579E-03
         475  1.0058625E-02
         476 -7.8833086E-04
         477  3.7091156E-03
         478 -8.0125208E-04
         479 -1.7425331E-03
         480  3.0956481E-02
         481  2.2652576E-04
         482  6.2011816E-03
         483 -3.9942157E-02
         484  1.6321674E-02
         485  6.4856918E-03
         486  1.0149202E-02
         487  1.9098382E-02
         488  3.6503642E-03
         489 -3.0714830E-03
         490 -1.6945179E-04
         491  7.7600847E-04
         492 -2.9792537E-03
         493  3.2087255E-02
         494 -1.6521035E-02
         495  7.0061078E-03
         496 -1.0239514E-02
         497 -1.2438577E-02
 Sym= Hole
 Ene= -0.1488019    
 Spin= Alpha
 Occup= 0
           1  2.4519907E-03
           2  6.0707738E-04
           3 -5.4868739E-02
           4 -5.5956773E-02
           5 -1.8149953E-03
           6 -1.6362149E-04
           7 -7.9187844E-03
           8 -7.6243798E-03
           9 -1.7615444E-03
          10 -5.2339369E-03
          11  0.2591937    
          12  0.2831746    
          13 -7.2376488E-04
          14 -3.0768025E-04
          15  7.1564037E-03
          16  6.2027182E-03
          17 -2.9678561E-04
          18  2.6099349E-03
          19  0.2667883    
          20  0.2994787    
          21 -1.7280031E-04
          22  7.6908182E-04
          23  7.4386364E-03
          24  8.0285817E-03
          25  1.4329604E-04
          26 -1.9276246E-03
          27  3.3549876E-03
          28  8.9969340E-04
          29 -4.6837929E-04
          30 -3.0251231E-05
          31  7.2990362E-05
          32  2.9505728E-04
          33  5.0526549E-04
          34 -3.0360119E-03
          35 -0.2586195    
          36 -0.2962227    
          37 -5.3688965E-04
          38  1.9514370E-04
          39 -5.9274156E-03
          40 -6.8731867E-03
          41  6.4709387E-04
          42 -9.6281804E-03
          43 -0.2434267    
          44 -0.2872476    
          45 -1.0176050E-03
          46 -5.2871497E-04
          47 -5.6716995E-03
          48 -6.3187894E-03
          49  1.7107327E-03
          50  3.2803584E-03
          51  1.3414848E-02
          52  1.7343100E-02
          53 -1.4031727E-03
          54 -5.5268110E-04
          55  1.5355641E-03
          56  1.6012089E-03
          57 -1.0259089E-02
          58  2.4852334E-03
          59 -4.1177375E-03
          60  2.1788679E-02
          61  1.8010982E-03
          62  1.2439813E-03
          63 -8.6809421E-04
          64 -1.9556188E-03
          65  3.7936445E-03
          66 -8.0692628E-03
          67  4.3348139E-03
          68 -5.3430428E-03
          69 -2.3559309E-03
          70  2.1931050E-04
          71 -1.0568240E-03
          72  1.7552270E-03
          73 -3.3301266E-03
          74 -6.7776896E-04
          75 -8.8126585E-04
          76  6.0051274E-03
          77  1.2048333E-03
          78  6.6115969E-04
          79  4.3220961E-04
          80 -7.0162606E-04
          81  1.7026768E-03
          82 -1.4956284E-03
          83  2.4029214E-03
          84  8.7417546E-05
          85 -4.9092178E-04
          86 -3.8145845E-05
          87 -2.2228988E-04
          88  3.8546769E-04
          89  2.0329931E-03
          90 -9.7062712E-04
          91  2.1099256E-04
          92 -4.5054047E-03
          93 -5.2364403E-04
          94  2.1978156E-04
          95 -1.2631822E-04
          96  2.0089648E-04
          97 -6.6885597E-04
          98  1.0435027E-03
          99  1.1819758E-03
         100  2.8251912E-03
         101  3.7112419E-04
         102 -2.7266663E-04
         103 -4.7229420E-05
         104  1.3592344E-04
         105  3.5722615E-04
         106 -1.5937963E-05
         107  8.2042906E-03
         108  9.9011175E-03
         109  1.3506324E-04
         110 -2.3840599E-05
         111  2.7153007E-04
         112  2.6498944E-04
         113 -2.8359616E-04
         114  1.0704867E-04
         115  5.7861679E-03
         116  6.5511675E-03
         117  7.8549034E-05
         118 -1.6107802E-04
         119  2.1564627E-04
         120  2.3792605E-04
         121  1.5845920E-04
         122  1.8148952E-04
         123 -3.6228828E-03
         124 -3.7471191E-03
         125 -8.7242515E-06
         126 -9.9795022E-07
         127 -1.8035574E-04
         128  7.9844038E-05
         129 -3.1049040E-04
         130  3.2126578E-04
         131 -9.3665253E-03
         132 -1.1100238E-02
         133 -2.4781046E-05
         134  1.8982925E-04
         135 -1.8268396E-04
         136 -2.1953812E-04
         137  1.9409336E-04
         138 -2.5656496E-04
         139 -6.4065089E-03
         140 -8.0210939E-03
         141  1.8901163E-04
         142 -1.2584346E-04
         143 -9.6932905E-05
         144 -1.6958143E-04
         145 -2.1630253E-04
         146  6.9998066E-05
         147 -1.1176954E-03
         148 -4.4687043E-04
         149  1.3760326E-04
         150  4.8433452E-05
         151 -2.0356165E-05
         152  1.9250376E-07
         153 -3.2422136E-04
         154  3.7947907E-03
         155  7.6763262E-04
         156  1.3152283E-04
         157  2.7677903E-04
         158  3.0219069E-04
         159 -1.2413462E-04
         160 -1.4877705E-04
         161  6.3115171E-05
         162  1.5577424E-02
         163  4.1249217E-04
         164 -4.6264813E-03
         165  1.6554323E-04
         166  6.4691337E-04
         167  3.1810484E-04
         168 -6.0633983E-04
         169 -1.8351786E-05
         170  1.1729491E-02
         171 -4.0833943E-04
         172 -2.8862092E-03
         173  6.3851323E-05
         174  4.1598573E-04
         175  1.0743232E-04
         176 -4.9430702E-04
         177 -8.9173453E-05
         178 -5.0154710E-03
         179  2.4449982E-04
         180  9.6206303E-04
         181 -1.3836125E-04
         182 -2.8061296E-04
         183  1.8951962E-04
         184 -1.0178349E-04
         185 -2.0400459E-05
         186 -1.7635945E-02
         187  1.6117266E-03
         188  3.7865536E-03
         189 -2.8808910E-04
         190 -6.5644435E-04
         191  4.2599608E-04
         192  1.6983024E-05
         193 -1.8943992E-04
         194 -1.3104052E-02
         195  4.2435908E-04
         196  2.0732272E-03
         197 -1.3927651E-04
         198 -2.0479398E-04
         199  3.1268664E-05
         200 -2.2867939E-04
         201  9.1808770E-06
         202  1.6301486E-03
         203  5.5396964E-04
         204  6.4084039E-04
         205  3.4620891E-05
         206  6.1096612E-04
         207  2.8677876E-04
         208  2.9128953E-04
         209  2.8662616E-04
         210 -9.6528865E-03
         211 -5.6807295E-04
         212 -1.4921403E-03
         213 -1.0668502E-04
         214  9.0573862E-04
         215  1.2002508E-03
         216 -2.1246134E-03
         217  2.4858487E-03
         218 -1.4358010E-02
         219  1.2528826E-04
         220 -3.0052604E-03
         221 -9.7478641E-04
         222 -3.8237497E-03
         223  1.5789594E-03
         224 -1.9726360E-03
         225  3.9591937E-04
         226 -1.6202038E-02
         227 -2.2151132E-04
         228 -2.1183133E-04
         229  2.8576943E-04
         230 -1.7400273E-03
         231 -3.1505965E-04
         232 -2.5514653E-03
         233 -1.7019585E-04
         234  1.1256861E-03
         235 -4.8497884E-04
         236 -3.0204610E-04
         237  1.1822155E-03
         238  1.5969618E-03
         239  8.6224353E-04
         240 -8.5372903E-04
         241 -2.6984824E-04
         242  1.6823523E-02
         243  3.1712136E-04
         244 -8.9161978E-05
         245  1.4194093E-03
         246  2.9174183E-03
         247  3.1277578E-04
         248  8.7811780E-04
         249 -6.8003772E-04
         250  7.8303115E-03
         251 -4.6507778E-04
         252  7.2042510E-04
         253  8.7879004E-04
         254  3.7190393E-03
         255 -8.8339305E-04
         256 -3.2446239E-04
         257 -1.7762206E-03
         258 -2.8607411E-02
         259  3.8245928E-03
         260 -8.3475858E-03
         261 -4.4754357E-04
         262 -8.7219593E-04
         263  1.1784731E-03
         264  3.7712758E-04
         265  2.0744661E-03
         266  0.2199571    
         267  4.4674408E-03
         268  5.2463736E-02
         269 -1.7304068E-03
         270  7.0566274E-03
         271 -6.6095270E-04
         272  3.0289583E-03
         273 -5.1839033E-04
         274  0.2533638    
         275  1.2587273E-02
         276  5.4425292E-02
         277 -4.1267383E-04
         278  5.4467060E-03
         279 -3.6143276E-04
         280  1.3878267E-03
         281  1.0060782E-03
         282  2.2208834E-02
         283  1.1220119E-03
         284  6.0513145E-03
         285 -1.5190810E-04
         286 -1.4423752E-03
         287 -1.1119024E-03
         288  5.9184658E-05
         289 -1.2498600E-03
         290 -0.2359438    
         291 -1.1739274E-02
         292 -5.0477352E-02
         293  1.1664152E-04
         294 -8.5086310E-03
         295 -2.1762392E-03
         296 -1.2073031E-03
         297  3.1278508E-03
         298 -0.2462753    
         299 -1.6475003E-02
         300 -5.0927550E-02
         301 -2.0581868E-03
         302 -6.7089279E-03
         303 -1.1516791E-04
         304 -5.0000753E-04
         305  5.0588127E-04
         306  4.8322063E-02
         307  2.5316163E-03
         308  8.9125745E-03
         309 -7.8000239E-04
         310  5.6229699E-03
         311  2.0515740E-04
         312  1.0139556E-03
         313  8.1528939E-02
         314 -4.7966228E-03
         315 -1.7474449E-03
         316 -4.2159874E-03
         317 -1.3879419E-05
         318  4.1445695E-02
         319 -1.4321173E-03
         320  1.3742520E-03
         321 -2.7792063E-03
         322 -6.7586626E-04
         323 -0.1259336    
         324  5.1948922E-03
         325 -9.0122636E-04
         326  2.0142787E-03
         327 -3.8797278E-03
         328 -4.0695644E-03
         329  4.5855246E-05
         330 -8.9205301E-04
         331 -9.2847589E-03
         332 -1.0659659E-02
         333  7.1249570E-04
         334  8.5069092E-05
         335  9.6107426E-05
         336 -1.0883881E-03
         337 -1.0403211E-03
         338  2.5863517E-03
         339  3.9128799E-04
         340 -1.2017338E-04
         341  7.8798616E-03
         342  8.4933769E-03
         343 -3.9457106E-03
         344  5.4436160E-04
         345  3.7293520E-04
         346  8.6388653E-03
         347  9.8655298E-03
         348 -4.9186469E-04
         349 -3.7033588E-04
         350  1.0013779E-03
         351 -6.4876658E-04
         352  2.8065470E-04
         353 -4.2190375E-03
         354 -2.0477147E-04
         355 -8.4555330E-04
         356 -1.4790320E-03
         357 -4.8655143E-04
         358 -1.6913399E-03
         359  2.7215976E-04
         360 -3.1614900E-04
         361  2.5631115E-04
         362 -3.7694335E-04
         363  7.1629114E-04
         364  6.7774882E-04
         365 -5.5093504E-04
         366  2.8589036E-04
         367 -8.9411280E-04
         368  7.1620983E-05
         369 -5.1321782E-05
         370  1.8575032E-05
         371 -1.9945177E-04
         372 -5.5436039E-04
         373 -4.6754556E-04
         374 -1.6859859E-04
         375 -1.0394270E-04
         376 -2.3390455E-04
         377 -1.3498425E-04
         378  3.7697094E-04
         379  1.2859337E-04
         380 -9.7959870E-05
         381  1.1897091E-04
         382  1.2654184E-04
         383  2.4949585E-04
         384 -1.7373764E-05
         385 -5.9713988E-05
         386  3.4509963E-04
         387  4.5519668E-04
         388  2.3962076E-04
         389 -1.0812809E-03
         390  1.2697015E-04
         391 -1.8194622E-05
         392  3.2682152E-04
         393 -9.6313750E-05
         394  1.9353937E-04
         395  1.9307011E-04
         396  4.1736831E-04
         397  2.6045748E-04
         398 -5.5114256E-04
         399  7.2173239E-04
         400 -3.8635414E-04
         401  4.8511982E-04
         402  1.4196297E-04
         403 -8.5882831E-04
         404 -3.8205841E-04
         405 -2.1263729E-04
         406 -4.7971356E-05
         407  8.4153202E-05
         408 -4.2749143E-05
         409 -3.8232378E-04
         410  1.2513399E-04
         411  2.9275894E-05
         412  9.1978618E-05
         413 -1.2501393E-04
         414 -5.1170449E-05
         415  2.5208620E-04
         416  1.0339516E-04
         417 -5.2381311E-05
         418  7.5237255E-04
         419  1.5365789E-04
         420  4.3458494E-04
         421 -2.6473586E-05
         422 -7.5422475E-05
         423 -3.3407107E-03
         424 -5.5681001E-05
         425  7.4690225E-04
         426  6.3757703E-05
         427 -4.1500729E-04
         428  2.6134688E-03
         429 -5.3638709E-04
         430 -4.7671707E-05
         431 -1.2876714E-05
         432  4.0224946E-05
         433 -2.1795003E-04
         434 -8.9712834E-05
         435  2.8237482E-04
         436 -1.0859823E-04
         437 -1.3643796E-04
         438  3.9156931E-03
         439  7.9484080E-04
         440 -3.6534425E-03
         441 -7.3574967E-04
         442  2.0716998E-03
         443 -4.0250918E-04
         444  5.4970075E-04
         445 -1.1955624E-03
         446 -1.2344352E-03
         447  1.0445884E-03
         448 -5.0351123E-04
         449  3.8517051E-04
         450 -4.1630064E-04
         451 -6.4800913E-04
         452  1.4715150E-04
         453  1.5085883E-04
         454  6.0261157E-04
         455 -8.7766751E-04
         456  1.1015570E-04
         457 -4.7545705E-04
         458  5.5541849E-04
         459  3.4864923E-05
         460  9.4971336E-05
         461  1.1359594E-03
         462 -2.7879828E-04
         463  3.3314337E-03
         464  1.2301207E-03
         465 -7.8241508E-03
         466 -3.7609397E-03
         467 -1.9964813E-03
         468 -1.1539883E-03
         469  9.3568506E-04
         470 -7.6898080E-03
         471 -4.2104776E-04
         472 -2.5994447E-03
         473  8.7563222E-04
         474  8.2519680E-04
         475  4.6917345E-04
         476 -3.1674348E-04
         477  1.5374790E-04
         478 -2.0956303E-04
         479 -4.1683103E-04
         480  6.8152668E-03
         481  7.9779368E-04
         482  9.9893706E-04
         483 -7.6004364E-02
         484  4.2287023E-03
         485  1.8334615E-03
         486 -4.5152378E-04
         487 -1.6045462E-03
         488  1.2473346E-02
         489 -7.0029484E-05
         490  1.3899743E-03
         491 -2.5126690E-04
         492  9.8781206E-04
         493  6.5314047E-02
         494 -3.3178560E-03
         495  5.2813702E-04
         496  1.3533523E-03
         497  1.7215256E-03
 Sym= Particle
 Ene= -0.1488019    
 Spin= Alpha
 Occup= 2
           1  7.1161292E-03
           2  1.3826146E-03
           3  1.7965382E-02
           4  4.0340782E-03
           5 -1.0085636E-02
           6 -2.5150354E-03
           7 -4.5438418E-03
           8  5.4911850E-03
           9  5.1443870E-03
          10  6.8890983E-03
          11  0.1542591    
          12  0.1716409    
          13 -6.8220543E-03
          14  3.0459769E-04
          15 -5.5330772E-02
          16 -5.6019727E-02
          17  3.1313123E-03
          18 -2.7926647E-04
          19  0.1620142    
          20  0.1803965    
          21 -1.5687176E-03
          22  4.2622332E-03
          23 -4.7786478E-02
          24 -5.6847621E-02
          25 -1.6811935E-03
          26 -5.4790168E-03
          27 -0.3081070    
          28 -0.3442192    
          29  1.3171356E-03
          30  4.5214049E-03
          31  9.1211453E-02
          32  0.1002942    
          33  4.3707155E-03
          34  4.2577190E-03
          35  0.1450741    
          36  0.1667024    
          37 -3.1119294E-03
          38  2.1844048E-03
          39 -4.1030813E-02
          40 -5.1996808E-02
          41  2.0000921E-03
          42  7.3456946E-03
          43  0.1607344    
          44  0.1869640    
          45 -2.7057936E-03
          46  1.3921836E-03
          47 -4.6088550E-02
          48 -6.1566133E-02
          49  9.3730527E-04
          50  9.9752229E-03
          51 -0.3153223    
          52 -0.3748472    
          53 -3.9388449E-03
          54 -5.1155553E-04
          55  9.2468411E-02
          56  0.1193877    
          57 -2.5224220E-02
          58  1.3502968E-02
          59 -3.8355481E-02
          60  3.7736122E-02
          61  1.1713920E-03
          62  3.6123428E-03
          63  2.6721929E-03
          64 -1.2178883E-02
          65 -1.6651602E-02
          66  2.7244115E-02
          67 -1.3684906E-02
          68  2.3133766E-02
          69  1.3053697E-02
          70 -1.2620020E-02
          71  9.3731228E-03
          72 -8.8432273E-03
          73  2.7116733E-03
          74 -8.9870756E-03
          75 -5.7416521E-03
          76  1.4758114E-03
          77 -4.0895790E-03
          78 -3.1674289E-04
          79  3.7475112E-03
          80  1.9720655E-03
          81 -2.2942027E-04
          82  3.5206371E-03
          83 -1.8492095E-04
          84 -8.6724322E-04
          85  5.0760590E-04
          86 -3.8025992E-03
          87 -2.4399182E-03
          88 -2.7030296E-04
          89  6.5205840E-04
          90 -7.6693756E-04
          91 -2.5880479E-03
          92  1.6590866E-03
          93 -1.6215709E-03
          94  1.0315245E-03
          95  1.6400425E-05
          96 -3.4378134E-04
          97 -1.8193197E-03
          98  1.8194545E-03
          99 -8.0278590E-03
         100 -6.9545256E-03
         101  1.8195624E-03
         102 -1.5061024E-03
         103  3.2775220E-03
         104  1.7877466E-03
         105  5.1736349E-04
         106 -3.1618134E-04
         107  7.8730902E-04
         108  5.1500089E-04
         109 -2.1283353E-04
         110  5.6295103E-04
         111  2.8008217E-04
         112 -3.2051918E-04
         113 -1.3882076E-04
         114  2.1826228E-04
         115  5.5310684E-03
         116  7.3660249E-03
         117  2.0524625E-04
         118 -8.3423249E-05
         119 -1.7202590E-03
         120 -2.4532629E-03
         121  4.7093217E-06
         122  1.8559478E-04
         123 -6.5482510E-03
         124 -7.6960833E-03
         125  7.9533886E-05
         126 -3.8941676E-04
         127  1.8574445E-03
         128  2.2855734E-03
         129 -3.2885734E-04
         130  8.4648374E-05
         131  4.5021434E-04
         132  1.2400112E-03
         133  2.5295190E-04
         134  1.5422171E-04
         135  7.8035053E-05
         136 -3.7226710E-04
         137  2.1609201E-04
         138 -5.4643903E-04
         139  5.4127774E-03
         140  7.2552152E-03
         141  3.2709539E-04
         142 -2.1270377E-04
         143 -1.3110498E-03
         144 -2.6318200E-03
         145  2.5462438E-04
         146  1.7751793E-04
         147 -1.5327302E-04
         148  6.1970274E-04
         149 -9.7777054E-05
         150 -6.0367747E-04
         151  5.4371380E-04
         152  1.8172061E-04
         153  1.4438957E-03
         154  1.3012500E-02
         155 -2.4550157E-03
         156 -3.7813564E-03
         157 -1.8029198E-03
         158 -3.1697545E-03
         159  8.5827091E-04
         160  1.4986697E-03
         161 -2.3732184E-04
         162 -1.6227002E-03
         163  1.5485469E-04
         164  7.0372206E-04
         165 -1.6124084E-04
         166  1.4531024E-04
         167 -2.9575263E-04
         168  5.4322209E-06
         169  3.3023616E-04
         170 -1.0672463E-02
         171  2.6541258E-05
         172  2.3128311E-03
         173 -4.1660434E-04
         174  2.6540386E-03
         175  4.1825400E-04
         176 -8.5363066E-04
         177  7.5864067E-05
         178  1.2108249E-02
         179 -3.6277442E-04
         180 -2.4218732E-03
         181 -6.8797217E-06
         182 -4.1871304E-03
         183  1.7866820E-04
         184  4.1544955E-04
         185  3.2224134E-04
         186 -1.3557787E-03
         187  3.2519666E-04
         188 -1.2969675E-04
         189 -1.0249200E-04
         190 -7.8006741E-04
         191  3.4840245E-04
         192  2.8198099E-04
         193 -1.2348275E-04
         194 -1.0430844E-02
         195  3.9170790E-04
         196  2.1308835E-03
         197 -2.4316869E-04
         198  3.6520748E-03
         199  8.5945509E-04
         200 -2.4781955E-04
         201  1.7592493E-04
         202 -6.2957749E-04
         203 -5.3565789E-05
         204 -8.8234892E-04
         205 -7.3388172E-04
         206  6.8972011E-05
         207  1.0433764E-03
         208  5.9330219E-04
         209 -1.1099256E-03
         210 -1.6287751E-02
         211  1.8309661E-03
         212  3.1825593E-03
         213  2.6498192E-03
         214 -7.3793414E-03
         215 -6.0055498E-03
         216 -6.1194119E-03
         217  1.8824259E-03
         218  1.2339256E-02
         219  8.1789418E-04
         220 -2.7146738E-03
         221 -1.6757938E-03
         222  2.5065610E-04
         223 -6.5411869E-03
         224  4.2703431E-03
         225  3.6772960E-04
         226 -2.1699068E-04
         227  1.1777286E-03
         228 -8.5954211E-04
         229  8.2144266E-05
         230 -1.6198744E-03
         231  1.5988114E-03
         232  4.6012388E-03
         233  6.3658017E-04
         234 -8.3493711E-03
         235 -8.2703843E-04
         236  5.5950513E-04
         237  1.2678610E-03
         238 -3.0165268E-03
         239  1.2307297E-03
         240 -2.0941414E-03
         241  6.0763385E-04
         242  4.8503350E-03
         243 -6.4463430E-04
         244  8.1829063E-04
         245 -3.6737742E-03
         246  5.4095276E-03
         247  1.6843829E-03
         248  1.3053514E-03
         249  1.3588442E-03
         250  4.8398720E-03
         251 -9.5881562E-04
         252  7.0878927E-04
         253 -4.2137662E-03
         254  3.1924425E-03
         255 -5.3878909E-04
         256 -4.3351180E-03
         257  5.0052892E-02
         258  0.3089309    
         259 -6.0475826E-02
         260  3.1795431E-02
         261 -4.6589050E-02
         262 -8.8274732E-02
         263  3.4935851E-02
         264 -1.8248662E-02
         265  2.6733845E-03
         266 -0.1949608    
         267 -2.0698855E-02
         268 -2.1748325E-02
         269 -1.2199786E-02
         270  6.4141236E-02
         271  2.0532122E-02
         272  1.1128250E-03
         273  5.0845058E-03
         274 -0.1181385    
         275 -1.0911047E-02
         276 -2.3596667E-02
         277 -5.1622954E-03
         278  3.3674505E-02
         279  4.2147655E-04
         280  1.0559590E-03
         281  3.0329279E-03
         282  0.2947950    
         283  1.4392976E-02
         284  6.5841131E-02
         285 -4.0699681E-03
         286 -8.7177806E-02
         287 -6.0115037E-03
         288 -2.3529604E-02
         289  8.5106306E-03
         290 -0.1703194    
         291 -1.4067112E-02
         292 -4.4194810E-02
         293 -5.2397600E-03
         294  5.2994926E-02
         295 -1.3094202E-03
         296  9.6317865E-03
         297 -4.9608611E-03
         298 -0.1259164    
         299  2.6283495E-03
         300 -3.6759950E-02
         301 -1.5347428E-03
         302  4.3154612E-02
         303 -7.4034329E-03
         304  1.2325783E-02
         305 -1.3805501E-03
         306 -6.0777823E-03
         307 -1.7869421E-03
         308 -1.7618887E-02
         309 -1.2462364E-04
         310 -4.5836135E-03
         311 -1.2153476E-03
         312  8.3644073E-03
         313  3.9989494E-02
         314 -2.4505647E-02
         315  1.2348691E-03
         316 -9.8449867E-03
         317 -1.6687617E-02
         318  9.8506100E-03
         319 -6.7500039E-03
         320  3.5018122E-03
         321  2.1787148E-02
         322  7.0160003E-03
         323 -5.4764520E-02
         324  2.7967671E-02
         325 -2.0869909E-02
         326 -2.3822863E-02
         327  9.9251112E-03
         328 -3.0796092E-03
         329  3.0637567E-03
         330  4.4927178E-03
         331  3.7868019E-02
         332  4.1630138E-02
         333  5.4730452E-04
         334  1.0898727E-03
         335 -8.2899387E-05
         336 -7.8738488E-02
         337 -8.7426923E-02
         338 -5.2300310E-03
         339  3.5881032E-03
         340  1.4601298E-05
         341  3.9862238E-02
         342  3.7865631E-02
         343 -2.8652269E-03
         344  5.7271211E-03
         345  1.3128427E-04
         346  4.3905910E-02
         347  4.2327177E-02
         348  1.4074752E-02
         349  6.5031680E-05
         350 -1.3733490E-03
         351 -6.5227915E-03
         352  1.8389145E-03
         353  2.6737077E-03
         354  6.4992039E-03
         355  7.9071252E-03
         356 -5.7589021E-03
         357 -4.2810608E-03
         358 -2.3497243E-03
         359  3.1614350E-03
         360 -3.8810130E-03
         361 -3.2589599E-04
         362 -7.5285550E-04
         363 -3.5176708E-04
         364  1.5689788E-03
         365 -1.7862492E-03
         366 -7.7703345E-04
         367 -2.3605864E-04
         368  3.4819721E-05
         369  1.4447310E-04
         370  1.0716678E-03
         371  9.4213395E-04
         372 -2.9895306E-04
         373 -1.0952978E-04
         374  4.1567959E-04
         375  3.0736232E-04
         376  1.3613702E-03
         377  1.2471189E-03
         378 -1.6908463E-04
         379  1.9649017E-04
         380 -4.2235752E-04
         381 -1.7875462E-03
         382 -2.1990226E-03
         383  5.3016661E-04
         384 -1.6067520E-04
         385  3.2065663E-04
         386  6.5739232E-04
         387  3.0633522E-04
         388 -2.3086255E-03
         389  1.3538192E-03
         390 -3.1895909E-04
         391 -1.5314623E-03
         392  3.1083802E-04
         393  5.7379121E-04
         394 -1.3550009E-04
         395 -4.6624133E-05
         396  4.7549690E-04
         397  5.7326240E-04
         398  1.4147833E-03
         399 -4.2504552E-04
         400 -8.0606464E-04
         401  1.7173925E-05
         402 -1.5989924E-04
         403  3.2714137E-04
         404 -3.6714590E-04
         405 -1.1003584E-03
         406 -4.8465718E-04
         407  2.6304077E-04
         408 -2.5510698E-04
         409 -2.0893800E-04
         410 -2.6781491E-03
         411  6.8679813E-04
         412  8.6276064E-05
         413 -3.7612463E-04
         414  4.5687016E-04
         415  3.0858477E-03
         416 -4.4275780E-04
         417 -8.6876645E-04
         418 -6.1130419E-04
         419  1.0837945E-03
         420 -1.6081135E-03
         421 -7.6783268E-05
         422  6.0564606E-04
         423 -2.2067670E-03
         424  1.4777436E-03
         425 -5.9865031E-04
         426  1.4127785E-03
         427 -1.6037453E-04
         428  2.5855796E-03
         429 -1.6257875E-03
         430  8.5316692E-04
         431 -3.0714800E-04
         432 -8.2730583E-04
         433 -7.1797700E-04
         434  6.1620469E-04
         435 -5.5962562E-04
         436  2.2588320E-04
         437  6.2442938E-04
         438  1.2201552E-03
         439 -2.2560244E-03
         440  1.1916356E-02
         441 -6.6199144E-03
         442 -2.1165011E-05
         443  1.2177482E-04
         444  2.1088941E-04
         445 -8.2902925E-04
         446  5.2956748E-04
         447  4.1420157E-03
         448 -1.8647232E-03
         449  3.4426723E-03
         450 -6.5895361E-03
         451 -3.2166524E-03
         452 -3.3712527E-03
         453  1.3298327E-03
         454 -1.9159511E-03
         455  4.3843747E-03
         456  2.5603638E-04
         457  2.4904704E-03
         458  1.1203223E-03
         459 -1.3524251E-03
         460  4.3134880E-03
         461 -1.0831626E-03
         462 -2.3636469E-03
         463 -1.3870878E-02
         464  4.8460858E-03
         465 -3.6077477E-02
         466  1.5123053E-02
         467  6.4519048E-03
         468 -1.2179592E-02
         469  3.6965325E-03
         470 -2.6417086E-02
         471 -3.0598133E-03
         472 -8.4239012E-03
         473 -2.1526753E-03
         474 -1.7407538E-03
         475  7.0452601E-02
         476  3.9689876E-03
         477  1.3375309E-02
         478 -8.9004170E-03
         479  3.2603366E-03
         480 -4.0198937E-02
         481 -5.0371527E-03
         482 -1.0248488E-02
         483 -2.7008463E-02
         484  1.4749924E-02
         485  2.6613923E-03
         486  1.1223369E-02
         487  5.7399445E-03
         488  1.5571291E-03
         489  9.9456741E-04
         490 -9.9615194E-03
         491 -3.5912360E-03
         492 -7.1410579E-03
         493  2.9438324E-02
         494 -1.2002703E-02
         495  8.0382703E-03
         496 -4.7414242E-03
         497 -1.4117038E-03
 Sym= Hole
 Ene= -0.1331852    
 Spin= Alpha
 Occup= 0
           1 -2.6084811E-03
           2 -2.1132617E-03
           3  1.6314859E-02
           4  2.1995211E-02
           5 -8.9997228E-04
           6 -2.9203722E-03
           7  2.0481022E-03
           8  3.7570179E-03
           9  5.7782424E-03
          10  1.1096314E-02
          11 -0.1425163    
          12 -0.1548968    
          13 -3.0846747E-03
          14 -4.2999443E-04
          15 -4.1129617E-03
          16 -2.0840948E-03
          17 -2.9499617E-03
          18 -3.0661768E-03
          19 -0.1744534    
          20 -0.1893802    
          21 -7.5155048E-04
          22  1.0759527E-04
          23 -4.8023527E-03
          24 -5.4868022E-03
          25  6.1403500E-04
          26 -6.9411838E-04
          27 -2.8855406E-02
          28 -3.0521229E-02
          29 -7.0773240E-04
          30 -9.4144052E-04
          31 -1.1204901E-03
          32 -1.3482597E-03
          33 -2.6786432E-03
          34 -4.2249318E-04
          35  0.1385996    
          36  0.1647507    
          37 -2.9448289E-04
          38  7.2382379E-04
          39  2.2344734E-03
          40  4.2321137E-03
          41  1.4663298E-03
          42  8.9040631E-03
          43  0.1646815    
          44  0.1898551    
          45 -9.1060638E-06
          46  2.0733133E-03
          47  4.0164925E-03
          48  3.9667068E-03
          49 -9.3835304E-03
          50 -1.9154791E-02
          51  1.4625415E-02
          52  3.5219945E-02
          53  3.3491184E-03
          54  7.1968493E-04
          55 -4.0176653E-04
          56  1.1138895E-03
          57  3.2752762E-03
          58  2.2488009E-02
          59 -5.4835179E-03
          60 -2.4957885E-03
          61 -3.1071813E-03
          62 -1.2936062E-03
          63  3.7075617E-04
          64  1.5532891E-03
          65  1.2420014E-02
          66 -2.9297333E-02
          67  1.3869504E-02
          68 -2.4461871E-02
          69 -4.8416923E-03
          70  1.0753210E-03
          71 -1.1193004E-03
          72 -1.7157920E-03
          73 -1.4910142E-02
          74  2.6593609E-03
          75 -3.4280452E-03
          76  2.7587324E-02
          77  3.4103664E-03
          78 -3.6814862E-03
          79  4.4264979E-04
          80 -6.8626169E-04
          81  1.3502841E-02
          82  3.2595857E-03
          83  1.1779862E-02
          84 -1.0959515E-02
          85 -6.8598930E-03
          86  1.7924013E-04
          87 -9.9238206E-04
          88  2.7961985E-03
          89 -1.0035870E-02
          90 -6.2034489E-03
          91  2.9402259E-03
          92  2.1268591E-02
          93  7.9493526E-05
          94  2.1965986E-03
          95 -7.5569004E-04
          96 -9.5467258E-04
          97 -1.8188846E-03
          98  4.0229461E-03
          99 -2.5306914E-02
         100 -2.5515914E-02
         101  2.9184902E-04
         102 -7.4669439E-04
         103 -2.1018414E-03
         104  6.8877690E-04
         105  6.4267108E-04
         106  7.7764940E-04
         107 -6.5756771E-03
         108 -9.6774418E-03
         109 -4.2898735E-04
         110 -5.7016267E-04
         111 -1.5293052E-04
         112  4.7495469E-06
         113 -5.6790712E-05
         114  2.1021548E-04
         115  1.8382814E-02
         116  2.2643819E-02
         117  7.3629555E-05
         118 -6.9216854E-04
         119  5.1739230E-04
         120  2.8702340E-04
         121 -1.9053691E-04
         122  1.4962784E-04
         123  2.4218276E-02
         124  3.0263871E-02
         125 -8.8458009E-06
         126 -1.7531567E-04
         127  1.6400074E-04
         128  6.7591504E-04
         129 -4.4585485E-04
         130  2.7724816E-03
         131  3.2051881E-03
         132  4.1006943E-03
         133 -1.0324764E-04
         134  4.3697833E-04
         135 -8.0728052E-05
         136 -7.6898817E-05
         137  9.9790003E-04
         138 -3.1873921E-03
         139 -2.0107627E-02
         140 -2.4302274E-02
         141 -1.2932746E-03
         142  7.3293212E-04
         143 -1.1861813E-03
         144 -3.7960819E-04
         145 -2.0984979E-04
         146  4.5373949E-04
         147  3.0275874E-03
         148  4.9258065E-03
         149 -7.7405752E-04
         150  8.6159346E-04
         151  2.6487876E-04
         152 -1.6153695E-04
         153  3.9195581E-03
         154  5.4708876E-02
         155 -7.9162540E-03
         156 -1.6195877E-02
         157 -2.6491070E-03
         158  1.1461410E-03
         159  4.2421155E-04
         160  3.1912685E-04
         161 -1.5225179E-04
         162  6.7682832E-02
         163 -3.2385441E-03
         164 -1.1972501E-02
         165 -1.0505647E-04
         166  1.7368012E-03
         167 -1.0247381E-03
         168 -1.6693764E-03
         169  4.6421890E-04
         170  1.0319674E-02
         171 -1.0089140E-03
         172 -3.0136022E-03
         173  4.8121705E-04
         174  7.7761913E-04
         175 -5.7256909E-04
         176 -1.5627750E-03
         177  5.3564621E-05
         178 -5.7142641E-02
         179  1.7455107E-03
         180  1.2779969E-02
         181  4.3378031E-04
         182 -1.4745686E-03
         183 -3.0608772E-04
         184 -8.2917273E-04
         185  8.3477952E-04
         186 -6.5632448E-02
         187  1.6390322E-03
         188  1.3673090E-02
         189  4.9280738E-05
         190 -2.1727222E-03
         191 -8.3478057E-04
         192 -1.3160291E-05
         193  2.6073735E-04
         194 -8.3252108E-03
         195  4.1197176E-04
         196  2.4789521E-03
         197 -1.1797238E-03
         198 -2.4284323E-04
         199  1.6661499E-04
         200  1.9108925E-04
         201  7.3505327E-04
         202 -3.5321407E-03
         203 -2.3748057E-03
         204 -9.9653797E-04
         205 -7.9143047E-04
         206  4.6954516E-04
         207 -1.7990655E-04
         208  6.2294415E-04
         209  4.2929137E-03
         210 -2.7156511E-02
         211 -2.9700452E-03
         212 -5.8659608E-03
         213 -1.2713933E-03
         214  4.8974998E-05
         215  2.0717843E-04
         216 -2.1906865E-03
         217  4.7145761E-03
         218 -3.2600947E-02
         219 -2.4768370E-03
         220 -5.2938806E-03
         221 -2.0499495E-03
         222 -5.3404453E-03
         223 -1.2173126E-03
         224 -3.3320265E-03
         225 -7.3124259E-04
         226 -2.2230200E-02
         227  6.4714294E-04
         228 -4.2637344E-04
         229  1.4564138E-03
         230 -5.2477699E-04
         231 -1.2717269E-03
         232 -4.0782415E-03
         233 -3.4837230E-04
         234  1.6501563E-02
         235 -2.3631833E-04
         236  6.6214096E-04
         237  2.6265590E-03
         238  3.9391736E-03
         239  7.0724241E-04
         240 -3.5105968E-05
         241 -1.2251023E-04
         242  3.4328200E-02
         243 -1.4547384E-04
         244 -1.6859528E-03
         245  2.7434616E-03
         246  5.0754617E-03
         247 -1.5586318E-03
         248  3.5484921E-04
         249 -8.0462149E-04
         250  5.3580734E-03
         251 -6.5186684E-04
         252  2.8235761E-03
         253  2.0321182E-03
         254  5.1871799E-03
         255 -2.3878766E-03
         256 -2.3755825E-03
         257 -5.4185432E-03
         258 -0.2047674    
         259 -6.8124168E-04
         260 -3.9476696E-02
         261  2.0690591E-03
         262 -7.0144362E-03
         263 -1.0739256E-03
         264 -1.2443938E-03
         265  3.2148600E-04
         266  0.2315326    
         267  8.9608077E-03
         268  4.6629462E-02
         269  7.2410493E-04
         270  4.5650373E-03
         271  4.5246084E-04
         272  1.2102223E-03
         273 -2.0068773E-04
         274  0.4338359    
         275  2.2577383E-02
         276  9.2540674E-02
         277  2.0802641E-04
         278  1.0438029E-02
         279  6.9753930E-04
         280  2.9228616E-03
         281  1.4183966E-05
         282  0.1887683    
         283  7.5252871E-03
         284  3.9729152E-02
         285  1.1149844E-04
         286  3.1687438E-03
         287  2.0296689E-05
         288  2.0247968E-03
         289 -1.3824840E-03
         290 -0.2580344    
         291 -1.0181657E-02
         292 -5.4369863E-02
         293  6.7977700E-04
         294 -8.8946093E-03
         295  2.3725064E-04
         296 -1.6333233E-03
         297  1.2510856E-04
         298 -0.4286505    
         299 -2.2904539E-02
         300 -9.6714236E-02
         301  1.2802331E-04
         302 -9.8400572E-03
         303 -1.3136970E-03
         304 -3.0352047E-03
         305  2.2913287E-03
         306  8.0691010E-02
         307  2.7462847E-03
         308  2.0157611E-02
         309 -1.7994652E-03
         310  1.0663937E-02
         311 -1.0186178E-04
         312  9.1993326E-04
         313 -4.3287754E-02
         314  1.2252339E-03
         315 -1.1035739E-03
         316  7.6431327E-04
         317 -2.7544822E-03
         318 -1.4570739E-02
         319  1.1977978E-03
         320 -2.8638539E-04
         321  2.1320509E-03
         322 -8.6293963E-05
         323  5.9146300E-02
         324 -4.2604832E-03
         325 -1.9435638E-03
         326 -2.4706977E-03
         327  5.6162416E-03
         328  2.8600593E-03
         329 -1.7284181E-03
         330 -4.1182348E-04
         331  5.5510295E-03
         332  6.7766882E-03
         333  1.0259945E-04
         334  5.0827407E-04
         335  7.9300713E-05
         336  1.0766556E-03
         337  1.5074663E-03
         338  1.3569295E-03
         339 -1.0948072E-05
         340  3.3257116E-04
         341 -4.8229024E-03
         342 -5.0418167E-03
         343  7.6729069E-03
         344  5.5241666E-04
         345  2.2013581E-03
         346 -4.6265214E-03
         347 -7.2791968E-03
         348 -1.1083581E-02
         349  1.0902991E-03
         350 -1.9802100E-03
         351  3.1145152E-03
         352  1.2855248E-03
         353 -1.0424149E-02
         354 -4.4257638E-05
         355  1.8777158E-03
         356 -4.2814505E-04
         357 -1.9737654E-03
         358 -2.7509353E-03
         359 -5.4921943E-04
         360 -5.9647957E-04
         361  6.4172986E-04
         362  1.1036447E-03
         363 -7.9110572E-03
         364  1.2644927E-03
         365 -9.2677126E-04
         366  1.5389269E-04
         367 -3.1500782E-03
         368 -1.8632843E-04
         369 -1.5616250E-04
         370 -1.2280906E-03
         371  3.9848956E-04
         372 -6.2831870E-04
         373  2.0770149E-04
         374  8.3464285E-05
         375 -1.4440565E-04
         376 -3.2478469E-04
         377 -5.1930232E-04
         378  1.2840392E-04
         379  3.8912016E-04
         380 -3.3061096E-04
         381 -4.9170328E-04
         382 -4.6073066E-04
         383  2.7496226E-03
         384  5.4179138E-04
         385 -5.0414453E-04
         386  3.0501058E-05
         387 -6.9208159E-05
         388  1.1245694E-02
         389  1.2635330E-04
         390  3.6588597E-05
         391  2.4452721E-04
         392 -8.7239503E-05
         393 -2.6039437E-03
         394 -1.5801142E-04
         395 -5.5242004E-04
         396 -3.1105508E-04
         397  1.7528042E-04
         398 -8.4646028E-03
         399 -1.1099509E-03
         400  1.1403046E-03
         401  4.1329084E-04
         402 -9.5314014E-04
         403  6.9119257E-04
         404  7.7943102E-04
         405 -2.3098097E-03
         406  1.0639808E-04
         407 -3.0838707E-04
         408 -1.2710198E-03
         409  4.8820104E-04
         410  5.0169893E-04
         411 -2.1776816E-05
         412 -4.3173126E-04
         413  5.3399410E-05
         414  3.1437809E-04
         415  1.9325931E-03
         416 -7.7589582E-05
         417 -6.2063185E-04
         418 -2.3519198E-05
         419  6.7369681E-04
         420  1.9614464E-03
         421 -6.2856969E-04
         422 -2.7673403E-04
         423  1.6096265E-03
         424 -1.8578095E-04
         425  2.3434148E-03
         426  1.6242913E-03
         427 -1.6073714E-03
         428  2.3180054E-04
         429 -7.0898660E-04
         430 -2.6938767E-04
         431  6.1667257E-04
         432  1.1344539E-05
         433 -1.1976821E-03
         434  7.3023303E-04
         435  6.5988937E-04
         436 -5.6097412E-04
         437  4.2859901E-04
         438  6.0149264E-03
         439  1.2787624E-03
         440 -4.8173713E-03
         441 -6.0907012E-05
         442  4.0830779E-03
         443  8.0809048E-05
         444  1.2532914E-03
         445 -9.4359048E-04
         446 -1.2107797E-03
         447  1.6445711E-03
         448  5.9354882E-04
         449  1.2631103E-03
         450 -7.8303803E-04
         451 -7.8955182E-04
         452  8.7301501E-05
         453 -1.4729305E-03
         454  1.4817211E-03
         455 -1.7962722E-03
         456  1.3320259E-04
         457 -9.1341033E-04
         458  4.9236690E-04
         459  2.2433763E-03
         460 -1.7766358E-03
         461  1.6130143E-04
         462 -3.6006048E-04
         463  2.1962521E-03
         464 -3.4218418E-04
         465 -7.7363946E-03
         466  2.3280093E-03
         467 -7.7819626E-04
         468  3.8996921E-05
         469 -6.4612046E-04
         470 -1.2987927E-02
         471 -1.0370654E-03
         472 -2.8485549E-03
         473 -2.1791412E-03
         474 -1.0603550E-03
         475 -4.5003192E-03
         476  1.0188145E-04
         477 -7.7394623E-04
         478  5.6985911E-04
         479 -3.9291554E-04
         480  6.3822996E-03
         481  6.5563805E-04
         482  6.9206441E-04
         483 -0.1320306    
         484  6.7809010E-03
         485  3.7921243E-03
         486  7.6923870E-06
         487 -4.2828401E-03
         488  1.7981784E-02
         489 -1.5685896E-03
         490  3.2445726E-03
         491 -1.0768259E-04
         492  1.1674101E-03
         493  0.1112458    
         494 -6.8341140E-03
         495  1.1729563E-03
         496  1.6536232E-03
         497  3.2654430E-03
 Sym= Particle
 Ene= -0.1331852    
 Spin= Alpha
 Occup= 2
           1 -1.4029038E-03
           2 -9.1525661E-05
           3  4.0735402E-03
           4 -1.1204583E-02
           5 -2.6137987E-03
           6 -1.1432961E-02
           7 -1.2705594E-02
           8 -6.0687936E-03
           9 -7.3503945E-03
          10 -1.4778040E-02
          11 -0.1082309    
          12 -0.1276097    
          13  5.8531393E-03
          14  9.4823223E-03
          15  3.1720370E-02
          16  4.9393140E-02
          17  2.9981034E-03
          18  3.1318401E-03
          19 -7.8296781E-02
          20 -9.7184435E-02
          21 -1.2567847E-03
          22  1.3036796E-04
          23  2.2846110E-02
          24  3.1208478E-02
          25  1.8923823E-03
          26  4.3061310E-03
          27  0.1869485    
          28  0.2091721    
          29 -3.4015195E-03
          30 -3.8982925E-03
          31 -5.8486376E-02
          32 -6.2045164E-02
          33  3.4527727E-03
          34  4.5089899E-03
          35 -0.1034209    
          36 -0.1254757    
          37 -2.2151161E-03
          38 -3.0817947E-04
          39  2.9991454E-02
          40  3.8801171E-02
          41 -1.1454065E-02
          42  1.8730860E-03
          43 -9.3354590E-02
          44 -7.9254791E-02
          45  8.3445515E-03
          46  4.6755513E-04
          47  3.3016253E-02
          48  2.1908933E-02
          49  3.7790410E-02
          50  4.0967822E-02
          51  0.2228569    
          52  0.1949326    
          53 -2.3378585E-02
          54 -1.0224130E-02
          55 -7.3932759E-02
          56 -5.9530273E-02
          57  2.6782695E-02
          58  5.2898198E-02
          59  2.3417050E-02
          60 -3.9732933E-02
          61 -5.2737459E-03
          62 -4.2945608E-03
          63  1.6381554E-04
          64  1.3880360E-02
          65 -4.3833770E-02
          66  6.7305341E-02
          67 -2.8910656E-02
          68  4.8422687E-02
          69  3.7179485E-02
          70 -2.4263104E-02
          71  3.1187989E-02
          72 -1.5705079E-02
          73 -1.5248578E-03
          74 -8.8566885E-04
          75 -5.0084996E-03
          76  4.7232592E-03
          77  5.3822757E-03
          78 -1.3347142E-02
          79  2.7950113E-03
          80 -3.2719939E-03
          81  3.7279457E-03
          82  1.2968970E-02
          83  1.4751100E-03
          84 -3.2275170E-03
          85 -5.5594728E-03
          86 -2.7248322E-03
          87 -4.0661395E-03
          88  2.1556474E-03
          89  1.3050955E-03
          90  2.4965936E-03
          91 -6.9686270E-04
          92  9.5379399E-04
          93 -3.9010802E-03
          94  3.2911524E-03
          95  2.0005237E-04
          96  4.0709029E-04
          97 -4.6705590E-03
          98  4.8993984E-03
          99 -1.2393411E-02
         100 -7.3556183E-03
         101  4.2226310E-03
         102 -2.4917268E-03
         103  7.6286881E-03
         104  2.0233167E-03
         105  1.0581507E-03
         106 -4.3030406E-04
         107  2.8689893E-02
         108  3.3362888E-02
         109 -1.0105014E-03
         110  9.4003329E-04
         111 -8.8081984E-03
         112 -1.0575404E-02
         113 -4.3508093E-04
         114  1.1493936E-03
         115 -2.1672685E-02
         116 -2.5168916E-02
         117 -2.0696892E-04
         118 -3.1167749E-04
         119  5.9699300E-03
         120  7.3264106E-03
         121 -1.3124201E-04
         122 -9.2662012E-05
         123 -7.6449951E-03
         124 -8.7290742E-03
         125  5.0287803E-05
         126  2.6131919E-04
         127  2.2215955E-03
         128  2.3798470E-03
         129 -3.7602786E-04
         130  1.0156825E-03
         131  2.8726855E-02
         132  3.5130192E-02
         133  1.1438150E-04
         134 -2.0982636E-04
         135 -9.2153111E-03
         136 -1.0506587E-02
         137  5.8942084E-04
         138 -1.7024946E-03
         139 -2.3696264E-02
         140 -2.6798179E-02
         141  9.0103300E-04
         142 -7.1773253E-04
         143  1.0028253E-02
         144  9.1549568E-03
         145 -1.9814994E-04
         146  3.1246766E-04
         147 -3.0678401E-03
         148 -1.6904891E-03
         149  1.1231042E-03
         150 -1.2371342E-03
         151 -1.3424842E-04
         152  1.0178088E-04
         153  1.0648643E-03
         154  5.4252803E-02
         155 -3.3962096E-03
         156 -1.2207222E-02
         157 -1.8253567E-03
         158 -1.7485803E-02
         159  1.0346909E-03
         160  2.8602649E-03
         161 -7.3986492E-05
         162  2.4118848E-02
         163 -4.5115370E-04
         164 -5.0792838E-03
         165 -1.1003047E-03
         166 -8.6412141E-03
         167  1.1468753E-03
         168  1.4398224E-03
         169  2.7420267E-04
         170 -7.7737227E-02
         171  2.1247074E-03
         172  1.6624283E-02
         173 -1.0463082E-04
         174  2.2266179E-02
         175  8.3830865E-04
         176 -4.6142978E-03
         177  3.7009330E-04
         178  5.0818831E-02
         179 -1.2812495E-03
         180 -1.0447085E-02
         181  3.3732904E-05
         182 -1.5705084E-02
         183 -6.7411565E-05
         184  2.6289138E-03
         185  2.7010730E-04
         186  2.6614301E-02
         187 -2.5456873E-04
         188 -6.5565794E-03
         189  1.2612699E-04
         190 -9.4105024E-03
         191  6.3731743E-04
         192  2.0760081E-03
         193 -2.7823413E-04
         194 -8.0214329E-02
         195  3.0576666E-03
         196  1.8419655E-02
         197 -4.8887978E-05
         198  2.6446033E-02
         199 -4.9440700E-05
         200 -5.5693234E-03
         201  1.3008715E-03
         202 -5.8053005E-03
         203 -2.6848572E-04
         204 -4.4113945E-04
         205 -2.2272037E-03
         206 -2.2431368E-03
         207  1.4109592E-03
         208  1.4981779E-03
         209 -2.1408941E-03
         210 -1.0446345E-02
         211  2.2184718E-03
         212  4.5270547E-03
         213  1.0650267E-03
         214 -9.4045745E-03
         215  1.2998012E-03
         216 -8.0292188E-03
         217  2.1293529E-03
         218  3.0959040E-02
         219  1.1625119E-03
         220 -3.8077657E-03
         221 -4.5307190E-03
         222 -4.6039363E-03
         223 -8.0592521E-03
         224  2.5123626E-03
         225  4.8559890E-04
         226 -2.3129687E-02
         227  2.1885603E-03
         228 -1.9665088E-03
         229 -7.5457181E-04
         230  4.0439717E-03
         231 -2.0490538E-03
         232  6.1941585E-03
         233 -5.5539998E-04
         234 -2.0470242E-03
         235 -7.9056091E-04
         236  5.3680554E-04
         237  5.5641453E-03
         238 -1.0206228E-02
         239 -6.9255807E-04
         240 -3.9751455E-03
         241  4.0968930E-04
         242  2.2682643E-02
         243 -1.0464052E-03
         244 -1.4815481E-04
         245 -1.1077736E-03
         246 -3.8415106E-04
         247  2.5854816E-03
         248  4.2418245E-04
         249 -2.4104449E-04
         250 -1.5988290E-02
         251  2.0074694E-04
         252 -3.1627959E-04
         253 -4.5737638E-03
         254  1.2065462E-02
         255 -6.8985973E-04
         256 -9.4295747E-04
         257 -2.6618827E-02
         258  0.4178950    
         259  5.6434549E-02
         260  0.1096549    
         261  2.9912628E-02
         262 -0.1363246    
         263 -2.8642897E-02
         264 -3.3405088E-02
         265 -4.0176623E-03
         266 -0.3796048    
         267 -4.6107615E-03
         268 -9.6288264E-02
         269  1.1324321E-02
         270  0.1138076    
         271 -7.9146568E-03
         272  3.2489855E-02
         273 -2.0825374E-03
         274 -2.1012833E-02
         275  1.0752585E-03
         276 -5.3127171E-03
         277  3.4641663E-03
         278  8.1045749E-03
         279 -9.0463902E-04
         280  5.1058675E-03
         281 -3.0642461E-03
         282  0.4030359    
         283  2.0443469E-02
         284  8.5011847E-02
         285  4.2269961E-03
         286 -0.1201020    
         287 -5.8764154E-03
         288 -2.6300581E-02
         289 -3.0233851E-03
         290 -0.3823260    
         291 -1.5277206E-02
         292 -8.0251008E-02
         293  3.7266070E-03
         294  0.1193110    
         295  8.5286330E-03
         296  2.4531307E-02
         297 -4.0160926E-04
         298 -2.0460980E-02
         299 -2.1731788E-03
         300 -1.1186608E-03
         301  7.0920768E-03
         302  8.2495706E-03
         303  3.1818622E-03
         304 -1.7680599E-03
         305  1.0052064E-03
         306 -7.7706859E-03
         307  5.2659637E-03
         308  5.0316420E-03
         309  2.3940776E-03
         310  4.8351306E-03
         311 -2.0177001E-03
         312 -1.7485194E-03
         313 -2.1270262E-02
         314 -6.8232859E-04
         315 -1.0070266E-02
         316 -1.0986135E-02
         317 -5.8366116E-03
         318 -1.8454241E-02
         319  1.9193348E-03
         320  8.2597119E-04
         321 -8.7730689E-03
         322 -4.8285900E-03
         323  4.2300578E-02
         324 -2.7537659E-02
         325 -1.9055607E-02
         326  2.8349530E-02
         327  4.2481055E-03
         328 -5.0295880E-03
         329 -6.3054431E-03
         330 -1.7945002E-03
         331 -2.1239102E-02
         332 -1.8512361E-02
         333 -2.9086044E-05
         334 -6.6380231E-03
         335 -2.2163310E-03
         336  4.5220576E-02
         337  5.3962588E-02
         338 -4.8734504E-03
         339 -5.7063131E-03
         340  1.3993967E-03
         341 -2.9689614E-02
         342 -2.6897827E-02
         343 -9.5566278E-03
         344  7.1751437E-04
         345  2.7035745E-03
         346 -1.9816449E-02
         347 -2.2198662E-02
         348  1.7260185E-02
         349 -2.1893396E-03
         350  1.2412432E-02
         351 -9.6931793E-03
         352  5.1496495E-03
         353  1.4822747E-02
         354 -4.2998511E-03
         355  1.0740750E-02
         356  2.1920092E-03
         357  5.7766573E-03
         358 -4.9323784E-03
         359 -8.7204779E-04
         360  2.1653816E-03
         361  3.0601965E-03
         362  2.1379699E-03
         363 -1.6478136E-03
         364 -5.3036562E-04
         365 -1.0696457E-03
         366 -6.0665882E-03
         367  6.0714420E-04
         368  5.0272269E-04
         369 -6.1058748E-04
         370  1.2362211E-03
         371  6.8928339E-03
         372  8.3153099E-03
         373  4.5953543E-04
         374  3.0703810E-05
         375 -1.5898611E-04
         376 -5.1703155E-03
         377 -6.4922632E-03
         378 -1.7064337E-04
         379  4.6822621E-04
         380  3.8239019E-04
         381 -1.6203691E-03
         382 -2.9258612E-03
         383  5.8286462E-04
         384 -4.5877382E-06
         385  8.7482338E-05
         386  6.3137226E-03
         387  8.6660571E-03
         388  7.3744012E-03
         389 -2.2205720E-03
         390 -9.2207611E-04
         391  1.0571893E-03
         392  7.1276730E-04
         393 -1.6259894E-03
         394  1.0275027E-03
         395 -7.5700833E-04
         396  7.7007199E-04
         397 -3.3215125E-05
         398 -6.2198499E-03
         399  4.7532036E-03
         400 -9.3214272E-04
         401 -1.9477081E-03
         402  2.6968743E-03
         403  1.0060498E-03
         404 -1.2097489E-03
         405  3.7036086E-03
         406 -1.6272839E-03
         407 -5.7628972E-04
         408 -1.1522643E-04
         409  3.7791592E-04
         410 -1.8886965E-02
         411  2.1974414E-03
         412  4.1764835E-03
         413 -1.2126123E-03
         414  1.5664540E-03
         415  1.2175272E-02
         416 -2.0204054E-03
         417 -2.9810728E-03
         418 -3.3468782E-04
         419  1.3060648E-03
         420  5.5837664E-03
         421  4.0065555E-04
         422 -7.5021829E-04
         423 -1.6432060E-02
         424  6.9195298E-03
         425  5.6892638E-03
         426  5.9018480E-03
         427  4.6971459E-03
         428  1.7171446E-02
         429 -9.0993783E-03
         430  1.2107673E-03
         431 -2.6187662E-03
         432 -6.9419462E-03
         433 -3.9009110E-03
         434  2.1322677E-03
         435 -1.9625039E-03
         436 -5.0937738E-06
         437  1.8502617E-03
         438  5.3176039E-04
         439 -3.9967899E-03
         440  1.7106362E-02
         441 -8.8826325E-03
         442  1.7722404E-03
         443 -6.0389237E-04
         444 -1.5992576E-03
         445 -4.7721881E-03
         446  3.4842716E-04
         447  6.2946519E-03
         448 -2.9902225E-03
         449  5.6260386E-03
         450 -6.6586188E-03
         451 -4.6396162E-03
         452 -5.1955478E-03
         453  5.0161657E-04
         454 -2.0002997E-04
         455  8.7622283E-03
         456 -7.0329529E-04
         457  1.0369659E-03
         458  2.7647177E-03
         459 -4.8159063E-03
         460  1.3865130E-03
         461 -6.2642228E-03
         462  2.0063270E-03
         463  7.3091579E-03
         464  4.7901517E-04
         465 -8.9202367E-02
         466 -1.3423556E-02
         467 -3.0319553E-02
         468  7.6817111E-03
         469 -2.4850706E-03
         470 -4.8531066E-03
         471 -2.2857268E-03
         472  7.7453791E-04
         473  1.5370059E-03
         474  7.1324008E-05
         475  9.6904293E-02
         476  3.6123979E-03
         477  1.8279947E-02
         478  2.4243477E-03
         479  1.6413650E-03
         480 -8.7476261E-02
         481 -4.6332744E-03
         482 -1.8473173E-02
         483 -1.0506367E-02
         484  5.0879247E-03
         485  8.0437064E-03
         486  1.3629414E-02
         487 -3.5679169E-04
         488  1.6404479E-03
         489 -1.0984686E-03
         490 -1.4235742E-02
         491 -1.0266250E-03
         492 -5.2017276E-03
         493  3.8948439E-03
         494  2.7641251E-03
         495  1.6422377E-03
         496 -1.5825501E-02
         497  1.5478550E-02
 Sym= Hole
 Ene= -0.1215217    
 Spin= Alpha
 Occup= 0
           1 -5.1517203E-03
           2 -5.3005773E-03
           3 -4.2598877E-02
           4 -2.0865571E-02
           5 -2.3138848E-04
           6 -7.0170248E-03
           7 -5.6531327E-03
           8 -7.1795010E-03
           9  4.0116417E-03
          10  6.2275836E-03
          11  8.7049082E-02
          12  8.9353479E-02
          13 -1.5618558E-03
          14 -4.6067485E-03
          15 -3.0384578E-03
          16  2.2395125E-03
          17 -5.3984378E-03
          18 -4.9072783E-03
          19 -1.9524936E-02
          20 -1.0694516E-02
          21  5.9526053E-04
          22 -1.6196343E-03
          23 -1.2670817E-04
          24  1.5307765E-03
          25  6.5220380E-04
          26 -2.2967854E-03
          27 -0.1015444    
          28 -0.1166631    
          29 -6.8238669E-04
          30 -7.0340041E-04
          31 -2.4759739E-03
          32 -1.1615388E-03
          33 -5.1480285E-03
          34 -7.9597579E-03
          35 -9.1596417E-02
          36 -9.4716251E-02
          37  1.6578693E-04
          38  7.6793294E-06
          39 -2.7274096E-03
          40 -1.3202626E-05
          41  5.3002760E-03
          42  1.4449693E-03
          43  2.8929966E-02
          44  1.4937043E-02
          45  1.8418860E-04
          46  2.7567830E-03
          47  1.1986437E-03
          48  1.2764266E-03
          49 -2.2182507E-02
          50 -3.4437206E-02
          51  8.2565077E-02
          52  0.1486066    
          53  1.0437758E-02
          54  6.7981379E-03
          55 -2.9762981E-03
          56  3.0203064E-03
          57  2.4239266E-02
          58  4.5722205E-02
          59 -1.3201187E-02
          60 -4.8757337E-02
          61 -7.0646717E-03
          62 -6.1788540E-03
          63 -2.9024715E-04
          64  1.4304817E-03
          65  2.5599884E-02
          66 -6.1702438E-02
          67  2.7946783E-02
          68 -1.9428570E-02
          69 -7.0509613E-03
          70 -5.1343646E-03
          71  6.8798885E-03
          72  3.1111995E-04
          73 -1.1189534E-02
          74  1.4551866E-02
          75  4.6525281E-03
          76  1.5946191E-02
          77  9.1174580E-03
          78 -1.2856161E-03
          79 -3.3729584E-03
          80 -3.2827049E-03
          81 -1.0742551E-02
          82 -3.9522830E-02
          83 -9.5021687E-03
          84  8.9142555E-03
          85  6.3115843E-03
          86  1.0760918E-03
          87 -5.4684803E-03
          88 -2.8667112E-03
          89  3.3019844E-02
          90  1.6255684E-02
          91 -6.5852096E-03
          92 -7.4278593E-02
          93 -8.0113402E-03
          94 -1.1788402E-03
          95 -8.1304816E-04
          96  4.9486924E-03
          97  6.9452254E-03
          98 -8.9270426E-03
          99  8.7963127E-02
         100  9.3636684E-02
         101  5.8103330E-04
         102 -1.3799799E-03
         103  5.7695596E-03
         104 -1.9682916E-03
         105 -1.1150668E-03
         106 -2.8181678E-04
         107  7.5446248E-02
         108  9.6951105E-02
         109  1.8735107E-03
         110  9.6027023E-04
         111  3.1791602E-03
         112  4.6908960E-04
         113  4.6356421E-04
         114 -2.0257027E-03
         115 -1.1924746E-02
         116 -1.5418472E-02
         117  2.1550406E-04
         118  2.2815408E-04
         119 -6.3068146E-05
         120  2.6852143E-04
         121 -9.2376933E-05
         122  1.3340767E-03
         123 -8.8019885E-02
         124 -0.1057360    
         125 -3.0211665E-04
         126  7.0341863E-04
         127 -1.5810132E-03
         128 -1.6154237E-03
         129  1.2911048E-03
         130 -3.4457948E-03
         131 -6.5240815E-02
         132 -7.9437479E-02
         133 -1.2668695E-04
         134  9.0420581E-05
         135 -1.3713947E-03
         136 -1.3629055E-03
         137 -3.6896453E-03
         138  7.1238335E-03
         139  2.1544060E-02
         140  2.6057780E-02
         141  4.4102226E-03
         142 -4.5612343E-03
         143  2.1866930E-03
         144 -7.9310499E-05
         145 -1.9799233E-04
         146  1.6483659E-03
         147  1.7653133E-03
         148 -1.2467382E-03
         149  2.7281072E-03
         150 -2.4697590E-03
         151  3.8807327E-04
         152  1.7766008E-03
         153 -1.3786121E-02
         154 -0.1263903    
         155  2.6545987E-02
         156  4.2880390E-02
         157  7.2404570E-03
         158 -3.8228477E-03
         159 -2.9302987E-03
         160 -2.3942266E-03
         161  1.3284292E-03
         162 -0.1844237    
         163  9.2858840E-03
         164  2.9367108E-02
         165  9.4805022E-05
         166 -6.0934923E-03
         167  2.2369877E-03
         168  2.5560164E-03
         169 -1.9454758E-03
         170 -5.1191494E-02
         171  4.3876055E-03
         172  1.2872498E-02
         173 -7.9778495E-04
         174 -1.7217522E-03
         175  4.5668948E-04
         176  2.3159573E-03
         177 -3.5723290E-04
         178  0.1309807    
         179 -3.9578862E-03
         180 -2.9690051E-02
         181 -8.6107530E-04
         182  3.7483459E-03
         183  1.4151115E-04
         184  5.2823551E-04
         185 -2.0426505E-03
         186  0.1730356    
         187 -3.8761087E-03
         188 -3.6135923E-02
         189 -5.9693836E-04
         190  4.4953041E-03
         191  1.3616685E-03
         192 -1.6696970E-03
         193 -1.6401820E-04
         194  3.5185896E-02
         195 -2.0964895E-03
         196 -9.6496521E-03
         197  1.8679968E-03
         198  5.1152258E-04
         199 -9.1229519E-04
         200 -1.4326003E-03
         201  1.2039305E-05
         202 -4.8809834E-03
         203  3.2502098E-03
         204  7.3145078E-03
         205  1.0696759E-03
         206 -2.0742349E-03
         207  2.4871337E-05
         208 -5.0783757E-04
         209  3.6901878E-03
         210 -1.8384594E-02
         211 -1.6841062E-03
         212 -3.6229191E-03
         213 -1.1419882E-03
         214 -1.1624483E-02
         215 -6.7860109E-04
         216  1.4359620E-03
         217  8.0208568E-04
         218  2.9565175E-03
         219 -2.8055934E-03
         220 -2.9519200E-04
         221 -1.1341872E-03
         222  3.7449002E-03
         223 -2.7182288E-03
         224  2.2162686E-04
         225 -1.3941054E-03
         226  2.9827867E-02
         227  1.0037699E-04
         228  4.5459272E-04
         229  1.3413940E-03
         230  1.0484595E-02
         231 -9.5345604E-04
         232 -9.2405659E-05
         233 -4.0756565E-04
         234  3.0529816E-02
         235  2.4198109E-04
         236  7.9896918E-06
         237  1.6146916E-03
         238  3.7698590E-03
         239 -5.8371318E-04
         240  7.9227478E-04
         241  3.2968135E-04
         242 -1.7646750E-02
         243 -6.8627088E-04
         244 -7.0235314E-04
         245  1.1043476E-03
         246 -1.3252676E-03
         247 -1.3064122E-03
         248 -8.3331001E-04
         249 -5.5007997E-04
         250 -4.6835843E-02
         251  2.5472655E-05
         252  1.0442961E-03
         253  8.3578395E-04
         254 -8.8210814E-03
         255 -6.5438316E-04
         256 -1.7162799E-03
         257 -1.8058226E-02
         258 -0.4183631    
         259  1.8336417E-02
         260 -7.0257790E-02
         261  8.3276220E-03
         262 -9.5261373E-03
         263  3.5824708E-04
         264 -6.0536372E-03
         265  1.8067093E-04
         266 -0.3308352    
         267 -1.0193543E-02
         268 -8.8751391E-02
         269 -8.5481566E-05
         270 -1.0772356E-02
         271  3.4090213E-03
         272 -2.3257399E-03
         273 -1.6991959E-03
         274  7.8938462E-02
         275  8.7715881E-03
         276  2.1450484E-02
         277 -9.8617945E-04
         278 -1.2412665E-03
         279  2.7995151E-03
         280  1.3088922E-03
         281 -1.9612093E-03
         282  0.4112651    
         283  2.0797074E-02
         284  8.5782871E-02
         285 -7.9948967E-04
         286  9.4447508E-03
         287  2.3630681E-03
         288  2.0165669E-03
         289 -3.3244784E-03
         290  0.3170751    
         291  2.4272161E-02
         292  7.3139437E-02
         293 -2.2817719E-04
         294  7.7950950E-03
         295  3.1414295E-03
         296  1.0554050E-03
         297  1.6203027E-03
         298 -8.6466059E-02
         299 -1.1720019E-02
         300 -1.9773100E-02
         301 -5.0197956E-05
         302 -1.8890733E-03
         303  2.6412675E-04
         304 -2.4104021E-03
         305  1.9437163E-03
         306  1.9894641E-02
         307  1.5961505E-03
         308  1.2095541E-02
         309 -5.7904929E-04
         310  1.7742695E-03
         311  4.0425578E-04
         312 -5.6000013E-04
         313  2.3425138E-02
         314 -4.0089581E-03
         315  3.2609724E-03
         316 -3.9865999E-03
         317 -2.3694593E-03
         318  2.5518656E-02
         319 -3.3463198E-03
         320  9.0733095E-04
         321 -9.3307433E-04
         322  1.2981065E-04
         323 -5.3662304E-02
         324 -1.4567497E-03
         325 -6.6560558E-03
         326  3.1501430E-03
         327 -2.1735129E-03
         328  2.2423419E-03
         329 -1.8502200E-03
         330 -4.8900128E-04
         331  2.3370031E-03
         332  2.5478508E-03
         333 -2.0717410E-03
         334 -3.3435618E-04
         335  1.7268349E-04
         336  2.9894647E-03
         337  4.2880317E-03
         338  5.6965430E-03
         339 -1.8092501E-03
         340  1.0589238E-03
         341  1.4634085E-03
         342  3.6912174E-03
         343  6.2196716E-03
         344 -5.4591260E-04
         345  4.8905928E-03
         346 -9.6794960E-05
         347 -1.7338682E-03
         348 -3.4730978E-02
         349  3.9122929E-03
         350 -7.3965057E-03
         351  7.5465492E-03
         352  7.3841674E-04
         353  2.7601430E-03
         354  4.4642648E-04
         355 -3.0719597E-04
         356  3.0581916E-03
         357 -1.0326156E-02
         358  7.9882443E-03
         359  1.8253999E-03
         360  1.5634001E-03
         361 -3.2319361E-04
         362 -8.2760898E-04
         363  5.8265454E-03
         364 -3.7096944E-04
         365 -2.1638388E-03
         366 -1.8828931E-03
         367  3.1243463E-03
         368 -3.3790129E-03
         369  1.0727283E-03
         370  1.8049520E-03
         371 -8.9901948E-04
         372 -2.7261390E-03
         373 -6.0208532E-04
         374  2.5039742E-04
         375  7.5441065E-05
         376 -1.4866545E-04
         377 -9.3650990E-05
         378  1.3922699E-03
         379 -9.8630619E-05
         380 -2.1966142E-04
         381  2.0019813E-03
         382  1.8962044E-03
         383 -3.1630779E-03
         384 -4.3883796E-05
         385  5.1227899E-04
         386  2.0787660E-03
         387  2.4392325E-03
         388 -8.8717528E-03
         389  6.4328109E-04
         390  6.4465858E-05
         391 -1.3618328E-03
         392  2.5563728E-04
         393  2.8118214E-03
         394  4.1680978E-04
         395  1.6542678E-03
         396  9.0871600E-04
         397 -1.4565693E-03
         398  6.8341373E-03
         399  3.1121729E-03
         400 -5.6417342E-03
         401 -1.7538558E-03
         402  1.8808079E-03
         403 -7.8129245E-04
         404 -1.5499706E-03
         405  4.8365486E-03
         406  3.8867464E-04
         407  4.5484939E-04
         408  3.8174945E-03
         409 -2.1630654E-03
         410  2.1155770E-03
         411 -6.2851037E-04
         412  4.8965716E-04
         413 -3.3940072E-04
         414 -1.2940948E-03
         415 -2.1674254E-03
         416  3.7365835E-04
         417  7.4676366E-04
         418  9.0156158E-04
         419 -1.5641722E-03
         420 -5.0943233E-03
         421  1.1120789E-03
         422 -1.1308642E-04
         423  6.9732512E-03
         424 -3.9584829E-05
         425  1.9888026E-03
         426 -1.1311352E-03
         427  1.0115471E-03
         428 -1.3666647E-02
         429  1.2057356E-03
         430  1.9447960E-05
         431 -2.1025226E-03
         432  1.2039987E-04
         433  2.5903133E-03
         434 -1.8265266E-03
         435 -8.9154311E-04
         436  1.2006278E-03
         437 -8.1152347E-04
         438  4.3789591E-04
         439 -7.7492080E-04
         440  7.0542149E-04
         441  2.3680963E-03
         442  1.1748293E-03
         443 -2.0718247E-04
         444  3.6972616E-04
         445  1.5916278E-03
         446  8.6219091E-04
         447  1.5450696E-05
         448  5.4426596E-04
         449  7.3906267E-04
         450 -7.0751784E-04
         451  4.6028636E-04
         452 -3.7771711E-04
         453 -5.4143171E-04
         454  6.5095990E-04
         455  1.2839923E-03
         456  5.6727312E-04
         457 -4.0896062E-04
         458 -3.8872735E-04
         459  1.4459343E-03
         460 -2.1555363E-03
         461 -5.5167620E-04
         462 -3.7378678E-04
         463  3.7633366E-04
         464 -2.4313757E-03
         465  1.2690937E-02
         466  1.4490231E-03
         467  7.4161272E-03
         468  8.2130628E-03
         469 -1.5525273E-03
         470 -2.9571638E-03
         471 -1.1862157E-04
         472  1.9696094E-04
         473 -2.8547635E-03
         474 -6.9102750E-04
         475 -1.1955759E-02
         476  2.6967307E-04
         477 -2.4030372E-03
         478  5.0807777E-03
         479 -1.8144998E-04
         480 -1.0956249E-02
         481 -1.3506987E-04
         482 -3.3317553E-03
         483 -3.1488463E-02
         484  1.4455119E-03
         485  1.4012009E-03
         486  5.8926518E-05
         487 -1.8380370E-05
         488  4.7338661E-03
         489 -9.6684386E-04
         490  1.5571278E-03
         491 -1.0684344E-04
         492 -1.1952216E-04
         493  2.1725319E-02
         494 -6.5010868E-04
         495 -1.1364697E-03
         496 -1.0346198E-03
         497  2.1799502E-03
 Sym= Particle
 Ene= -0.1215217    
 Spin= Alpha
 Occup= 2
           1 -6.3056801E-03
           2 -3.6676542E-03
           3 -1.0210588E-02
           4 -3.0457731E-03
           5  1.1652919E-02
           6  2.9691679E-03
           7 -3.1615663E-03
           8  2.9322568E-03
           9  8.6778961E-04
          10  3.3225610E-03
          11 -7.6946542E-02
          12 -8.4947579E-02
          13  1.0201667E-02
          14  5.4971739E-03
          15  3.4726422E-02
          16  3.2887146E-02
          17 -3.3782511E-03
          18 -1.2365858E-03
          19  0.1056895    
          20  0.1237016    
          21  6.1626006E-03
          22  1.5055655E-03
          23 -3.2830320E-02
          24 -3.9391275E-02
          25 -1.5605638E-03
          26 -1.3088383E-04
          27 -3.8973529E-02
          28 -4.4027817E-02
          29  2.5968158E-03
          30  1.6059408E-04
          31  9.3787182E-03
          32  1.2815638E-02
          33 -2.1429115E-03
          34 -3.9030227E-03
          35 -6.6809252E-02
          36 -7.4607857E-02
          37  2.2352957E-03
          38  2.8254532E-03
          39  1.7694352E-02
          40  2.0929838E-02
          41  1.3151633E-03
          42  2.5448042E-03
          43  0.1041765    
          44  0.1160172    
          45  1.5361237E-03
          46  6.3597976E-04
          47 -3.2163516E-02
          48 -3.7335191E-02
          49 -1.3107957E-02
          50 -1.0692956E-02
          51 -5.3880729E-02
          52 -4.2462345E-02
          53  1.6553611E-02
          54  3.0249676E-03
          55  2.9477946E-02
          56  1.7861903E-02
          57 -5.1172487E-03
          58 -8.9523168E-03
          59 -1.7850786E-03
          60  5.5057835E-03
          61  6.6074245E-03
          62 -1.0569718E-02
          63  9.5452415E-04
          64 -6.0027400E-03
          65  1.6926955E-02
          66 -2.3514025E-02
          67  9.1200806E-03
          68 -7.1510286E-03
          69 -1.7929994E-02
          70  1.4443049E-02
          71 -1.2551913E-02
          72 -2.4056770E-03
          73  2.0200990E-03
          74  4.2925416E-03
          75  1.5620433E-03
          76 -1.4043391E-03
          77 -4.6889470E-03
          78  6.4801844E-03
          79  1.9513081E-04
          80  6.6891742E-05
          81 -1.1419158E-02
          82 -1.8090174E-02
          83 -6.2176152E-03
          84  1.2577854E-02
          85  1.1271939E-02
          86  7.1302266E-03
          87  8.4629748E-03
          88 -2.6270396E-03
          89 -2.5600183E-03
          90 -8.1732264E-03
          91 -6.9275885E-03
          92  4.7301603E-03
          93 -5.5763021E-04
          94 -3.9720708E-03
          95 -2.1477838E-03
          96 -2.6888689E-03
          97  6.6175046E-03
          98 -8.0513135E-03
          99 -2.8903872E-02
         100 -4.7913637E-02
         101 -7.1048471E-03
         102  1.3170616E-03
         103  3.3948657E-03
         104  1.4819943E-02
         105 -3.5732592E-04
         106  3.1196623E-04
         107 -6.3508801E-02
         108 -7.5804770E-02
         109 -3.9471794E-04
         110 -8.5956248E-04
         111  2.1006593E-02
         112  2.3785220E-02
         113  1.4656575E-03
         114 -2.5272698E-03
         115  0.1005506    
         116  0.1207473    
         117 -7.7497057E-04
         118  2.3801473E-04
         119 -2.8107194E-02
         120 -3.5177290E-02
         121  2.8248297E-04
         122  7.4806681E-04
         123 -3.4978747E-02
         124 -4.2011783E-02
         125 -5.1745476E-04
         126 -1.0214871E-03
         127  1.0835461E-02
         128  1.2704383E-02
         129  1.7075732E-03
         130 -1.6937832E-03
         131 -6.6013202E-02
         132 -8.0546603E-02
         133 -2.0088381E-03
         134  1.1009189E-04
         135  2.0705830E-02
         136  2.4804046E-02
         137 -1.9071998E-04
         138  2.4814524E-03
         139  0.1089692    
         140  0.1270485    
         141 -3.7787454E-03
         142  6.0556445E-04
         143 -4.0251151E-02
         144 -4.2387970E-02
         145  2.9652156E-03
         146 -2.6756104E-03
         147  1.1269237E-02
         148  6.8356954E-03
         149 -5.8004474E-03
         150  3.0236542E-03
         151  1.5624783E-03
         152  1.9433810E-03
         153  6.3582351E-03
         154 -0.1373401    
         155 -4.2413971E-03
         156  2.4687424E-02
         157 -6.3460008E-03
         158  4.6662454E-02
         159  2.1990265E-03
         160 -8.4162187E-03
         161  2.7433720E-03
         162 -4.1690186E-02
         163 -3.6336579E-03
         164  1.3189384E-02
         165 -3.6673485E-03
         166  1.7838305E-02
         167  2.5509363E-03
         168 -6.2594539E-03
         169  7.8618230E-04
         170  0.1779988    
         171 -6.0769320E-03
         172 -3.6985956E-02
         173 -1.6235145E-03
         174 -5.1607672E-02
         175 -2.4820879E-04
         176  9.5766289E-03
         177  8.1097358E-04
         178 -0.1286243    
         179  4.8806509E-03
         180  2.8572457E-02
         181 -2.3253472E-03
         182  3.9017096E-02
         183 -1.9310982E-03
         184 -9.0977466E-03
         185  2.0037626E-03
         186 -4.8639074E-02
         187  1.0426505E-03
         188  9.6128006E-03
         189 -3.4501497E-03
         190  1.3865264E-02
         191 -1.0612642E-03
         192 -4.7191530E-03
         193  2.6789763E-05
         194  0.1852005    
         195 -6.3836132E-03
         196 -4.2125598E-02
         197 -2.2898978E-03
         198 -6.3168414E-02
         199  1.7570507E-03
         200  1.3248320E-02
         201  5.1745173E-04
         202  1.0896792E-02
         203 -8.5906149E-04
         204 -5.0918176E-03
         205 -1.3657470E-03
         206  4.7351997E-03
         207  1.0387077E-03
         208  1.3179334E-06
         209 -7.2172371E-04
         210 -1.3367834E-03
         211  4.2110943E-04
         212  2.4763073E-03
         213  5.6989532E-04
         214  6.4444500E-03
         215  3.1312210E-03
         216 -8.4807044E-03
         217  1.0035220E-03
         218 -1.6705560E-02
         219  2.2524747E-04
         220  2.9768387E-04
         221 -1.2229449E-03
         222 -8.1758071E-03
         223 -5.7435618E-03
         224 -6.8876673E-03
         225  1.1803049E-03
         226  1.5826728E-02
         227  2.2246034E-03
         228 -1.7685370E-03
         229 -2.9090149E-03
         230  9.3414569E-03
         231 -3.7661246E-03
         232  2.2742646E-03
         233 -3.5745787E-04
         234 -4.7110165E-03
         235  1.7615430E-05
         236 -7.3384792E-05
         237  3.9818794E-03
         238 -3.6216741E-03
         239 -2.1203980E-03
         240 -3.5395590E-04
         241  4.1960547E-04
         242 -5.5239457E-03
         243 -7.5033051E-04
         244 -2.2064350E-04
         245  2.6195366E-03
         246 -1.1817931E-02
         247  2.4259991E-03
         248 -1.7445601E-03
         249  1.1375339E-03
         250  7.1640131E-03
         251 -1.8742810E-03
         252 -6.7297101E-04
         253 -2.9031395E-03
         254  8.8840015E-03
         255  2.4259561E-03
         256  3.7969722E-04
         257  6.3277949E-03
         258 -0.1401142    
         259 -1.5668081E-02
         260 -3.3732943E-02
         261 -5.8258921E-03
         262  5.2573308E-02
         263  9.9185184E-03
         264  1.2019316E-02
         265 -3.6435244E-03
         266 -0.3059368    
         267 -1.0260528E-02
         268 -6.6725031E-02
         269  1.8531618E-03
         270  0.1056034    
         271  4.7790888E-03
         272  2.3464663E-02
         273  9.9518977E-04
         274  0.4438287    
         275  1.8407742E-02
         276  9.3214050E-02
         277  4.5508004E-04
         278 -0.1278231    
         279 -4.0708268E-03
         280 -2.7599722E-02
         281 -1.2052121E-03
         282 -0.1289245    
         283 -6.1524096E-03
         284 -2.7765581E-02
         285  3.7167810E-03
         286  4.1835245E-02
         287  3.3562146E-03
         288  7.0157875E-03
         289 -4.0636482E-04
         290 -0.3117442    
         291 -1.5618438E-02
         292 -6.8406411E-02
         293  4.6142992E-03
         294  9.6567631E-02
         295  6.2766052E-03
         296  2.2210179E-02
         297 -1.0768721E-03
         298  0.4580165    
         299  2.2978865E-02
         300  9.9753708E-02
         301  3.0281106E-03
         302 -0.1527185    
         303 -6.8312408E-03
         304 -3.1264357E-02
         305 -2.3356248E-03
         306  3.1706486E-02
         307  4.1891048E-03
         308  7.1966765E-03
         309  4.1501368E-03
         310  1.1186386E-02
         311 -5.9043115E-04
         312  2.6001926E-03
         313 -1.5786828E-02
         314  1.2583644E-02
         315  3.9858073E-03
         316 -1.1084412E-02
         317 -4.3821037E-03
         318 -6.2296796E-03
         319  3.8541022E-03
         320  6.8827131E-04
         321  2.2583855E-03
         322  9.1072907E-05
         323  2.5069406E-02
         324 -8.4886914E-03
         325 -1.9843387E-03
         326  3.4024632E-03
         327  1.5098211E-02
         328  1.6704010E-04
         329 -7.4235874E-04
         330 -2.5508276E-03
         331  2.6257675E-02
         332  2.8042393E-02
         333 -7.2261645E-04
         334 -1.2194078E-03
         335 -1.6850547E-03
         336 -1.3128403E-02
         337 -1.1342475E-02
         338  1.0457768E-05
         339 -6.1220716E-04
         340  6.8030306E-05
         341 -1.7585775E-02
         342 -1.8543720E-02
         343  1.7363527E-03
         344 -2.3140288E-03
         345  2.1278190E-03
         346  2.2592666E-02
         347  2.8236136E-02
         348 -1.1199410E-02
         349  9.7434357E-04
         350  1.6291060E-03
         351  6.9738822E-03
         352 -1.6044511E-03
         353 -5.2140732E-03
         354 -7.4027749E-03
         355  6.4471732E-03
         356 -2.2986956E-02
         357 -4.2660572E-03
         358  8.1772814E-03
         359  2.0833937E-03
         360  3.2867696E-03
         361 -6.8297130E-03
         362 -8.1700878E-04
         363  3.8091266E-03
         364  2.1088652E-03
         365 -4.7541121E-03
         366  9.6303727E-03
         367  7.7115599E-04
         368 -1.3779470E-03
         369  2.2577720E-03
         370  9.5462706E-04
         371 -1.2386302E-02
         372 -1.8681057E-02
         373 -7.9200324E-04
         374  7.3260459E-04
         375 -1.5809045E-04
         376  2.5620041E-02
         377  2.9477308E-02
         378  5.8618083E-04
         379  6.4278422E-05
         380 -7.2535034E-04
         381 -8.5720103E-03
         382 -1.0407022E-02
         383 -1.2357426E-03
         384  9.1626041E-04
         385 -1.5974352E-03
         386 -1.6147807E-02
         387 -2.0314375E-02
         388 -3.7599724E-02
         389  1.6453268E-02
         390  1.5466730E-03
         391 -1.3083779E-02
         392 -3.5042927E-04
         393  1.0874731E-02
         394 -6.1410428E-03
         395  3.4856112E-03
         396  2.4213600E-03
         397 -4.0309099E-04
         398  2.6361149E-02
         399 -1.6243612E-02
         400  1.3145608E-04
         401  6.9969492E-03
         402 -7.3130410E-03
         403 -4.8787957E-03
         404  2.1747013E-03
         405 -4.6631577E-03
         406  1.0861420E-02
         407  2.3830286E-04
         408 -2.8289997E-03
         409  2.2617187E-03
         410  4.0459674E-02
         411 -2.6026499E-03
         412 -1.0563527E-02
         413 -5.9771923E-05
         414 -7.9259981E-04
         415 -3.1437993E-02
         416  9.2379353E-04
         417  6.8841618E-03
         418 -9.7534060E-04
         419  4.6053802E-04
         420 -1.4352877E-02
         421 -1.8298225E-03
         422  1.7893120E-03
         423  3.5032909E-02
         424 -1.6516635E-02
         425 -3.9973794E-03
         426 -6.2156334E-03
         427 -1.0015281E-02
         428 -4.1465964E-02
         429  2.2017378E-02
         430 -4.5224102E-03
         431  5.8351024E-03
         432  1.6628236E-02
         433  7.1316767E-03
         434 -2.3875460E-03
         435  2.0271239E-03
         436  1.3698986E-03
         437 -3.4216573E-03
         438  6.7117030E-04
         439  6.8328419E-04
         440 -2.0836042E-02
         441 -6.8542063E-03
         442  3.5485078E-04
         443  1.7570334E-03
         444 -5.1793354E-03
         445  2.3706978E-02
         446  1.5852640E-03
         447  2.2159417E-03
         448 -1.2457761E-03
         449  3.4765827E-03
         450 -3.7135230E-03
         451 -2.6255473E-03
         452 -1.9386489E-03
         453 -1.5094202E-03
         454  2.6886552E-03
         455 -7.2839353E-03
         456  7.8391162E-04
         457 -3.6468846E-03
         458  2.2716152E-03
         459 -3.8927260E-03
         460  1.1452865E-02
         461 -1.4443247E-03
         462  1.6323040E-03
         463  3.7475729E-03
         464 -2.6462572E-03
         465 -5.6825962E-02
         466 -1.0092318E-02
         467 -5.9468271E-03
         468 -3.7522538E-04
         469 -2.4126710E-03
         470  0.1059655    
         471  5.4372000E-03
         472  2.3258584E-02
         473 -4.1611052E-05
         474  1.5728826E-03
         475 -3.1485215E-02
         476  1.1340355E-03
         477 -8.5710175E-03
         478 -9.4473298E-04
         479  2.9233950E-03
         480 -7.6462291E-02
         481  6.6855073E-04
         482 -1.4728637E-02
         483  0.1031708    
         484 -5.0343532E-02
         485 -1.2137263E-02
         486 -1.3417377E-02
         487 -4.9261715E-02
         488 -1.6730832E-02
         489  8.8086594E-03
         490 -1.6005060E-03
         491 -3.9249449E-03
         492  4.3656821E-03
         493 -8.5083961E-02
         494  4.2548317E-02
         495 -1.4021063E-02
         496  1.7084014E-02
         497  3.1132383E-02
 Sym= Hole
 Ene= -0.1165911    
 Spin= Alpha
 Occup= 0
           1 -2.1381448E-03
           2 -2.1107921E-03
           3 -2.1039566E-02
           4 -1.1377275E-02
           5  6.9825264E-04
           6 -2.2372615E-03
           7 -3.0433228E-03
           8 -3.5865114E-03
           9  5.0637987E-06
          10 -4.6293699E-04
          11  7.2476856E-02
          12  7.5564079E-02
          13  8.6699513E-04
          14 -7.9790154E-04
          15 -4.6181265E-04
          16  1.3055506E-03
          17 -1.6301107E-03
          18 -2.0189281E-03
          19  7.8927847E-03
          20  1.2439498E-02
          21  4.9536343E-04
          22 -8.6051953E-04
          23  4.4166099E-04
          24  1.3739250E-03
          25  1.3679438E-04
          26 -1.0380978E-03
          27 -6.1863765E-02
          28 -7.1090899E-02
          29 -5.9207530E-05
          30  9.6889940E-05
          31 -1.4652726E-03
          32 -5.6503125E-04
          33 -1.8103253E-03
          34 -3.8080963E-03
          35 -7.0428245E-02
          36 -7.6977618E-02
          37  5.2763516E-04
          38  2.9965362E-04
          39 -1.4467547E-03
          40 -9.1172312E-04
          41  2.6750928E-03
          42 -2.7881376E-04
          43  1.6254309E-03
          44 -7.0663202E-03
          45  3.3245757E-04
          46  1.3663868E-03
          47  9.7365974E-04
          48 -1.3242126E-04
          49 -7.1645477E-03
          50 -1.0887313E-02
          51  5.5938881E-02
          52  8.4626757E-02
          53  4.3914602E-03
          54  4.0693926E-03
          55 -9.0054498E-04
          56  1.4501433E-03
          57  1.5318290E-02
          58  1.1594101E-02
          59 -4.3557188E-03
          60 -3.6788460E-02
          61 -6.3939802E-03
          62 -3.0613462E-03
          63 -8.8081049E-04
          64  1.6169937E-03
          65  1.4357151E-02
          66 -1.0863590E-02
          67  1.2812589E-02
          68 -5.4664770E-03
          69 -3.3775805E-03
          70  3.8064092E-03
          71 -4.2374682E-05
          72 -1.3489804E-03
          73 -7.7362368E-03
          74  2.3173005E-03
          75  5.1424913E-03
          76  1.3563597E-02
          77 -9.7570634E-03
          78 -1.1531980E-02
          79  2.8386479E-04
          80  6.3084584E-04
          81  4.4987246E-02
          82  7.2235957E-02
          83  3.5492416E-02
          84 -4.0996227E-02
          85 -2.5094796E-02
          86 -3.9125928E-03
          87  4.1623190E-03
          88  1.0531791E-02
          89 -8.0197729E-02
          90 -3.1568602E-02
          91  1.5456552E-02
          92  0.1716320    
          93  1.4787590E-02
          94  3.8652485E-03
          95 -8.0757547E-04
          96 -1.0053354E-02
          97 -1.4366515E-02
          98  2.0410545E-02
          99 -0.1926398    
         100 -0.2064900    
         101 -1.4865666E-03
         102  1.5410174E-03
         103 -1.1290477E-02
         104  5.3890948E-03
         105  3.3134499E-03
         106 -3.2419915E-04
         107 -0.1707831    
         108 -0.2179289    
         109 -4.4498821E-03
         110 -3.6608577E-03
         111 -6.2711975E-03
         112 -1.5072826E-03
         113 -1.4282431E-03
         114  3.8423445E-03
         115  2.0399434E-02
         116  2.8040281E-02
         117 -6.4418575E-04
         118 -1.1320808E-03
         119 -2.3303141E-05
         120 -8.8817650E-04
         121  5.4565811E-04
         122 -1.8515494E-03
         123  0.1921482    
         124  0.2312372    
         125  3.8885328E-04
         126 -1.2270248E-03
         127  3.2804757E-03
         128  3.2273380E-03
         129 -3.1429902E-03
         130  6.8261935E-03
         131  0.1460648    
         132  0.1783741    
         133 -1.6033418E-04
         134 -7.1413518E-04
         135  3.0352534E-03
         136  3.1358209E-03
         137  8.6592026E-03
         138 -1.6528036E-02
         139 -4.7263067E-02
         140 -5.5829324E-02
         141 -1.0412773E-02
         142  9.2296395E-03
         143 -4.3248576E-03
         144  1.4100859E-03
         145  3.3924007E-04
         146 -2.1129919E-03
         147 -1.3057223E-02
         148 -8.6945109E-03
         149 -6.7014573E-03
         150  6.0015437E-03
         151 -1.9778297E-03
         152 -4.3625836E-03
         153  2.9480226E-02
         154  0.3338168    
         155 -5.9505869E-02
         156 -0.1062851    
         157 -1.7046403E-02
         158  1.0931089E-02
         159  4.3130880E-03
         160  6.6226474E-03
         161 -1.8259892E-04
         162  0.2101275    
         163 -1.6703837E-02
         164 -2.0636253E-02
         165 -7.4666250E-04
         166  6.8312678E-03
         167 -7.2315526E-03
         168 -4.4784895E-03
         169  3.6485223E-03
         170 -0.1403600    
         171  1.1053104E-04
         172  2.4354290E-02
         173  2.3227166E-03
         174 -2.8272578E-03
         175 -4.2522941E-03
         176 -4.2648492E-03
         177  1.6238963E-03
         178 -0.3363550    
         179  9.9151507E-03
         180  7.7148139E-02
         181  2.9543107E-03
         182 -7.2863474E-03
         183 -3.2265130E-03
         184 -5.4607505E-04
         185  3.4629204E-03
         186 -0.1741092    
         187  5.2108226E-04
         188  3.3564955E-02
         189  2.4579596E-03
         190 -3.1787402E-03
         191 -5.8222418E-03
         192  1.2779024E-03
         193  2.0446300E-03
         194  0.1642508    
         195 -6.4882566E-03
         196 -3.4341075E-02
         197 -4.8106671E-03
         198  4.5512659E-03
         199 -1.8284138E-04
         200  1.0209111E-03
         201  1.7687407E-03
         202 -4.1122463E-02
         203 -8.0221342E-03
         204 -2.6483692E-03
         205 -3.5017086E-03
         206 -2.4142612E-03
         207 -1.0641926E-03
         208  3.0439915E-03
         209  5.1663537E-03
         210  8.4864041E-03
         211 -1.6528491E-03
         212 -4.5370501E-03
         213 -7.0618489E-04
         214  6.6124420E-03
         215 -6.6412236E-03
         216 -1.4660845E-03
         217  3.7544197E-04
         218  7.0934165E-03
         219 -3.7032033E-03
         220  1.3373193E-03
         221  5.0332380E-04
         222  3.6205042E-03
         223 -7.6793856E-03
         224 -4.9814006E-04
         225 -1.9717510E-03
         226  3.7929902E-03
         227 -1.8023654E-03
         228  1.4522275E-03
         229  3.3091635E-03
         230 -1.7983797E-03
         231 -1.9035980E-03
         232  2.6119715E-06
         233 -3.8582881E-04
         234 -4.9599432E-03
         235 -1.2818747E-03
         236 -2.6942146E-04
         237  2.7340909E-03
         238 -2.7177378E-03
         239 -1.2037508E-03
         240  1.6872596E-03
         241 -1.5463332E-04
         242 -2.8833740E-03
         243  6.2613358E-04
         244  4.5228144E-04
         245  1.1598569E-03
         246 -1.9406002E-03
         247 -2.9988342E-03
         248 -9.7951537E-04
         249  1.7797735E-03
         250  5.9644096E-03
         251 -3.7286191E-03
         252  1.3832747E-03
         253 -2.8446998E-04
         254  1.8804601E-03
         255 -3.6000696E-03
         256 -4.8533515E-03
         257 -1.0226465E-02
         258 -0.1476350    
         259  1.3746893E-02
         260 -2.0948231E-02
         261  4.5421626E-03
         262 -3.1341205E-03
         263 -4.2975778E-04
         264 -2.9134455E-03
         265  1.1172472E-04
         266 -0.1731755    
         267 -5.4124398E-03
         268 -4.6569783E-02
         269 -4.6434364E-04
         270 -4.4844598E-03
         271  1.4347441E-03
         272 -3.7732854E-05
         273 -1.0574597E-03
         274 -3.1099858E-02
         275  7.8715303E-04
         276 -3.5567561E-03
         277 -1.9302529E-04
         278 -1.4546900E-03
         279  5.3201098E-04
         280  4.3466350E-04
         281 -1.1589228E-03
         282  0.1452135    
         283  7.7294293E-03
         284  2.9397089E-02
         285  1.1663484E-04
         286  4.0038712E-03
         287  5.2429707E-04
         288  2.0290232E-04
         289 -1.5578619E-03
         290  0.1727794    
         291  1.1618490E-02
         292  4.0033910E-02
         293  2.0512516E-04
         294  5.2903318E-03
         295  1.0907312E-03
         296  6.5695390E-04
         297  7.7454682E-04
         298  2.9388811E-02
         299 -1.7525813E-03
         300  7.2628073E-03
         301  5.5076242E-05
         302  5.5408227E-04
         303  7.7202549E-04
         304 -4.3681145E-04
         305  9.9134608E-04
         306 -2.2353118E-03
         307  8.2669512E-04
         308  2.6889101E-03
         309 -3.0268930E-04
         310 -7.0490752E-04
         311  2.9046589E-04
         312 -7.8268291E-04
         313  1.8303424E-02
         314 -1.9876845E-03
         315  2.8149716E-03
         316 -2.8443807E-03
         317 -4.3836737E-04
         318  1.4097870E-02
         319 -2.0756172E-03
         320  4.0741271E-04
         321 -1.0071569E-03
         322 -5.1557191E-04
         323 -3.4834992E-02
         324  1.5100568E-03
         325 -2.9655627E-03
         326  1.5674143E-03
         327 -2.5421923E-03
         328  7.5681973E-04
         329 -5.5270852E-05
         330 -2.8758976E-05
         331  6.1398500E-04
         332  5.3620938E-04
         333 -1.0442825E-03
         334 -5.0751773E-05
         335  2.3894885E-04
         336  1.6890937E-03
         337  2.1930903E-03
         338  2.3225348E-03
         339 -4.3925858E-04
         340  6.8817096E-04
         341  1.7186482E-03
         342  2.4598755E-03
         343  9.8984479E-04
         344  9.7164877E-05
         345  1.1069224E-03
         346  1.4495192E-03
         347 -9.3321467E-04
         348 -1.3232133E-02
         349  5.5010663E-03
         350  2.6025649E-03
         351  4.3590381E-03
         352 -2.9303932E-03
         353  2.5660719E-03
         354  2.0427098E-03
         355  1.5151166E-04
         356  1.7724202E-04
         357 -6.1497455E-03
         358 -1.2271953E-02
         359 -3.8707447E-03
         360 -6.9045569E-03
         361  4.9085543E-04
         362  5.0848555E-03
         363 -2.8359810E-02
         364  2.3705151E-03
         365  2.5914307E-03
         366  3.9861471E-04
         367 -1.1217407E-02
         368  8.0589540E-03
         369  7.2865485E-04
         370 -6.4716986E-03
         371  4.0363828E-03
         372  4.4273683E-03
         373  1.8446951E-03
         374  1.6625279E-04
         375 -3.5059842E-05
         376  5.9973495E-04
         377  8.9544425E-05
         378 -1.9700145E-03
         379  9.8015380E-04
         380 -1.1195440E-04
         381 -4.3680072E-03
         382 -4.3611382E-03
         383  6.0151746E-03
         384 -4.4317763E-05
         385 -1.2407710E-03
         386 -5.1234146E-03
         387 -5.4710633E-03
         388  7.4699828E-03
         389 -3.8395964E-03
         390 -9.4141753E-05
         391  2.1885734E-03
         392  1.9789285E-03
         393  4.9726234E-04
         394  1.0441768E-03
         395 -3.5727373E-03
         396 -9.2575693E-04
         397  4.0220213E-03
         398 -8.1894621E-03
         399 -4.9262578E-03
         400  1.2536588E-02
         401  4.9037603E-03
         402 -4.7751474E-03
         403  4.4820085E-03
         404  5.7922811E-03
         405 -6.9461125E-03
         406 -7.8912743E-04
         407 -3.3310244E-03
         408 -1.1471102E-02
         409  5.0892923E-03
         410  2.7366108E-03
         411 -1.8004344E-04
         412 -3.1086041E-03
         413  1.3125963E-03
         414  2.9669814E-03
         415  7.9584271E-03
         416 -1.7071812E-03
         417 -2.0209220E-03
         418 -2.0694784E-03
         419  4.1351235E-03
         420  5.8665341E-03
         421 -2.7866864E-03
         422  6.7307410E-04
         423  5.1688075E-02
         424 -3.4769736E-03
         425 -1.5454687E-03
         426  6.3458038E-03
         427 -1.7935341E-03
         428 -4.9630806E-02
         429  7.8941777E-04
         430 -2.5024493E-03
         431  4.6480773E-03
         432 -2.4005983E-03
         433  4.1298009E-03
         434  4.5889169E-03
         435 -4.6250375E-04
         436 -3.4009367E-03
         437  2.4822725E-03
         438 -1.0039910E-03
         439  1.4777422E-03
         440  3.9312816E-03
         441  1.2041673E-03
         442  9.7952224E-04
         443 -1.2779959E-03
         444  1.3100025E-03
         445  2.4259432E-04
         446  1.4522829E-03
         447 -3.8088506E-04
         448 -2.5291066E-04
         449  1.7644897E-03
         450  2.8982040E-04
         451  4.2342284E-04
         452 -1.3959535E-03
         453 -9.8072218E-05
         454  1.8039234E-03
         455  1.8443627E-04
         456  1.2675646E-03
         457 -6.8345189E-04
         458  2.6738585E-03
         459  3.5154435E-03
         460  1.8701974E-03
         461  8.7100081E-04
         462 -1.8231506E-03
         463  5.6458620E-04
         464 -6.2109582E-04
         465  8.2784267E-03
         466  4.2423624E-05
         467  3.6912034E-03
         468  5.1253461E-03
         469 -4.1415461E-04
         470  6.7655969E-04
         471 -3.7331093E-04
         472  1.6955641E-04
         473 -1.4200577E-03
         474 -2.9843926E-04
         475 -5.2951472E-03
         476 -1.3374582E-04
         477 -1.2956883E-03
         478  1.5660550E-03
         479 -1.2851968E-04
         480 -5.2701775E-03
         481 -3.3331435E-04
         482 -1.8871007E-03
         483  5.5694440E-03
         484 -4.1006145E-04
         485 -1.3282140E-04
         486 -4.6884574E-04
         487  1.0786959E-03
         488  3.2839371E-04
         489  4.2554067E-05
         490  4.3651133E-05
         491 -1.1834850E-04
         492  2.8241571E-04
         493 -6.8595861E-03
         494  2.1847973E-03
         495 -3.4666050E-04
         496 -1.3921957E-03
         497 -3.5952969E-05
 Sym= Particle
 Ene= -0.1165911    
 Spin= Alpha
 Occup= 2
           1 -3.0457815E-03
           2 -1.8364787E-03
           3 -6.5737464E-03
           4 -1.3545548E-03
           5  6.5092444E-03
           6  3.2156061E-03
           7  3.2861790E-05
           8  1.4784760E-03
           9  1.6590711E-03
          10  3.9675664E-03
          11 -4.0042229E-02
          12 -4.3318834E-02
          13  3.7209103E-03
          14  6.4404256E-04
          15  1.8193085E-02
          16  1.5129591E-02
          17 -2.0548718E-03
          18 -9.2763745E-04
          19  8.0975123E-02
          20  9.4314277E-02
          21  3.2446682E-03
          22  4.3656793E-04
          23 -2.4552885E-02
          24 -2.9586423E-02
          25 -1.1062854E-03
          26 -2.3732024E-04
          27 -4.6146799E-02
          28 -5.1849376E-02
          29  1.8992665E-03
          30 -3.3436918E-05
          31  1.3219696E-02
          32  1.5135892E-02
          33 -1.7348385E-03
          34 -2.9103507E-03
          35 -3.4544714E-02
          36 -3.8784143E-02
          37  1.7330358E-03
          38  1.1696352E-03
          39  8.5926857E-03
          40  1.0693587E-02
          41  2.0075170E-03
          42  1.1610455E-03
          43  8.1419788E-02
          44  8.8393092E-02
          45 -1.0507456E-04
          46 -3.1383074E-04
          47 -2.6179375E-02
          48 -2.8065396E-02
          49 -1.1173514E-02
          50 -1.0113709E-02
          51 -5.7909954E-02
          52 -4.9424615E-02
          53  1.0679754E-02
          54  2.0145951E-03
          55  2.4296742E-02
          56  1.6463192E-02
          57 -6.4794850E-03
          58 -1.2116123E-02
          59 -3.4248366E-03
          60  8.7428484E-03
          61  4.5691421E-03
          62 -4.7067204E-03
          63 -9.2395791E-04
          64 -4.6701576E-03
          65  1.4062827E-02
          66 -1.8319873E-02
          67  1.0153547E-02
          68 -1.3568118E-02
          69 -1.2992120E-02
          70  9.2352554E-03
          71 -1.0271348E-02
          72  1.7951656E-03
          73  1.1861656E-03
          74  1.1452952E-03
          75  2.6342638E-03
          76 -1.0487051E-03
          77 -4.0754131E-03
          78  3.9941487E-03
          79 -2.8689229E-04
          80  5.8635866E-04
          81 -1.6152145E-03
          82 -1.6025126E-04
          83 -4.2115836E-03
          84  1.2697626E-03
          85  1.9893244E-04
          86 -5.4815155E-03
          87  2.3499075E-03
          88 -4.5211511E-03
          89  8.6181844E-03
          90 -6.8563698E-03
          91  1.3660656E-02
          92 -1.6325094E-02
          93  3.9006856E-03
          94  9.0403268E-03
          95  3.0440195E-03
          96  6.4062746E-03
          97  2.8615785E-03
          98 -4.7701164E-03
          99  7.7814661E-02
         100  9.0122968E-02
         101  4.3601803E-03
         102  3.4483727E-03
         103 -1.7170668E-02
         104 -2.7389687E-02
         105 -4.2852806E-03
         106 -2.3190079E-03
         107  0.1363190    
         108  0.1752982    
         109  5.3503183E-03
         110  5.9771613E-04
         111 -4.2656407E-02
         112 -5.7016056E-02
         113 -1.2015268E-03
         114  2.2608615E-03
         115 -0.2190126    
         116 -0.2685120    
         117  1.6946298E-03
         118 -9.6467079E-04
         119  6.0583800E-02
         120  7.8341261E-02
         121 -7.0189236E-04
         122 -2.5494662E-03
         123  7.5375199E-02
         124  8.9938149E-02
         125  1.0969095E-03
         126  3.1167730E-03
         127 -2.4836350E-02
         128 -2.7606178E-02
         129 -2.0405131E-03
         130  1.7138820E-03
         131  0.1485650    
         132  0.1768279    
         133  4.7779735E-03
         134 -1.0540764E-03
         135 -4.5691375E-02
         136 -5.4589242E-02
         137 -1.4626100E-03
         138 -8.3030702E-04
         139 -0.2378988    
         140 -0.2815223    
         141  9.7494014E-03
         142 -4.4141482E-03
         143  8.4858187E-02
         144  9.7282656E-02
         145 -6.4098937E-03
         146  4.7735707E-03
         147 -1.7326614E-02
         148 -1.7952576E-02
         149  1.0701500E-02
         150 -4.6326916E-04
         151 -9.2741391E-03
         152 -5.0468491E-03
         153 -1.1217030E-02
         154  1.9257681E-02
         155  1.4671697E-02
         156  5.9841559E-03
         157  1.3662177E-02
         158 -1.1995187E-02
         159 -4.3328539E-03
         160 -1.7279481E-03
         161 -7.5781401E-03
         162  0.2836057    
         163  3.2623431E-03
         164 -7.2310112E-02
         165  1.1598071E-02
         166 -9.6144989E-02
         167 -4.1734511E-03
         168  2.7563008E-02
         169 -1.2152585E-03
         170 -0.3076042    
         171  1.0128160E-02
         172  6.2548049E-02
         173  4.8737223E-03
         174  8.8409111E-02
         175 -3.3509513E-04
         176 -1.4908859E-02
         177 -3.3922605E-03
         178  1.4002632E-02
         179 -1.3658102E-03
         180 -5.1280316E-03
         181  6.9903554E-03
         182 -5.2983467E-03
         183  2.3255493E-03
         184  1.7192819E-03
         185 -3.1606127E-03
         186  0.2910956    
         187 -1.0305812E-02
         188 -6.2227778E-02
         189  6.9487491E-03
         190 -8.9524969E-02
         191  5.5722115E-03
         192  1.9378804E-02
         193 -1.2738103E-03
         194 -0.3197745    
         195  1.2591065E-02
         196  7.2100304E-02
         197  6.9589978E-03
         198  0.1070689    
         199 -2.0338208E-03
         200 -2.4435138E-02
         201 -1.3541904E-03
         202 -1.9008420E-02
         203  3.9406484E-03
         204  9.3986969E-03
         205  4.5110430E-03
         206 -1.1013727E-02
         207 -1.2334801E-03
         208 -1.4173201E-03
         209  6.5196346E-04
         210  1.6345218E-02
         211 -2.8456391E-03
         212  1.2063305E-03
         213 -1.5754988E-03
         214 -2.5953928E-03
         215  1.0913783E-02
         216 -1.2426604E-02
         217  7.1906811E-04
         218  5.0889803E-03
         219  1.1811104E-03
         220  8.8713807E-04
         221 -1.3202636E-03
         222  3.0269960E-04
         223 -6.1127162E-03
         224 -1.3219859E-02
         225  1.1219814E-03
         226 -2.0363703E-02
         227  2.3977379E-03
         228 -1.7519878E-03
         229 -4.8600766E-03
         230  2.7602804E-03
         231 -5.9379633E-03
         232 -5.2547641E-04
         233 -9.0377132E-04
         234  1.4725470E-02
         235  4.1347416E-04
         236 -9.8049408E-04
         237  5.0291396E-03
         238 -2.3923094E-04
         239 -3.1670756E-03
         240  1.0203258E-03
         241  1.8930796E-04
         242  6.1436733E-03
         243 -8.4973610E-04
         244 -2.3074271E-03
         245  6.9385511E-03
         246 -5.4733554E-04
         247  4.4739260E-03
         248 -2.2078487E-03
         249 -1.6831622E-05
         250 -2.2741986E-02
         251 -1.5976430E-03
         252 -1.2474227E-03
         253 -1.0194659E-03
         254  7.5184781E-04
         255  6.7296042E-03
         256  1.7817608E-03
         257  6.9773663E-03
         258 -0.1257461    
         259 -1.5554590E-02
         260 -3.1657867E-02
         261 -7.6081059E-03
         262  4.3030396E-02
         263  9.2127575E-03
         264  9.7776009E-03
         265 -1.4801093E-03
         266 -6.9859490E-02
         267 -2.5512115E-03
         268 -1.4012966E-02
         269  7.0997507E-05
         270  2.7181342E-02
         271  3.2097192E-03
         272  5.6706066E-03
         273  5.4547319E-04
         274  0.1920850    
         275  7.4234293E-03
         276  3.9930616E-02
         277  3.7875891E-04
         278 -5.6565166E-02
         279 -1.3032003E-03
         280 -1.2233570E-02
         281 -3.7518344E-04
         282 -0.1197141    
         283 -6.3036871E-03
         284 -2.5654916E-02
         285  1.7420853E-03
         286  3.7336569E-02
         287  2.8306695E-03
         288  6.8745106E-03
         289  3.0753799E-04
         290 -7.1479611E-02
         291 -4.8704301E-03
         292 -1.6423315E-02
         293  1.6144506E-03
         294  2.2766244E-02
         295  2.1636735E-03
         296  4.8217578E-03
         297 -4.1386101E-04
         298  0.1991126    
         299  1.0284803E-02
         300  4.2893853E-02
         301 -5.9043861E-04
         302 -6.7735329E-02
         303 -2.3875306E-03
         304 -1.4134093E-02
         305 -5.7910645E-04
         306  1.5863432E-02
         307  4.4670430E-04
         308  2.8849407E-03
         309  3.4155470E-04
         310  4.2177648E-03
         311  9.8366349E-04
         312 -1.0169394E-04
         313 -8.7436633E-03
         314  8.8846227E-03
         315  3.3273443E-03
         316 -5.4504029E-03
         317 -6.6961707E-05
         318 -2.4857835E-03
         319  2.7768232E-03
         320  1.0569555E-03
         321  2.4466533E-03
         322  8.8604988E-04
         323  1.2557332E-02
         324 -2.9950698E-03
         325  1.3417937E-03
         326  1.2446684E-03
         327  5.2955579E-03
         328  8.4394880E-04
         329  6.8684993E-04
         330 -1.1638848E-03
         331  2.0359714E-02
         332  2.1623755E-02
         333 -1.0174223E-04
         334  1.9638939E-04
         335 -9.0899068E-04
         336 -1.2843111E-02
         337 -1.3345598E-02
         338  1.1055564E-03
         339  2.3543159E-04
         340  1.1709842E-04
         341 -9.5309755E-03
         342 -9.6907029E-03
         343  2.0825472E-03
         344 -1.1428014E-03
         345  9.7113289E-04
         346  1.7255131E-02
         347  2.1934280E-02
         348 -7.1229250E-03
         349  4.7219673E-04
         350 -1.7178446E-03
         351  4.8512816E-03
         352 -3.6039087E-03
         353 -3.6976864E-03
         354 -2.1109963E-03
         355 -2.4901105E-05
         356 -9.1238357E-03
         357  1.0882118E-03
         358 -3.1995268E-03
         359 -2.3980751E-03
         360 -1.1293712E-02
         361  5.9672059E-03
         362 -1.3701363E-03
         363  1.7842998E-03
         364 -4.3883938E-03
         365  3.0194807E-03
         366 -1.7304843E-02
         367  4.9932818E-03
         368 -1.4724784E-03
         369 -2.9661027E-03
         370 -4.0947292E-03
         371  2.8112814E-02
         372  4.1039713E-02
         373 -8.7562372E-04
         374 -3.3837007E-03
         375 -7.7048334E-04
         376 -5.8739714E-02
         377 -6.3879602E-02
         378 -3.9035126E-04
         379 -3.6181908E-03
         380  2.8234071E-03
         381  1.6176883E-02
         382  2.3069136E-02
         383 -5.7754078E-04
         384 -3.4036392E-03
         385  3.5782850E-03
         386  3.6168262E-02
         387  4.5301724E-02
         388  8.4915377E-02
         389 -3.9688185E-02
         390  9.4045866E-03
         391  3.5865251E-02
         392  6.0773375E-03
         393 -2.7923377E-02
         394  1.2020087E-02
         395 -7.8148926E-03
         396 -4.1408250E-03
         397  9.8520168E-04
         398 -5.4495241E-02
         399  2.8816620E-02
         400  2.2476928E-03
         401 -2.1922840E-02
         402  6.8149720E-03
         403  9.2656007E-03
         404 -8.5953943E-04
         405  5.3838640E-02
         406 -2.4363786E-02
         407 -9.4707506E-03
         408  5.9284726E-03
         409 -3.2355122E-03
         410 -7.3147006E-02
         411  2.4277363E-03
         412  1.9835992E-02
         413  2.4208929E-03
         414  3.7556214E-04
         415  4.4710408E-03
         416  2.6945430E-03
         417 -7.3161861E-04
         418  1.7873491E-03
         419  9.8629389E-04
         420  7.0395991E-02
         421  1.2392650E-03
         422 -1.4803758E-02
         423 -5.9515547E-02
         424  3.0810855E-02
         425  9.3332222E-03
         426  4.9309344E-03
         427  2.5445998E-02
         428  7.0115723E-02
         429 -3.5198420E-02
         430  6.2887180E-03
         431 -3.5031196E-03
         432 -3.4732006E-02
         433 -1.2212552E-02
         434  6.0286098E-03
         435  3.3313325E-03
         436 -1.7960726E-03
         437  1.5424663E-03
         438 -9.5381576E-04
         439  2.1246786E-03
         440  1.6051484E-03
         441 -6.1859526E-03
         442  3.0078287E-03
         443  2.8520462E-03
         444 -8.8076638E-03
         445 -9.6574081E-03
         446  3.9724340E-03
         447  4.7661623E-04
         448 -6.0246949E-04
         449  2.4353776E-03
         450  5.7179602E-03
         451 -1.2325159E-03
         452 -8.2959735E-04
         453 -2.9673860E-03
         454  5.1641557E-03
         455  2.9628023E-03
         456  1.3006751E-03
         457 -6.1865575E-03
         458  2.5163158E-03
         459 -5.9044990E-03
         460 -9.8080421E-03
         461 -2.5699802E-03
         462  4.9359850E-03
         463  6.0049846E-04
         464 -3.4946643E-04
         465 -8.4533403E-03
         466 -3.7772583E-03
         467  3.4100323E-03
         468 -8.8099041E-04
         469 -7.1664841E-04
         470  4.5702968E-02
         471  2.4984747E-03
         472  1.0534468E-02
         473  6.2076811E-05
         474  8.5147086E-04
         475 -2.8396295E-02
         476  1.5613389E-04
         477 -6.3405843E-03
         478 -4.6846207E-04
         479  1.4847966E-03
         480 -1.7166156E-02
         481  1.1603071E-03
         482 -3.7059947E-03
         483  4.5130130E-02
         484 -2.1423262E-02
         485 -5.8712000E-03
         486 -7.9744523E-03
         487 -2.1814350E-02
         488 -7.1779089E-03
         489  4.0442087E-03
         490  1.7843723E-03
         491 -4.1781628E-04
         492  1.9322780E-03
         493 -3.7269585E-02
         494  1.6706116E-02
         495 -9.8499786E-03
         496  9.6509717E-03
         497  9.2238607E-03
 Sym= Hole
 Ene= -0.1109636    
 Spin= Alpha
 Occup= 0
           1  1.1262012E-03
           2  2.5079551E-04
           3  1.0195421E-02
           4  4.8204814E-03
           5  5.8382782E-05
           6  1.6150040E-03
           7  1.3600193E-03
           8  1.6046445E-03
           9 -1.4142643E-03
          10 -6.5855647E-04
          11 -1.8929975E-02
          12 -1.9317636E-02
          13  4.1412844E-04
          14  1.9730099E-03
          15  7.4135698E-04
          16 -4.8623621E-04
          17  1.3527523E-03
          18 -7.6916168E-04
          19 -1.8960198E-03
          20 -5.0132968E-03
          21 -3.1947606E-04
          22 -4.9123573E-05
          23 -9.7392629E-05
          24 -5.1146111E-04
          25 -6.3654681E-04
          26 -3.1364581E-04
          27  1.5664032E-02
          28  1.9052895E-02
          29 -7.3369534E-05
          30 -2.3572180E-05
          31  1.6866754E-04
          32  3.7081211E-04
          33  1.5452675E-03
          34  2.4801996E-03
          35  2.1079363E-02
          36  2.2260467E-02
          37  3.1331634E-05
          38  6.6037441E-04
          39  7.2815368E-04
          40  3.9753093E-05
          41 -1.3811559E-03
          42 -1.7062685E-03
          43  1.4262273E-03
          44  5.6278463E-03
          45  1.5390244E-04
          46 -7.2540686E-04
          47  2.9875833E-04
          48 -4.6056032E-04
          49  5.8987187E-03
          50  6.8630720E-03
          51 -1.1692624E-02
          52 -2.4894891E-02
          53 -1.9909241E-03
          54 -8.3827111E-04
          55  7.9823280E-04
          56 -6.1126979E-04
          57 -3.8513576E-03
          58 -8.2480554E-03
          59  2.0402686E-03
          60  7.7049257E-03
          61 -2.9748870E-04
          62  1.6424365E-04
          63 -6.1636028E-04
          64  2.4787220E-04
          65  9.5471746E-04
          66  2.1010792E-02
          67  3.7444313E-04
          68 -1.9273541E-03
          69 -1.5463920E-03
          70 -4.2138170E-04
          71 -3.3025157E-03
          72  1.3707604E-03
          73 -1.2763165E-02
          74 -5.6819986E-03
          75 -5.5873296E-03
          76  2.4463214E-02
          77  5.7247253E-03
          78  3.8622234E-03
          79  8.8669523E-04
          80 -9.0165320E-04
          81  6.9598379E-03
          82  2.7178239E-02
          83  1.1419734E-02
          84 -1.9010201E-02
          85 -2.5703963E-03
          86  1.0308995E-04
          87 -7.9740549E-04
          88 -1.5388391E-03
          89  6.3300752E-03
          90 -2.1155616E-02
          91 -6.4792652E-03
          92 -8.0124568E-03
          93 -2.8614453E-03
          94  2.5361578E-04
          95  4.5498298E-04
          96  1.0592010E-03
          97 -8.4439600E-03
          98  1.6901463E-02
          99  1.9581808E-02
         100  4.2138856E-02
         101  2.8715108E-03
         102 -3.7463386E-05
         103  7.0930406E-04
         104  1.0086220E-03
         105  1.8456862E-03
         106 -4.6178601E-03
         107  7.4653596E-02
         108  8.8822998E-02
         109 -6.4247208E-05
         110 -1.3342646E-03
         111  1.9327533E-03
         112  1.5865546E-03
         113 -2.7435694E-03
         114  1.9840531E-03
         115  4.2027727E-02
         116  5.6148455E-02
         117 -5.7255686E-04
         118 -5.0165120E-04
         119 -5.2852767E-05
         120  1.8526618E-03
         121  1.0057287E-03
         122  1.3437066E-03
         123 -2.9575258E-02
         124 -3.3966128E-02
         125 -9.0343325E-04
         126  1.0312791E-03
         127 -1.0929821E-03
         128 -1.1351838E-03
         129 -3.1759122E-03
         130  9.2407549E-04
         131 -7.5226068E-02
         132 -8.3290339E-02
         133 -8.6146517E-04
         134 -2.0193940E-04
         135 -1.9328845E-03
         136 -2.6227916E-03
         137  4.8469477E-03
         138 -8.3083836E-03
         139 -4.3952014E-02
         140 -5.0513405E-02
         141 -2.4507865E-03
         142 -2.3551156E-05
         143 -9.7278191E-04
         144 -1.6323394E-04
         145 -1.5144547E-03
         146  1.8834883E-03
         147 -1.2409491E-03
         148  4.4581704E-03
         149 -1.0892134E-03
         150  2.3504167E-03
         151 -4.4994650E-04
         152  1.4997898E-03
         153 -6.4793583E-03
         154  0.1705475    
         155  4.0290798E-03
         156 -3.1819485E-02
         157  2.5725183E-03
         158  6.0247215E-03
         159 -9.7865937E-04
         160 -1.2195050E-03
         161  9.7100571E-04
         162 -0.3144411    
         163  8.2591437E-03
         164  6.5910153E-02
         165  1.8011311E-04
         166 -7.0932945E-03
         167  4.5311323E-04
         168  2.1535517E-03
         169 -4.3329410E-04
         170 -0.4834013    
         171  2.0669268E-02
         172  0.1057431    
         173 -1.3780974E-04
         174 -1.1272326E-02
         175  1.0794456E-03
         176  3.5216636E-03
         177  2.2503780E-04
         178 -0.1533736    
         179  4.3544942E-03
         180  3.2389298E-02
         181 -3.5065963E-04
         182 -1.8490974E-03
         183  4.7304999E-05
         184  1.8217843E-03
         185 -1.4120906E-03
         186  0.3422323    
         187 -1.1615905E-02
         188 -7.3067196E-02
         189  3.3882906E-04
         190  1.1788640E-02
         191  7.9370002E-05
         192 -1.7852164E-03
         193  2.2333031E-04
         194  0.4748491    
         195 -2.0577149E-02
         196 -0.1071915    
         197 -9.6487274E-05
         198  1.1283547E-02
         199 -9.0292958E-04
         200 -2.9318351E-03
         201  1.9217355E-03
         202 -8.8991143E-02
         203  3.5843991E-03
         204  2.1862231E-02
         205 -1.4894373E-03
         206 -1.1590239E-02
         207  1.8533082E-04
         208  1.1141985E-03
         209  2.5622323E-03
         210  3.4049027E-02
         211 -1.0189541E-03
         212 -5.2495128E-03
         213 -1.1387385E-03
         214  2.5010293E-03
         215  3.2976512E-03
         216 -2.9343250E-03
         217  5.2277320E-03
         218  3.5650756E-02
         219 -6.7837769E-04
         220 -5.1730750E-03
         221 -2.4423506E-03
         222  5.3521772E-03
         223  2.4005126E-03
         224 -3.0096632E-03
         225  7.4969983E-04
         226  1.6827544E-02
         227  1.3334533E-03
         228 -1.8689192E-03
         229 -6.8102971E-05
         230 -4.8025444E-04
         231 -8.9748693E-04
         232 -5.0539020E-03
         233 -3.9599420E-04
         234 -2.3666006E-02
         235 -3.8136999E-04
         236  1.1098705E-03
         237  1.9148620E-03
         238 -4.4028098E-03
         239  1.7213224E-03
         240 -1.6076392E-03
         241 -4.0713215E-04
         242 -3.1154338E-02
         243 -8.2617806E-04
         244 -1.2629821E-03
         245  2.8413462E-03
         246 -5.2550053E-03
         247 -1.5491372E-04
         248  1.0801347E-03
         249 -1.8552631E-03
         250  6.1640204E-03
         251  2.6299551E-04
         252  2.7945153E-03
         253  2.3578776E-03
         254 -3.8588804E-03
         255 -1.5418781E-03
         256 -1.1389983E-03
         257  2.9392417E-03
         258  8.7355867E-02
         259 -2.0247863E-03
         260  1.5293936E-02
         261 -1.7635311E-03
         262  2.5450191E-03
         263 -2.1777097E-04
         264  7.5147022E-04
         265  3.5509092E-04
         266  9.8049968E-02
         267  3.2579291E-03
         268  2.4324803E-02
         269  2.9762454E-05
         270  3.3623234E-03
         271 -5.0056208E-04
         272 -2.0288365E-04
         273  6.9970934E-05
         274  1.3219868E-02
         275 -1.4121908E-04
         276  1.4423276E-03
         277  2.8775271E-04
         278  6.1414047E-04
         279 -3.8914726E-04
         280 -1.0096745E-03
         281  6.2549236E-04
         282 -8.5657693E-02
         283 -4.3381965E-03
         284 -1.7862195E-02
         285  2.9006640E-05
         286 -1.9776775E-03
         287 -3.8776081E-04
         288 -1.0392800E-03
         289  6.3712540E-04
         290 -9.4594561E-02
         291 -6.1069857E-03
         292 -2.1401813E-02
         293 -4.0622160E-04
         294 -2.1252038E-03
         295 -6.7368761E-04
         296 -7.3910487E-04
         297  1.1275141E-04
         298 -7.8138346E-03
         299  6.6064391E-04
         300 -1.7567244E-03
         301 -6.5228430E-04
         302 -9.2760281E-05
         303 -7.6114062E-05
         304  1.2120676E-04
         305  1.5468668E-04
         306  3.2895673E-03
         307 -7.0086017E-04
         308 -1.9188438E-04
         309 -1.8635311E-04
         310  8.2890256E-05
         311 -4.6385785E-06
         312  7.8026374E-04
         313 -5.9796073E-03
         314  7.8759895E-04
         315 -1.1938817E-04
         316  5.2480277E-04
         317  3.7758792E-04
         318 -4.7739171E-03
         319  7.9274073E-04
         320 -1.9505409E-04
         321  1.8856570E-04
         322 -3.3507321E-04
         323  1.2555652E-02
         324  5.9328839E-04
         325  1.4048301E-03
         326 -8.8167260E-04
         327  6.2851456E-04
         328  1.2878502E-03
         329  9.2390948E-04
         330  3.4905892E-04
         331 -2.7031923E-04
         332 -4.2756033E-04
         333  9.7842840E-04
         334  2.6428630E-04
         335  2.6058446E-04
         336 -5.8813189E-04
         337 -7.8750128E-04
         338 -7.7477616E-04
         339  6.3867052E-04
         340 -1.3310373E-04
         341 -3.2293951E-04
         342 -9.4413012E-04
         343 -3.4170537E-03
         344 -2.4341197E-04
         345 -7.3765340E-04
         346  1.7063624E-04
         347 -3.5060276E-04
         348  7.2429306E-03
         349 -1.0671950E-03
         350  5.7815254E-04
         351 -1.1871053E-03
         352  5.8757456E-04
         353 -5.0706025E-03
         354  6.6585274E-04
         355  1.6742018E-03
         356 -5.5244932E-04
         357  1.0266929E-03
         358 -1.0056166E-02
         359  2.5331270E-04
         360  2.9227291E-03
         361  2.2645511E-03
         362  1.1088038E-03
         363 -7.5769788E-03
         364 -4.0465806E-04
         365 -1.3638064E-03
         366 -5.9410179E-04
         367 -6.0946995E-04
         368  6.1348984E-03
         369  5.6954101E-04
         370 -1.6018831E-03
         371 -1.6198220E-03
         372 -3.2396540E-03
         373  1.5903907E-03
         374 -2.0083903E-04
         375 -3.2130806E-04
         376 -1.9704474E-03
         377 -1.8801923E-03
         378  9.4330782E-04
         379  5.8413687E-04
         380 -8.9461522E-05
         381  7.0565630E-04
         382  1.0025793E-03
         383  6.0160458E-04
         384 -1.8663837E-03
         385  9.4606384E-04
         386  2.1319427E-03
         387  2.7974681E-03
         388  1.4949217E-02
         389 -1.7353877E-03
         390  1.9725501E-03
         391 -2.0410696E-03
         392  3.5387678E-03
         393 -8.7267178E-04
         394  3.6451287E-04
         395  7.0525348E-05
         396  1.0039546E-03
         397 -7.3061622E-04
         398 -1.4608107E-02
         399 -4.9240474E-04
         400  1.0389468E-03
         401 -8.4761088E-04
         402 -2.3895649E-03
         403  2.2955118E-03
         404 -4.2719147E-04
         405  1.1274995E-02
         406  1.0297718E-03
         407 -1.4809874E-03
         408  7.9334946E-04
         409 -4.4542059E-04
         410  1.4559199E-02
         411 -8.1795140E-04
         412 -3.3982319E-03
         413 -2.1491870E-03
         414 -9.8773837E-04
         415  2.9483831E-03
         416  2.4659929E-04
         417 -4.2077361E-04
         418  5.0594292E-05
         419 -8.7576144E-04
         420 -9.0248855E-03
         421  1.1708351E-03
         422  1.3081073E-03
         423  0.1217556    
         424 -7.4733617E-03
         425 -1.1586125E-03
         426  1.3505500E-03
         427  3.8972511E-03
         428 -0.1468912    
         429  7.7036838E-03
         430 -3.9869063E-03
         431 -3.7624710E-04
         432 -4.4384962E-03
         433  2.2817535E-02
         434 -1.9278919E-03
         435 -3.2334067E-03
         436  3.9022379E-05
         437  1.2210415E-03
         438  6.4890468E-03
         439  1.4398594E-03
         440  4.4420399E-03
         441 -1.0963709E-03
         442  4.3786438E-03
         443  8.2274451E-04
         444  9.1293192E-04
         445  7.5484550E-04
         446 -2.2757940E-03
         447  2.3218526E-03
         448  5.7862652E-04
         449  7.2961044E-04
         450  8.0720993E-04
         451 -1.2573103E-03
         452  9.1481680E-04
         453 -1.3305400E-03
         454  1.0005808E-03
         455  1.2756840E-03
         456 -4.7382724E-04
         457 -3.7914136E-04
         458  7.0740454E-05
         459  7.9582736E-04
         460  1.5236011E-03
         461  1.3746180E-04
         462  3.9040315E-04
         463  3.3872141E-04
         464  4.9988803E-04
         465 -4.0276218E-03
         466 -2.6704586E-04
         467 -2.0766924E-03
         468 -2.0546545E-03
         469 -9.6771284E-05
         470 -1.4491533E-03
         471  4.4757093E-05
         472 -5.2219257E-04
         473  7.2967017E-04
         474  2.0553981E-04
         475  2.3419231E-03
         476  1.2892541E-04
         477  3.0856076E-04
         478 -6.9085858E-04
         479  5.8591406E-05
         480  3.2276220E-03
         481  2.9651326E-05
         482  7.2479551E-04
         483 -3.4736607E-03
         484  1.4842301E-05
         485  2.9307642E-04
         486 -1.2239093E-04
         487 -2.7221811E-04
         488 -2.0116406E-04
         489  2.7271233E-05
         490 -5.6224299E-04
         491 -5.2519175E-05
         492  1.8915377E-04
         493  3.5812405E-03
         494 -8.4813277E-04
         495 -2.3426446E-03
         496  1.2306110E-03
         497 -1.4469483E-03
 Sym= Particle
 Ene= -0.1109636    
 Spin= Alpha
 Occup= 2
           1  2.7051859E-03
           2  9.6540753E-04
           3  2.8348481E-03
           4 -1.0464900E-03
           5 -4.6850112E-03
           6 -1.3396210E-03
           7 -4.1925305E-04
           8 -1.4463313E-03
           9 -5.0989963E-04
          10 -1.3755676E-03
          11  5.7392311E-03
          12  6.6366610E-03
          13 -2.5094999E-03
          14 -4.6634006E-05
          15 -4.2971680E-03
          16 -3.2814655E-03
          17  1.3907971E-03
          18 -1.9938328E-05
          19 -2.2162199E-02
          20 -2.6916532E-02
          21 -2.4413255E-03
          22 -1.2258928E-04
          23  6.6594556E-03
          24  9.1329748E-03
          25  7.0407701E-04
          26  1.3681804E-04
          27  1.8132875E-02
          28  2.0972645E-02
          29 -1.3217402E-03
          30 -2.1250393E-04
          31 -5.1074889E-03
          32 -6.4636199E-03
          33  1.1385267E-03
          34  1.0986263E-03
          35  3.6047888E-03
          36  4.2020357E-03
          37 -1.4697991E-03
          38 -7.6897448E-04
          39 -4.7303314E-04
          40 -1.0361284E-03
          41 -7.8374008E-04
          42  4.1189831E-04
          43 -2.3631560E-02
          44 -2.3215035E-02
          45 -4.6865479E-04
          46 -1.2161984E-03
          47  8.4655983E-03
          48  6.8142158E-03
          49  5.1156403E-03
          50  4.6040206E-03
          51  2.3740232E-02
          52  1.9125812E-02
          53 -4.9090553E-03
          54  7.8458508E-04
          55 -9.7455066E-03
          56 -8.3854487E-03
          57  6.3217902E-03
          58  9.9241314E-03
          59  4.1991551E-04
          60 -3.8629924E-03
          61 -8.0518927E-03
          62  1.8966601E-04
          63 -1.1973455E-04
          64  3.9565666E-03
          65 -1.0495973E-02
          66  6.1372016E-03
          67 -7.8891609E-03
          68  6.5582101E-03
          69  8.6408565E-03
          70 -4.2707240E-03
          71  4.8371209E-03
          72  1.8428064E-04
          73  5.1990337E-05
          74  4.7401153E-03
          75 -9.5762881E-03
          76  4.8490358E-03
          77  3.0176339E-03
          78  6.4616143E-03
          79  6.1355801E-03
          80 -5.5156200E-04
          81 -4.1419998E-02
          82 -6.5508895E-02
          83 -3.1856321E-02
          84  5.1162545E-02
          85  3.3418126E-02
          86  2.6646234E-02
          87  2.8213225E-02
          88 -1.6737757E-02
          89  2.8080614E-03
          90 -4.7173239E-02
          91 -9.3872212E-03
          92 -3.7206281E-03
          93 -6.0556536E-03
          94  6.5558770E-04
          95  2.3616161E-03
          96  2.4515397E-03
          97  2.7601751E-02
          98 -3.5997145E-02
          99 -5.0623324E-02
         100 -0.1145993    
         101 -1.9738376E-02
         102  7.0019141E-03
         103  8.9449678E-03
         104  3.8550034E-02
         105 -6.3231094E-03
         106 -5.6299069E-03
         107  9.9829538E-03
         108  3.3643138E-02
         109  3.2291154E-03
         110 -1.5689250E-03
         111  3.1897540E-03
         112 -1.3770543E-02
         113  5.7055661E-03
         114 -6.2682731E-03
         115  5.3419132E-02
         116  6.1242923E-02
         117 -4.2971894E-03
         118 -1.2819574E-03
         119 -1.4157002E-02
         120 -1.8662810E-02
         121  4.9938727E-04
         122  4.1217764E-04
         123 -7.2324149E-02
         124 -8.5164756E-02
         125 -1.9984294E-03
         126 -6.2935852E-04
         127  1.9175947E-02
         128  2.3887215E-02
         129  4.6036993E-03
         130 -1.5484679E-03
         131  2.0929169E-02
         132  1.7018227E-02
         133 -2.7030809E-03
         134 -3.3869012E-03
         135 -6.3277665E-03
         136 -5.2376739E-03
         137 -2.0760007E-03
         138  6.8817376E-03
         139  5.8429413E-02
         140  6.3660935E-02
         141 -8.2047610E-04
         142 -7.5601148E-03
         143 -2.5506366E-02
         144 -1.5476250E-02
         145  4.6536778E-03
         146 -1.2189636E-03
         147  1.7475266E-02
         148 -2.5041692E-03
         149 -1.0275320E-02
         150  9.8779649E-03
         151 -1.1179963E-02
         152 -2.4933806E-06
         153  1.4504518E-02
         154 -0.5073503    
         155 -4.4638854E-03
         156  0.1008589    
         157 -1.0056028E-02
         158  0.1573737    
         159  3.5307044E-03
         160 -3.6443099E-02
         161 -1.3489166E-04
         162  0.4033592    
         163 -1.4899566E-02
         164 -8.4079005E-02
         165 -1.6508453E-03
         166 -0.1236246    
         167  7.4336836E-03
         168  2.3503602E-02
         169  2.0705028E-03
         170  9.4562568E-02
         171 -5.4532592E-03
         172 -1.9478269E-02
         173 -1.5904601E-03
         174 -2.9260596E-02
         175 -4.6240303E-04
         176  4.1504125E-03
         177  3.6709441E-04
         178 -0.4884882    
         179  2.0208441E-02
         180  0.1074957    
         181 -8.2733337E-04
         182  0.1456672    
         183 -7.5609824E-03
         184 -3.5306577E-02
         185  3.8033880E-03
         186  0.3902412    
         187 -1.5714725E-02
         188 -8.8973559E-02
         189 -1.6197554E-03
         190 -0.1214959    
         191  3.4363000E-03
         192  2.4734389E-02
         193 -3.6484578E-03
         194  0.1002026    
         195  1.0098743E-03
         196 -2.5410907E-02
         197  4.1445354E-03
         198 -3.6208086E-02
         199 -3.1449308E-03
         200  7.4059456E-03
         201  2.3474557E-04
         202  1.0528765E-02
         203  2.6327763E-03
         204 -9.2343176E-03
         205  8.5943419E-04
         206 -7.2098506E-04
         207 -2.1563412E-03
         208  5.6048343E-03
         209 -2.1413453E-03
         210  1.7727239E-02
         211  4.3664803E-03
         212  4.6930006E-03
         213  3.1886704E-03
         214  1.1294508E-02
         215 -6.5839975E-03
         216 -6.2521496E-03
         217  2.5454187E-03
         218 -3.7694972E-03
         219  1.1658109E-03
         220 -4.5434805E-03
         221 -4.7507696E-03
         222 -1.5717940E-03
         223 -9.6888421E-03
         224  8.5595166E-03
         225  1.5674860E-04
         226 -8.1740357E-03
         227  1.7531218E-03
         228 -2.0702803E-03
         229  2.8015798E-04
         230 -9.4317412E-04
         231  1.3474075E-03
         232  9.0634795E-03
         233  4.9559702E-04
         234  9.7128637E-03
         235 -1.1578044E-03
         236  6.6387147E-04
         237  4.1227252E-03
         238  1.0436457E-02
         239  1.1283647E-03
         240 -4.4824816E-03
         241  5.1661726E-04
         242  1.3386202E-03
         243 -1.4480783E-03
         244  1.2121070E-03
         245 -4.7448627E-03
         246 -3.8203921E-03
         247  2.7683182E-03
         248  1.4001789E-03
         249  3.8605524E-04
         250 -1.3560836E-02
         251 -3.4156087E-04
         252  1.2700834E-03
         253 -5.6901933E-03
         254 -5.4408903E-03
         255 -2.2295644E-03
         256 -5.5961004E-03
         257 -2.3605102E-03
         258  6.6732712E-02
         259  6.7717633E-03
         260  1.6335567E-02
         261  1.7152842E-03
         262 -2.4648841E-02
         263 -5.3256419E-03
         264 -6.2878402E-03
         265  7.3400990E-04
         266  4.4439372E-02
         267  2.3757699E-03
         268  8.9955144E-03
         269 -7.1929721E-04
         270 -1.6551942E-02
         271 -1.5566413E-03
         272 -3.4446050E-03
         273 -1.4273044E-05
         274 -0.1094433    
         275 -5.0893300E-03
         276 -2.2907149E-02
         277 -4.5293773E-04
         278  3.2079153E-02
         279  2.3398895E-03
         280  7.0723617E-03
         281  5.4016232E-04
         282  6.3055485E-02
         283  3.7715153E-03
         284  1.4117203E-02
         285 -8.6089148E-04
         286 -1.8670447E-02
         287 -2.0852250E-03
         288 -4.4469787E-03
         289  5.3616049E-04
         290  4.5336179E-02
         291  3.2219379E-03
         292  9.2239687E-03
         293 -1.4646103E-03
         294 -1.2319302E-02
         295 -2.6689551E-04
         296 -2.8585703E-03
         297 -1.3124601E-04
         298 -0.1131811    
         299 -5.6871832E-03
         300 -2.3908075E-02
         301 -9.1234728E-04
         302  3.7234228E-02
         303  2.9445461E-03
         304  7.3968563E-03
         305  2.5616516E-03
         306 -8.7588048E-03
         307 -1.2524128E-03
         308 -3.6199894E-03
         309 -4.2393915E-03
         310 -2.3445378E-03
         311  1.3042598E-03
         312  3.9718769E-04
         313  9.3900488E-04
         314 -2.6397612E-03
         315 -1.4228858E-03
         316  7.3099439E-04
         317  2.5489687E-03
         318 -7.7620719E-04
         319 -6.2780117E-04
         320  7.1940810E-04
         321  1.8582492E-04
         322  3.6935954E-04
         323 -2.0447371E-03
         324 -3.8680148E-05
         325 -2.1356600E-03
         326  1.3328402E-03
         327 -4.1856375E-03
         328 -2.7611968E-04
         329 -3.6610165E-04
         330  9.4881008E-04
         331 -5.9630028E-03
         332 -4.8589082E-03
         333 -1.6978539E-04
         334  3.4730425E-04
         335  3.7001577E-04
         336  5.6523941E-03
         337  4.6721655E-03
         338 -8.5309363E-04
         339  2.8628378E-06
         340 -1.3361809E-04
         341  1.6070546E-03
         342  8.3688082E-04
         343 -1.6768589E-03
         344  9.1490202E-04
         345 -1.9856559E-03
         346 -3.3566863E-03
         347 -6.2983939E-03
         348  1.5945840E-03
         349  8.6307357E-04
         350  2.2531042E-03
         351 -1.6041446E-03
         352  2.9774546E-03
         353  2.5589538E-03
         354  4.1245422E-03
         355  1.3895052E-03
         356  4.2567742E-03
         357  2.8379671E-03
         358  2.0622626E-02
         359 -1.6551914E-03
         360 -6.4234133E-03
         361 -1.1435905E-02
         362  6.5991706E-03
         363  1.1525996E-02
         364  2.0496159E-04
         365 -1.4730834E-02
         366 -3.2585815E-03
         367 -1.7976139E-03
         368 -8.6112516E-03
         369  4.2977370E-03
         370 -1.1442711E-03
         371  9.2719598E-03
         372  5.1695225E-03
         373 -7.2654057E-03
         374 -1.3247755E-03
         375 -7.2590495E-04
         376  1.4055035E-02
         377  1.5248516E-02
         378 -1.3458221E-05
         379 -3.4578964E-03
         380  1.0239528E-03
         381 -2.0278132E-02
         382 -2.1677276E-02
         383 -5.9443382E-03
         384 -2.2317993E-03
         385 -2.3626189E-03
         386  2.2461645E-03
         387  6.2452904E-03
         388 -1.8468335E-02
         389  4.5506665E-03
         390  2.7213799E-02
         391 -1.5556080E-03
         392  1.0220794E-02
         393 -2.8165656E-03
         394 -5.1884139E-03
         395 -1.7513522E-03
         396  8.7759485E-03
         397  1.4026656E-03
         398  1.9336300E-02
         399 -2.1772249E-02
         400  5.8076056E-03
         401 -1.0917090E-02
         402 -1.6854089E-02
         403 -4.3404922E-03
         404  2.6448930E-03
         405  8.9914054E-02
         406  3.8092879E-03
         407 -1.8876484E-02
         408 -3.3540467E-03
         409  1.2782433E-03
         410  2.0603651E-02
         411 -2.6419128E-03
         412 -5.8297915E-03
         413 -1.0681462E-03
         414 -9.7212970E-04
         415 -0.1166465    
         416  3.0179382E-03
         417  2.2620946E-02
         418 -4.4557867E-03
         419  3.2428708E-03
         420  9.0529531E-02
         421 -6.4094472E-03
         422 -2.0577718E-02
         423  2.2442849E-02
         424 -6.0616657E-03
         425 -7.3596598E-03
         426 -1.3896208E-02
         427  1.0999993E-02
         428 -2.6214780E-02
         429  1.3093572E-02
         430 -7.8052767E-03
         431  1.7408915E-02
         432  5.6708567E-03
         433  2.2261909E-03
         434 -3.5878579E-04
         435  1.6689571E-02
         436 -2.9987020E-03
         437 -8.3099958E-03
         438  1.8416104E-03
         439 -5.5006947E-03
         440 -7.7143698E-03
         441 -8.5708732E-03
         442 -9.0751384E-04
         443 -3.2170647E-04
         444  7.1236536E-05
         445 -1.0020572E-02
         446  7.2065258E-04
         447  6.6515319E-03
         448 -3.8684721E-03
         449  6.7552179E-03
         450  1.0993418E-02
         451 -5.9874626E-03
         452 -6.9993893E-03
         453  2.1262767E-03
         454 -2.9916267E-03
         455 -2.2663181E-03
         456 -7.0912152E-04
         457  4.6730759E-03
         458  2.0202068E-03
         459 -3.0827040E-03
         460 -1.1225873E-02
         461 -5.3772693E-03
         462 -1.8562468E-03
         463  3.0155751E-04
         464  2.5165478E-05
         465  7.5871726E-03
         466  1.1053422E-03
         467 -1.5894580E-03
         468  6.0857262E-04
         469  7.5624371E-04
         470 -2.5903558E-02
         471 -2.2688851E-05
         472 -6.0020364E-03
         473 -1.2387065E-03
         474  1.3444835E-03
         475  1.5809590E-02
         476 -2.3068266E-03
         477  3.1495488E-03
         478 -2.9171567E-04
         479  1.1572564E-03
         480  1.3555533E-02
         481 -8.1541826E-04
         482  3.0487413E-03
         483 -2.7188204E-02
         484  1.2423073E-02
         485  4.9173618E-03
         486  5.0981813E-03
         487  1.3618056E-02
         488  3.2912993E-03
         489 -1.7951424E-03
         490 -3.6257593E-04
         491  1.1091537E-03
         492 -7.0633483E-04
         493  2.0046109E-02
         494 -1.0305076E-02
         495  1.8143085E-03
         496 -3.7250947E-03
         497 -6.5761255E-03
 Sym= Hole
 Ene= -9.9610850E-02
 Spin= Alpha
 Occup= 0
           1  5.4199667E-05
           2  3.7286710E-04
           3 -2.5301273E-03
           4 -3.7596039E-03
           5 -3.2601922E-04
           6 -9.5312629E-05
           7 -1.6672246E-04
           8 -2.8098223E-04
           9  2.3582553E-04
          10  1.6113326E-04
          11 -9.0093482E-03
          12 -9.5539298E-03
          13 -4.2954567E-04
          14 -4.1599889E-04
          15 -1.1471177E-04
          16  1.8843188E-04
          17  4.8236347E-05
          18  4.1136504E-04
          19  2.5649848E-03
          20  2.4275468E-03
          21 -5.5978828E-05
          22  1.3691327E-04
          23  3.4607194E-05
          24  1.0144842E-04
          25  1.2204189E-04
          26  1.3043963E-04
          27  9.3357200E-03
          28  1.0798705E-02
          29  5.3966392E-05
          30  3.7077461E-05
          31  2.1147293E-04
          32  8.2726168E-05
          33  7.3350122E-05
          34  3.8582363E-04
          35  5.1027751E-03
          36  5.0154375E-03
          37 -8.4508341E-05
          38 -9.9192395E-05
          39  2.0657410E-04
          40 -1.4716613E-06
          41 -4.6291232E-05
          42 -3.0370973E-05
          43 -6.8869609E-03
          44 -6.5154131E-03
          45 -1.5183525E-04
          46  2.8142086E-04
          47 -1.5829114E-04
          48  6.5184788E-05
          49  5.6507369E-04
          50  9.8898285E-04
          51 -9.5299603E-03
          52 -1.3354672E-02
          53 -4.5035323E-04
          54  3.2627091E-04
          55  1.6979837E-04
          56  2.4816071E-04
          57 -6.6976435E-03
          58 -8.5186848E-04
          59  1.5467800E-03
          60  1.3158040E-02
          61  1.0041042E-03
          62 -5.7481095E-04
          63 -7.6584693E-04
          64 -1.9301864E-04
          65  5.9870612E-03
          66  2.0999468E-03
          67  3.8720628E-03
          68 -5.6540635E-03
          69 -3.9008923E-03
          70 -2.3051628E-03
          71 -1.6400501E-03
          72  2.6323544E-03
          73 -1.0126216E-02
          74 -1.2724750E-02
          75  6.3974173E-03
          76  1.2517462E-02
          77  9.8371385E-03
          78  1.1727617E-02
          79 -3.7357314E-03
          80 -3.8351307E-03
          81  5.9927059E-03
          82  2.1465022E-02
          83  1.3836342E-02
          84  3.2308307E-03
          85  5.3114262E-03
          86  5.3127967E-03
          87  3.5082262E-03
          88 -5.0837449E-03
          89  7.1632124E-02
          90 -2.9063905E-02
          91 -2.4484530E-02
          92 -0.1543532    
          93 -1.7181572E-02
          94  3.9759749E-03
          95 -9.9255005E-04
          96  6.7797573E-03
          97 -1.4238995E-02
          98  2.3610834E-02
          99  0.2146979    
         100  0.3042838    
         101  1.1605560E-02
         102 -8.5237045E-03
         103  4.3376293E-03
         104  8.1983750E-04
         105  4.4124634E-03
         106  1.6368774E-03
         107 -5.4238243E-03
         108 -2.5439702E-02
         109  2.4129471E-03
         110 -1.0467675E-03
         111  2.0168209E-03
         112 -1.5137354E-03
         113 -4.5169466E-03
         114  6.4560100E-03
         115 -0.2625205    
         116 -0.3084892    
         117  5.0009869E-04
         118  8.3571166E-04
         119 -6.3488879E-03
         120 -3.7644254E-03
         121  6.5549434E-04
         122  2.6876316E-03
         123 -0.2250934    
         124 -0.2751774    
         125 -9.5611403E-04
         126  1.2437592E-03
         127 -4.4840975E-03
         128 -3.1798691E-03
         129 -3.9260103E-03
         130  4.9173931E-04
         131  4.4602491E-02
         132  6.3199989E-02
         133  9.0902846E-04
         134  1.8749685E-03
         135  2.1440231E-03
         136  5.0605726E-03
         137 -2.4551793E-03
         138  9.0118544E-03
         139  0.2750973    
         140  0.3124601    
         141  5.0716875E-03
         142 -5.7649025E-04
         143  3.3070671E-03
         144  5.1872670E-03
         145 -4.6005175E-03
         146  6.9390382E-03
         147 -7.0715189E-02
         148 -5.3971920E-02
         149  3.2959469E-03
         150  3.8916480E-03
         151 -9.4367992E-03
         152 -1.0427392E-02
         153 -3.9553586E-02
         154  0.2589409    
         155  6.4828396E-02
         156 -1.2464915E-02
         157  1.9632282E-02
         158  3.6305084E-03
         159 -1.5028493E-03
         160 -9.9230083E-03
         161  1.9450727E-03
         162  0.1718571    
         163  2.2484425E-03
         164 -7.0768334E-02
         165 -7.6131593E-04
         166  4.4583846E-03
         167  7.2068386E-03
         168  1.8585504E-03
         169 -4.7328859E-03
         170 -6.7537516E-02
         171  1.1695870E-02
         172  2.4412422E-02
         173 -2.5669863E-03
         174  1.5841726E-03
         175  4.4957432E-03
         176  4.7413963E-03
         177 -2.8205041E-03
         178 -0.2440917    
         179  1.2634398E-02
         180  4.8866540E-02
         181 -2.4034791E-03
         182 -4.8907227E-03
         183  3.3894454E-03
         184  2.4754463E-03
         185 -6.5388838E-03
         186 -0.1705169    
         187  1.9975606E-02
         188  4.5893285E-02
         189 -1.4690454E-03
         190 -4.0481156E-03
         191  5.5263555E-03
         192 -1.8957707E-04
         193  2.3632059E-03
         194  6.1298683E-02
         195 -1.3358407E-02
         196 -1.4112774E-02
         197  1.9671996E-03
         198  1.2888400E-03
         199  3.2438355E-04
         200 -3.1487755E-03
         201  1.3513233E-03
         202 -1.1396004E-02
         203  6.6261459E-03
         204  1.7588492E-02
         205  1.1313964E-03
         206 -2.2646973E-03
         207  1.0791179E-03
         208 -2.1286951E-03
         209  2.7573793E-03
         210  1.4740721E-03
         211 -1.1025285E-03
         212 -2.5632069E-03
         213 -8.4808830E-04
         214  1.3682904E-03
         215 -6.4877520E-04
         216  1.9252453E-03
         217  2.6122850E-04
         218 -3.6444812E-04
         219 -2.3748523E-03
         220  5.1713310E-04
         221 -9.2587259E-04
         222 -2.9907650E-03
         223 -1.7758335E-03
         224  6.6981575E-04
         225 -1.0270916E-03
         226 -5.3250152E-03
         227 -6.8620569E-04
         228  9.2864747E-04
         229  1.2888988E-03
         230 -4.0559461E-03
         231 -7.8106101E-04
         232  2.0305203E-04
         233 -5.1775755E-04
         234 -7.2856168E-03
         235 -5.4836954E-04
         236 -4.2993395E-04
         237  1.5344474E-03
         238 -1.5129527E-03
         239 -6.9455960E-04
         240  5.6789565E-04
         241  3.1419555E-04
         242  5.3487937E-03
         243 -2.7137852E-05
         244  2.0276992E-05
         245  8.4144436E-04
         246  2.4612283E-04
         247 -1.0324846E-03
         248 -6.8886555E-04
         249 -3.7693520E-04
         250  1.3603935E-02
         251 -1.8966825E-04
         252  1.0348182E-05
         253  4.0258779E-04
         254  1.6855513E-03
         255 -6.9624395E-04
         256 -1.2721400E-03
         257  1.7813771E-03
         258 -7.4646473E-03
         259 -3.7263960E-03
         260 -3.5101916E-03
         261 -1.3760130E-03
         262 -5.0200056E-04
         263 -2.5585305E-04
         264  5.4829719E-04
         265  4.1043785E-04
         266 -5.0942604E-03
         267  1.1174913E-04
         268  4.9308501E-04
         269 -2.8544357E-06
         270 -1.1269430E-04
         271 -6.0713023E-04
         272 -5.5516459E-04
         273  1.3313438E-04
         274  4.2367503E-03
         275 -6.2133936E-04
         276 -1.0099538E-03
         277  1.5384951E-04
         278  2.7516102E-05
         279 -1.0737100E-03
         280 -6.3495309E-04
         281  2.4723413E-04
         282  8.3446288E-03
         283  5.3485768E-04
         284  3.0312610E-03
         285  2.2581829E-04
         286 -2.8307014E-04
         287 -7.0266327E-04
         288  1.8652080E-04
         289  3.3352735E-05
         290  4.7373991E-03
         291  2.1349333E-04
         292 -3.0858643E-04
         293  1.4697410E-04
         294  6.2248881E-05
         295 -7.7777519E-04
         296 -5.8924960E-04
         297  5.3610519E-04
         298 -3.3973171E-03
         299 -3.0275891E-04
         300 -1.3263344E-03
         301 -4.2328588E-04
         302 -2.2911849E-05
         303 -6.2157220E-04
         304 -4.6077376E-04
         305  2.1405716E-04
         306  2.1690454E-03
         307 -2.0281819E-03
         308  7.2085817E-04
         309 -1.1471946E-04
         310  2.9676393E-04
         311 -5.1579782E-04
         312  6.4301648E-04
         313  1.5375934E-03
         314  1.1383758E-03
         315 -3.9207077E-04
         316  1.1621432E-03
         317 -2.6883145E-05
         318  5.0297473E-04
         319  7.7300426E-04
         320 -1.1591718E-04
         321  5.9155608E-04
         322  8.0045359E-04
         323 -1.6898847E-03
         324 -1.8151916E-03
         325  1.9027604E-04
         326  1.2167619E-04
         327  8.7255891E-04
         328 -2.6282328E-04
         329  1.6635659E-05
         330  2.1839801E-04
         331 -1.5568640E-04
         332  3.9656232E-05
         333  2.7118923E-04
         334  1.5682389E-04
         335  1.3913463E-04
         336 -9.6722462E-05
         337 -2.0655306E-04
         338 -5.6111178E-04
         339  1.3754958E-05
         340 -1.7867122E-04
         341 -6.3087369E-05
         342 -4.7073663E-05
         343  1.1507179E-04
         344  1.0210649E-03
         345  1.0997000E-03
         346  2.0336440E-04
         347 -2.4343222E-04
         348  2.2769489E-03
         349 -1.9207302E-03
         350 -4.5884532E-04
         351 -1.0650640E-03
         352  2.1652181E-03
         353 -4.6379874E-03
         354  1.9728573E-04
         355  4.6777821E-04
         356 -1.0077368E-03
         357 -1.1134900E-03
         358 -3.0521164E-02
         359  8.1761107E-03
         360  8.3529660E-03
         361  8.1897145E-03
         362 -2.9534425E-03
         363  1.8774962E-02
         364 -4.4210799E-04
         365 -6.1030634E-04
         366  2.0887700E-03
         367 -6.2824246E-03
         368  5.3190382E-04
         369 -4.0795974E-05
         370 -1.4261294E-03
         371  2.9151875E-03
         372  9.6754375E-04
         373  6.4156963E-03
         374 -1.7942173E-03
         375 -1.0291389E-03
         376  5.8444543E-03
         377  9.3121799E-03
         378 -1.7288113E-03
         379 -1.0236634E-03
         380 -1.3267489E-04
         381  5.2802712E-03
         382  6.8320255E-03
         383 -3.9729583E-03
         384 -1.8251842E-03
         385  1.6004638E-03
         386  3.1526867E-04
         387 -2.1192757E-04
         388 -0.1408712    
         389  3.6848162E-03
         390  7.9544773E-03
         391  3.7448115E-03
         392 -6.4278059E-03
         393  5.2733786E-02
         394 -4.9047777E-03
         395  3.4495446E-04
         396 -2.0538827E-03
         397 -2.4591244E-03
         398  8.1263930E-02
         399 -3.7251264E-03
         400 -1.1117930E-02
         401 -9.4788726E-03
         402  6.9717981E-04
         403 -3.3730562E-04
         404 -5.1038940E-03
         405 -8.7498361E-03
         406 -5.2495167E-04
         407  9.6599255E-03
         408  1.6199606E-02
         409 -4.0367148E-03
         410  3.1564354E-03
         411 -4.8018291E-04
         412  1.1811642E-03
         413 -3.3848321E-03
         414 -1.9679822E-03
         415  8.3642788E-03
         416  1.0814628E-03
         417 -1.4090764E-03
         418  6.9327983E-03
         419 -2.7496149E-03
         420  6.2043485E-03
         421  1.8137137E-03
         422 -3.9965659E-03
         423  1.0732231E-02
         424  1.6128175E-03
         425  1.6733233E-03
         426 -4.7393139E-03
         427  3.8518298E-03
         428 -2.6032824E-02
         429  2.1979802E-03
         430 -2.6187941E-04
         431 -3.0378159E-03
         432  1.2275591E-03
         433  7.2147637E-03
         434 -3.5082886E-03
         435 -1.7860390E-03
         436  1.6480029E-03
         437 -1.1719513E-03
         438 -3.0146432E-04
         439 -1.1640296E-03
         440 -1.0972387E-03
         441  2.7497502E-03
         442  7.8204687E-04
         443 -4.4568561E-04
         444  1.6258280E-04
         445 -4.6563082E-04
         446  7.8527909E-04
         447 -8.3206243E-05
         448 -3.0792051E-04
         449  4.5818591E-04
         450  1.4613698E-04
         451  6.5220776E-04
         452 -3.9924151E-04
         453  3.1474172E-04
         454  6.1827706E-04
         455 -4.7723175E-04
         456  8.2758680E-04
         457 -4.9221097E-04
         458  4.3331055E-04
         459  1.2550351E-03
         460  4.3618618E-04
         461 -2.8906818E-05
         462 -6.7602145E-04
         463 -9.8328790E-05
         464  5.2757992E-04
         465  5.8230408E-04
         466  7.0169728E-05
         467 -4.2028975E-04
         468 -2.2830921E-03
         469 -9.6473763E-05
         470 -1.6745726E-04
         471 -2.5463902E-04
         472  3.9195762E-05
         473  9.7510184E-04
         474  2.6936663E-04
         475 -7.5259141E-04
         476 -2.3757073E-04
         477 -9.9095159E-05
         478  5.8309373E-04
         479  5.7016104E-04
         480 -3.2371999E-04
         481 -3.2902334E-04
         482 -2.5475232E-05
         483 -1.6787312E-03
         484  6.9810012E-05
         485  4.3172803E-04
         486  4.1687273E-04
         487 -1.5635624E-04
         488 -1.7189237E-03
         489  2.7913062E-04
         490  4.6341060E-04
         491 -2.6004194E-04
         492 -8.0511760E-05
         493  2.4533342E-03
         494 -8.0028595E-04
         495 -1.7042614E-03
         496  1.7533342E-03
         497 -3.8981382E-04
 Sym= Particle
 Ene= -9.9610850E-02
 Spin= Alpha
 Occup= 2
           1  1.4011996E-04
           2  2.5809859E-04
           3  5.2561687E-04
           4  7.2189459E-06
           5 -3.3113474E-04
           6 -1.0693320E-04
           7  5.0315494E-04
           8  1.0249687E-03
           9 -1.6306179E-04
          10 -4.1448363E-04
          11  7.9710791E-03
          12  8.5733384E-03
          13  1.0406119E-04
          14  3.6338947E-04
          15 -2.7286857E-03
          16 -2.7495804E-03
          17  8.0130718E-05
          18  1.0808654E-04
          19 -8.8904826E-03
          20 -1.0118688E-02
          21 -1.5357237E-04
          22 -1.1341144E-04
          23  2.4904963E-03
          24  2.8752959E-03
          25  1.4771646E-04
          26 -4.8351209E-05
          27  1.6538994E-03
          28  1.8092247E-03
          29 -3.1380099E-04
          30  1.0100196E-04
          31 -4.6598035E-04
          32 -5.7018508E-04
          33 -1.5511378E-04
          34  8.8400360E-05
          35  7.1732430E-03
          36  8.0682067E-03
          37 -1.4007528E-05
          38  1.0231965E-05
          39 -2.0058334E-03
          40 -2.0577440E-03
          41  2.0569486E-04
          42 -2.5927305E-04
          43 -8.4687425E-03
          44 -9.9329054E-03
          45 -2.1694854E-04
          46  2.2681127E-04
          47  2.7275365E-03
          48  2.8164631E-03
          49  1.9418332E-04
          50  1.7366545E-04
          51  1.8290431E-03
          52  1.5510475E-03
          53  2.3688417E-05
          54  1.7761969E-04
          55 -5.4585480E-04
          56 -5.0490978E-04
          57 -1.0717574E-04
          58 -9.0164132E-04
          59  1.0957394E-03
          60 -7.7693834E-04
          61 -5.4735242E-04
          62 -3.2086368E-04
          63 -8.5541490E-04
          64 -1.0800698E-04
          65  1.0744861E-03
          66  5.4732128E-04
          67  2.4874459E-04
          68  4.0564794E-04
          69 -1.5406410E-03
          70 -1.6595949E-03
          71  2.0905696E-03
          72  1.9923381E-03
          73 -6.7137915E-04
          74 -6.4016003E-03
          75  4.6009528E-03
          76 -2.8047794E-03
          77  4.7438440E-04
          78  2.7096584E-03
          79 -1.6813227E-03
          80 -2.6882056E-03
          81  3.4959107E-03
          82  2.0705017E-03
          83  6.9401027E-03
          84  1.3277613E-02
          85 -4.7573089E-03
          86 -6.1677713E-03
          87 -1.2005763E-03
          88 -5.7488619E-03
          89  1.5763320E-02
          90 -8.3425604E-03
          91  2.6705420E-02
          92 -2.2665177E-02
          93  5.0283941E-03
          94  8.1304517E-03
          95 -7.7264379E-03
          96 -8.6040102E-04
          97  6.6588176E-03
          98 -1.6106814E-03
          99  0.1952135    
         100  0.2298325    
         101  1.7789971E-03
         102 -7.6867349E-04
         103 -5.3432889E-02
         104 -6.4369835E-02
         105 -2.7268159E-03
         106  5.7670521E-03
         107 -0.3065795    
         108 -0.3743314    
         109  4.9894694E-03
         110 -3.5517195E-03
         111  9.7405538E-02
         112  0.1203816    
         113 -2.3752393E-03
         114 -1.8494528E-03
         115  0.1278521    
         116  0.1545791    
         117  3.4582233E-03
         118 -5.4595369E-04
         119 -3.7040573E-02
         120 -4.2778753E-02
         121  9.0858521E-04
         122 -2.1569995E-04
         123  0.1834337    
         124  0.2136552    
         125 -6.4925888E-07
         126  8.5066032E-04
         127 -5.6303259E-02
         128 -6.0646296E-02
         129 -2.0719056E-03
         130 -5.0549177E-03
         131 -0.3114774    
         132 -0.3689922    
         133  3.3730881E-03
         134  2.9584041E-03
         135  9.2209488E-02
         136  0.1124559    
         137 -6.6966549E-03
         138  1.3119462E-02
         139  0.1330361    
         140  0.1502141    
         141  1.1396718E-02
         142 -8.8014994E-03
         143 -4.0228441E-02
         144 -4.2136218E-02
         145 -8.1789037E-03
         146 -1.2160483E-03
         147  4.8655574E-03
         148  1.4858158E-02
         149  9.2463205E-03
         150  3.8718819E-03
         151  6.6167447E-03
         152  6.0638525E-03
         153 -3.1930164E-02
         154  5.6704063E-02
         155  4.3706726E-02
         156  9.7346948E-03
         157  3.0069610E-02
         158 -1.1140467E-02
         159 -2.7057428E-02
         160  5.6312154E-03
         161  1.1936359E-03
         162  0.1914656    
         163 -2.9511619E-03
         164 -5.3107891E-02
         165  4.7325520E-03
         166 -5.4478191E-02
         167 -1.1139330E-02
         168  1.7668398E-02
         169 -3.4210877E-03
         170 -0.2568451    
         171  1.4610747E-02
         172  5.6236506E-02
         173  3.4268629E-03
         174  7.3045805E-02
         175 -6.1701331E-03
         176 -1.4186839E-02
         177 -2.0723834E-03
         178  5.2518830E-02
         179 -1.3761342E-03
         180 -1.2606695E-02
         181  3.0672608E-03
         182 -1.6890813E-02
         183  1.8876040E-03
         184  4.3535931E-03
         185 -4.8502907E-03
         186  0.2058917    
         187 -4.1839890E-03
         188 -4.0896419E-02
         189  3.3071467E-03
         190 -6.3303992E-02
         191  6.5843933E-03
         192  1.4642192E-02
         193  4.0387921E-03
         194 -0.2626472    
         195  3.4009346E-03
         196  6.4409845E-02
         197  1.2430005E-03
         198  8.4163129E-02
         199  3.0386737E-03
         200 -2.0002682E-02
         201 -1.0027614E-03
         202 -1.6099406E-02
         203  4.8471866E-03
         204  1.4552575E-02
         205  3.3976757E-03
         206 -9.5024053E-03
         207  1.2982135E-03
         208 -2.0857640E-03
         209 -1.6620625E-03
         210  3.7599474E-03
         211  1.3947891E-03
         212  2.1676137E-03
         213  5.3231005E-04
         214 -5.9022167E-04
         215  4.9236445E-03
         216 -3.8051046E-03
         217  9.4546203E-04
         218  1.2081725E-04
         219  1.2939643E-04
         220 -2.9271002E-06
         221 -1.2686031E-03
         222  6.2674284E-03
         223 -3.1688092E-03
         224 -5.3073461E-03
         225  6.2659109E-04
         226 -2.9139218E-03
         227  1.8690509E-03
         228 -9.0467755E-04
         229 -2.3903949E-03
         230 -4.3916185E-03
         231 -4.4894922E-03
         232  2.0350757E-04
         233 -4.3672227E-04
         234  4.2760791E-03
         235  7.7115645E-04
         236 -2.4157831E-04
         237  3.0127589E-03
         238  2.4171162E-03
         239 -3.1571211E-03
         240  1.9818127E-04
         241  1.0105517E-04
         242 -4.0230085E-03
         243  1.1800357E-05
         244  3.6725538E-05
         245  3.7288235E-03
         246  9.0754628E-03
         247 -1.2320685E-04
         248 -2.2080308E-03
         249  7.0236844E-04
         250  2.8939245E-04
         251 -1.6809582E-03
         252 -1.2175558E-03
         253 -1.2659527E-03
         254 -1.4886539E-03
         255  5.5319874E-04
         256  3.3027031E-03
         257 -3.1705343E-04
         258  4.3355610E-04
         259  6.3988060E-04
         260  4.2323390E-04
         261  7.9216894E-05
         262 -5.9590960E-04
         263 -1.8015522E-05
         264 -4.2025224E-04
         265  4.0774423E-04
         266 -4.7056936E-03
         267 -5.9202925E-04
         268 -1.1860837E-03
         269 -5.0126162E-04
         270  1.1197628E-03
         271  5.8238651E-04
         272  5.3776702E-04
         273  1.5795280E-05
         274  5.0806752E-03
         275  3.8045520E-04
         276  1.0530306E-03
         277  7.9965093E-06
         278 -1.2829403E-03
         279 -2.6044049E-04
         280  2.0552490E-05
         281 -1.0789162E-04
         282 -5.8756390E-04
         283 -1.4466239E-04
         284 -4.6962567E-05
         285  1.5093588E-04
         286  4.2683393E-04
         287 -1.0766169E-05
         288 -7.5940523E-05
         289  9.7074910E-05
         290 -4.8100664E-03
         291 -1.8689089E-04
         292 -1.0623353E-03
         293 -1.5540398E-04
         294  2.2799282E-03
         295  1.3585307E-04
         296 -6.0241757E-05
         297  1.1132627E-04
         298  5.2011465E-03
         299  3.3943681E-05
         300  1.6964904E-03
         301 -2.7584529E-04
         302 -8.7616191E-04
         303  4.6645678E-04
         304 -8.3252927E-04
         305  7.0229219E-04
         306  1.2193976E-03
         307  3.4994213E-05
         308 -1.4588984E-05
         309 -8.5586164E-04
         310  4.5389513E-04
         311  3.8380889E-04
         312  6.5150620E-05
         313  1.3749495E-03
         314 -6.5666920E-04
         315  2.2170696E-04
         316  1.1877918E-03
         317  1.7215051E-04
         318  1.0778075E-03
         319 -6.7982438E-04
         320 -4.8234814E-04
         321 -1.1285589E-04
         322  6.1615152E-05
         323 -2.4839835E-03
         324  1.3464137E-03
         325  7.7798718E-04
         326 -8.3306490E-04
         327  4.8871111E-04
         328 -4.3137512E-05
         329  3.6313741E-05
         330 -3.0297042E-05
         331 -2.4952739E-03
         332 -2.9556847E-03
         333  2.8403947E-05
         334 -2.3148095E-04
         335  2.4766466E-04
         336  7.3103386E-04
         337  3.7781958E-04
         338  4.4725413E-04
         339 -4.4363382E-04
         340 -6.0157101E-05
         341  1.9090252E-03
         342  2.6520414E-03
         343 -7.3711220E-05
         344 -2.0850581E-04
         345 -5.9838226E-04
         346 -1.2568509E-03
         347 -2.4249593E-03
         348 -9.9290723E-05
         349 -1.4789156E-03
         350 -4.6264427E-03
         351  1.8800455E-03
         352  1.6602851E-03
         353  3.2804199E-04
         354 -4.5650048E-04
         355  1.7753396E-03
         356  3.4140740E-04
         357  1.4964544E-03
         358 -4.8227576E-03
         359  4.3018642E-03
         360  7.4880188E-03
         361 -6.7474600E-03
         362 -8.8820489E-06
         363  1.1394714E-03
         364 -1.6296418E-02
         365 -2.0401012E-02
         366 -9.3489230E-05
         367 -6.9842311E-03
         368 -6.4349803E-04
         369 -1.4910396E-03
         370 -7.9300400E-04
         371 -7.1380638E-02
         372 -8.6086936E-02
         373  2.0804643E-03
         374 -2.8259845E-03
         375 -2.0251079E-03
         376  2.9042477E-02
         377  4.0764071E-02
         378 -3.5436955E-04
         379 -2.8765795E-03
         380  1.7279562E-03
         381  4.3020219E-02
         382  5.3942703E-02
         383 -2.0539982E-03
         384 -2.4402151E-03
         385  3.0783517E-03
         386 -7.5461827E-02
         387 -9.1658548E-02
         388 -4.1939907E-02
         389  1.7537829E-02
         390 -1.3355848E-02
         391 -1.7140683E-02
         392  1.5711753E-02
         393  2.0642893E-02
         394 -9.8345568E-03
         395  1.6786842E-02
         396 -1.2214560E-02
         397 -1.3582477E-02
         398  3.0644298E-02
         399 -1.6784780E-02
         400 -9.9074573E-04
         401  2.1974834E-02
         402 -1.7206298E-02
         403  6.5107322E-03
         404 -5.4026390E-03
         405  5.2740004E-02
         406  6.1952961E-03
         407 -2.4656240E-02
         408  5.5716564E-03
         409 -1.1792430E-03
         410 -6.1768685E-02
         411  2.9457037E-03
         412  1.4434311E-02
         413  3.1035158E-04
         414  3.1381906E-03
         415  1.3235681E-02
         416  2.9246195E-04
         417 -4.0393625E-03
         418  5.3223087E-03
         419  1.0535554E-03
         420  4.9688585E-02
         421  1.2416892E-03
         422 -9.2721665E-03
         423 -5.0538000E-02
         424  2.5870183E-02
         425  1.0017814E-02
         426  5.8382605E-03
         427  2.1952236E-02
         428  5.7070218E-02
         429 -2.6051715E-02
         430  5.6036143E-03
         431 -8.7548885E-03
         432 -2.6082747E-02
         433 -6.5438277E-03
         434  3.1799183E-03
         435  1.4985707E-03
         436 -3.2511441E-04
         437  4.6753408E-03
         438 -3.8608961E-04
         439  1.5696809E-03
         440  6.4856652E-03
         441 -3.2047385E-03
         442  2.9680424E-03
         443  1.0505863E-03
         444 -3.3888456E-03
         445 -8.8624069E-03
         446  5.4660259E-04
         447  1.0665576E-03
         448 -8.8809978E-04
         449  2.6440036E-03
         450  2.4414640E-03
         451 -1.3825534E-03
         452 -9.1666140E-04
         453 -2.0392190E-03
         454  4.6540075E-03
         455  2.5566132E-03
         456 -8.9242851E-05
         457 -4.8489575E-03
         458  1.8221429E-03
         459 -2.3994388E-03
         460 -2.7064348E-03
         461 -1.8820049E-03
         462  3.4347272E-03
         463  4.7793088E-05
         464  2.5339317E-04
         465 -1.2926270E-03
         466  1.3962165E-03
         467 -2.9378611E-04
         468  9.9652047E-05
         469  7.4004708E-04
         470  2.4561973E-03
         471 -1.8318249E-04
         472  4.5598380E-04
         473  2.4011199E-04
         474  3.7937574E-04
         475  2.1215389E-04
         476 -1.0450004E-04
         477  7.2798357E-05
         478  3.6636434E-04
         479  4.5427086E-04
         480 -2.3659562E-04
         481 -2.9635755E-04
         482 -2.8840715E-05
         483  8.6772052E-04
         484 -7.0303686E-05
         485  4.0032106E-04
         486 -2.0349659E-04
         487 -6.3463132E-04
         488 -4.1444020E-04
         489  6.7068014E-04
         490  4.3510721E-04
         491 -1.4948093E-04
         492  4.2731719E-04
         493 -1.6156597E-03
         494  4.1445094E-04
         495 -2.7054027E-03
         496  1.2358871E-03
         497  1.2281971E-03
 Sym= Hole
 Ene= -8.5331090E-02
 Spin= Alpha
 Occup= 0
           1  1.6857132E-04
           2  4.7823912E-04
           3 -8.5576015E-05
           4 -8.2091067E-04
           5 -1.0796057E-04
           6  1.6091297E-04
           7  1.0753016E-04
           8  3.7062290E-04
           9  3.1739855E-04
          10  5.1682669E-04
          11 -7.7022952E-03
          12 -8.1583411E-03
          13 -1.7708367E-04
          14  1.9473815E-04
          15  2.7418829E-04
          16 -6.2009429E-05
          17 -9.6310549E-05
          18  1.8507400E-05
          19 -4.1400087E-03
          20 -4.6587088E-03
          21 -1.1902389E-04
          22  1.0410384E-04
          23 -3.6786932E-05
          24 -2.9059584E-04
          25  2.9015564E-05
          26 -7.8670077E-05
          27  2.6975689E-03
          28  3.3606749E-03
          29 -7.4962729E-05
          30 -6.3793137E-05
          31  1.3361645E-06
          32  1.0061396E-05
          33 -8.1593935E-06
          34  2.2073735E-04
          35  6.8851640E-03
          36  7.6954593E-03
          37 -5.5804761E-05
          38  1.1127117E-04
          39  9.8655313E-05
          40  1.6453532E-04
          41 -1.6033002E-04
          42  9.7855147E-05
          43  3.4135405E-03
          44  4.3274658E-03
          45  2.0421370E-05
          46 -2.8575640E-04
          47 -4.5170404E-05
          48  1.3448224E-04
          49  7.2240960E-06
          50 -1.0778669E-04
          51 -3.8357794E-03
          52 -4.7306069E-03
          53 -2.4908510E-04
          54 -8.3745085E-04
          55  1.7672224E-04
          56  1.3716733E-04
          57  3.1825533E-04
          58  1.4907753E-04
          59 -6.2672899E-04
          60  1.4254496E-04
          61  9.8098989E-04
          62  1.1124925E-03
          63  5.3877727E-04
          64 -1.9365299E-04
          65 -4.2440766E-03
          66 -2.6025048E-03
          67 -1.9677219E-03
          68  3.7026368E-03
          69  2.3508274E-03
          70  6.3602097E-04
          71  1.0897398E-03
          72 -9.3819742E-04
          73  6.0330760E-03
          74  5.8505032E-03
          75 -3.1587493E-03
          76 -9.2153084E-03
          77 -2.6664380E-03
          78 -4.4201766E-03
          79  1.8944354E-03
          80  1.0307344E-03
          81 -1.1168296E-02
          82 -2.4519892E-02
          83 -1.1808272E-02
          84  9.9239117E-03
          85  1.5104251E-03
          86 -1.5022319E-03
          87 -3.0636410E-03
          88  2.9710564E-03
          89 -2.6386088E-02
          90  2.1187115E-02
          91  5.6921635E-03
          92  5.4331124E-02
          93  7.3385155E-03
          94 -4.3371408E-03
          95 -4.6745565E-04
          96 -3.9702184E-03
          97  1.2742321E-02
          98 -2.1064457E-02
          99 -6.1895646E-02
         100 -0.1013137    
         101 -7.1232645E-03
         102  4.9011922E-03
         103  1.5040167E-03
         104 -2.7938554E-04
         105 -2.0167329E-03
         106  8.2765771E-03
         107 -0.2755648    
         108 -0.3335763    
         109 -1.2885606E-03
         110  2.1496606E-03
         111 -6.9589089E-03
         112 -7.6244068E-03
         113  3.2702493E-03
         114 -2.9304915E-03
         115 -0.1947659    
         116 -0.2419150    
         117 -6.3562801E-04
         118 -1.3125385E-04
         119 -4.1007390E-03
         120 -6.7922426E-03
         121 -2.8382969E-04
         122  8.2573504E-04
         123  8.6955845E-02
         124  0.1031100    
         125  5.4098098E-05
         126 -5.2771956E-04
         127  1.9605395E-03
         128  1.9838749E-03
         129  2.6026156E-03
         130 -1.1087952E-03
         131  0.2898810    
         132  0.3378365    
         133 -3.9369342E-04
         134 -1.0173380E-03
         135  7.8497473E-03
         136  8.0246395E-03
         137 -3.8507166E-03
         138  8.8962344E-03
         139  0.1958642    
         140  0.2298384    
         141  1.3269787E-04
         142 -1.7325594E-03
         143  8.0607822E-03
         144  4.8082164E-03
         145  5.3622285E-03
         146 -3.5603668E-03
         147 -2.7020453E-02
         148 -4.1854654E-02
         149 -1.7206289E-03
         150 -3.7267595E-03
         151 -4.0343511E-03
         152 -4.1578836E-03
         153  1.2408928E-02
         154 -0.2230285    
         155 -1.4739032E-02
         156  3.1619783E-02
         157 -7.0113288E-03
         158 -5.2621290E-03
         159  1.2116798E-03
         160  4.5334469E-03
         161  2.1226567E-03
         162 -0.2549353    
         163 -6.3285802E-04
         164  7.2075643E-02
         165 -1.7016358E-03
         166 -8.9244535E-03
         167 -3.6864763E-03
         168  2.4058195E-03
         169  5.3064467E-04
         170 -4.0961500E-02
         171 -4.2590691E-04
         172  6.5292967E-03
         173  3.5504374E-04
         174 -1.9521104E-03
         175 -1.5308883E-03
         176 -9.9698373E-04
         177  2.3327060E-03
         178  0.2219477    
         179 -9.9053318E-03
         180 -4.6047781E-02
         181  4.5218586E-04
         182  6.1581563E-03
         183 -2.2712562E-03
         184 -1.9143902E-03
         185  1.6274080E-03
         186  0.2591780    
         187 -1.6502727E-02
         188 -5.9050504E-02
         189  1.2567232E-04
         190  7.9101138E-03
         191 -3.7265883E-03
         192 -5.9512065E-04
         193  1.5289667E-03
         194  3.8755663E-02
         195 -1.6335494E-04
         196 -5.4545873E-03
         197 -1.9394292E-03
         198  1.8491985E-03
         199  2.7423943E-04
         200  1.8691383E-03
         201 -1.2876226E-03
         202 -7.9618692E-03
         203  3.0904089E-04
         204 -4.6834191E-03
         205  1.0418921E-04
         206 -3.8647209E-04
         207  1.4495583E-04
         208  1.3848346E-03
         209 -2.8406011E-03
         210 -4.0522651E-03
         211  1.3176623E-03
         212  1.9178009E-03
         213  7.1737147E-04
         214 -3.2643846E-03
         215  2.6301823E-03
         216 -2.2808234E-03
         217  9.9156785E-04
         218  1.1368620E-03
         219  2.3072008E-03
         220 -1.6774199E-03
         221 -8.4425599E-05
         222  2.4465744E-03
         223  3.8508750E-03
         224 -1.0925543E-03
         225  1.4545629E-03
         226  9.5413439E-03
         227  4.9348810E-04
         228 -9.7596343E-04
         229 -1.3274108E-03
         230  4.4747442E-03
         231  5.8656844E-04
         232 -1.4839743E-03
         233  1.8824532E-04
         234  9.5749246E-03
         235  2.4613881E-04
         236 -1.3955870E-04
         237 -7.6071400E-04
         238  1.7505519E-03
         239  1.1888547E-03
         240 -1.4895017E-03
         241 -3.4493054E-04
         242 -6.3349227E-03
         243  8.7415690E-05
         244  3.9084474E-04
         245  5.9702848E-05
         246 -4.3368360E-04
         247  1.7188161E-03
         248  1.2004400E-03
         249 -6.7662814E-04
         250 -1.4743077E-02
         251  4.4096037E-04
         252 -1.5884107E-04
         253  1.4677462E-04
         254 -3.0456749E-03
         255  8.0055086E-04
         256  1.6137450E-03
         257  7.2598038E-04
         258  1.0311606E-02
         259  6.2595195E-06
         260  2.0825139E-03
         261  2.2932210E-04
         262 -2.2885618E-04
         263  3.4759386E-04
         264  4.1322922E-04
         265 -1.7057837E-04
         266  4.9523458E-02
         267  2.8869137E-03
         268  1.0387755E-02
         269  2.6570668E-04
         270  8.9325267E-04
         271  5.4361793E-04
         272  3.9274772E-05
         273  3.1144224E-04
         274  3.9579242E-02
         275  1.6283804E-03
         276  8.3819078E-03
         277  5.2734435E-06
         278  1.1316299E-03
         279  2.9740922E-04
         280  2.1685938E-04
         281 -9.3255774E-05
         282 -1.0637905E-02
         283 -2.7611901E-04
         284 -2.2314205E-03
         285 -3.0464830E-04
         286 -1.9242836E-04
         287  4.1145372E-04
         288  3.1442509E-04
         289  5.4878285E-05
         290 -5.0199736E-02
         291 -1.2974817E-03
         292 -1.1254739E-02
         293 -2.7964823E-04
         294 -1.6440053E-03
         295  5.7883334E-04
         296 -2.2911885E-05
         297 -4.5782869E-04
         298 -3.8181759E-02
         299 -2.0402593E-03
         300 -9.0294369E-03
         301  8.7037483E-07
         302 -1.0607822E-03
         303 -1.1511584E-04
         304 -7.4615789E-05
         305 -2.4601002E-04
         306  4.5541781E-03
         307  1.8147207E-03
         308  1.1320842E-03
         309  4.9881321E-05
         310  4.6201027E-04
         311  3.9668923E-04
         312  1.3518728E-04
         313 -2.3110508E-04
         314  6.4914988E-04
         315 -4.4065612E-04
         316  4.8169732E-04
         317  1.4095484E-04
         318 -7.1775849E-04
         319  3.5320412E-04
         320 -1.7035937E-04
         321  4.7803402E-04
         322  1.7123253E-04
         323  8.5369713E-04
         324 -1.0222595E-03
         325  9.8680015E-05
         326 -3.0161336E-04
         327  7.9557352E-04
         328 -1.8293380E-05
         329 -1.7164322E-04
         330 -1.2417120E-04
         331 -3.4558496E-05
         332  4.1717612E-05
         333  2.3769221E-04
         334 -1.9861147E-05
         335 -1.0439169E-04
         336 -1.7833075E-04
         337 -1.2678787E-04
         338 -2.0119507E-04
         339 -3.5223737E-05
         340  3.5951685E-05
         341 -2.6114582E-04
         342 -2.8781613E-04
         343  1.3483985E-04
         344 -5.1580591E-04
         345 -5.8211223E-04
         346 -4.0476079E-04
         347  1.2264933E-04
         348 -1.3000523E-03
         349  8.2440420E-05
         350  1.1048700E-04
         351  9.9827648E-06
         352 -9.4145717E-04
         353  3.2758664E-03
         354  1.2746596E-04
         355 -1.4727750E-04
         356  5.6765479E-04
         357  9.1115292E-04
         358  1.7839614E-02
         359 -3.9049175E-03
         360 -4.9017225E-03
         361 -5.5574439E-03
         362 -2.6563089E-06
         363 -2.7629952E-03
         364 -1.1128853E-04
         365  1.1849348E-03
         366 -2.5446138E-03
         367  4.5513269E-03
         368 -7.1513881E-03
         369  2.2478163E-04
         370  2.2654093E-03
         371  8.5644489E-03
         372  1.2142590E-02
         373 -8.7160501E-04
         374  1.0496627E-03
         375  6.3909602E-04
         376  6.8582064E-03
         377  6.7223213E-03
         378  1.6786186E-03
         379  2.8380670E-04
         380 -2.8106622E-05
         381 -3.3252595E-03
         382 -4.3519810E-03
         383 -3.4981098E-03
         384  1.4442073E-03
         385  1.4022415E-04
         386 -1.0662700E-02
         387 -1.3250791E-02
         388 -9.0599865E-02
         389  5.9247366E-03
         390 -3.3716999E-03
         391  1.0868299E-03
         392 -3.5408766E-03
         393  2.4851089E-02
         394  1.8577396E-04
         395 -1.0450517E-03
         396 -2.5344931E-03
         397 -4.1641048E-04
         398  6.5225780E-02
         399 -2.9360589E-03
         400  3.8486917E-03
         401 -1.1402558E-03
         402  1.5072009E-03
         403  3.3532020E-03
         404  3.1215153E-03
         405  1.0236993E-02
         406 -4.2234892E-03
         407 -5.9019094E-03
         408 -6.0104183E-03
         409  2.2543240E-03
         410  9.2047057E-04
         411  1.6101245E-04
         412 -1.6277351E-03
         413  1.8353210E-03
         414  1.4878834E-03
         415 -7.6186755E-03
         416 -5.0418376E-04
         417  1.4287853E-03
         418 -3.8420800E-03
         419  9.5737720E-05
         420 -8.8126417E-03
         421  2.7919936E-04
         422  2.6053099E-03
         423  1.1971590E-02
         424 -9.2846685E-04
         425 -1.8588061E-04
         426  1.8664814E-03
         427 -1.0126302E-03
         428 -1.0041852E-02
         429  5.7605427E-04
         430  3.0148118E-05
         431 -2.1983174E-06
         432 -3.0477045E-04
         433  2.6757529E-03
         434  1.2261164E-03
         435  8.6070132E-04
         436 -3.5105331E-04
         437  6.6773599E-04
         438  2.3364029E-03
         439  8.1501011E-04
         440  9.6710149E-04
         441 -2.2381139E-03
         442  3.4874771E-04
         443  2.0478909E-04
         444 -9.2361675E-05
         445  8.4651023E-04
         446 -1.4659375E-03
         447  7.2493567E-04
         448 -3.4940636E-04
         449 -4.8560943E-04
         450 -1.9217549E-04
         451 -7.9712272E-04
         452  6.1056489E-04
         453  4.4004992E-04
         454 -4.2455952E-04
         455  2.7712894E-04
         456 -5.9381500E-04
         457  2.5778165E-04
         458 -3.6608047E-04
         459 -1.9175591E-03
         460 -1.7614252E-03
         461  8.9553907E-04
         462  5.2703236E-04
         463 -1.4412629E-03
         464 -7.0170121E-04
         465 -2.6826237E-03
         466 -2.2861593E-04
         467 -5.0813006E-04
         468 -6.4174143E-05
         469 -9.0949005E-05
         470 -1.2145248E-03
         471  1.2575061E-04
         472 -2.7765011E-04
         473  6.0335577E-05
         474  5.1770123E-05
         475  9.8114111E-04
         476  1.0784412E-04
         477  3.1783635E-04
         478  9.7720150E-04
         479  1.3711769E-04
         480  1.5679596E-03
         481  1.9848747E-04
         482  4.7891945E-04
         483 -1.0323043E-02
         484  6.8441062E-04
         485  3.5755843E-04
         486 -6.2951221E-05
         487 -5.4871046E-04
         488  2.5836201E-03
         489 -3.6569548E-04
         490  2.0413056E-04
         491 -1.7442550E-05
         492 -1.6651242E-05
         493  7.6271892E-03
         494 -1.0061688E-03
         495  1.2307435E-03
         496 -5.0674781E-04
         497  6.1882718E-04
 Sym= Particle
 Ene= -8.5331090E-02
 Spin= Alpha
 Occup= 2
           1  1.0499315E-03
           2  2.4412211E-04
           3  1.4914395E-03
           4 -6.4593396E-04
           5 -2.1205214E-03
           6 -1.2796415E-03
           7 -9.5026859E-04
           8 -9.8186824E-04
           9 -4.3572189E-04
          10 -1.2573539E-03
          11  1.1890824E-05
          12 -5.5399095E-04
          13 -1.2383277E-03
          14  6.6810724E-04
          15 -1.1353033E-03
          16  4.6796788E-04
          17  1.0416096E-03
          18 -7.0004615E-05
          19 -8.1363609E-03
          20 -1.0753128E-02
          21 -1.5969750E-03
          22  2.4420107E-04
          23  1.7542323E-03
          24  3.7781752E-03
          25  3.2341530E-04
          26  2.1797765E-04
          27  9.3556428E-03
          28  1.0729206E-02
          29 -8.2319049E-04
          30 -6.1745179E-04
          31 -2.8973096E-03
          32 -3.5560885E-03
          33  8.9296629E-04
          34  7.0980156E-04
          35 -1.3315175E-03
          36 -1.5326323E-03
          37 -1.3110058E-03
          38 -2.4509159E-04
          39  1.1299418E-03
          40  1.0129012E-03
          41 -8.6705404E-04
          42  2.9669117E-04
          43 -9.3427859E-03
          44 -7.9259370E-03
          45 -1.8199204E-04
          46 -4.8244151E-04
          47  3.5513795E-03
          48  2.7123739E-03
          49  3.9818138E-03
          50  3.7657972E-03
          51  1.2492849E-02
          52  7.8984499E-03
          53 -3.6006279E-03
          54 -3.9975098E-04
          55 -4.2314939E-03
          56 -2.5985823E-03
          57  3.2322474E-03
          58  6.6012437E-03
          59  1.8593506E-03
          60 -2.6647069E-03
          61 -3.1177751E-03
          62  7.3222516E-05
          63  2.9169195E-04
          64  1.6792298E-03
          65 -4.8154755E-03
          66  6.4471993E-03
          67 -2.3322124E-03
          68  5.7750298E-03
          69  2.4484252E-03
          70 -7.3769893E-03
          71  1.7357517E-03
          72 -8.1826764E-04
          73 -4.4539352E-03
          74 -3.5278246E-04
          75 -4.6032756E-03
          76  6.1919331E-03
          77  1.2405606E-02
          78  8.0216005E-03
          79  8.4521988E-04
          80 -3.8046313E-03
          81 -3.1507745E-02
          82 -3.9570455E-02
          83 -2.0946225E-02
          84  1.6353676E-02
          85  2.9865449E-02
          86  1.8877910E-02
          87  2.3245661E-02
          88 -1.0598978E-05
          89  3.3720799E-02
          90 -3.1100642E-02
          91  3.4831870E-02
          92 -4.6519816E-02
          93 -1.0948142E-02
          94 -3.0251117E-03
          95  1.0439180E-03
          96  2.1931265E-02
          97  3.0165818E-02
          98 -2.4429644E-02
          99  0.3155318    
         100  0.3400635    
         101 -2.3572903E-02
         102  7.8948904E-03
         103 -0.1071112    
         104 -0.1129674    
         105 -9.3609365E-03
         106  3.9045882E-04
         107 -7.9108886E-02
         108 -7.3681526E-02
         109  4.8671020E-03
         110  3.2062875E-03
         111  2.3478795E-02
         112  2.2233661E-02
         113  1.9378656E-03
         114 -2.8116410E-03
         115 -0.2103494    
         116 -0.2616427    
         117 -2.5837950E-03
         118  3.9989976E-03
         119  6.0967699E-02
         120  8.0042958E-02
         121  2.7012010E-03
         122 -3.5663066E-03
         123  0.2827165    
         124  0.3364955    
         125 -4.5058676E-03
         126  5.0226310E-03
         127 -8.4143840E-02
         128 -9.9607974E-02
         129  2.8017340E-03
         130 -2.8286730E-03
         131 -6.7642242E-02
         132 -8.9583270E-02
         133 -4.6138600E-03
         134  3.1298113E-03
         135  2.0681690E-02
         136  3.1141428E-02
         137 -6.0721878E-03
         138  9.5069399E-03
         139 -0.2173415    
         140 -0.2588726    
         141 -1.6045789E-03
         142  1.0836477E-03
         143  6.5525055E-02
         144  8.3744846E-02
         145  7.2681776E-04
         146 -2.6180218E-05
         147 -7.0291595E-03
         148 -1.7059932E-02
         149 -4.4951625E-03
         150  5.8222236E-03
         151 -7.7384142E-03
         152 -1.3623719E-02
         153 -4.4431072E-02
         154 -0.1767983    
         155  7.0190050E-02
         156  7.2804585E-02
         157  4.4861436E-02
         158  6.6525795E-02
         159 -3.8382076E-02
         160 -2.1780059E-02
         161 -3.2850143E-03
         162 -0.1241457    
         163  1.9013055E-02
         164  8.5338531E-03
         165  1.3184116E-02
         166  4.7321592E-02
         167 -1.7884344E-02
         168  2.5234144E-04
         169 -3.9074048E-03
         170  0.2872630    
         171 -6.5036193E-03
         172 -6.2642008E-02
         173  3.8158298E-03
         174 -8.4249221E-02
         175  3.9685820E-03
         176  2.4022603E-02
         177 -2.3774826E-03
         178 -0.1673470    
         179  7.6164696E-03
         180  3.4507006E-02
         181  1.8127490E-03
         182  5.2274730E-02
         183 -3.0998706E-03
         184 -7.6280604E-03
         185 -5.7951980E-03
         186 -0.1150258    
         187  9.9758040E-03
         188  3.0867733E-02
         189  2.1035019E-03
         190  3.5049304E-02
         191  2.2594025E-04
         192 -7.7264835E-03
         193  1.9540130E-03
         194  0.2934833    
         195 -1.6273776E-02
         196 -5.8771834E-02
         197  4.2918446E-03
         198 -9.7046055E-02
         199  9.5245577E-03
         200  1.7073538E-02
         201  3.4032217E-03
         202  2.6579000E-02
         203  1.9587595E-04
         204  5.4555042E-03
         205 -2.0289875E-03
         206  3.7176087E-03
         207 -4.2075908E-04
         208 -7.2479649E-03
         209 -2.8464035E-04
         210 -1.6989874E-03
         211  1.2101034E-03
         212 -7.7281555E-04
         213 -7.8008696E-04
         214 -9.9499361E-04
         215 -2.8735078E-03
         216  7.2663934E-03
         217 -6.7388959E-04
         218 -1.0433923E-02
         219 -5.3955533E-04
         220 -1.5848227E-03
         221 -1.3639791E-03
         222 -3.8459362E-03
         223  3.0901807E-03
         224  9.8812655E-03
         225 -1.0669667E-03
         226  9.2388578E-03
         227 -1.3630460E-03
         228  2.2834285E-04
         229  3.4898678E-03
         230  4.2466512E-03
         231  3.1219146E-03
         232  2.6228831E-03
         233 -2.7542276E-04
         234 -1.5043392E-03
         235 -8.4556808E-04
         236  6.1489170E-04
         237 -3.6649735E-04
         238 -9.6686759E-05
         239  2.3204179E-03
         240 -2.6560442E-03
         241 -5.6573440E-04
         242 -6.4064665E-03
         243 -1.7763134E-04
         244  3.5045779E-04
         245 -3.7256388E-03
         246 -4.0862565E-03
         247 -1.2641398E-03
         248  1.9579958E-03
         249 -1.9289982E-03
         250  4.9052904E-03
         251  3.0333449E-03
         252  6.1910431E-04
         253  7.0787943E-04
         254  1.5026935E-03
         255 -3.4912128E-03
         256 -6.6121836E-04
         257 -1.8670834E-03
         258  5.1971275E-02
         259  4.7417590E-03
         260  1.2614850E-02
         261  1.8706492E-03
         262 -1.6840361E-02
         263 -3.6773437E-03
         264 -4.9112886E-03
         265  5.4555992E-04
         266 -2.0315621E-02
         267 -7.9937093E-04
         268 -4.5727300E-03
         269 -8.5322763E-04
         270  5.1887101E-03
         271  1.9158490E-04
         272  4.6000275E-04
         273 -5.1175353E-05
         274 -3.0338958E-02
         275 -1.3587822E-03
         276 -5.9327311E-03
         277 -3.7115961E-04
         278  8.7782042E-03
         279  8.5188902E-04
         280  1.6233550E-03
         281  4.3408186E-04
         282  5.1089514E-02
         283  3.2980335E-03
         284  1.1320086E-02
         285 -7.6072896E-04
         286 -1.6160304E-02
         287 -1.8385137E-03
         288 -3.4859127E-03
         289  2.7577442E-05
         290 -2.0786360E-02
         291 -4.3902235E-04
         292 -4.5141764E-03
         293 -3.4890798E-04
         294  6.2093697E-03
         295  1.9479738E-05
         296  1.7420319E-03
         297 -2.2961978E-04
         298 -3.1140160E-02
         299 -1.5303531E-03
         300 -6.2959264E-03
         301  4.2283704E-04
         302  1.0211960E-02
         303 -7.1599716E-05
         304  2.2337174E-03
         305  6.5350125E-04
         306 -3.6146867E-03
         307 -4.9945753E-04
         308 -1.0254814E-03
         309 -8.8750315E-04
         310 -2.0813850E-04
         311 -1.7313421E-04
         312  1.0190270E-03
         313  9.1444876E-05
         314 -1.7105883E-03
         315 -1.4614013E-03
         316 -2.3014429E-04
         317  2.2531560E-04
         318 -8.8545115E-04
         319 -3.4732837E-04
         320  2.6912929E-04
         321  7.5010158E-04
         322 -6.8070443E-04
         323  7.8599820E-05
         324 -7.0835790E-04
         325 -2.8338113E-03
         326  1.0588078E-03
         327 -1.1645574E-03
         328 -6.9213042E-04
         329 -3.6494786E-04
         330  7.6592789E-04
         331 -3.5467821E-03
         332 -1.6564529E-03
         333 -2.5947798E-05
         334  6.7345245E-05
         335 -6.9854641E-04
         336  2.7318324E-03
         337  2.0736230E-03
         338 -7.3181855E-04
         339 -3.2702004E-04
         340  4.8039958E-04
         341  6.0740375E-04
         342  9.2873643E-06
         343 -1.2393589E-03
         344  4.7179381E-04
         345 -1.6827541E-04
         346 -1.5913850E-03
         347 -1.4547212E-03
         348  1.8323554E-03
         349 -2.7857076E-03
         350 -1.1164725E-03
         351 -1.3214326E-03
         352  3.1286997E-03
         353  3.3088675E-04
         354 -4.8715057E-04
         355 -1.3785491E-04
         356 -4.6579973E-04
         357 -1.0839220E-03
         358  1.0232871E-02
         359 -4.4152774E-03
         360 -1.3704059E-02
         361 -3.4574121E-03
         362  4.8538111E-03
         363  1.0593801E-02
         364  4.2804917E-03
         365  1.1616102E-02
         366  1.6106326E-02
         367  1.2717083E-02
         368 -5.5750171E-03
         369 -1.6594407E-03
         370 -1.1636449E-03
         371 -2.0978171E-02
         372 -2.0236941E-02
         373 -9.6212042E-04
         374 -4.9274317E-03
         375 -3.3378860E-04
         376 -5.6270909E-02
         377 -6.0874492E-02
         378  5.0520420E-04
         379 -3.4820777E-03
         380  1.2494937E-03
         381  7.3673859E-02
         382  8.6557269E-02
         383 -6.6533516E-04
         384 -4.9196864E-03
         385  1.1363993E-03
         386 -1.7184746E-02
         387 -1.3999289E-02
         388  8.0263741E-02
         389 -4.5396935E-02
         390  4.4980622E-03
         391  4.5508262E-02
         392 -1.8564401E-02
         393 -2.7827622E-02
         394  9.7354772E-03
         395 -6.0789194E-03
         396 -1.7267613E-02
         397 -3.0447163E-03
         398 -5.2805077E-02
         399  2.0032361E-02
         400  1.0774094E-02
         401 -7.2359210E-03
         402  1.8691760E-02
         403  1.0205015E-02
         404 -5.0989274E-06
         405 -1.7107332E-02
         406 -1.7576460E-02
         407 -1.3431786E-02
         408  1.1496914E-02
         409 -2.7410469E-03
         410  7.0017196E-02
         411 -2.6752001E-03
         412 -1.3379562E-02
         413  1.5546154E-03
         414 -8.1973441E-04
         415 -4.1307975E-02
         416 -2.6642957E-03
         417  9.6292822E-03
         418  5.8007264E-03
         419 -3.3881667E-03
         420 -3.1111415E-02
         421 -1.0019047E-03
         422  6.5993494E-03
         423  5.0527900E-02
         424 -2.3892764E-02
         425 -7.9748658E-03
         426 -2.0007901E-02
         427 -1.4986762E-02
         428 -7.0665181E-02
         429  3.2345530E-02
         430 -1.3086054E-02
         431  1.2300969E-02
         432  3.4870509E-02
         433  1.2553222E-02
         434 -8.1921862E-03
         435  1.5332992E-03
         436  4.3072919E-03
         437 -3.2313445E-03
         438  9.0376394E-05
         439 -4.1886861E-03
         440 -9.3114302E-03
         441  3.1374241E-03
         442 -2.3179068E-03
         443 -2.7538089E-03
         444  4.9565714E-03
         445  1.0724015E-02
         446 -1.8627282E-03
         447  1.3134942E-03
         448 -4.5395602E-04
         449 -5.6982384E-04
         450 -1.2090711E-03
         451  2.2720906E-04
         452 -1.3284622E-03
         453  2.3818193E-03
         454 -4.4056769E-03
         455 -4.6422579E-03
         456 -2.1698112E-03
         457  6.1478950E-03
         458 -1.4213383E-03
         459  1.6263491E-03
         460  4.6510054E-03
         461 -1.9247417E-03
         462 -7.3860167E-04
         463  2.5009907E-05
         464 -8.0021814E-04
         465 -5.8986330E-03
         466  4.8691861E-04
         467 -3.1081680E-03
         468  6.4641921E-05
         469  9.0528592E-05
         470 -8.0054272E-03
         471  4.4807277E-04
         472 -1.8961948E-03
         473 -8.8780891E-04
         474  2.3768553E-04
         475  1.1666807E-02
         476 -1.1331486E-03
         477  2.3757208E-03
         478 -1.4159334E-04
         479 -3.4294691E-04
         480 -4.9282992E-03
         481 -6.3159532E-04
         482 -1.0071980E-03
         483 -8.1998240E-03
         484  3.0025775E-03
         485  2.5269839E-03
         486  1.7407532E-03
         487  4.8039425E-03
         488  1.0909997E-03
         489 -1.2972633E-03
         490 -4.4195855E-04
         491  4.2292799E-04
         492 -3.8798925E-04
         493  5.3377147E-03
         494 -3.0920587E-03
         495  5.1862950E-04
         496 -1.7334154E-03
         497 -4.2919131E-04
