 [Molden Format]
 [Atoms] Angs
C       1      6     -5.15653644     -1.53124927     -0.00210170
C       2      6     -5.57096836     -0.19873936     -0.00322223
C       3      6     -4.64493849      0.82088190     -0.00339751
C       4      6     -3.28025219      0.52231166     -0.00247075
N       5      7     -2.34162733      1.51104615     -0.00242413
C       6      6     -0.98978668      1.30127636     -0.00165898
C       7      6     -0.11146986      2.36390965     -0.00135596
C       8      6      1.27437384      2.15270457     -0.00105841
C       9      6      1.77270606      0.87820447     -0.00116761
C      10      6      3.11799810      0.36841420     -0.00146094
C      11      6      4.35614748      0.99072195     -0.00197747
C      12      6      5.49671012      0.20650427     -0.00263390
C      13      6      5.41131858     -1.18462873     -0.00275719
C      14      6      4.18650838     -1.82363627     -0.00223018
C      15      6      3.02736739     -1.05271363     -0.00160087
C      16      6      1.64909300     -1.41974126     -0.00124948
C      17      6      0.88985107     -0.26822213     -0.00115487
C      18      6     -0.52818469     -0.06890573     -0.00126330
C      19      6     -1.45324723     -1.08406445     -0.00106058
C      20      6     -2.84743547     -0.82448148     -0.00155877
C      21      6     -3.81672630     -1.83962864     -0.00131442
H      22      1     -5.89377710     -2.31975928     -0.00190119
H      23      1     -6.62500210      0.03469112     -0.00395829
H      24      1     -4.96244312      1.85372354     -0.00424543
H      25      1     -2.66404723      2.47167482     -0.00298189
H      26      1     -0.49786877      3.37312285     -0.00148281
H      27      1      1.93744987      3.00616549     -0.00089008
H      28      1      4.43411960      2.06928203     -0.00197304
H      29      1      6.47059313      0.67650929     -0.00314820
H      30      1      6.32148853     -1.76893498     -0.00330880
H      31      1      4.12818845     -2.90375790     -0.00228115
H      32      1      1.29035677     -2.43352314     -0.00124115
H      33      1     -1.12157381     -2.11101073     -0.00056945
H      34      1     -3.48902777     -2.86859029     -0.00052528
 [GTO]
           1   0
s              4   1.000000
     34.90412525     -0.01198412
      6.01077919     -0.05472052
      0.48299176      0.58055871
      0.18408011      0.47700799
p              4   1.000000
      5.62571164      0.05713170
      1.45866302      0.28574555
      0.51422385      0.55178731
      0.20472138      0.26323149
s              7   1.000000
      0.38350848     -0.19626021
      0.04707223      0.94825718
      0.02222627      0.24902673
     34.90412525      0.00552026
      6.01077919      0.02520597
      0.48299176     -0.26742332
      0.18408011     -0.21972465
p              7   1.000000
      1.83062075     -0.01161317
      0.10124670      0.57068885
      0.03901771      0.59599973
      5.62571164     -0.02528716
      1.45866302     -0.12647431
      0.51422385     -0.24422749
      0.20472138     -0.11650933
 
           2   0
s              4   1.000000
     34.91558462     -0.01198412
      6.01275259     -0.05472053
      0.48315033      0.58055871
      0.18414055      0.47700800
p              4   1.000000
      5.62755862      0.05713170
      1.45914192      0.28574555
      0.51439268      0.55178731
      0.20478859      0.26323149
s              7   1.000000
      0.38350848     -0.19624944
      0.04707223      0.94820517
      0.02222627      0.24901308
     34.91558462      0.00551853
      6.01275259      0.02519807
      0.48315033     -0.26733951
      0.18414055     -0.21965580
p              7   1.000000
      1.83062075     -0.01161257
      0.10124670      0.57065944
      0.03901771      0.59596903
      5.62755862     -0.02527920
      1.45914192     -0.12643453
      0.51439268     -0.24415067
      0.20478859     -0.11647268
 
           3   0
s              4   1.000000
     34.98105037     -0.01198412
      6.02402633     -0.05472052
      0.48405622      0.58055871
      0.18448581      0.47700799
p              4   1.000000
      5.63811013      0.05713170
      1.46187777      0.28574555
      0.51535715      0.55178730
      0.20517256      0.26323149
s              7   1.000000
      0.38350848     -0.19618812
      0.04707223      0.94790893
      0.02222627      0.24893528
     34.98105037      0.00550866
      6.02402633      0.02515304
      0.48405622     -0.26686173
      0.18448581     -0.21926323
p              7   1.000000
      1.83062075     -0.01160916
      0.10124670      0.57049195
      0.03901771      0.59579410
      5.63811013     -0.02523385
      1.46187777     -0.12620770
      0.51535715     -0.24371266
      0.20517256     -0.11626372
 
           4   0
s              4   1.000000
     35.18663094     -0.01198412
      6.05942901     -0.05472053
      0.48690098      0.58055871
      0.18557001      0.47700800
p              4   1.000000
      5.67124481      0.05713170
      1.47046909      0.28574555
      0.51838586      0.55178731
      0.20637834      0.26323149
s              7   1.000000
      0.38350848     -0.19599755
      0.04707223      0.94698814
      0.02222627      0.24869346
     35.18663094      0.00547792
      6.05942901      0.02501264
      0.48690098     -0.26537220
      0.18557001     -0.21803938
p              7   1.000000
      1.83062075     -0.01159857
      0.10124670      0.56997138
      0.03901771      0.59525045
      5.67124481     -0.02509246
      1.47046909     -0.12550052
      0.51838586     -0.24234705
      0.20637834     -0.11561226
 
           5   0
s              4   1.000000
     60.97819216     -0.01198412
     10.50094926     -0.05472052
      0.84379608      0.58055871
      0.32159157      0.47700799
p              4   1.000000
      7.18762000      0.05713170
      1.86364254      0.28574555
      0.65699166      0.55178731
      0.26155970      0.26323149
s              7   1.000000
      0.47894987     -0.18785047
      0.05878681      0.90762444
      0.02775758      0.23835596
     60.97819216      0.00398412
     10.50094926      0.01819183
      0.84379608     -0.19300665
      0.32159157     -0.15858123
p              7   1.000000
      2.28619608     -0.01157241
      0.12644335      0.56868607
      0.04872781      0.59390814
      7.18762000     -0.02474047
      1.86364254     -0.12374003
      0.65699166     -0.23894747
      0.26155970     -0.11399048
 
           6   0
s              4   1.000000
     35.15952632     -0.01198412
      6.05476137     -0.05472053
      0.48652591      0.58055871
      0.18542707      0.47700799
p              4   1.000000
      5.66687620      0.05713170
      1.46933638      0.28574555
      0.51798654      0.55178731
      0.20621937      0.26323149
s              7   1.000000
      0.38350848     -0.19602251
      0.04707223      0.94710870
      0.02222627      0.24872512
     35.15952632      0.00548195
      6.05476137      0.02503106
      0.48652591     -0.26556765
      0.18542707     -0.21819997
p              7   1.000000
      1.83062075     -0.01159995
      0.10124670      0.57003954
      0.03901771      0.59532161
      5.66687620     -0.02511101
      1.46933638     -0.12559331
      0.51798654     -0.24252625
      0.20621937     -0.11569774
 
           7   0
s              4   1.000000
     34.97684697     -0.01198412
      6.02330247     -0.05472053
      0.48399805      0.58055871
      0.18446364      0.47700799
p              4   1.000000
      5.63743265      0.05713170
      1.46170211      0.28574555
      0.51529522      0.55178731
      0.20514791      0.26323149
s              7   1.000000
      0.38350848     -0.19619205
      0.04707223      0.94792789
      0.02222627      0.24894025
     34.97684697      0.00550930
      6.02330247      0.02515592
      0.48399805     -0.26689236
      0.18446364     -0.21928839
p              7   1.000000
      1.83062075     -0.01160938
      0.10124670      0.57050269
      0.03901771      0.59580530
      5.63743265     -0.02523676
      1.46170211     -0.12622224
      0.51529522     -0.24374073
      0.20514791     -0.11627712
 
           8   0
s              4   1.000000
     34.92600088     -0.01198412
      6.01454635     -0.05472052
      0.48329446      0.58055871
      0.18419548      0.47700799
p              4   1.000000
      5.62923747      0.05713170
      1.45957722      0.28574555
      0.51454614      0.55178731
      0.20484968      0.26323149
s              7   1.000000
      0.38350848     -0.19623966
      0.04707223      0.94815794
      0.02222627      0.24900068
     34.92600088      0.00551695
      6.01454635      0.02519089
      0.48329446     -0.26726338
      0.18419548     -0.21959324
p              7   1.000000
      1.83062075     -0.01161203
      0.10124670      0.57063274
      0.03901771      0.59594115
      5.62923747     -0.02527198
      1.45957722     -0.12639838
      0.51454614     -0.24408087
      0.20484968     -0.11643938
 
           9   0
s              4   1.000000
     35.39793350     -0.01198412
      6.09581705     -0.05472053
      0.48982491      0.58055871
      0.18668440      0.47700800
p              4   1.000000
      5.70530174      0.05713170
      1.47929955      0.28574555
      0.52149887      0.55178731
      0.20761768      0.26323149
s              7   1.000000
      0.38350848     -0.19580474
      0.04707223      0.94605653
      0.02222627      0.24844881
     35.39793350      0.00544666
      6.09581705      0.02486993
      0.48982491     -0.26385809
      0.18668440     -0.21679533
p              7   1.000000
      1.83062075     -0.01158785
      0.10124670      0.56944468
      0.03901771      0.59470037
      5.70530174     -0.02494872
      1.47929955     -0.12478163
      0.52149887     -0.24095884
      0.20761768     -0.11495001
 
          10   0
s              4   1.000000
     35.40806124     -0.01198412
      6.09756114     -0.05472053
      0.48996505      0.58055871
      0.18673781      0.47700800
p              4   1.000000
      5.70693409      0.05713170
      1.47972279      0.28574555
      0.52164807      0.55178731
      0.20767709      0.26323149
s              7   1.000000
      0.38350848     -0.19579557
      0.04707223      0.94601224
      0.02222627      0.24843718
     35.40806124      0.00544517
      6.09756114      0.02486313
      0.48996505     -0.26378594
      0.18673781     -0.21673605
p              7   1.000000
      1.83062075     -0.01158734
      0.10124670      0.56941965
      0.03901771      0.59467423
      5.70693409     -0.02494187
      1.47972279     -0.12474737
      0.52164807     -0.24089269
      0.20767709     -0.11491845
 
          11   0
s              4   1.000000
     34.93076856     -0.01198412
      6.01536739     -0.05472052
      0.48336044      0.58055871
      0.18422063      0.47700799
p              4   1.000000
      5.63000591      0.05713170
      1.45977646      0.28574555
      0.51461638      0.55178731
      0.20487765      0.26323149
s              7   1.000000
      0.38350848     -0.19623519
      0.04707223      0.94813633
      0.02222627      0.24899500
     34.93076856      0.00551623
      6.01536739      0.02518761
      0.48336044     -0.26722855
      0.18422063     -0.21956462
p              7   1.000000
      1.83062075     -0.01161178
      0.10124670      0.57062053
      0.03901771      0.59592837
      5.63000591     -0.02526867
      1.45977646     -0.12638185
      0.51461638     -0.24404894
      0.20487765     -0.11642415
 
          12   0
s              4   1.000000
     34.92067418     -0.01198412
      6.01362905     -0.05472052
      0.48322075      0.58055871
      0.18416739      0.47700799
p              4   1.000000
      5.62837893      0.05713170
      1.45935461      0.28574555
      0.51446766      0.55178731
      0.20481844      0.26323149
s              7   1.000000
      0.38350848     -0.19624466
      0.04707223      0.94818208
      0.02222627      0.24900702
     34.92067418      0.00551776
      6.01362905      0.02519456
      0.48322075     -0.26730231
      0.18416739     -0.21962523
p              7   1.000000
      1.83062075     -0.01161230
      0.10124670      0.57064640
      0.03901771      0.59595539
      5.62837893     -0.02527567
      1.45935461     -0.12641686
      0.51446766     -0.24411656
      0.20481844     -0.11645641
 
          13   0
s              4   1.000000
     34.91703728     -0.01198412
      6.01300275     -0.05472052
      0.48317043      0.58055871
      0.18414821      0.47700800
p              4   1.000000
      5.62779275      0.05713170
      1.45920262      0.28574555
      0.51441408      0.55178731
      0.20479711      0.26323149
s              7   1.000000
      0.38350848     -0.19624808
      0.04707223      0.94819858
      0.02222627      0.24901135
     34.91703728      0.00551831
      6.01300275      0.02519707
      0.48317043     -0.26732889
      0.18414821     -0.21964706
p              7   1.000000
      1.83062075     -0.01161249
      0.10124670      0.57065572
      0.03901771      0.59596514
      5.62779275     -0.02527819
      1.45920262     -0.12642948
      0.51441408     -0.24414093
      0.20479711     -0.11646803
 
          14   0
s              4   1.000000
     34.93180999     -0.01198412
      6.01554673     -0.05472052
      0.48337485      0.58055871
      0.18422612      0.47700799
p              4   1.000000
      5.63017376      0.05713170
      1.45981998      0.28574555
      0.51463172      0.55178731
      0.20488376      0.26323149
s              7   1.000000
      0.38350848     -0.19623422
      0.04707223      0.94813161
      0.02222627      0.24899376
     34.93180999      0.00551608
      6.01554673      0.02518689
      0.48337485     -0.26722094
      0.18422612     -0.21955837
p              7   1.000000
      1.83062075     -0.01161172
      0.10124670      0.57061786
      0.03901771      0.59592558
      5.63017376     -0.02526795
      1.45981998     -0.12637823
      0.51463172     -0.24404197
      0.20488376     -0.11642082
 
          15   0
s              4   1.000000
     35.41811939     -0.01198412
      6.09929323     -0.05472052
      0.49010424      0.58055871
      0.18679086      0.47700800
p              4   1.000000
      5.70855522      0.05713170
      1.48014313      0.28574555
      0.52179626      0.55178731
      0.20773608      0.26323149
s              7   1.000000
      0.38350848     -0.19578648
      0.04707223      0.94596830
      0.02222627      0.24842563
     35.41811939      0.00544369
      6.09929323      0.02485638
      0.49010424     -0.26371433
      0.18679086     -0.21667721
p              7   1.000000
      1.83062075     -0.01158683
      0.10124670      0.56939481
      0.03901771      0.59464830
      5.70855522     -0.02493508
      1.48014313     -0.12471337
      0.52179626     -0.24082703
      0.20773608     -0.11488713
 
          16   0
s              4   1.000000
     35.18919272     -0.01198412
      6.05987016     -0.05472052
      0.48693642      0.58055871
      0.18558352      0.47700799
p              4   1.000000
      5.67165771      0.05713170
      1.47057615      0.28574555
      0.51842360      0.55178731
      0.20639337      0.26323149
s              7   1.000000
      0.38350848     -0.19599519
      0.04707223      0.94697675
      0.02222627      0.24869046
     35.18919272      0.00547753
      6.05987016      0.02501090
      0.48693642     -0.26535374
      0.18558352     -0.21802421
p              7   1.000000
      1.83062075     -0.01159844
      0.10124670      0.56996494
      0.03901771      0.59524369
      5.67165771     -0.02509071
      1.47057615     -0.12549175
      0.51842360     -0.24233013
      0.20639337     -0.11560418
 
          17   0
s              4   1.000000
     35.43415115     -0.01198412
      6.10205403     -0.05472052
      0.49032608      0.58055871
      0.18687540      0.47700799
p              4   1.000000
      5.71113916      0.05713170
      1.48081310      0.28574555
      0.52203244      0.55178730
      0.20783011      0.26323149
s              7   1.000000
      0.38350848     -0.19577199
      0.04707223      0.94589833
      0.02222627      0.24840725
     35.43415115      0.00544134
      6.10205403      0.02484563
      0.49032608     -0.26360027
      0.18687540     -0.21658349
p              7   1.000000
      1.83062075     -0.01158603
      0.10124670      0.56935524
      0.03901771      0.59460700
      5.71113916     -0.02492425
      1.48081310     -0.12465921
      0.52203244     -0.24072245
      0.20783011     -0.11483723
 
          18   0
s              4   1.000000
     35.11822376     -0.01198412
      6.04764872     -0.05472052
      0.48595438      0.58055871
      0.18520924      0.47700800
p              4   1.000000
      5.66021921      0.05713170
      1.46761032      0.28574555
      0.51737805      0.55178731
      0.20597712      0.26323149
s              7   1.000000
      0.38350848     -0.19606063
      0.04707223      0.94729293
      0.02222627      0.24877351
     35.11822376      0.00548811
      6.04764872      0.02505919
      0.48595438     -0.26586603
      0.18520924     -0.21844512
p              7   1.000000
      1.83062075     -0.01160207
      0.10124670      0.57014369
      0.03901771      0.59543040
      5.66021921     -0.02513934
      1.46761032     -0.12573498
      0.51737805     -0.24279981
      0.20597712     -0.11582825
 
          19   0
s              4   1.000000
     35.05196288     -0.01198412
      6.03623805     -0.05472053
      0.48503748      0.58055871
      0.18485979      0.47700799
p              4   1.000000
      5.64953954      0.05713170
      1.46484124      0.28574555
      0.51640187      0.55178731
      0.20558848      0.26323149
s              7   1.000000
      0.38350848     -0.19612205
      0.04707223      0.94758968
      0.02222627      0.24885143
     35.05196288      0.00549802
      6.03623805      0.02510443
      0.48503748     -0.26634609
      0.18485979     -0.21883956
p              7   1.000000
      1.83062075     -0.01160549
      0.10124670      0.57031147
      0.03901771      0.59560561
      5.64953954     -0.02518490
      1.46484124     -0.12596289
      0.51640187     -0.24323992
      0.20558848     -0.11603820
 
          20   0
s              4   1.000000
     35.13285694     -0.01198412
      6.05016868     -0.05472052
      0.48615687      0.58055871
      0.18528642      0.47700799
p              4   1.000000
      5.66257773      0.05713170
      1.46822185      0.28574555
      0.51759364      0.55178731
      0.20606294      0.26323149
s              7   1.000000
      0.38350848     -0.19604711
      0.04707223      0.94722759
      0.02222627      0.24875635
     35.13285694      0.00548593
      6.05016868      0.02504921
      0.48615687     -0.26576024
      0.18528642     -0.21835821
p              7   1.000000
      1.83062075     -0.01160132
      0.10124670      0.57010676
      0.03901771      0.59539180
      5.66257773     -0.02512929
      1.46822185     -0.12568475
      0.51759364     -0.24270282
      0.20606294     -0.11578198
 
          21   0
s              4   1.000000
     34.98762378     -0.01198412
      6.02515833     -0.05472053
      0.48414718      0.58055871
      0.18452047      0.47700799
p              4   1.000000
      5.63916961      0.05713170
      1.46215247      0.28574555
      0.51545399      0.55178731
      0.20521112      0.26323149
s              7   1.000000
      0.38350848     -0.19618199
      0.04707223      0.94787926
      0.02222627      0.24892748
     34.98762378      0.00550767
      6.02515833      0.02514852
      0.48414718     -0.26681385
      0.18452047     -0.21922389
p              7   1.000000
      1.83062075     -0.01160882
      0.10124670      0.57047518
      0.03901771      0.59577658
      5.63916961     -0.02522931
      1.46215247     -0.12618497
      0.51545399     -0.24366876
      0.20521112     -0.11624278
 
          22   0
s              4   1.000000
      8.30888583      0.05675242
      1.52042374      0.26014135
      0.42239036      0.53284611
      0.14018756      0.29162544
s              7   1.000000
      0.92936822     -0.06732850
      0.05643440      0.66945618
      0.02166600      0.51461524
      8.30888583     -0.02902288
      1.52042374     -0.13303486
      0.42239036     -0.27249458
      0.14018756     -0.14913565
p              4   1.000000
      0.64737396      0.05713170
      0.16785440      0.28574555
      0.05917387      0.55178731
      0.02355814      0.26323150
 
          23   0
s              4   1.000000
      8.30888304      0.05675242
      1.52042323      0.26014135
      0.42239022      0.53284611
      0.14018752      0.29162544
s              7   1.000000
      0.92936822     -0.06732851
      0.05643440      0.66945622
      0.02166600      0.51461527
      8.30888304     -0.02902288
      1.52042323     -0.13303490
      0.42239022     -0.27249465
      0.14018752     -0.14913569
p              4   1.000000
      0.64737396      0.05713170
      0.16785440      0.28574555
      0.05917387      0.55178731
      0.02355814      0.26323150
 
          24   0
s              4   1.000000
      8.30897960      0.05675242
      1.52044090      0.26014135
      0.42239513      0.53284611
      0.14018915      0.29162544
s              7   1.000000
      0.92936822     -0.06732838
      0.05643440      0.66945498
      0.02166600      0.51461432
      8.30897960     -0.02902263
      1.52044090     -0.13303371
      0.42239513     -0.27249223
      0.14018915     -0.14913436
p              4   1.000000
      0.64737396      0.05713170
      0.16785440      0.28574555
      0.05917387      0.55178731
      0.02355814      0.26323150
 
          25   0
s              4   1.000000
      8.31460164      0.05675242
      1.52146966      0.26014135
      0.42268093      0.53284611
      0.14028400      0.29162544
s              7   1.000000
      0.92936822     -0.06732116
      0.05643440      0.66938312
      0.02166600      0.51455909
      8.31460164     -0.02900759
      1.52146966     -0.13296481
      0.42268093     -0.27235109
      0.14028400     -0.14905712
p              4   1.000000
      0.64737396      0.05713170
      0.16785440      0.28574555
      0.05917387      0.55178731
      0.02355814      0.26323150
 
          26   0
s              4   1.000000
      8.30908367      0.05675242
      1.52045994      0.26014135
      0.42240042      0.53284611
      0.14019090      0.29162544
s              7   1.000000
      0.92936822     -0.06732825
      0.05643440      0.66945365
      0.02166600      0.51461330
      8.30908367     -0.02902235
      1.52045994     -0.13303244
      0.42240042     -0.27248961
      0.14019090     -0.14913293
p              4   1.000000
      0.64737396      0.05713170
      0.16785440      0.28574555
      0.05917387      0.55178731
      0.02355814      0.26323150
 
          27   0
s              4   1.000000
      8.30902783      0.05675242
      1.52044972      0.26014135
      0.42239758      0.53284611
      0.14018996      0.29162544
s              7   1.000000
      0.92936822     -0.06732832
      0.05643440      0.66945436
      0.02166600      0.51461385
      8.30902783     -0.02902250
      1.52044972     -0.13303312
      0.42239758     -0.27249101
      0.14018996     -0.14913370
p              4   1.000000
      0.64737396      0.05713170
      0.16785440      0.28574555
      0.05917387      0.55178731
      0.02355814      0.26323150
 
          28   0
s              4   1.000000
      8.30878364      0.05675242
      1.52040504      0.26014135
      0.42238517      0.53284611
      0.14018584      0.29162544
s              7   1.000000
      0.92936822     -0.06732864
      0.05643440      0.66945749
      0.02166600      0.51461626
      8.30878364     -0.02902315
      1.52040504     -0.13303612
      0.42238517     -0.27249715
      0.14018584     -0.14913706
p              4   1.000000
      0.64737396      0.05713170
      0.16785440      0.28574555
      0.05917387      0.55178731
      0.02355814      0.26323150
 
          29   0
s              4   1.000000
      8.30874308      0.05675242
      1.52039762      0.26014135
      0.42238311      0.53284611
      0.14018516      0.29162544
s              7   1.000000
      0.92936822     -0.06732869
      0.05643440      0.66945801
      0.02166600      0.51461666
      8.30874308     -0.02902326
      1.52039762     -0.13303661
      0.42238311     -0.27249817
      0.14018516     -0.14913761
p              4   1.000000
      0.64737396      0.05713170
      0.16785440      0.28574555
      0.05917387      0.55178731
      0.02355814      0.26323150
 
          30   0
s              4   1.000000
      8.30876241      0.05675242
      1.52040115      0.26014135
      0.42238409      0.53284611
      0.14018548      0.29162544
s              7   1.000000
      0.92936822     -0.06732866
      0.05643440      0.66945776
      0.02166600      0.51461646
      8.30876241     -0.02902321
      1.52040115     -0.13303638
      0.42238409     -0.27249768
      0.14018548     -0.14913735
p              4   1.000000
      0.64737396      0.05713170
      0.16785440      0.28574555
      0.05917387      0.55178731
      0.02355814      0.26323150
 
          31   0
s              4   1.000000
      8.30863655      0.05675242
      1.52037812      0.26014135
      0.42237769      0.53284611
      0.14018336      0.29162544
s              7   1.000000
      0.92936822     -0.06732883
      0.05643440      0.66945937
      0.02166600      0.51461770
      8.30863655     -0.02902354
      1.52037812     -0.13303792
      0.42237769     -0.27250084
      0.14018336     -0.14913908
p              4   1.000000
      0.64737396      0.05713170
      0.16785440      0.28574555
      0.05917387      0.55178731
      0.02355814      0.26323150
 
          32   0
s              4   1.000000
      8.30798554      0.05675242
      1.52025900      0.26014135
      0.42234460      0.53284611
      0.14017237      0.29162544
s              7   1.000000
      0.92936822     -0.06732966
      0.05643440      0.66946771
      0.02166600      0.51462411
      8.30798554     -0.02902529
      1.52025900     -0.13304590
      0.42234460     -0.27251720
      0.14017237     -0.14914803
p              4   1.000000
      0.64737396      0.05713170
      0.16785440      0.28574555
      0.05917387      0.55178731
      0.02355814      0.26323150
 
          33   0
s              4   1.000000
      8.30968098      0.05675242
      1.52056924      0.26014135
      0.42243078      0.53284611
      0.14020098      0.29162544
s              7   1.000000
      0.92936822     -0.06732748
      0.05643440      0.66944602
      0.02166600      0.51460741
      8.30968098     -0.02902075
      1.52056924     -0.13302511
      0.42243078     -0.27247461
      0.14020098     -0.14912472
p              4   1.000000
      0.64737396      0.05713170
      0.16785440      0.28574555
      0.05917387      0.55178731
      0.02355814      0.26323150
 
          34   0
s              4   1.000000
      8.30913162      0.05675242
      1.52046872      0.26014135
      0.42240286      0.53284611
      0.14019171      0.29162544
s              7   1.000000
      0.92936822     -0.06732819
      0.05643440      0.66945304
      0.02166600      0.51461283
      8.30913162     -0.02902222
      1.52046872     -0.13303185
      0.42240286     -0.27248841
      0.14019171     -0.14913227
p              4   1.000000
      0.64737396      0.05713170
      0.16785440      0.28574555
      0.05917387      0.55178731
      0.02355814      0.26323150
 
 [MO]
 Sym= Hole
 Ene=  -1.063856    
 Spin= Alpha
 Occup= 0
           1 -9.2731966E-07
           2  5.0031347E-05
           3 -8.2626524E-05
           4 -0.1163475    
           5  4.7295842E-07
           6 -2.3121897E-06
           7  2.6421374E-06
           8  3.1928527E-03
           9 -2.1088331E-06
          10 -7.3373099E-05
          11  9.6115589E-05
          12  0.1397240    
          13  5.2229353E-07
          14  2.4653182E-06
          15 -2.0231146E-06
          16 -3.2316209E-03
          17  4.5251991E-07
          18 -8.7944391E-05
          19  9.8684861E-05
          20  0.1554264    
          21  7.1511511E-07
          22  5.4988627E-06
          23 -4.8905381E-06
          24 -6.9156885E-03
          25  2.5224870E-06
          26  5.0802191E-05
          27 -6.6806329E-05
          28 -9.0513922E-02
          29 -2.2246984E-06
          30  3.5740441E-06
          31  2.1441817E-06
          32 -2.8431832E-03
          33  1.7892629E-05
          34  1.4193571E-04
          35 -9.2842180E-05
          36 -0.2282998    
          37 -7.3722113E-06
          38 -1.3713689E-05
          39  9.3322569E-06
          40  1.4551426E-02
          41 -2.2843768E-05
          42 -1.0982218E-04
          43  6.8274079E-05
          44  0.1838477    
          45  1.2761809E-05
          46  7.1378668E-06
          47 -3.3681711E-06
          48 -1.3579302E-02
          49  4.6948680E-06
          50 -7.1160386E-05
          51 -1.3073583E-05
          52  0.2039019    
          53  1.8291183E-07
          54  1.5693166E-06
          55  3.5045423E-06
          56  9.6400858E-05
          57  3.7229197E-06
          58  7.2032840E-06
          59  8.0778800E-06
          60 -5.0310615E-02
          61 -2.3012844E-06
          62  2.6711377E-06
          63 -5.7006150E-07
          64  2.8197696E-03
          65  5.5905130E-06
          66 -4.7004527E-05
          67  2.1471453E-06
          68 -0.2110204    
          69 -5.1771522E-06
          70  3.4466723E-06
          71  7.8653972E-07
          72  1.1373739E-03
          73  1.0332878E-05
          74  1.0069110E-04
          75 -5.9541717E-06
          76  0.2926461    
          77 -2.6371322E-06
          78 -4.5618513E-06
          79  7.8865719E-07
          80  3.6604947E-04
          81 -7.3533676E-07
          82  6.5763888E-05
          83 -5.8030228E-06
          84  0.1040734    
          85  2.8634297E-06
          86 -1.4894096E-07
          87 -6.4938013E-07
          88  1.6157347E-03
          89 -3.7478625E-07
          90 -1.2953614E-04
          91  2.3914934E-05
          92 -0.2192446    
          93  1.0769055E-06
          94  2.2464562E-06
          95 -2.1652386E-06
          96  3.3028102E-03
          97  4.6865962E-06
          98 -1.0943857E-04
          99  2.7794396E-05
         100 -0.1966352    
         101 -2.1048029E-06
         102  2.2085467E-06
         103  3.5550326E-07
         104  2.5581496E-03
         105 -2.0371569E-06
         106  6.6405075E-05
         107 -1.0314869E-05
         108  0.1328244    
         109  2.5226639E-06
         110  3.2499690E-06
         111  2.0847321E-07
         112  1.0022195E-03
         113 -3.9616020E-06
         114  1.1361139E-04
         115 -6.1153340E-05
         116  0.2843853    
         117  6.3360153E-06
         118 -5.6262452E-06
         119  2.7305159E-06
         120  7.6716766E-04
         121 -1.1388486E-05
         122 -6.0439048E-05
         123  1.2605843E-05
         124 -0.2481446    
         125  1.8697117E-06
         126  1.3587982E-06
         127  2.0450443E-06
         128  3.5965510E-04
         129  2.1545660E-05
         130  6.9373100E-06
         131  1.5006434E-05
         132 -0.4383685    
         133 -9.6210606E-06
         134  5.0455610E-06
         135 -1.2189342E-06
         136  3.3853140E-03
         137 -2.5446552E-05
         138 -8.3035211E-06
         139 -2.3276980E-06
         140  0.1323220    
         141  1.4407007E-05
         142 -1.8418269E-06
         143  1.9715710E-08
         144 -2.1846755E-03
         145  7.4521236E-06
         146 -5.6987403E-05
         147  1.3940340E-04
         148  0.3199188    
         149 -1.5508333E-06
         150  5.5717180E-07
         151 -2.9234034E-06
         152 -3.3122003E-03
         153  7.0892461E-06
         154 -2.7590850E-05
         155  4.1874780E-05
         156  5.5038460E-02
         157 -4.7713934E-06
         158 -2.5450259E-07
         159 -2.8266218E-06
         160 -3.7800497E-03
         161 -2.6153459E-06
         162  7.5995042E-05
         163 -1.1514665E-04
         164 -0.1821270    
         165  5.6895919E-07
         166  3.2528723E-07
         167  5.0747772E-06
         168  5.7423431E-03
         169  3.6507108E-06
         170  1.1945141E-06
         171  2.0450523E-06
         172 -3.2146143E-06
         173 -4.5741098E-03
         174 -4.7772814E-06
         175 -1.0403322E-06
         176 -6.3142061E-06
         177  6.4277710E-06
         178  8.8067064E-03
         179 -8.8403908E-07
         180  7.7924409E-07
         181 -4.1794515E-06
         182  5.9859867E-06
         183  1.0212264E-02
         184 -1.4323617E-06
         185 -3.6643239E-06
         186  1.7703711E-05
         187 -1.9796329E-05
         188 -3.4252774E-02
         189 -2.2930175E-05
         190  1.8519265E-06
         191 -1.3194629E-06
         192  3.0904835E-06
         193  6.1371615E-03
         194  1.7739754E-05
         195 -1.6520041E-06
         196 -1.0693531E-06
         197 -2.4480414E-06
         198 -6.4399501E-04
         199 -5.8538717E-06
         200  2.8908046E-06
         201 -2.2117556E-06
         202 -1.9195870E-06
         203 -4.6658126E-04
         204 -5.3168337E-06
         205  5.8414020E-07
         206 -6.0635657E-06
         207  4.3075582E-07
         208 -1.0189431E-02
         209 -2.0207438E-06
         210 -1.8319697E-06
         211 -5.3523763E-06
         212  1.4261365E-06
         213 -9.0489257E-03
         214 -6.4496835E-06
         215  1.8986617E-06
         216  6.9941524E-07
         217 -2.4477034E-08
         218  1.0895678E-03
         219  1.8900290E-06
         220 -3.9274323E-06
         221 -1.3221847E-06
         222 -3.3371555E-06
         223  3.1696117E-04
         224 -7.4552190E-06
         225  4.8646632E-07
         226 -6.2652862E-06
         227  3.4727166E-06
         228  6.2472569E-03
         229 -1.4853762E-06
         230  6.6164318E-07
         231  3.1681020E-06
         232 -3.7112191E-06
         233 -7.2366274E-03
 Sym= Particle
 Ene=  -1.063856    
 Spin= Alpha
 Occup= 2
           1  2.0264957E-05
           2  3.1972155E-05
           3 -1.2342798E-04
           4 -0.1213618    
           5 -6.8965288E-05
           6  1.6498630E-05
           7  5.8191545E-05
           8  2.8293161E-02
           9  8.7903882E-06
          10  9.9950696E-05
          11 -1.2931068E-04
          12 -0.2065352    
          13 -3.0438468E-05
          14 -4.6520613E-06
          15  1.3771218E-05
          16  3.8918052E-02
          17 -2.0919451E-05
          18 -7.3239367E-05
          19  7.5244621E-05
          20  0.1832283    
          21  4.9792801E-05
          22 -2.8876811E-06
          23  2.2385471E-05
          24 -2.1355037E-02
          25 -1.4433526E-05
          26 -1.0599790E-04
          27  9.9874058E-05
          28  0.1690523    
          29  3.6993297E-05
          30  2.5827139E-05
          31 -1.9999999E-05
          32 -4.4036604E-02
          33 -4.2482126E-05
          34  1.6681629E-04
          35 -1.5234495E-04
          36 -0.3091880    
          37  3.6467165E-05
          38 -3.3805347E-05
          39  6.3674262E-05
          40  9.1063350E-02
          41  3.3601242E-05
          42 -1.7932092E-04
          43  1.7700049E-05
          44  0.2817261    
          45 -4.3149950E-05
          46  5.4793709E-05
          47 -1.0451732E-06
          48 -6.1703488E-02
          49  3.4902328E-05
          50 -2.1949665E-05
          51  6.0944785E-05
          52  3.1249424E-02
          53 -1.0211480E-04
          54  6.1406645E-06
          55 -3.9730359E-05
          56 -3.1514103E-03
          57  3.7013764E-05
          58  9.9962017E-05
          59  1.0272618E-04
          60 -0.3149643    
          61 -1.2569863E-04
          62 -6.0793012E-05
          63 -6.4244981E-05
          64  6.6072054E-02
          65 -1.0109287E-05
          66  2.5798281E-05
          67  2.8919835E-06
          68  8.9038447E-02
          69 -2.4476640E-05
          70 -6.3260723E-06
          71  2.1049889E-05
          72  3.6364314E-03
          73 -1.8634226E-05
          74  7.4682495E-05
          75 -1.4638930E-05
          76  0.1730409    
          77  2.7438089E-06
          78 -6.4983478E-06
          79  2.8162240E-05
          80 -2.6212957E-02
          81  1.7597304E-05
          82 -2.0175066E-05
          83  2.6253743E-05
          84 -2.0647749E-02
          85 -3.0779138E-05
          86  7.4077440E-07
          87 -5.0806293E-06
          88  5.6089009E-03
          89 -3.2657059E-05
          90 -1.1153795E-04
          91 -6.9948089E-07
          92 -0.1618373    
          93  6.1227402E-05
          94  2.7156992E-05
          95  2.6724649E-05
          96  2.2302566E-02
          97 -2.1297992E-05
          98 -3.4685130E-05
          99  2.3354365E-05
         100  5.8179561E-02
         101  1.0011275E-04
         102  4.2576397E-05
         103 -1.4623203E-05
         104 -4.7276942E-03
         105 -5.2089927E-05
         106  8.4855208E-05
         107  6.6899724E-05
         108  0.1495531    
         109  1.3482678E-04
         110 -1.1608947E-05
         111 -5.5390563E-05
         112 -2.3895750E-02
         113  1.1002377E-05
         114 -6.5626460E-05
         115  2.0545007E-05
         116 -0.1100023    
         117  5.0827399E-05
         118  2.8408482E-05
         119  9.1568027E-06
         120  1.7457347E-02
         121 -8.4170970E-05
         122  1.1503132E-05
         123  8.7380482E-05
         124 -0.3211390    
         125  1.5051497E-04
         126 -2.8070654E-05
         127 -6.0315098E-05
         128  5.4317921E-02
         129  4.7902166E-05
         130  5.9601439E-06
         131  1.1702249E-05
         132  0.2151046    
         133 -4.3939781E-06
         134 -8.6144437E-06
         135  2.0153182E-05
         136 -3.0877098E-02
         137 -1.1276808E-05
         138 -2.2019514E-05
         139  2.3271346E-05
         140  0.1818174    
         141  3.3233267E-05
         142  2.6364817E-06
         143  3.7605014E-06
         144 -3.0256944E-02
         145 -6.3627769E-05
         146  6.9443158E-05
         147 -1.4989203E-04
         148 -0.4802707    
         149  1.0455586E-04
         150  3.8739049E-06
         151  3.4797283E-06
         152  9.2652693E-02
         153  2.2348100E-05
         154  2.2083519E-05
         155  2.7727456E-05
         156  5.3937517E-02
         157  2.2015417E-06
         158 -2.8827117E-05
         159 -8.8911029E-06
         160 -2.1434646E-02
         161 -1.6903532E-06
         162 -9.3567258E-05
         163  1.5076669E-04
         164  0.2433019    
         165 -1.2207776E-05
         166 -2.5798488E-06
         167 -2.6079606E-06
         168 -2.7800573E-02
         169 -2.0018762E-05
         170 -6.9352260E-05
         171  6.9817463E-05
         172  4.1244366E-05
         173 -2.2860520E-02
         174 -9.4571387E-06
         175 -3.4628541E-05
         176  5.3252657E-05
         177  1.0550480E-05
         178 -3.3939678E-02
         179  9.9380641E-06
         180  3.9822666E-05
         181 -9.7293751E-06
         182  1.0391771E-04
         183  2.3549736E-02
         184  5.1678689E-05
         185  1.0684818E-06
         186 -5.8424113E-05
         187  2.2238919E-06
         188 -8.6467743E-02
         189 -6.6144006E-05
         190 -4.8675054E-05
         191 -2.7098829E-05
         192 -8.8515510E-05
         193  5.3056848E-04
         194 -6.2012790E-05
         195 -8.5459222E-05
         196 -4.8423673E-05
         197 -1.0626037E-04
         198 -4.7614902E-02
         199 -9.5224850E-06
         200 -4.5176614E-05
         201  2.3824567E-05
         202 -6.2278559E-05
         203 -2.7535965E-03
         204  2.8115495E-05
         205  1.6467380E-05
         206  4.5439105E-05
         207  3.8568420E-08
         208 -2.2998551E-02
         209  3.7032565E-05
         210  4.7912508E-05
         211  6.8054054E-05
         212 -5.8677655E-05
         213  7.6324996E-03
         214  4.1557352E-05
         215  7.8512188E-05
         216 -8.3812647E-06
         217 -1.1582564E-04
         218  1.9187836E-02
         219  5.1746963E-05
         220  8.6569729E-05
         221 -4.2132047E-05
         222 -1.5489524E-04
         223 -5.0295398E-02
         224  4.4207794E-05
         225  5.2956984E-05
         226  8.6813772E-05
         227 -1.4646824E-04
         228 -7.4296728E-02
         229 -1.9808127E-05
         230  1.9121430E-06
         231  3.7850346E-05
         232  3.7892391E-05
         233  3.3203237E-02
 Sym= Hole
 Ene= -5.3565539E-02
 Spin= Alpha
 Occup= 0
           1  4.0235259E-06
           2 -5.9776125E-05
           3  3.9333743E-05
           4  6.5012574E-02
           5 -1.0273139E-06
           6 -1.2432548E-06
           7 -9.2373766E-06
           8 -1.5656909E-02
           9 -4.5754400E-06
          10 -2.4027760E-05
          11  7.1616640E-05
          12  9.6086793E-02
          13  2.6842786E-06
          14  1.3836178E-05
          15 -2.8277391E-06
          16 -1.1335721E-02
          17  2.1218812E-06
          18 -6.1108375E-07
          19 -3.8381975E-05
          20 -5.4282025E-02
          21  1.7277370E-06
          22 -1.0894771E-05
          23  3.5875000E-06
          24  1.1346769E-02
          25  7.7315553E-06
          26  5.4226279E-05
          27 -2.1395950E-05
          28 -4.2904563E-02
          29 -1.0353859E-05
          30 -8.4851945E-06
          31  4.8072106E-06
          32  1.5544654E-02
          33  2.1585340E-06
          34 -1.1705913E-04
          35  6.7050874E-05
          36  0.2070716    
          37  1.7975889E-06
          38  1.9078749E-05
          39 -1.9116094E-05
          40 -3.5790898E-02
          41 -5.1641268E-06
          42  9.4442214E-05
          43 -1.3564130E-05
          44 -0.1708562    
          45 -2.0325954E-06
          46 -1.4804674E-05
          47  8.4579779E-06
          48  1.8551983E-02
          49 -8.2357528E-06
          50  1.5073443E-04
          51  1.9079783E-07
          52 -0.4234441    
          53  4.2698716E-06
          54 -9.9077924E-06
          55 -4.7347312E-06
          56  2.3342125E-02
          57  1.9722377E-06
          58 -3.2982614E-05
          59 -7.7218319E-06
          60  6.2140245E-02
          61  1.1849158E-06
          62  3.3024348E-06
          63 -2.2167035E-06
          64 -2.8010146E-03
          65 -7.2837734E-06
          66  6.5804168E-05
          67 -2.4424173E-05
          68  0.3996467    
          69  3.6960466E-06
          70  4.8428496E-06
          71  5.3068884E-06
          72 -1.5853342E-02
          73  1.6532720E-05
          74  2.4667057E-05
          75  2.0799182E-06
          76  0.1200626    
          77 -1.0650180E-05
          78 -7.0745436E-06
          79  5.5893888E-06
          80 -3.4736104E-03
          81 -3.5970501E-08
          82 -9.6961056E-05
          83  1.8307739E-05
          84 -0.2020870    
          85 -7.5922890E-07
          86  7.6073197E-06
          87 -1.6665779E-06
          88  1.1332282E-02
          89 -3.4426182E-06
          90 -1.1210894E-04
          91  6.5578010E-06
          92 -0.1805973    
          93  2.7221545E-06
          94  3.2050159E-06
          95 -7.4768141E-06
          96  9.3721775E-03
          97  6.4748151E-06
          98  7.1124014E-05
          99 -9.7485827E-06
         100  0.1678506    
         101  1.3047115E-07
         102 -3.0809410E-06
         103  6.7790625E-06
         104 -4.8551550E-03
         105 -1.0206435E-05
         106  1.2537971E-04
         107 -2.9148387E-05
         108  0.2317142    
         109  5.3584013E-06
         110 -1.5876478E-06
         111  1.7865260E-06
         112 -1.0824203E-02
         113 -3.6056010E-06
         114 -7.1416915E-05
         115  8.4918547E-06
         116 -0.1233008    
         117  2.3785758E-06
         118 -5.4175121E-06
         119 -1.2872330E-06
         120  1.9093757E-03
         121 -1.2704520E-05
         122 -7.2782583E-05
         123  3.0806583E-05
         124 -0.4611715    
         125  4.0315363E-06
         126  9.2787441E-06
         127  4.4580679E-06
         128  1.9730002E-02
         129 -1.1474884E-05
         130 -5.2729325E-07
         131 -2.1334332E-05
         132 -1.5043764E-02
         133  3.9821407E-06
         134 -4.8749016E-06
         135 -1.5535296E-06
         136  6.1513237E-03
         137  2.1599795E-05
         138 -2.3920975E-05
         139  6.1311293E-05
         140  0.1921902    
         141 -1.3674869E-05
         142  2.5328532E-06
         143 -1.3718141E-05
         144 -8.8326847E-03
         145 -3.4851707E-06
         146 -3.1742729E-05
         147  9.1913324E-05
         148  0.2095285    
         149 -1.1761562E-06
         150  7.5695411E-06
         151 -1.8054307E-06
         152 -9.8190978E-03
         153 -4.3054300E-07
         154  2.4043818E-05
         155 -8.5577143E-05
         156 -0.1340921    
         157  2.6773823E-06
         158 -7.9713336E-06
         159  1.2633585E-05
         160  1.6153898E-02
         161 -2.9740363E-06
         162  9.0291287E-05
         163 -8.7415516E-05
         164 -0.1457425    
         165 -1.0136824E-06
         166  9.0501862E-06
         167  2.1494743E-06
         168 -6.6818990E-04
         169  2.9315443E-05
         170  6.6081557E-06
         171 -4.8018210E-06
         172  1.3411126E-05
         173  1.7002916E-02
         174 -3.3116368E-05
         175 -6.1999417E-06
         176 -8.5451475E-06
         177  7.4307004E-06
         178  8.9387465E-03
         179  5.3136814E-06
         180  1.3804359E-06
         181  8.2547667E-06
         182 -9.2002629E-06
         183 -1.3067817E-02
         184 -1.6054408E-05
         185  4.7704566E-06
         186 -1.7391425E-05
         187  2.2122769E-05
         188  4.4764906E-02
         189  5.2887726E-06
         190 -5.1392476E-06
         191  5.5938654E-06
         192  3.3680649E-06
         193 -3.1401541E-02
         194 -3.4527871E-05
         195  5.1352840E-06
         196  2.4905299E-07
         197 -4.4342905E-06
         198  6.4521711E-03
         199  8.0187656E-06
         200  3.8245271E-06
         201 -3.4332268E-06
         202 -2.5347229E-06
         203 -9.4980542E-03
         204 -1.0572966E-05
         205 -3.6910433E-06
         206 -5.2699988E-06
         207  1.5655614E-06
         208 -1.5392383E-02
         209 -1.3514636E-05
         210 -3.9774341E-06
         211  6.6587017E-06
         212 -1.4204762E-06
         213  9.3373591E-03
         214  7.2550342E-06
         215  3.1711954E-06
         216  9.3492436E-06
         217 -2.7830583E-06
         218  1.5780687E-02
         219 -7.5921894E-06
         220 -1.1067308E-05
         221 -9.2392511E-06
         222 -9.2512055E-06
         223 -3.1708010E-02
         224 -1.7505838E-05
         225  4.1246390E-06
         226 -4.8258112E-06
         227  3.6067659E-06
         228  6.8179104E-03
         229  5.8552632E-06
         230 -1.0499988E-06
         231 -2.1343693E-07
         232 -6.1736000E-06
         233 -6.0476395E-03
 Sym= Particle
 Ene= -5.3565539E-02
 Spin= Alpha
 Occup= 2
           1  2.2018533E-04
           2 -2.8974350E-04
           3 -3.3860770E-04
           4  6.6231385E-02
           5 -7.0684648E-04
           6  2.8314005E-04
           7  3.5185044E-04
           8 -3.2099402E-03
           9  9.5720323E-05
          10 -7.9331323E-05
          11  5.9131311E-05
          12 -0.1175563    
          13 -2.9542702E-04
          14  1.8660532E-04
          15 -9.4013849E-05
          16  1.8371001E-02
          17 -2.4012096E-04
          18  1.7146707E-04
          19 -4.4579338E-04
          20 -1.8792037E-02
          21  5.1766221E-04
          22 -1.0105898E-04
          23  4.1412510E-04
          24  1.4367375E-02
          25  7.5334829E-05
          26  1.1956656E-06
          27  2.0490804E-04
          28  0.1495111    
          29  1.9071478E-04
          30 -8.2135943E-05
          31  2.4242923E-05
          32 -3.6353521E-02
          33 -4.8224811E-04
          34 -5.0069495E-05
          35 -2.7749120E-04
          36  9.3756810E-02
          37  4.1935049E-04
          38  1.6989578E-04
          39  3.5239506E-04
          40 -6.5455437E-02
          41  1.1203659E-04
          42 -1.7693274E-04
          43  5.4860349E-05
          44 -0.4079309    
          45 -2.8014090E-04
          46  1.3918454E-04
          47 -1.7441755E-05
          48  0.1809924    
          49  3.3218780E-04
          50 -3.6455973E-04
          51  7.0886686E-04
          52  3.2849871E-02
          53 -1.1341340E-03
          54  2.1219756E-04
          55 -5.8549474E-04
          56 -9.2605008E-03
          57  5.6930393E-04
          58  5.4370903E-04
          59  7.1971014E-04
          60  0.3407954    
          61 -1.5330001E-03
          62 -4.7697232E-04
          63 -6.6345575E-04
          64 -0.1055743    
          65 -9.2790237E-05
          66  2.2722615E-04
          67  2.4605806E-05
          68 -0.3768936    
          69 -2.5763488E-04
          70 -1.4840344E-04
          71  2.7240915E-04
          72  0.1242872    
          73 -2.7566918E-04
          74  2.0408113E-05
          75  3.4558874E-05
          76 -0.1473503    
          77  5.7723788E-05
          78  2.5748306E-05
          79  2.2831642E-04
          80  1.8781757E-02
          81  2.1723978E-04
          82 -4.6771056E-06
          83  2.4903403E-04
          84  0.2844825    
          85 -3.6741392E-04
          86  1.1744724E-05
          87 -1.7227327E-06
          88 -7.1990266E-02
          89 -2.5328060E-04
          90 -1.8306734E-04
          91 -1.6648180E-04
          92 -6.0565427E-02
          93  5.1105727E-04
          94  9.9903962E-05
          95  2.9391047E-04
          96  2.0281784E-02
          97 -2.0514170E-04
          98 -6.4571941E-04
          99  2.8658967E-04
         100 -0.2384162    
         101  8.7709073E-04
         102  4.0952498E-04
         103 -1.1819382E-04
         104  5.6358747E-02
         105 -3.6122306E-04
         106  1.4034058E-04
         107  7.0773915E-04
         108  0.2096502    
         109  1.1243490E-03
         110 -3.7023659E-05
         111 -4.9133046E-04
         112 -3.8813826E-02
         113  9.0101814E-05
         114 -5.0646129E-05
         115  1.9552126E-05
         116  0.1231802    
         117  4.3124743E-04
         118  1.2634516E-04
         119  9.6093150E-05
         120 -5.0294619E-02
         121 -5.5107631E-04
         122  4.2836388E-04
         123  7.1299612E-04
         124 -0.1991337    
         125  1.2112374E-03
         126 -2.1545567E-04
         127 -5.3232600E-04
         128  6.7550823E-02
         129  1.9609071E-04
         130  8.6979991E-05
         131 -5.1340729E-05
         132  0.1468673    
         133  1.0160943E-04
         134 -5.5006931E-05
         135  2.8413135E-04
         136 -5.8689442E-02
         137  1.1683370E-04
         138 -1.2048239E-04
         139  3.9738861E-05
         140  0.3910601    
         141  1.2771609E-04
         142  6.8456764E-05
         143  2.6501619E-05
         144 -0.1304555    
         145 -4.3005496E-04
         146 -2.0763368E-04
         147  4.7246172E-04
         148 -0.1700792    
         149  8.3230814E-04
         150  1.5640803E-04
         151 -3.7992193E-04
         152  7.1186952E-02
         153  3.4431978E-05
         154  2.6541593E-04
         155 -1.8630257E-04
         156 -0.1801818    
         157  1.2541462E-04
         158 -1.9308593E-04
         159  9.3553617E-06
         160  3.2778066E-02
         161  4.8754500E-05
         162  6.9360562E-05
         163  8.8340305E-05
         164  0.1116415    
         165 -1.6049219E-04
         166 -7.7587603E-05
         167  1.0542486E-04
         168 -3.9735246E-02
         169 -2.0999942E-04
         170 -6.3214172E-04
         171  5.5926334E-04
         172  5.4968661E-04
         173  1.0150776E-02
         174 -8.8678993E-05
         175 -2.9786711E-04
         176  3.5248161E-04
         177  3.2854700E-04
         178 -1.9598810E-02
         179  5.1087904E-05
         180  5.3390698E-04
         181  2.7337086E-05
         182  9.2156528E-04
         183  4.7583533E-03
         184  4.2194425E-04
         185  8.0814534E-05
         186 -1.1436606E-03
         187  4.5874814E-04
         188  3.7335616E-02
         189 -4.9829751E-04
         190 -6.6333904E-04
         191 -4.4481215E-04
         192 -1.1430156E-03
         193  1.7324477E-02
         194 -6.6872261E-04
         195 -9.6764375E-04
         196 -5.9848139E-04
         197 -1.3881283E-03
         198  7.2970472E-02
         199 -8.2655839E-05
         200 -4.6554967E-04
         201  3.6966847E-04
         202 -5.9966429E-04
         203  4.7369327E-02
         204  1.9198797E-04
         205  2.0907747E-04
         206  4.4645590E-04
         207 -2.4211397E-05
         208 -1.0867420E-02
         209  3.1668865E-04
         210  4.5916133E-04
         211  5.1685143E-04
         212 -4.9885298E-04
         213 -4.8015509E-02
         214  3.1685270E-04
         215  7.3432317E-04
         216 -1.4984225E-04
         217 -9.6334011E-04
         218  3.7220325E-02
         219  3.7264320E-04
         220  7.7595178E-04
         221 -1.9246308E-04
         222 -1.3179450E-03
         223 -4.2044595E-02
         224  3.3821564E-04
         225  5.3478190E-04
         226  5.9493695E-04
         227 -1.0004714E-03
         228 -4.1864704E-02
         229 -2.1303150E-04
         230  6.7672037E-05
         231  5.0227431E-04
         232  2.0238580E-04
         233  1.5454385E-02
