 [Molden Format]
 [Atoms] Angs
C       1      6     -6.90758913     -0.22736194     -0.72268388
C       2      6     -5.79569460      0.35101625      0.17163977
C       3      6     -6.40109964      1.26472668      1.25293519
C       4      6     -4.85878922      1.17199879     -0.69345101
C       5      6     -5.36230036      2.25758828     -1.39767072
C       6      6     -4.56992980      3.02615102     -2.22914756
C       7      6     -3.23533645      2.69717840     -2.38121137
C       8      6     -2.70881275      1.62571176     -1.69156202
C       9      6     -3.50098745      0.86362288     -0.82784841
N      10      7     -2.94420481     -0.20670421     -0.14010497
C      11      6     -1.57255258     -0.51480963     -0.31990751
C      12      6     -1.22712086     -1.67118330     -1.05969844
C      13      6      0.07805583     -2.00299725     -1.26950382
C      14      6      1.10610110     -1.18862700     -0.74475208
N      15      7      2.38837646     -1.51449284     -0.95073269
C      16      6      3.31834207     -0.72762295     -0.44177633
C      17      6      4.71001773     -1.05976478     -0.65106114
C      18      6      5.03669214     -2.20220472     -1.38711226
C      19      6      6.35021612     -2.54618129     -1.60452628
C      20      6      7.36003660     -1.74464114     -1.08428734
C      21      6      7.05139156     -0.61588839     -0.35687234
C      22      6      5.72434766     -0.23974018     -0.11812777
C      23      6      5.37165278      0.94798878      0.64798016
C      24      6      6.33399505      1.79929219      1.20368280
C      25      6      5.97572531      2.91735295      1.92486999
C      26      6      4.63549114      3.23104730      2.12002296
C      27      6      3.66691252      2.41367790      1.58628441
C      28      6      4.01694494      1.27626857      0.85332122
C      29      6      2.97215182      0.43825284      0.30730535
N      30      7      1.71189314      0.77072677      0.51315923
C      31      6      0.75986208     -0.02197966      0.00059152
C      32      6     -0.59832104      0.29420133      0.20420252
C      33      6     -3.70414976     -1.01508652      0.69316165
C      34      6     -3.08669334     -2.04736316      1.40635069
C      35      6     -3.81625246     -2.87660544      2.23168800
C      36      6     -5.17848681     -2.68362355      2.37201732
C      37      6     -5.78557632     -1.64286481      1.69447094
C      38      6     -5.07518581     -0.79340251      0.85722504
H      39      1     -7.46325676      0.56613045     -1.21453708
H      40      1     -6.47145255     -0.86616236     -1.48856958
H      41      1     -7.60625703     -0.82022378     -0.13887186
H      42      1     -5.60931926      1.66633357      1.88259857
H      43      1     -7.09427693      0.71457721      1.88320234
H      44      1     -6.93678179      2.09622437      0.80343938
H      45      1     -6.40640179      2.51404225     -1.30033071
H      46      1     -4.99351099      3.86539050     -2.75938802
H      47      1     -2.60014920      3.27132294     -3.03914034
H      48      1     -1.66918324      1.37200919     -1.82833755
H      49      1     -2.02494024     -2.28080129     -1.45816641
H      50      1      0.35850470     -2.87709338     -1.83614730
H      51      1      4.22646884     -2.79922588     -1.77514508
H      52      1      6.59777568     -3.42977124     -2.17352505
H      53      1      8.39489581     -2.00665746     -1.25000078
H      54      1      7.86211197     -0.01960498      0.03007453
H      55      1      7.38357233      1.58936142      1.07388236
H      56      1      6.74381669      3.55315961      2.34063083
H      57      1      4.36038790      4.10849772      2.68583680
H      58      1      2.61720639      2.62458210      1.71688774
H      59      1     -0.84748431      1.17952276      0.76866058
H      60      1     -2.02138754     -2.19560253      1.31815711
H      61      1     -3.31641223     -3.66959528      2.76772711
H      62      1     -5.76188996     -3.32808638      3.01171432
H      63      1     -6.84613180     -1.49132537      1.82750587
 [GTO]
           1   0
s              4   1.000000
     37.02763136     -0.01198412
      6.37646451     -0.05472052
      0.51237613      0.58055871
      0.19527923      0.47700799
p              4   1.000000
      5.96797013      0.05713170
      1.54740554      0.28574555
      0.54550834      0.55178731
      0.21717627      0.26323149
s              7   1.000000
      0.38350848     -0.19441518
      0.04707223      0.93934269
      0.02222627      0.24668566
     37.02763136      0.00521683
      6.37646451      0.02382052
      0.51237613     -0.25272433
      0.19527923     -0.20764743
p              7   1.000000
      1.83062075     -0.01151062
      0.10124670      0.56564935
      0.03901771      0.59073674
      5.96797013     -0.02389153
      1.54740554     -0.11949402
      0.54550834     -0.23074825
      0.21717627     -0.11007902
 
           2   0
s              4   1.000000
     37.10634252     -0.01198412
      6.39001922     -0.05472052
      0.51346531      0.58055871
      0.19569434      0.47700799
p              4   1.000000
      5.98065649      0.05713170
      1.55069492      0.28574555
      0.54666795      0.55178731
      0.21763793      0.26323149
s              7   1.000000
      0.38350848     -0.19435217
      0.04707223      0.93903825
      0.02222627      0.24660569
     37.10634252      0.00520621
      6.39001922      0.02377201
      0.51346531     -0.25220974
      0.19569434     -0.20722463
p              7   1.000000
      1.83062075     -0.01150711
      0.10124670      0.56547726
      0.03901771      0.59055699
      5.98065649     -0.02384265
      1.55069492     -0.11924958
      0.54666795     -0.23027622
      0.21763793     -0.10985383
 
           3   0
s              4   1.000000
     37.02813752     -0.01198412
      6.37655168     -0.05472053
      0.51238313      0.58055871
      0.19528190      0.47700800
p              4   1.000000
      5.96805171      0.05713170
      1.54742669      0.28574555
      0.54551579      0.55178731
      0.21717924      0.26323149
s              7   1.000000
      0.38350848     -0.19441477
      0.04707223      0.93934073
      0.02222627      0.24668513
     37.02813752      0.00521676
      6.37655168      0.02382020
      0.51238313     -0.25272102
      0.19528190     -0.20764471
p              7   1.000000
      1.83062075     -0.01151059
      0.10124670      0.56564824
      0.03901771      0.59073556
      5.96805171     -0.02389121
      1.54742669     -0.11949245
      0.54551579     -0.23074521
      0.21717924     -0.11007757
 
           4   0
s              4   1.000000
     35.26051958     -0.01198412
      6.07215324     -0.05472052
      0.48792342      0.58055871
      0.18595969      0.47700799
p              4   1.000000
      5.68315390      0.05713170
      1.47355694      0.28574555
      0.51947442      0.55178731
      0.20681172      0.26323149
s              7   1.000000
      0.38350848     -0.19592978
      0.04707223      0.94666067
      0.02222627      0.24860746
     35.26051958      0.00546695
      6.07215324      0.02496255
      0.48792342     -0.26484081
      0.18595969     -0.21760277
p              7   1.000000
      1.83062075     -0.01159480
      0.10124670      0.56978623
      0.03901771      0.59505711
      5.68315390     -0.02504201
      1.47355694     -0.12524822
      0.51947442     -0.24185986
      0.20681172     -0.11537984
 
           5   0
s              4   1.000000
     35.03613595     -0.01198412
      6.03351252     -0.05472052
      0.48481848      0.58055871
      0.18477632      0.47700799
p              4   1.000000
      5.64698861      0.05713170
      1.46417982      0.28574555
      0.51616870      0.55178731
      0.20549565      0.26323149
s              7   1.000000
      0.38350848     -0.19613677
      0.04707223      0.94766078
      0.02222627      0.24887010
     35.03613595      0.00550039
      6.03351252      0.02511527
      0.48481848     -0.26646100
      0.18477632     -0.21893398
p              7   1.000000
      1.83062075     -0.01160631
      0.10124670      0.57035166
      0.03901771      0.59564761
      5.64698861     -0.02519581
      1.46417982     -0.12601745
      0.51616870     -0.24334528
      0.20549565     -0.11608846
 
           6   0
s              4   1.000000
     34.91170674     -0.01198412
      6.01208478     -0.05472053
      0.48309666      0.58055871
      0.18412010      0.47700799
p              4   1.000000
      5.62693360      0.05713170
      1.45897986      0.28574555
      0.51433555      0.55178731
      0.20476584      0.26323149
s              7   1.000000
      0.38350848     -0.19625308
      0.04707223      0.94822276
      0.02222627      0.24901769
     34.91170674      0.00551911
      6.01208478      0.02520074
      0.48309666     -0.26736787
      0.18412010     -0.21967909
p              7   1.000000
      1.83062075     -0.01161277
      0.10124670      0.57066939
      0.03901771      0.59597943
      5.62693360     -0.02528189
      1.45897986     -0.12644799
      0.51433555     -0.24417666
      0.20476584     -0.11648507
 
           7   0
s              4   1.000000
     34.92070282     -0.01198412
      6.01363398     -0.05472052
      0.48322115      0.58055871
      0.18416754      0.47700799
p              4   1.000000
      5.62838355      0.05713170
      1.45935581      0.28574555
      0.51446808      0.55178731
      0.20481861      0.26323149
s              7   1.000000
      0.38350848     -0.19624464
      0.04707223      0.94818196
      0.02222627      0.24900697
     34.92070282      0.00551775
      6.01363398      0.02519454
      0.48322115     -0.26730210
      0.18416754     -0.21962505
p              7   1.000000
      1.83062075     -0.01161230
      0.10124670      0.57064632
      0.03901771      0.59595531
      5.62838355     -0.02527565
      1.45935581     -0.12641676
      0.51446808     -0.24411637
      0.20481861     -0.11645631
 
           8   0
s              4   1.000000
     35.04113374     -0.01198412
      6.03437318     -0.05472052
      0.48488763      0.58055871
      0.18480268      0.47700799
p              4   1.000000
      5.64779414      0.05713170
      1.46438869      0.28574555
      0.51624233      0.55178731
      0.20552497      0.26323149
s              7   1.000000
      0.38350848     -0.19613212
      0.04707223      0.94763833
      0.02222627      0.24886420
     35.04113374      0.00549964
      6.03437318      0.02511184
      0.48488763     -0.26642470
      0.18480268     -0.21890415
p              7   1.000000
      1.83062075     -0.01160605
      0.10124670      0.57033897
      0.03901771      0.59563434
      5.64779414     -0.02519237
      1.46438869     -0.12600022
      0.51624233     -0.24331200
      0.20552497     -0.11607259
 
           9   0
s              4   1.000000
     35.25551060     -0.01198412
      6.07129065     -0.05472052
      0.48785411      0.58055871
      0.18593328      0.47700799
p              4   1.000000
      5.68234657      0.05713170
      1.47334761      0.28574555
      0.51940063      0.55178731
      0.20678234      0.26323149
s              7   1.000000
      0.38350848     -0.19593436
      0.04707223      0.94668281
      0.02222627      0.24861329
     35.25551060      0.00546769
      6.07129065      0.02496594
      0.48785411     -0.26487676
      0.18593328     -0.21763231
p              7   1.000000
      1.83062075     -0.01159505
      0.10124670      0.56979875
      0.03901771      0.59507018
      5.68234657     -0.02504543
      1.47334761     -0.12526529
      0.51940063     -0.24189283
      0.20678234     -0.11539557
 
          10   0
s              4   1.000000
     61.19913488     -0.01198412
     10.53899743     -0.05472052
      0.84685341      0.58055871
      0.32275680      0.47700799
p              4   1.000000
      7.21366296      0.05713170
      1.87039509      0.28574555
      0.65937215      0.55178730
      0.26250741      0.26323149
s              7   1.000000
      0.47894987     -0.18778365
      0.05878681      0.90730160
      0.02775758      0.23827118
     61.19913488      0.00396986
     10.53899743      0.01812670
      0.84685341     -0.19231570
      0.32275680     -0.15801353
p              7   1.000000
      2.28619608     -0.01156608
      0.12644335      0.56837502
      0.04872781      0.59358329
      7.21366296     -0.02465465
      1.87039509     -0.12331079
      0.65937215     -0.23811860
      0.26250741     -0.11359506
 
          11   0
s              4   1.000000
     35.22655113     -0.01198412
      6.06630359     -0.05472053
      0.48745338      0.58055871
      0.18578055      0.47700800
p              4   1.000000
      5.67767899      0.05713170
      1.47213738      0.28574555
      0.51897398      0.55178731
      0.20661249      0.26323149
s              7   1.000000
      0.38350848     -0.19596089
      0.04707223      0.94681099
      0.02222627      0.24864693
     35.22655113      0.00547198
      6.06630359      0.02498556
      0.48745338     -0.26508484
      0.18578055     -0.21780328
p              7   1.000000
      1.83062075     -0.01159653
      0.10124670      0.56987123
      0.03901771      0.59514583
      5.67767899     -0.02506518
      1.47213738     -0.12536409
      0.51897398     -0.24208360
      0.20661249     -0.11548657
 
          12   0
s              4   1.000000
     34.99773042     -0.01198412
      6.02689877     -0.05472052
      0.48428703      0.58055871
      0.18457377      0.47700799
p              4   1.000000
      5.64079856      0.05713170
      1.46257484      0.28574555
      0.51560289      0.55178731
      0.20527039      0.26323149
s              7   1.000000
      0.38350848     -0.19617255
      0.04707223      0.94783367
      0.02222627      0.24891551
     34.99773042      0.00550616
      6.02689877      0.02514159
      0.48428703     -0.26674026
      0.18457377     -0.21916343
p              7   1.000000
      1.83062075     -0.01160830
      0.10124670      0.57044941
      0.03901771      0.59574968
      5.64079856     -0.02522232
      1.46257484     -0.12615003
      0.51560289     -0.24360130
      0.20527039     -0.11621060
 
          13   0
s              4   1.000000
     34.97858742     -0.01198412
      6.02360219     -0.05472053
      0.48402214      0.58055871
      0.18447282      0.47700800
p              4   1.000000
      5.63771317      0.05713170
      1.46177484      0.28574555
      0.51532086      0.55178731
      0.20515812      0.26323149
s              7   1.000000
      0.38350848     -0.19619043
      0.04707223      0.94792003
      0.02222627      0.24893818
     34.97858742      0.00550903
      6.02360219      0.02515473
      0.48402214     -0.26687968
      0.18447282     -0.21927798
p              7   1.000000
      1.83062075     -0.01160929
      0.10124670      0.57049824
      0.03901771      0.59580065
      5.63771317     -0.02523555
      1.46177484     -0.12621622
      0.51532086     -0.24372911
      0.20515812     -0.11627157
 
          14   0
s              4   1.000000
     35.28442474     -0.01198412
      6.07626991     -0.05472052
      0.48825421      0.58055871
      0.18608577      0.47700799
p              4   1.000000
      5.68700684      0.05713170
      1.47455595      0.28574555
      0.51982660      0.55178731
      0.20695193      0.26323149
s              7   1.000000
      0.38350848     -0.19590793
      0.04707223      0.94655512
      0.02222627      0.24857975
     35.28442474      0.00546341
      6.07626991      0.02494639
      0.48825421     -0.26466934
      0.18608577     -0.21746188
p              7   1.000000
      1.83062075     -0.01159359
      0.10124670      0.56972657
      0.03901771      0.59499477
      5.68700684     -0.02502574
      1.47455595     -0.12516681
      0.51982660     -0.24170265
      0.20695193     -0.11530484
 
          15   0
s              4   1.000000
     57.32160274     -0.01198412
      9.87125431     -0.05472052
      0.79319740      0.58055871
      0.30230716      0.47700799
p              4   1.000000
      6.75661058      0.05713170
      1.75188823      0.28574555
      0.61759481      0.55178730
      0.24587514      0.26323149
s              7   1.000000
      0.47894987     -0.18906057
      0.05878681      0.91347118
      0.02775758      0.23989140
     57.32160274      0.00423493
      9.87125431      0.01933707
      0.79319740     -0.20515708
      0.30230716     -0.16856446
p              7   1.000000
      2.28619608     -0.01168675
      0.12644335      0.57430492
      0.04872781      0.59977619
      6.75661058     -0.02625004
      1.75188823     -0.13129017
      0.61759481     -0.25352713
      0.24587514     -0.12094574
 
          16   0
s              4   1.000000
     35.32296207     -0.01198412
      6.08290635     -0.05472052
      0.48878748      0.58055871
      0.18628901      0.47700799
p              4   1.000000
      5.69321814      0.05713170
      1.47616645      0.28574555
      0.52039435      0.55178731
      0.20717796      0.26323149
s              7   1.000000
      0.38350848     -0.19587280
      0.04707223      0.94638536
      0.02222627      0.24853517
     35.32296207      0.00545771
      6.08290635      0.02492038
      0.48878748     -0.26439336
      0.18628901     -0.21723513
p              7   1.000000
      1.83062075     -0.01159163
      0.10124670      0.56963060
      0.03901771      0.59489456
      5.69321814     -0.02499954
      1.47616645     -0.12503578
      0.52039435     -0.24144962
      0.20717796     -0.11518414
 
          17   0
s              4   1.000000
     35.22369574     -0.01198412
      6.06581187     -0.05472052
      0.48741387      0.58055871
      0.18576549      0.47700799
p              4   1.000000
      5.67721877      0.05713170
      1.47201805      0.28574555
      0.51893192      0.55178731
      0.20659574      0.26323149
s              7   1.000000
      0.38350848     -0.19596350
      0.04707223      0.94682364
      0.02222627      0.24865027
     35.22369574      0.00547241
      6.06581187      0.02498749
      0.48741387     -0.26510537
      0.18576549     -0.21782014
p              7   1.000000
      1.83062075     -0.01159668
      0.10124670      0.56987837
      0.03901771      0.59515331
      5.67721877     -0.02506713
      1.47201805     -0.12537384
      0.51893192     -0.24210243
      0.20659574     -0.11549556
 
          18   0
s              4   1.000000
     35.02482291     -0.01198412
      6.03156432     -0.05472053
      0.48466193      0.58055871
      0.18471666      0.47700799
p              4   1.000000
      5.64516522      0.05713170
      1.46370705      0.28574555
      0.51600203      0.55178731
      0.20542930      0.26323149
s              7   1.000000
      0.38350848     -0.19614730
      0.04707223      0.94771166
      0.02222627      0.24888346
     35.02482291      0.00550209
      6.03156432      0.02512301
      0.48466193     -0.26654320
      0.18471666     -0.21900152
p              7   1.000000
      1.83062075     -0.01160689
      0.10124670      0.57038043
      0.03901771      0.59567762
      5.64516522     -0.02520362
      1.46370705     -0.12605648
      0.51600203     -0.24342064
      0.20542930     -0.11612441
 
          19   0
s              4   1.000000
     34.90786253     -0.01198412
      6.01142278     -0.05472053
      0.48304347      0.58055871
      0.18409982      0.47700800
p              4   1.000000
      5.62631400      0.05713170
      1.45881921      0.28574555
      0.51427891      0.55178731
      0.20474330      0.26323149
s              7   1.000000
      0.38350848     -0.19625669
      0.04707223      0.94824021
      0.02222627      0.24902227
     34.90786253      0.00551969
      6.01142278      0.02520339
      0.48304347     -0.26739598
      0.18409982     -0.21970219
p              7   1.000000
      1.83062075     -0.01161297
      0.10124670      0.57067926
      0.03901771      0.59598970
      5.62631400     -0.02528456
      1.45881921     -0.12646133
      0.51427891     -0.24420243
      0.20474330     -0.11649737
 
          20   0
s              4   1.000000
     34.91600402     -0.01198412
      6.01282481     -0.05472053
      0.48315613      0.58055871
      0.18414276      0.47700800
p              4   1.000000
      5.62762622      0.05713170
      1.45915944      0.28574555
      0.51439886      0.55178731
      0.20479105      0.26323149
s              7   1.000000
      0.38350848     -0.19624905
      0.04707223      0.94820327
      0.02222627      0.24901257
     34.91600402      0.00551846
      6.01282481      0.02519778
      0.48315613     -0.26733645
      0.18414276     -0.21965327
p              7   1.000000
      1.83062075     -0.01161255
      0.10124670      0.57065837
      0.03901771      0.59596790
      5.62762622     -0.02527891
      1.45915944     -0.12643307
      0.51439886     -0.24414786
      0.20479105     -0.11647133
 
          21   0
s              4   1.000000
     35.00637495     -0.01198412
      6.02838743     -0.05472052
      0.48440665      0.58055871
      0.18461937      0.47700800
p              4   1.000000
      5.64219185      0.05713170
      1.46293610      0.28574555
      0.51573024      0.55178731
      0.20532110      0.26323149
s              7   1.000000
      0.38350848     -0.19616449
      0.04707223      0.94779472
      0.02222627      0.24890528
     35.00637495      0.00550486
      6.02838743      0.02513566
      0.48440665     -0.26667736
      0.18461937     -0.21911174
p              7   1.000000
      1.83062075     -0.01160785
      0.10124670      0.57042739
      0.03901771      0.59572666
      5.64219185     -0.02521635
      1.46293610     -0.12612017
      0.51573024     -0.24354363
      0.20532110     -0.11618308
 
          22   0
s              4   1.000000
     35.16372278     -0.01198412
      6.05548403     -0.05472053
      0.48658398      0.58055871
      0.18544920      0.47700799
p              4   1.000000
      5.66755257      0.05713170
      1.46951175      0.28574555
      0.51804837      0.55178731
      0.20624398      0.26323149
s              7   1.000000
      0.38350848     -0.19601864
      0.04707223      0.94709003
      0.02222627      0.24872022
     35.16372278      0.00548133
      6.05548403      0.02502821
      0.48658398     -0.26553737
      0.18544920     -0.21817508
p              7   1.000000
      1.83062075     -0.01159974
      0.10124670      0.57002897
      0.03901771      0.59531061
      5.66755257     -0.02510814
      1.46951175     -0.12557894
      0.51804837     -0.24249849
      0.20624398     -0.11568450
 
          23   0
s              4   1.000000
     35.16358751     -0.01198412
      6.05546074     -0.05472052
      0.48658211      0.58055871
      0.18544848      0.47700799
p              4   1.000000
      5.66753076      0.05713170
      1.46950610      0.28574555
      0.51804637      0.55178731
      0.20624319      0.26323149
s              7   1.000000
      0.38350848     -0.19601876
      0.04707223      0.94709063
      0.02222627      0.24872037
     35.16358751      0.00548135
      6.05546074      0.02502830
      0.48658211     -0.26553835
      0.18544848     -0.21817589
p              7   1.000000
      1.83062075     -0.01159975
      0.10124670      0.57002932
      0.03901771      0.59531093
      5.66753076     -0.02510823
      1.46950610     -0.12557940
      0.51804637     -0.24249938
      0.20624319     -0.11568493
 
          24   0
s              4   1.000000
     35.00647598     -0.01198412
      6.02840483     -0.05472053
      0.48440805      0.58055871
      0.18461990      0.47700799
p              4   1.000000
      5.64220814      0.05713170
      1.46294032      0.28574555
      0.51573173      0.55178731
      0.20532169      0.26323149
s              7   1.000000
      0.38350848     -0.19616439
      0.04707223      0.94779426
      0.02222627      0.24890515
     35.00647598      0.00550484
      6.02840483      0.02513559
      0.48440805     -0.26667662
      0.18461990     -0.21911114
p              7   1.000000
      1.83062075     -0.01160784
      0.10124670      0.57042713
      0.03901771      0.59572641
      5.64220814     -0.02521628
      1.46294032     -0.12611982
      0.51573173     -0.24354295
      0.20532169     -0.11618277
 
          25   0
s              4   1.000000
     34.91603755     -0.01198412
      6.01283058     -0.05472053
      0.48315659      0.58055871
      0.18414294      0.47700799
p              4   1.000000
      5.62763162      0.05713170
      1.45916084      0.28574555
      0.51439935      0.55178731
      0.20479125      0.26323149
s              7   1.000000
      0.38350848     -0.19624901
      0.04707223      0.94820312
      0.02222627      0.24901252
     34.91603755      0.00551846
      6.01283058      0.02519776
      0.48315659     -0.26733620
      0.18414294     -0.21965307
p              7   1.000000
      1.83062075     -0.01161255
      0.10124670      0.57065829
      0.03901771      0.59596781
      5.62763162     -0.02527889
      1.45916084     -0.12643295
      0.51439935     -0.24414763
      0.20479125     -0.11647123
 
          26   0
s              4   1.000000
     34.90793321     -0.01198412
      6.01143495     -0.05472052
      0.48304445      0.58055871
      0.18410019      0.47700800
p              4   1.000000
      5.62632539      0.05713170
      1.45882216      0.28574555
      0.51427996      0.55178730
      0.20474371      0.26323149
s              7   1.000000
      0.38350848     -0.19625663
      0.04707223      0.94823989
      0.02222627      0.24902220
     34.90793321      0.00551968
      6.01143495      0.02520334
      0.48304445     -0.26739546
      0.18410019     -0.21970176
p              7   1.000000
      1.83062075     -0.01161297
      0.10124670      0.57067908
      0.03901771      0.59598954
      5.62632539     -0.02528451
      1.45882216     -0.12646109
      0.51427996     -0.24420196
      0.20474371     -0.11649715
 
          27   0
s              4   1.000000
     35.02490998     -0.01198412
      6.03157932     -0.05472052
      0.48466313      0.58055871
      0.18471712      0.47700799
p              4   1.000000
      5.64517926      0.05713170
      1.46371068      0.28574555
      0.51600331      0.55178731
      0.20542981      0.26323149
s              7   1.000000
      0.38350848     -0.19614722
      0.04707223      0.94771126
      0.02222627      0.24888336
     35.02490998      0.00550207
      6.03157932      0.02512295
      0.48466313     -0.26654257
      0.18471712     -0.21900100
p              7   1.000000
      1.83062075     -0.01160689
      0.10124670      0.57038021
      0.03901771      0.59567738
      5.64517926     -0.02520356
      1.46371068     -0.12605618
      0.51600331     -0.24342006
      0.20542981     -0.11612413
 
          28   0
s              4   1.000000
     35.22421862     -0.01198412
      6.06590192     -0.05472052
      0.48742110      0.58055871
      0.18576825      0.47700799
p              4   1.000000
      5.67730305      0.05713170
      1.47203990      0.28574555
      0.51893962      0.55178731
      0.20659880      0.26323149
s              7   1.000000
      0.38350848     -0.19596303
      0.04707223      0.94682132
      0.02222627      0.24864966
     35.22421862      0.00547233
      6.06590192      0.02498714
      0.48742110     -0.26510161
      0.18576825     -0.21781705
p              7   1.000000
      1.83062075     -0.01159665
      0.10124670      0.56987706
      0.03901771      0.59515194
      5.67730305     -0.02506677
      1.47203990     -0.12537205
      0.51893962     -0.24209898
      0.20659880     -0.11549391
 
          29   0
s              4   1.000000
     35.32229170     -0.01198412
      6.08279091     -0.05472052
      0.48877820      0.58055871
      0.18628547      0.47700799
p              4   1.000000
      5.69311009      0.05713170
      1.47613843      0.28574555
      0.52038448      0.55178731
      0.20717403      0.26323149
s              7   1.000000
      0.38350848     -0.19587341
      0.04707223      0.94638832
      0.02222627      0.24853595
     35.32229170      0.00545781
      6.08279091      0.02492083
      0.48877820     -0.26439816
      0.18628547     -0.21723907
p              7   1.000000
      1.83062075     -0.01159167
      0.10124670      0.56963226
      0.03901771      0.59489630
      5.69311009     -0.02499999
      1.47613843     -0.12503805
      0.52038448     -0.24145402
      0.20717403     -0.11518623
 
          30   0
s              4   1.000000
     57.32550187     -0.01198412
      9.87192577     -0.05472053
      0.79325136      0.58055871
      0.30232773      0.47700799
p              4   1.000000
      6.75707018      0.05713170
      1.75200740      0.28574555
      0.61763682      0.55178731
      0.24589186      0.26323149
s              7   1.000000
      0.47894987     -0.18905916
      0.05878681      0.91346440
      0.02775758      0.23988963
     57.32550187      0.00423465
      9.87192577      0.01933577
      0.79325136     -0.20514336
      0.30232773     -0.16855319
p              7   1.000000
      2.28619608     -0.01168662
      0.12644335      0.57429841
      0.04872781      0.59976939
      6.75707018     -0.02624833
      1.75200740     -0.13128164
      0.61763682     -0.25351067
      0.24589186     -0.12093789
 
          31   0
s              4   1.000000
     35.28467895     -0.01198412
      6.07631368     -0.05472053
      0.48825773      0.58055871
      0.18608711      0.47700799
p              4   1.000000
      5.68704781      0.05713170
      1.47456658      0.28574555
      0.51983035      0.55178731
      0.20695342      0.26323149
s              7   1.000000
      0.38350848     -0.19590770
      0.04707223      0.94655400
      0.02222627      0.24857946
     35.28467895      0.00546337
      6.07631368      0.02494622
      0.48825773     -0.26466751
      0.18608711     -0.21746038
p              7   1.000000
      1.83062075     -0.01159357
      0.10124670      0.56972593
      0.03901771      0.59499412
      5.68704781     -0.02502556
      1.47456658     -0.12516594
      0.51983035     -0.24170098
      0.20695342     -0.11530404
 
          32   0
s              4   1.000000
     35.07549902     -0.01198412
      6.04029117     -0.05472053
      0.48536317      0.58055871
      0.18498392      0.47700799
p              4   1.000000
      5.65333300      0.05713170
      1.46582483      0.28574555
      0.51674861      0.55178731
      0.20572653      0.26323149
s              7   1.000000
      0.38350848     -0.19610020
      0.04707223      0.94748410
      0.02222627      0.24882372
     35.07549902      0.00549449
      6.04029117      0.02508834
      0.48536317     -0.26617537
      0.18498392     -0.21869929
p              7   1.000000
      1.83062075     -0.01160427
      0.10124670      0.57025178
      0.03901771      0.59554327
      5.65333300     -0.02516870
      1.46582483     -0.12588184
      0.51674861     -0.24308342
      0.20572653     -0.11596354
 
          33   0
s              4   1.000000
     35.26603307     -0.01198412
      6.07310271     -0.05472052
      0.48799972      0.58055871
      0.18598877      0.47700799
p              4   1.000000
      5.68404254      0.05713170
      1.47378735      0.28574555
      0.51955565      0.55178731
      0.20684406      0.26323149
s              7   1.000000
      0.38350848     -0.19592473
      0.04707223      0.94663631
      0.02222627      0.24860108
     35.26603307      0.00546613
      6.07310271      0.02495882
      0.48799972     -0.26480124
      0.18598877     -0.21757026
p              7   1.000000
      1.83062075     -0.01159452
      0.10124670      0.56977246
      0.03901771      0.59504271
      5.68404254     -0.02503826
      1.47378735     -0.12522944
      0.51955565     -0.24182358
      0.20684406     -0.11536254
 
          34   0
s              4   1.000000
     35.04582407     -0.01198412
      6.03518090     -0.05472053
      0.48495254      0.58055871
      0.18482741      0.47700799
p              4   1.000000
      5.64855011      0.05713170
      1.46458470      0.28574555
      0.51631143      0.55178731
      0.20555248      0.26323149
s              7   1.000000
      0.38350848     -0.19612776
      0.04707223      0.94761725
      0.02222627      0.24885867
     35.04582407      0.00549894
      6.03518090      0.02510863
      0.48495254     -0.26639065
      0.18482741     -0.21887617
p              7   1.000000
      1.83062075     -0.01160581
      0.10124670      0.57032705
      0.03901771      0.59562188
      5.64855011     -0.02518913
      1.46458470     -0.12598405
      0.51631143     -0.24328078
      0.20555248     -0.11605769
 
          35   0
s              4   1.000000
     34.91996714     -0.01198412
      6.01350729     -0.05472053
      0.48321097      0.58055871
      0.18416366      0.47700799
p              4   1.000000
      5.62826498      0.05713170
      1.45932507      0.28574555
      0.51445724      0.55178731
      0.20481429      0.26323149
s              7   1.000000
      0.38350848     -0.19624533
      0.04707223      0.94818529
      0.02222627      0.24900784
     34.91996714      0.00551786
      6.01350729      0.02519505
      0.48321097     -0.26730748
      0.18416366     -0.21962947
p              7   1.000000
      1.83062075     -0.01161234
      0.10124670      0.57064821
      0.03901771      0.59595730
      5.62826498     -0.02527616
      1.45932507     -0.12641932
      0.51445724     -0.24412130
      0.20481429     -0.11645867
 
          36   0
s              4   1.000000
     34.91214294     -0.01198412
      6.01215990     -0.05472053
      0.48310270      0.58055871
      0.18412240      0.47700800
p              4   1.000000
      5.62700390      0.05713170
      1.45899809      0.28574555
      0.51434197      0.55178731
      0.20476840      0.26323149
s              7   1.000000
      0.38350848     -0.19625267
      0.04707223      0.94822079
      0.02222627      0.24901718
     34.91214294      0.00551905
      6.01215990      0.02520044
      0.48310270     -0.26736468
      0.18412240     -0.21967647
p              7   1.000000
      1.83062075     -0.01161275
      0.10124670      0.57066827
      0.03901771      0.59597825
      5.62700390     -0.02528159
      1.45899809     -0.12644647
      0.51434197     -0.24417374
      0.20476840     -0.11648368
 
          37   0
s              4   1.000000
     35.03494951     -0.01198412
      6.03330821     -0.05472052
      0.48480206      0.58055871
      0.18477006      0.47700799
p              4   1.000000
      5.64679739      0.05713170
      1.46413024      0.28574555
      0.51615122      0.55178731
      0.20548869      0.26323149
s              7   1.000000
      0.38350848     -0.19613787
      0.04707223      0.94766612
      0.02222627      0.24887152
     35.03494951      0.00550057
      6.03330821      0.02511608
      0.48480206     -0.26646962
      0.18477006     -0.21894106
p              7   1.000000
      1.83062075     -0.01160637
      0.10124670      0.57035468
      0.03901771      0.59565076
      5.64679739     -0.02519663
      1.46413024     -0.12602154
      0.51615122     -0.24335318
      0.20548869     -0.11609223
 
          38   0
s              4   1.000000
     35.26001482     -0.01198412
      6.07206632     -0.05472052
      0.48791644      0.58055871
      0.18595703      0.47700800
p              4   1.000000
      5.68307254      0.05713170
      1.47353585      0.28574555
      0.51946698      0.55178731
      0.20680876      0.26323149
s              7   1.000000
      0.38350848     -0.19593024
      0.04707223      0.94666290
      0.02222627      0.24860805
     35.26001482      0.00546702
      6.07206632      0.02496290
      0.48791644     -0.26484443
      0.18595703     -0.21760574
p              7   1.000000
      1.83062075     -0.01159483
      0.10124670      0.56978750
      0.03901771      0.59505840
      5.68307254     -0.02504236
      1.47353585     -0.12524994
      0.51946698     -0.24186318
      0.20680876     -0.11538142
 
          39   0
s              4   1.000000
      8.30638276      0.05675242
      1.51996571      0.26014135
      0.42226312      0.53284611
      0.14014533      0.29162544
s              7   1.000000
      0.92936822     -0.06733173
      0.05643440      0.66948821
      0.02166600      0.51463986
      8.30638276     -0.02902958
      1.51996571     -0.13306557
      0.42226312     -0.27255747
      0.14014533     -0.14917007
p              4   1.000000
      0.64737396      0.05713170
      0.16785440      0.28574555
      0.05917387      0.55178731
      0.02355814      0.26323150
 
          40   0
s              4   1.000000
      8.30626058      0.05675242
      1.51994335      0.26014135
      0.42225691      0.53284611
      0.14014327      0.29162544
s              7   1.000000
      0.92936822     -0.06733188
      0.05643440      0.66948979
      0.02166600      0.51464108
      8.30626058     -0.02902990
      1.51994335     -0.13306707
      0.42225691     -0.27256054
      0.14014327     -0.14917175
p              4   1.000000
      0.64737396      0.05713170
      0.16785440      0.28574555
      0.05917387      0.55178731
      0.02355814      0.26323150
 
          41   0
s              4   1.000000
      8.30637526      0.05675242
      1.51996434      0.26014135
      0.42226274      0.53284611
      0.14014521      0.29162544
s              7   1.000000
      0.92936822     -0.06733174
      0.05643440      0.66948831
      0.02166600      0.51463994
      8.30637526     -0.02902960
      1.51996434     -0.13306566
      0.42226274     -0.27255766
      0.14014521     -0.14917017
p              4   1.000000
      0.64737396      0.05713170
      0.16785440      0.28574555
      0.05917387      0.55178731
      0.02355814      0.26323150
 
          42   0
s              4   1.000000
      8.30627552      0.05675242
      1.51994608      0.26014135
      0.42225767      0.53284611
      0.14014352      0.29162544
s              7   1.000000
      0.92936822     -0.06733186
      0.05643440      0.66948959
      0.02166600      0.51464093
      8.30627552     -0.02902986
      1.51994608     -0.13306688
      0.42225767     -0.27256017
      0.14014352     -0.14917155
p              4   1.000000
      0.64737396      0.05713170
      0.16785440      0.28574555
      0.05917387      0.55178731
      0.02355814      0.26323150
 
          43   0
s              4   1.000000
      8.30638381      0.05675242
      1.51996590      0.26014135
      0.42226317      0.53284611
      0.14014535      0.29162544
s              7   1.000000
      0.92936822     -0.06733172
      0.05643440      0.66948820
      0.02166600      0.51463986
      8.30638381     -0.02902957
      1.51996590     -0.13306555
      0.42226317     -0.27255745
      0.14014535     -0.14917006
p              4   1.000000
      0.64737396      0.05713170
      0.16785440      0.28574555
      0.05917387      0.55178731
      0.02355814      0.26323150
 
          44   0
s              4   1.000000
      8.30637589      0.05675242
      1.51996445      0.26014135
      0.42226277      0.53284611
      0.14014522      0.29162544
s              7   1.000000
      0.92936822     -0.06733174
      0.05643440      0.66948831
      0.02166600      0.51463994
      8.30637589     -0.02902959
      1.51996445     -0.13306565
      0.42226277     -0.27255764
      0.14014522     -0.14917016
p              4   1.000000
      0.64737396      0.05713170
      0.16785440      0.28574555
      0.05917387      0.55178731
      0.02355814      0.26323150
 
          45   0
s              4   1.000000
      8.30993494      0.05675242
      1.52061571      0.26014135
      0.42244370      0.53284611
      0.14020526      0.29162544
s              7   1.000000
      0.92936822     -0.06732715
      0.05643440      0.66944277
      0.02166600      0.51460493
      8.30993494     -0.02902007
      1.52061571     -0.13302200
      0.42244370     -0.27246823
      0.14020526     -0.14912123
p              4   1.000000
      0.64737396      0.05713170
      0.16785440      0.28574555
      0.05917387      0.55178731
      0.02355814      0.26323150
 
          46   0
s              4   1.000000
      8.30884373      0.05675242
      1.52041603      0.26014135
      0.42238822      0.53284611
      0.14018685      0.29162544
s              7   1.000000
      0.92936822     -0.06732856
      0.05643440      0.66945672
      0.02166600      0.51461566
      8.30884373     -0.02902299
      1.52041603     -0.13303538
      0.42238822     -0.27249564
      0.14018685     -0.14913623
p              4   1.000000
      0.64737396      0.05713170
      0.16785440      0.28574555
      0.05917387      0.55178731
      0.02355814      0.26323150
 
          47   0
s              4   1.000000
      8.30896298      0.05675242
      1.52043785      0.26014135
      0.42239428      0.53284611
      0.14018887      0.29162544
s              7   1.000000
      0.92936822     -0.06732840
      0.05643440      0.66945520
      0.02166600      0.51461450
      8.30896298     -0.02902267
      1.52043785     -0.13303392
      0.42239428     -0.27249264
      0.14018887     -0.14913459
p              4   1.000000
      0.64737396      0.05713170
      0.16785440      0.28574555
      0.05917387      0.55178731
      0.02355814      0.26323150
 
          48   0
s              4   1.000000
      8.31078313      0.05675242
      1.52077092      0.26014135
      0.42248681      0.53284611
      0.14021958      0.29162544
s              7   1.000000
      0.92936822     -0.06732606
      0.05643440      0.66943192
      0.02166600      0.51459658
      8.31078313     -0.02901780
      1.52077092     -0.13301160
      0.42248681     -0.27244693
      0.14021958     -0.14910958
p              4   1.000000
      0.64737396      0.05713170
      0.16785440      0.28574555
      0.05917387      0.55178731
      0.02355814      0.26323150
 
          49   0
s              4   1.000000
      8.30945965      0.05675242
      1.52052874      0.26014135
      0.42241953      0.53284611
      0.14019725      0.29162544
s              7   1.000000
      0.92936822     -0.06732777
      0.05643440      0.66944884
      0.02166600      0.51460960
      8.30945965     -0.02902134
      1.52052874     -0.13302783
      0.42241953     -0.27248017
      0.14019725     -0.14912776
p              4   1.000000
      0.64737396      0.05713170
      0.16785440      0.28574555
      0.05917387      0.55178731
      0.02355814      0.26323150
 
          50   0
s              4   1.000000
      8.30921072      0.05675242
      1.52048319      0.26014135
      0.42240688      0.53284611
      0.14019305      0.29162544
s              7   1.000000
      0.92936822     -0.06732809
      0.05643440      0.66945203
      0.02166600      0.51461206
      8.30921072     -0.02902201
      1.52048319     -0.13303088
      0.42240688     -0.27248642
      0.14019305     -0.14913118
p              4   1.000000
      0.64737396      0.05713170
      0.16785440      0.28574555
      0.05917387      0.55178731
      0.02355814      0.26323150
 
          51   0
s              4   1.000000
      8.31006779      0.05675242
      1.52064002      0.26014135
      0.42245045      0.53284611
      0.14020751      0.29162544
s              7   1.000000
      0.92936822     -0.06732698
      0.05643440      0.66944106
      0.02166600      0.51460361
      8.31006779     -0.02901971
      1.52064002     -0.13302037
      0.42245045     -0.27246490
      0.14020751     -0.14911940
p              4   1.000000
      0.64737396      0.05713170
      0.16785440      0.28574555
      0.05917387      0.55178731
      0.02355814      0.26323150
 
          52   0
s              4   1.000000
      8.30882212      0.05675242
      1.52041208      0.26014135
      0.42238712      0.53284611
      0.14018649      0.29162544
s              7   1.000000
      0.92936822     -0.06732859
      0.05643440      0.66945699
      0.02166600      0.51461586
      8.30882212     -0.02902305
      1.52041208     -0.13303564
      0.42238712     -0.27249618
      0.14018649     -0.14913653
p              4   1.000000
      0.64737396      0.05713170
      0.16785440      0.28574555
      0.05917387      0.55178731
      0.02355814      0.26323150
 
          53   0
s              4   1.000000
      8.30889713      0.05675242
      1.52042581      0.26014135
      0.42239094      0.53284611
      0.14018775      0.29162544
s              7   1.000000
      0.92936822     -0.06732849
      0.05643440      0.66945604
      0.02166600      0.51461514
      8.30889713     -0.02902285
      1.52042581     -0.13303472
      0.42239094     -0.27249430
      0.14018775     -0.14913550
p              4   1.000000
      0.64737396      0.05713170
      0.16785440      0.28574555
      0.05917387      0.55178731
      0.02355814      0.26323150
 
          54   0
s              4   1.000000
      8.30981327      0.05675242
      1.52059345      0.26014135
      0.42243751      0.53284611
      0.14020321      0.29162544
s              7   1.000000
      0.92936822     -0.06732731
      0.05643440      0.66944432
      0.02166600      0.51460612
      8.30981327     -0.02902040
      1.52059345     -0.13302349
      0.42243751     -0.27247129
      0.14020321     -0.14912290
p              4   1.000000
      0.64737396      0.05713170
      0.16785440      0.28574555
      0.05917387      0.55178731
      0.02355814      0.26323150
 
          55   0
s              4   1.000000
      8.30981354      0.05675242
      1.52059350      0.26014135
      0.42243752      0.53284611
      0.14020322      0.29162544
s              7   1.000000
      0.92936822     -0.06732731
      0.05643440      0.66944432
      0.02166600      0.51460612
      8.30981354     -0.02902040
      1.52059350     -0.13302349
      0.42243752     -0.27247128
      0.14020322     -0.14912290
p              4   1.000000
      0.64737396      0.05713170
      0.16785440      0.28574555
      0.05917387      0.55178731
      0.02355814      0.26323150
 
          56   0
s              4   1.000000
      8.30889854      0.05675242
      1.52042606      0.26014135
      0.42239101      0.53284611
      0.14018778      0.29162544
s              7   1.000000
      0.92936822     -0.06732849
      0.05643440      0.66945603
      0.02166600      0.51461512
      8.30889854     -0.02902284
      1.52042606     -0.13303471
      0.42239101     -0.27249426
      0.14018778     -0.14913548
p              4   1.000000
      0.64737396      0.05713170
      0.16785440      0.28574555
      0.05917387      0.55178731
      0.02355814      0.26323150
 
          57   0
s              4   1.000000
      8.30882582      0.05675242
      1.52041276      0.26014135
      0.42238731      0.53284611
      0.14018655      0.29162544
s              7   1.000000
      0.92936822     -0.06732858
      0.05643440      0.66945695
      0.02166600      0.51461584
      8.30882582     -0.02902304
      1.52041276     -0.13303560
      0.42238731     -0.27249609
      0.14018655     -0.14913648
p              4   1.000000
      0.64737396      0.05713170
      0.16785440      0.28574555
      0.05917387      0.55178731
      0.02355814      0.26323150
 
          58   0
s              4   1.000000
      8.31007847      0.05675242
      1.52064198      0.26014135
      0.42245099      0.53284611
      0.14020769      0.29162544
s              7   1.000000
      0.92936822     -0.06732697
      0.05643440      0.66944093
      0.02166600      0.51460351
      8.31007847     -0.02901969
      1.52064198     -0.13302024
      0.42245099     -0.27246463
      0.14020769     -0.14911926
p              4   1.000000
      0.64737396      0.05713170
      0.16785440      0.28574555
      0.05917387      0.55178731
      0.02355814      0.26323150
 
          59   0
s              4   1.000000
      8.30960080      0.05675242
      1.52055457      0.26014135
      0.42242671      0.53284611
      0.14019963      0.29162544
s              7   1.000000
      0.92936822     -0.06732758
      0.05643440      0.66944703
      0.02166600      0.51460821
      8.30960080     -0.02902096
      1.52055457     -0.13302609
      0.42242671     -0.27247662
      0.14019963     -0.14912582
p              4   1.000000
      0.64737396      0.05713170
      0.16785440      0.28574555
      0.05917387      0.55178731
      0.02355814      0.26323150
 
          60   0
s              4   1.000000
      8.31081309      0.05675242
      1.52077640      0.26014135
      0.42248834      0.53284611
      0.14022008      0.29162544
s              7   1.000000
      0.92936822     -0.06732603
      0.05643440      0.66943153
      0.02166600      0.51459631
      8.31081309     -0.02901772
      1.52077640     -0.13301123
      0.42248834     -0.27244618
      0.14022008     -0.14910916
p              4   1.000000
      0.64737396      0.05713170
      0.16785440      0.28574555
      0.05917387      0.55178731
      0.02355814      0.26323150
 
          61   0
s              4   1.000000
      8.30895387      0.05675242
      1.52043619      0.26014135
      0.42239382      0.53284611
      0.14018871      0.29162544
s              7   1.000000
      0.92936822     -0.06732842
      0.05643440      0.66945531
      0.02166600      0.51461457
      8.30895387     -0.02902269
      1.52043619     -0.13303403
      0.42239382     -0.27249287
      0.14018871     -0.14913472
p              4   1.000000
      0.64737396      0.05713170
      0.16785440      0.28574555
      0.05917387      0.55178731
      0.02355814      0.26323150
 
          62   0
s              4   1.000000
      8.30884513      0.05675242
      1.52041629      0.26014135
      0.42238829      0.53284611
      0.14018688      0.29162544
s              7   1.000000
      0.92936822     -0.06732856
      0.05643440      0.66945670
      0.02166600      0.51461564
      8.30884513     -0.02902299
      1.52041629     -0.13303536
      0.42238829     -0.27249560
      0.14018688     -0.14913621
p              4   1.000000
      0.64737396      0.05713170
      0.16785440      0.28574555
      0.05917387      0.55178731
      0.02355814      0.26323150
 
          63   0
s              4   1.000000
      8.30991792      0.05675242
      1.52061260      0.26014135
      0.42244283      0.53284611
      0.14020498      0.29162544
s              7   1.000000
      0.92936822     -0.06732718
      0.05643440      0.66944299
      0.02166600      0.51460510
      8.30991792     -0.02902012
      1.52061260     -0.13302221
      0.42244283     -0.27246866
      0.14020498     -0.14912146
p              4   1.000000
      0.64737396      0.05713170
      0.16785440      0.28574555
      0.05917387      0.55178731
      0.02355814      0.26323150
 
 [MO]
 Sym= Hole
 Ene= -0.9715923    
 Spin= Alpha
 Occup= 0
           1 -4.6022993E-02
           2 -7.0526294E-02
           3 -3.1099929E-02
           4 -4.8916899E-02
           5  2.6029799E-02
           6  1.0327320E-02
           7  3.7581827E-03
           8  6.5526934E-03
           9  8.8959605E-05
          10  8.2820049E-03
          11  2.6852146E-02
          12  3.0729717E-02
          13 -1.5022440E-04
          14 -1.8516171E-03
          15 -4.5744227E-03
          16 -4.4446485E-03
          17  4.6157006E-02
          18  4.2562962E-02
          19 -5.3588182E-02
          20 -6.1514903E-02
          21 -2.6212217E-02
          22 -6.6896412E-03
          23  7.2767544E-03
          24  8.6405855E-03
          25 -2.0252536E-03
          26 -5.8811519E-02
          27 -0.1669241    
          28 -0.2191753    
          29  9.5597870E-04
          30  3.7119666E-03
          31  1.5239760E-02
          32  2.0476989E-02
          33 -3.9753377E-05
          34  5.1551857E-03
          35  1.4312693E-02
          36  1.9431524E-02
          37 -3.2228458E-04
          38 -1.6378696E-03
          39 -2.2566377E-03
          40 -3.4504135E-03
          41 -9.2871516E-04
          42  6.3110650E-02
          43  0.1673052    
          44  0.2132860    
          45 -1.5703896E-04
          46 -4.8747053E-03
          47 -1.0829504E-02
          48 -1.4604590E-02
          49  6.0390204E-04
          50  7.4822721E-03
          51  1.3759505E-02
          52  1.9083086E-02
          53 -3.9460152E-04
          54 -3.2782000E-03
          55 -5.4586302E-03
          56 -9.1541354E-03
          57 -3.6315937E-03
          58 -8.0978110E-02
          59 -0.1824425    
          60 -0.2285468    
          61  2.4621275E-03
          62  3.4164886E-03
          63  1.0601348E-02
          64  1.0521973E-02
          65 -3.3018282E-03
          66 -2.9952245E-02
          67 -7.4495032E-02
          68 -9.9733599E-02
          69  2.8109925E-03
          70  6.3330932E-03
          71  1.4974019E-02
          72  2.3142882E-02
          73  5.4238988E-03
          74  0.1291763    
          75  0.3523958    
          76  0.4474294    
          77 -2.4655787E-03
          78 -1.4952017E-02
          79 -3.9558418E-02
          80 -4.3635003E-02
          81 -1.2023187E-03
          82 -1.0446509E-02
          83 -2.3667419E-02
          84 -7.1336947E-02
          85  2.7045768E-03
          86  2.1831912E-04
          87  9.8934313E-03
          88  1.4800046E-02
          89  5.3827953E-02
          90 -3.3216167E-02
          91  0.1190505    
          92  2.9322824E-03
          93 -2.8548591E-02
          94  1.2964646E-02
          95 -1.2353696E-02
          96 -1.2114074E-03
          97 -2.2150965E-02
          98  1.6813941E-02
          99 -3.4575902E-02
         100  4.7064407E-04
         101  9.6598696E-03
         102 -3.3463357E-04
         103  2.4336341E-03
         104 -6.9347356E-04
         105 -3.3422888E-03
         106 -1.5709050E-03
         107 -1.8506937E-02
         108  9.4003774E-02
         109  6.0678427E-03
         110  2.5447696E-03
         111 -5.1958259E-04
         112 -6.3936152E-03
         113  1.9774361E-02
         114  8.2672406E-03
         115 -3.6265891E-02
         116 -2.1095546E-02
         117 -8.5351206E-03
         118  3.3641576E-03
         119  4.8863329E-03
         120  2.3271916E-03
         121  5.5738661E-04
         122  2.4714035E-03
         123  6.3547626E-02
         124 -5.8741923E-02
         125  3.7791482E-03
         126 -3.2760461E-03
         127 -5.3501809E-03
         128  4.0195603E-03
         129 -4.3680961E-03
         130  7.2051263E-03
         131 -1.2535186E-02
         132  1.0120134E-02
         133  3.6537461E-03
         134 -9.4088557E-04
         135 -3.5005985E-05
         136 -2.1787430E-03
         137  1.0387488E-03
         138  4.6137339E-04
         139 -1.7914141E-02
         140  4.0168770E-02
         141  1.2835497E-03
         142 -6.4448960E-04
         143  3.4536616E-04
         144 -1.8887038E-03
         145 -7.8531931E-04
         146  8.9061266E-04
         147 -2.5303247E-03
         148  2.0940180E-03
         149  1.5159781E-04
         150  6.6750549E-04
         151 -7.2865968E-04
         152 -6.9807604E-05
         153 -2.6610005E-04
         154  6.4201088E-04
         155  2.2964526E-02
         156 -3.3187520E-02
         157  4.6825946E-05
         158  1.1358227E-04
         159 -1.4372558E-03
         160  1.6619018E-03
         161 -4.9313961E-04
         162  8.3793822E-04
         163  5.5354652E-03
         164 -1.0174748E-02
         165 -6.0141119E-05
         166  2.4383067E-04
         167 -2.6598916E-04
         168  1.1153381E-03
         169  1.9637750E-04
         170  2.3787176E-04
         171 -1.8297900E-02
         172  3.5656095E-02
         173 -6.6799071E-04
         174  1.7386196E-03
         175  1.3147586E-03
         176 -2.1629836E-03
         177  1.9088794E-03
         178 -1.9065320E-03
         179 -8.1729833E-03
         180  8.2125217E-03
         181 -1.0045373E-03
         182  1.7692025E-03
         183  9.9538267E-04
         184 -3.7085934E-04
         185 -1.5187983E-03
         186  2.0821563E-03
         187  1.4424092E-02
         188 -1.7751524E-02
         189  3.0128832E-04
         190  5.0396746E-04
         191 -6.5529253E-04
         192  6.3686323E-04
         193 -6.4760016E-04
         194  7.6658005E-04
         195  9.1212960E-03
         196 -1.5731523E-02
         197 -8.2032830E-06
         198  2.0259105E-04
         199  2.4795847E-04
         200  5.4854009E-04
         201 -9.0109505E-04
         202  9.7190618E-04
         203 -8.0595203E-03
         204  1.5788313E-02
         205  2.8916355E-04
         206  2.1005528E-05
         207  1.4961154E-03
         208 -3.7174314E-04
         209  6.4430502E-04
         210  3.4254282E-03
         211 -1.7993843E-02
         212  1.8220339E-02
         213  1.9120199E-03
         214 -1.8907171E-03
         215  1.5523229E-04
         216  1.1298460E-05
         217 -8.6782584E-03
         218  1.1799687E-02
         219  1.4370584E-02
         220  1.1137723E-03
         221  5.1296852E-03
         222 -2.5562076E-03
         223 -1.8017298E-04
         224  1.2599028E-03
         225  6.1787087E-03
         226 -2.0842729E-03
         227  8.7848874E-03
         228 -4.4036895E-02
         229  1.7302379E-03
         230 -4.6593416E-03
         231 -6.0987787E-04
         232  3.1479339E-03
         233  4.8310389E-03
         234  8.2738725E-03
         235  1.2106105E-02
         236  6.6160768E-02
         237 -4.5324732E-03
         238  4.9322578E-03
         239  2.2965600E-03
         240 -4.0675914E-03
         241  1.9550778E-02
         242 -2.4913741E-02
         243 -3.1576391E-02
         244  5.0677806E-03
         245 -1.5635911E-03
         246  5.8525167E-03
         247  1.8638268E-03
         248  1.0001857E-03
         249 -5.6147348E-02
         250  6.5320432E-02
         251  0.1207488    
         252 -6.7252092E-02
         253  3.2291759E-02
         254 -1.8993802E-02
         255 -6.2134871E-03
         256  8.7283123E-03
         257  1.1858798E-03
         258 -2.3714576E-02
         259 -7.2513282E-02
         260 -9.0474419E-02
         261 -3.2342572E-04
         262  5.8128629E-03
         263  1.6448678E-02
         264  2.1826670E-02
         265  3.3771800E-04
         266 -4.1696373E-02
         267 -0.1884829    
         268 -0.2250723    
         269  1.7052608E-04
         270  1.8840126E-03
         271  1.1635834E-02
         272  1.1164767E-02
         273 -9.2270411E-06
         274  3.1830128E-03
         275  1.6519958E-02
         276  2.0141535E-02
         277  1.1168386E-05
         278 -1.2414237E-03
         279 -6.6692145E-03
         280 -8.3718002E-03
         281  2.5662794E-04
         282  4.7731236E-02
         283  0.1664652    
         284  0.2115157    
         285 -9.5388546E-05
         286 -3.4801213E-03
         287 -1.1597005E-02
         288 -1.4831528E-02
         289 -1.1075224E-03
         290  2.3102111E-03
         291  9.7130360E-03
         292  1.5646154E-02
         293  3.7321978E-04
         294 -8.2550052E-04
         295 -2.6703989E-03
         296 -3.5828776E-03
         297  4.1787215E-03
         298 -4.9343798E-02
         299 -0.1678028    
         300 -0.2189164    
         301 -1.6486765E-03
         302  5.2511180E-03
         303  1.4986463E-02
         304  2.0245414E-02
         305  2.1446381E-02
         306  1.1859878E-03
         307 -5.0606602E-03
         308  5.0850743E-03
         309 -7.3659080E-03
         310  1.0428967E-02
         311  5.6225630E-03
         312  9.5299240E-03
         313 -8.7108230E-03
         314 -9.5673939E-03
         315  2.2991566E-02
         316  1.2587176E-03
         317 -5.9287325E-03
         318 -7.7649998E-03
         319  2.5893238E-03
         320 -1.0295294E-02
         321 -6.0245451E-03
         322 -1.4099428E-02
         323 -3.8656567E-03
         324 -6.6246428E-03
         325 -2.1753658E-02
         326 -1.5323872E-03
         327  4.8977621E-03
         328  3.2105232E-03
         329 -8.3500557E-03
         330 -2.3534307E-02
         331 -1.4798853E-03
         332  3.1284413E-03
         333 -9.5281247E-03
         334  1.6907627E-03
         335  1.9893677E-03
         336 -1.0633721E-03
         337 -6.2244348E-05
         338  1.9826028E-03
         339  2.1308893E-03
         340  8.3558063E-04
         341 -4.6596600E-04
         342  5.4379767E-03
         343  1.4355367E-02
         344  1.8461742E-02
         345  3.2507253E-03
         346 -1.2715734E-03
         347  1.2496602E-03
         348  3.4352215E-03
         349  3.5642355E-03
         350 -1.3634774E-03
         351 -8.7803775E-05
         352 -1.4754442E-03
         353 -1.1171835E-02
         354 -1.4208221E-02
         355 -2.9656667E-02
         356 -8.7376460E-03
         357  1.8470479E-02
         358 -1.3293071E-02
         359 -6.3908538E-03
         360  4.5149639E-02
         361 -1.3570392E-03
         362 -6.8068184E-04
         363  2.6964690E-03
         364  6.2010827E-04
         365 -1.2158103E-03
         366  1.2415410E-04
         367 -2.7953133E-03
         368  3.9381339E-04
         369  2.2686345E-03
         370  2.5284612E-03
         371 -7.3605898E-04
         372 -1.4368565E-04
         373 -3.1810728E-04
         374 -4.5917655E-04
         375 -1.7033365E-04
         376 -2.3836533E-04
         377  1.3464254E-04
         378  1.3905352E-03
         379 -2.6330817E-03
         380 -7.0889463E-04
         381 -7.9150152E-05
         382 -2.5031224E-04
         383  2.2438995E-04
         384 -4.0597399E-04
         385  1.1703169E-03
         386 -2.9398411E-04
         387 -1.0662700E-05
         388  4.9119553E-04
         389 -6.5199699E-04
         390 -8.7544811E-04
         391 -1.6421822E-04
         392 -1.7104835E-04
         393  7.0251653E-04
         394 -6.2723609E-04
         395  3.0260608E-03
         396 -6.3459878E-04
         397 -2.6585892E-04
         398  1.1896688E-04
         399  6.0563954E-04
         400  4.4653143E-04
         401  6.7005627E-04
         402 -3.1746808E-03
         403 -3.8272073E-03
         404  3.4446054E-04
         405  3.5907038E-02
         406  7.0707561E-03
         407 -2.1846417E-02
         408 -5.1630853E-04
         409 -3.9667399E-03
         410  4.5914479E-04
         411 -2.2529822E-03
         412 -6.8045477E-03
         413 -1.0864442E-02
         414 -1.4901626E-02
         415 -3.5377413E-03
         416  2.8052708E-04
         417  7.1154663E-04
         418  2.9799135E-03
         419  4.3446459E-03
         420 -3.4494032E-04
         421  6.7640831E-05
         422  4.2093443E-03
         423  1.4616938E-02
         424  1.8841030E-02
         425 -2.7678811E-04
         426  4.3250161E-04
         427  8.1119896E-04
         428  1.9375229E-03
         429  1.8573668E-03
 Sym= Particle
 Ene= -0.9715923    
 Spin= Alpha
 Occup= 2
           1 -5.2370774E-03
           2 -5.8704992E-03
           3 -3.4934371E-03
           4 -3.6487544E-03
           5  3.9113765E-03
           6  1.2082773E-03
           7  1.3827501E-03
           8 -1.7680637E-04
           9 -2.5512953E-04
          10  2.2007644E-04
          11  7.8023970E-03
          12 -5.2204039E-03
          13 -1.4075761E-04
          14 -1.3972101E-03
          15 -1.7800956E-03
          16  9.4368774E-04
          17  5.2478835E-03
          18  3.1095534E-03
          19 -5.4656230E-03
          20 -5.8460999E-03
          21 -4.6011079E-03
          22 -2.0648686E-03
          23  2.9085344E-03
          24  4.4587787E-04
          25  8.7533770E-03
          26  8.7968418E-03
          27 -1.6510999E-02
          28 -1.5014851E-02
          29 -4.4613788E-03
          30 -4.1363561E-03
          31  7.4662399E-03
          32  4.1038748E-03
          33 -5.0990004E-03
          34 -6.6539152E-03
          35 -7.3869876E-03
          36 -2.1008294E-02
          37  1.5494712E-03
          38  4.9155671E-04
          39  3.4549874E-03
          40  3.4125713E-03
          41 -3.4823513E-04
          42  6.7092571E-03
          43  1.7266074E-02
          44  2.1855213E-02
          45  5.1766227E-04
          46  6.4678671E-04
          47 -1.1545386E-03
          48 -2.0170242E-03
          49 -9.8831917E-04
          50  1.9530726E-03
          51  1.0449343E-02
          52  8.8219438E-03
          53 -6.3407340E-04
          54  1.4887585E-03
          55 -7.5738453E-06
          56 -2.6294824E-03
          57  2.5088256E-03
          58 -8.7990249E-03
          59 -2.5234673E-02
          60 -2.5892371E-02
          61 -2.9212650E-04
          62  2.0216543E-03
          63  1.3030206E-03
          64  1.6860769E-03
          65 -2.6995050E-02
          66 -1.3204866E-02
          67  5.2619830E-02
          68  3.5531085E-03
          69  2.3923373E-02
          70  1.2404143E-02
          71 -2.1514975E-02
          72 -2.8219582E-03
          73 -1.8110002E-03
          74  1.0197197E-02
          75  2.2821695E-02
          76  3.4877907E-02
          77  3.9670677E-03
          78  2.7473940E-04
          79  1.4884502E-03
          80 -1.3259107E-02
          81 -9.9398394E-04
          82  3.2142389E-03
          83  0.1883839    
          84 -0.2964170    
          85  6.7766868E-03
          86 -1.2872095E-04
          87 -5.7359815E-02
          88  9.5779330E-02
          89  2.0931268E-03
          90 -5.2867935E-04
          91  0.1285197    
          92 -0.1906624    
          93  2.5719292E-03
          94  3.9254493E-04
          95 -2.6916042E-02
          96  3.9523050E-02
          97 -6.9474679E-04
          98  1.0061945E-03
          99 -0.2110688    
         100  0.3269753    
         101  3.0688567E-03
         102 -1.9378059E-03
         103  4.7206450E-02
         104 -7.2533607E-02
         105 -8.9833315E-04
         106  8.0271927E-04
         107 -8.7474100E-03
         108  1.4879930E-02
         109  2.6691016E-03
         110 -1.1545655E-03
         111  2.2192448E-03
         112 -2.5856262E-03
         113 -5.0164148E-04
         114  6.2878453E-04
         115  0.1805709    
         116 -0.2803757    
         117  4.0712420E-04
         118  6.4321631E-04
         119 -2.7780425E-02
         120  4.3585442E-02
         121 -4.3642320E-04
         122 -2.9230272E-04
         123 -0.1331828    
         124  0.2058640    
         125  1.0011420E-03
         126 -3.7823402E-04
         127  3.4306500E-02
         128 -5.1932950E-02
         129  6.1044539E-06
         130 -3.4704397E-04
         131 -5.3224534E-02
         132  8.2406640E-02
         133  2.3564852E-04
         134 -4.0488459E-05
         135  2.2500590E-03
         136 -3.4064387E-03
         137 -1.2153901E-04
         138  4.6244642E-04
         139  5.0005849E-02
         140 -7.7269971E-02
         141  8.3335421E-05
         142 -2.7898890E-05
         143 -6.1082938E-03
         144  8.8913077E-03
         145 -4.2547766E-05
         146 -2.6508527E-05
         147  3.2772552E-02
         148 -5.0889261E-02
         149  6.5702909E-05
         150  2.3887597E-04
         151 -4.3823267E-03
         152  6.8349522E-03
         153  2.9142471E-05
         154 -2.3080902E-04
         155 -5.5358961E-02
         156  8.5669972E-02
         157 -8.7182889E-06
         158  2.9042538E-05
         159  6.3628396E-03
         160 -9.7095352E-03
         161 -2.0751671E-05
         162 -2.6368914E-04
         163 -2.2566531E-02
         164  3.4974802E-02
         165 -1.2971730E-05
         166  3.5894816E-04
         167  5.9620603E-03
         168 -9.3166046E-03
         169 -8.7171000E-05
         170  2.3736630E-04
         171  6.9521509E-02
         172 -0.1075814    
         173  9.9357065E-05
         174  2.4152402E-04
         175 -1.6277406E-02
         176  2.5274025E-02
         177 -7.8832549E-05
         178  5.3935591E-04
         179  6.7832753E-02
         180 -0.1050456    
         181  2.3373368E-04
         182 -2.1791206E-04
         183 -1.6359637E-02
         184  2.5719715E-02
         185 -3.5049725E-05
         186 -2.1373975E-04
         187 -1.9444594E-02
         188  3.0138586E-02
         189 -5.0596969E-05
         190  1.2326542E-04
         191  4.7063297E-03
         192 -7.1751843E-03
         193 -5.3497046E-05
         194 -6.7577627E-04
         195 -5.7528988E-02
         196  8.8907912E-02
         197 -3.9472736E-05
         198  2.7656689E-04
         199  7.2438722E-03
         200 -1.1034587E-02
         201 -7.4295131E-05
         202  3.1158081E-04
         203  3.3909258E-02
         204 -5.2159540E-02
         205  9.2591123E-05
         206 -2.5692822E-05
         207 -4.8860284E-03
         208  7.3334193E-03
         209 -1.4854028E-04
         210  4.6649179E-04
         211  5.1904093E-02
         212 -7.9937324E-02
         213  3.5784100E-04
         214  6.9455113E-05
         215 -6.4033377E-03
         216  9.6892156E-03
         217 -2.9404502E-04
         218 -1.0170762E-04
         219 -5.9221700E-02
         220  9.2342816E-02
         221  6.3035765E-04
         222 -3.4123971E-04
         223  4.7185561E-03
         224 -7.9458160E-03
         225  2.4723861E-04
         226 -1.4975225E-03
         227 -0.1275076    
         228  0.1983112    
         229  5.9196661E-04
         230 -1.6698912E-04
         231  3.5189379E-02
         232 -5.4796793E-02
         233 -1.0545407E-03
         234  2.1638193E-03
         235  0.1926658    
         236 -0.3008025    
         237  1.1151604E-03
         238 -8.3171489E-04
         239 -3.2305781E-02
         240  5.0408699E-02
         241  4.2927713E-04
         242 -1.0678672E-03
         243 -3.2984741E-02
         244  5.1552787E-02
         245  2.1980656E-03
         246 -1.1686283E-03
         247  8.1741232E-03
         248 -1.0452837E-02
         249 -2.9728014E-03
         250  4.1727452E-03
         251 -0.2306179    
         252  0.3635857    
         253  6.2700654E-03
         254 -4.5828042E-03
         255  6.0760524E-02
         256 -9.0155520E-02
         257  2.6196362E-02
         258  2.8237231E-02
         259  3.8626250E-02
         260 -8.2740625E-03
         261 -1.9769205E-02
         262 -1.7062254E-02
         263 -5.8017503E-03
         264  5.1847398E-03
         265  9.1449339E-03
         266  1.5265656E-02
         267 -2.9848987E-02
         268 -3.0580765E-02
         269 -7.7990107E-03
         270 -1.0513516E-02
         271  7.8918124E-03
         272  1.1506322E-02
         273 -3.9878627E-03
         274 -5.2211597E-03
         275 -1.0212621E-02
         276 -4.8181685E-03
         277  1.4257553E-03
         278 -2.0275393E-03
         279  1.9945684E-03
         280 -2.9849943E-03
         281  3.1571223E-03
         282  1.0728154E-02
         283  2.3470720E-02
         284  3.0424511E-02
         285 -3.7496788E-03
         286 -5.3813434E-03
         287 -4.0764925E-03
         288 -6.0567991E-03
         289  5.5450154E-03
         290  1.7340576E-03
         291 -1.6273413E-04
         292 -1.0438862E-02
         293 -3.4310797E-03
         294 -1.4142332E-03
         295  1.1061745E-03
         296  9.1168802E-04
         297 -8.8227876E-03
         298 -1.8941503E-02
         299 -2.0337155E-02
         300 -2.4114892E-02
         301  5.5505121E-03
         302  6.3318210E-03
         303  6.0198591E-03
         304  5.0447970E-03
         305  1.3138931E-03
         306  5.3061929E-04
         307  1.0683102E-03
         308  1.2061760E-03
         309 -1.8468542E-03
         310  1.0780491E-03
         311  2.4153371E-05
         312 -4.1418316E-04
         313 -1.0470005E-04
         314 -1.9108310E-03
         315  3.6763742E-03
         316 -1.2697169E-03
         317 -1.8047555E-03
         318 -1.5130120E-03
         319 -5.8425288E-04
         320 -6.2978826E-04
         321 -1.8140733E-03
         322  2.8097490E-04
         323  1.1992153E-03
         324 -1.6596318E-03
         325 -8.1558502E-04
         326 -2.6887830E-03
         327 -1.2017608E-03
         328  1.8540848E-03
         329 -1.6671595E-03
         330 -4.5133070E-03
         331  3.9480990E-04
         332  3.8833899E-04
         333 -1.6939481E-03
         334 -5.4298306E-04
         335  6.3333134E-03
         336 -1.1696408E-03
         337 -7.7393366E-04
         338 -1.3828023E-03
         339 -3.1370567E-03
         340 -9.1701897E-04
         341  1.5704369E-03
         342  2.5068305E-03
         343  2.8836022E-03
         344  4.9006529E-03
         345  2.3504379E-03
         346  8.4710086E-04
         347  1.1353660E-03
         348  2.2139391E-03
         349  3.3346938E-03
         350  2.4110293E-03
         351 -3.5921973E-03
         352 -1.9408254E-02
         353 -1.9921945E-02
         354 -1.7451949E-02
         355 -4.9337588E-04
         356  1.0509921E-03
         357  1.8066966E-03
         358  1.5197444E-02
         359 -2.3424882E-02
         360  5.2850391E-04
         361  7.5009320E-04
         362 -6.8126392E-04
         363 -3.0750694E-02
         364  4.8217263E-02
         365  5.9408329E-05
         366 -1.7310107E-04
         367 -1.9585849E-04
         368  1.4542120E-02
         369 -2.2963220E-02
         370 -3.3279845E-05
         371 -2.8469893E-05
         372  1.1217893E-04
         373  3.0372785E-03
         374 -4.8103738E-03
         375 -2.0980442E-04
         376  1.2464609E-04
         377 -2.2987329E-04
         378 -7.4951635E-03
         379  1.1564042E-02
         380 -8.5472187E-05
         381 -1.1492385E-04
         382 -2.0571457E-05
         383 -1.0372713E-03
         384  1.5107030E-03
         385  4.2697146E-05
         386 -2.7346896E-04
         387 -7.7996629E-05
         388 -3.9993777E-04
         389  5.3020800E-04
         390  9.9315344E-05
         391 -3.1662703E-04
         392 -7.9343718E-06
         393 -8.1178835E-03
         394  1.2771505E-02
         395 -7.8515237E-05
         396 -7.8267321E-06
         397 -1.9839176E-04
         398  2.8753078E-03
         399 -4.5829462E-03
         400 -7.8014658E-05
         401  4.3690432E-04
         402 -9.7412376E-05
         403  1.6801370E-02
         404 -2.5817782E-02
         405  2.0685098E-03
         406  2.9993227E-03
         407 -4.8858873E-03
         408 -3.3307068E-02
         409  5.4966006E-02
         410 -1.3753400E-03
         411  4.7170109E-04
         412  2.4528312E-03
         413 -9.5058335E-03
         414  1.5432896E-02
         415 -6.7791259E-03
         416 -9.2382042E-04
         417 -2.5098291E-04
         418 -2.6435885E-03
         419 -1.3661744E-03
         420 -3.0280927E-03
         421 -3.1626103E-03
         422 -6.3503289E-04
         423  4.5730146E-03
         424  6.7295237E-03
         425 -6.1425185E-03
         426 -9.5259969E-04
         427 -7.2018913E-04
         428 -8.6256096E-06
         429 -2.3125438E-03
