 [Molden Format]
 [Atoms] Angs
C       1      6      1.06684591     -2.79450013     -2.66081459
C       2      6      1.29157611     -2.64224235     -1.18533899
C       3      6      2.56600192     -2.36695225     -0.71347386
C       4      6      2.84200575     -2.20224968      0.63919820
C       5      6      4.23448110     -1.92552342      1.04581986
C       6      6      4.90918752     -2.76182967      1.93082655
C       7      6      6.22050108     -2.49538220      2.28220142
C       8      6      6.87388063     -1.38865482      1.77027847
C       9      6      6.21200002     -0.55140277      0.87706725
N      10      7      6.86248760      0.57779762      0.35175940
C      11      6      6.37633879      1.86951789      0.37304100
C      12      6      5.19353049      2.36138215      0.90809109
C      13      6      4.95918026      3.72014168      0.81660940
C      14      6      5.87744172      4.57874220      0.21481321
C      15      6      7.06499766      4.09880906     -0.30066064
C      16      6      7.32413899      2.73626976     -0.21996981
C      17      6      8.43289949      1.91549911     -0.61943845
C      18      6      9.63974298      2.18049041     -1.25453966
C      19      6     10.49622778      1.12914330     -1.51455365
C      20      6     10.15541576     -0.17607849     -1.16363119
C      21      6      8.96160240     -0.46487183     -0.53059704
C      22      6      8.10682861      0.59096528     -0.24461262
C      23      6      4.90084352     -0.82966750      0.51011212
C      24      6      1.79821968     -2.28213072      1.56467903
C      25      6      2.01219107     -2.06831494      3.03441015
C      26      6      0.52169786     -2.54466740      1.09136294
C      27      6      0.25135427     -2.74338327     -0.25777514
C      28      6     -1.14293990     -3.00305993     -0.66844237
C      29      6     -1.50348071     -4.14301569     -1.37983073
C      30      6     -2.82576106     -4.35129623     -1.73529936
C      31      6     -3.79080055     -3.41368609     -1.42219816
C      32      6     -3.44374143     -2.25547263     -0.72380662
C      33      6     -4.48891315     -1.28529869     -0.43688587
N      34      7     -5.74265025     -1.62103415     -0.24824685
C      35      6     -6.41235148     -0.45975009     -0.02407416
C      36      6     -7.79718625     -0.29098513      0.25724762
C      37      6     -8.66035740     -1.38915555      0.34348071
C      38      6     -9.98872754     -1.20750862      0.63786717
C      39      6    -10.47036397      0.08202021      0.85664200
C      40      6     -9.63237886      1.16937751      0.76911415
C      41      6     -8.27053159      1.02608199      0.45966501
C      42      6     -7.36819872      2.15760199      0.32582558
C      43      6     -7.82198761      3.47900799      0.45081247
C      44      6     -6.98453542      4.55746780      0.28811727
C      45      6     -5.64281725      4.35906489     -0.02301673
C      46      6     -5.15664080      3.08087079     -0.14851245
C      47      6     -5.98916181      1.96685088      0.03331091
C      48      6     -5.53676810      0.62265161     -0.09073252
N      49      7     -4.29915303      0.07654529     -0.34772718
C      50      6     -3.05901197      0.73563263     -0.50630015
C      51      6     -2.43407967      0.73685851     -1.74757457
C      52      6     -1.18911468      1.32498616     -1.88653105
C      53      6     -0.56901667      1.91142432     -0.79579488
C      54      6     -1.19832473      1.91868260      0.43910469
C      55      6     -2.44152319      1.33163196      0.58987570
C      56      6     -2.12306648     -2.08083573     -0.32248779
H      57      1      1.24212567     -3.82635572     -2.96661598
H      58      1      0.04804837     -2.52884407     -2.93223001
H      59      1      1.75863407     -2.16269892     -3.21437439
H      60      1      3.38069379     -2.28659183     -1.42030589
H      61      1      4.40702660     -3.62933070      2.33090228
H      62      1      6.73706845     -3.14951708      2.96928827
H      63      1      7.88756439     -1.16231841      2.06527667
H      64      1      4.48181528      1.70733172      1.38910200
H      65      1      4.04508538      4.12712001      1.22434937
H      66      1      5.65643754      5.63487530      0.16092887
H      67      1      7.78321780      4.76604520     -0.75381744
H      68      1      9.89738317      3.18956147     -1.54051518
H      69      1     11.44090707      1.31439769     -2.00483474
H      70      1     10.83909603     -0.98034661     -1.39420378
H      71      1      8.70026936     -1.48111961     -0.27614965
H      72      1      4.39411807     -0.18556736     -0.19364103
H      73      1      2.17506138     -3.02216697      3.53684543
H      74      1      2.87735417     -1.43616965      3.21931250
H      75      1      1.13308454     -1.60650389      3.47962360
H      76      1     -0.29613975     -2.60891496      1.79639399
H      77      1     -0.75169017     -4.87462237     -1.63456181
H      78      1     -3.10353294     -5.24726113     -2.27116868
H      79      1     -4.82099464     -3.55526526     -1.71009384
H      80      1     -8.24533840     -2.37156217      0.17614419
H      81      1    -10.65699057     -2.05355283      0.70507217
H      82      1    -11.51351535      0.23021213      1.09677656
H      83      1    -10.04986878      2.14740262      0.94843520
H      84      1     -8.85916220      3.67023901      0.67381566
H      85      1     -7.37219747      5.56043143      0.39163502
H      86      1     -4.98666947      5.20449005     -0.16912547
H      87      1     -4.12002211      2.93019967     -0.40417363
H      88      1     -2.92389735      0.26924261     -2.58914979
H      89      1     -0.70241804      1.32159473     -2.84998367
H      90      1      0.40526718      2.36255485     -0.90673361
H      91      1     -0.71814225      2.37644025      1.29086580
H      92      1     -2.93953948      1.32460111      1.54904241
H      93      1     -1.83512778     -1.22175326      0.26252598
 [GTO]
           1   0
s              4   1.000000
     36.92454564     -0.01198412
      6.35871230     -0.05472052
      0.51094967      0.58055871
      0.19473556      0.47700799
p              4   1.000000
      5.95135517      0.05713170
      1.54309753      0.28574555
      0.54398963      0.55178731
      0.21657165      0.26323149
s              7   1.000000
      0.38350848     -0.19449824
      0.04707223      0.93974403
      0.02222627      0.24679106
     36.92454564      0.00523081
      6.35871230      0.02388433
      0.51094967     -0.25340137
      0.19473556     -0.20820372
p              7   1.000000
      1.83062075     -0.01151523
      0.10124670      0.56587620
      0.03901771      0.59097365
      5.95135517     -0.02395583
      1.54309753     -0.11981563
      0.54398963     -0.23136928
      0.21657165     -0.11037529
 
           2   0
s              4   1.000000
     35.00156521     -0.01198412
      6.02755915     -0.05472052
      0.48434010      0.58055871
      0.18459400      0.47700800
p              4   1.000000
      5.64141664      0.05713170
      1.46273509      0.28574555
      0.51565938      0.55178731
      0.20529289      0.26323149
s              7   1.000000
      0.38350848     -0.19616898
      0.04707223      0.94781639
      0.02222627      0.24891098
     35.00156521      0.00550558
      6.02755915      0.02513896
      0.48434010     -0.26671235
      0.18459400     -0.21914050
p              7   1.000000
      1.83062075     -0.01160810
      0.10124670      0.57043964
      0.03901771      0.59573948
      5.64141664     -0.02521967
      1.46273509     -0.12613678
      0.51565938     -0.24357571
      0.20529289     -0.11619839
 
           3   0
s              4   1.000000
     35.11246784     -0.01198412
      6.04665751     -0.05472052
      0.48587473      0.58055871
      0.18517889      0.47700799
p              4   1.000000
      5.65929149      0.05713170
      1.46736978      0.28574555
      0.51729325      0.55178731
      0.20594336      0.26323149
s              7   1.000000
      0.38350848     -0.19606596
      0.04707223      0.94731865
      0.02222627      0.24878026
     35.11246784      0.00548897
      6.04665751      0.02506311
      0.48587473     -0.26590766
      0.18517889     -0.21847933
p              7   1.000000
      1.83062075     -0.01160237
      0.10124670      0.57015824
      0.03901771      0.59544557
      5.65929149     -0.02514329
      1.46736978     -0.12575474
      0.51729325     -0.24283798
      0.20594336     -0.11584645
 
           4   0
s              4   1.000000
     35.15645952     -0.01198412
      6.05423324     -0.05472052
      0.48648347      0.58055871
      0.18541089      0.47700800
p              4   1.000000
      5.66638190      0.05713170
      1.46920821      0.28574555
      0.51794136      0.55178731
      0.20620138      0.26323149
s              7   1.000000
      0.38350848     -0.19602533
      0.04707223      0.94712237
      0.02222627      0.24872870
     35.15645952      0.00548241
      6.05423324      0.02503315
      0.48648347     -0.26558978
      0.18541089     -0.21821815
p              7   1.000000
      1.83062075     -0.01160011
      0.10124670      0.57004727
      0.03901771      0.59532970
      5.66638190     -0.02511311
      1.46920821     -0.12560382
      0.51794136     -0.24254654
      0.20620138     -0.11570743
 
           5   0
s              4   1.000000
     35.10578655     -0.01198412
      6.04550693     -0.05472052
      0.48578228      0.58055871
      0.18514365      0.47700799
p              4   1.000000
      5.65821463      0.05713170
      1.46709056      0.28574555
      0.51719482      0.55178731
      0.20590417      0.26323149
s              7   1.000000
      0.38350848     -0.19607214
      0.04707223      0.94734852
      0.02222627      0.24878811
     35.10578655      0.00548997
      6.04550693      0.02506767
      0.48578228     -0.26595601
      0.18514365     -0.21851905
p              7   1.000000
      1.83062075     -0.01160271
      0.10124670      0.57017512
      0.03901771      0.59546321
      5.65821463     -0.02514788
      1.46709056     -0.12577770
      0.51719482     -0.24288230
      0.20590417     -0.11586760
 
           6   0
s              4   1.000000
     35.00929016     -0.01198412
      6.02888945     -0.05472052
      0.48444699      0.58055871
      0.18463474      0.47700799
p              4   1.000000
      5.64266171      0.05713170
      1.46305792      0.28574555
      0.51577319      0.55178731
      0.20533820      0.26323149
s              7   1.000000
      0.38350848     -0.19616177
      0.04707223      0.94778158
      0.02222627      0.24890184
     35.00929016      0.00550442
      6.02888945      0.02513366
      0.48444699     -0.26665615
      0.18463474     -0.21909431
p              7   1.000000
      1.83062075     -0.01160770
      0.10124670      0.57041996
      0.03901771      0.59571893
      5.64266171     -0.02521434
      1.46305792     -0.12611010
      0.51577319     -0.24352418
      0.20533820     -0.11617381
 
           7   0
s              4   1.000000
     34.91928963     -0.01198412
      6.01339062     -0.05472052
      0.48320159      0.58055871
      0.18416009      0.47700799
p              4   1.000000
      5.62815578      0.05713170
      1.45929675      0.28574555
      0.51444726      0.55178731
      0.20481032      0.26323149
s              7   1.000000
      0.38350848     -0.19624596
      0.04707223      0.94818837
      0.02222627      0.24900865
     34.91928963      0.00551797
      6.01339062      0.02519552
      0.48320159     -0.26731243
      0.18416009     -0.21963354
p              7   1.000000
      1.83062075     -0.01161238
      0.10124670      0.57064995
      0.03901771      0.59595912
      5.62815578     -0.02527663
      1.45929675     -0.12642167
      0.51444726     -0.24412584
      0.20481032     -0.11646083
 
           8   0
s              4   1.000000
     35.00699005     -0.01198412
      6.02849336     -0.05472052
      0.48441516      0.58055871
      0.18462261      0.47700799
p              4   1.000000
      5.64229099      0.05713170
      1.46296180      0.28574555
      0.51573931      0.55178731
      0.20532470      0.26323149
s              7   1.000000
      0.38350848     -0.19616391
      0.04707223      0.94779194
      0.02222627      0.24890454
     35.00699005      0.00550476
      6.02849336      0.02513524
      0.48441516     -0.26667288
      0.18462261     -0.21910807
p              7   1.000000
      1.83062075     -0.01160782
      0.10124670      0.57042582
      0.03901771      0.59572504
      5.64229099     -0.02521593
      1.46296180     -0.12611804
      0.51573931     -0.24353952
      0.20532470     -0.11618113
 
           9   0
s              4   1.000000
     35.12845299     -0.01198412
      6.04941028     -0.05472053
      0.48609593      0.58055871
      0.18526319      0.47700799
p              4   1.000000
      5.66186792      0.05713170
      1.46803781      0.28574555
      0.51752875      0.55178730
      0.20603711      0.26323149
s              7   1.000000
      0.38350848     -0.19605118
      0.04707223      0.94724725
      0.02222627      0.24876151
     35.12845299      0.00548658
      6.04941028      0.02505221
      0.48609593     -0.26579207
      0.18526319     -0.21838436
p              7   1.000000
      1.83062075     -0.01160155
      0.10124670      0.57011787
      0.03901771      0.59540341
      5.66186792     -0.02513231
      1.46803781     -0.12569986
      0.51752875     -0.24273200
      0.20603711     -0.11579590
 
          10   0
s              4   1.000000
     61.42331420     -0.01198412
     10.57760296     -0.05472052
      0.84995553      0.58055871
      0.32393909      0.47700799
p              4   1.000000
      7.24008742      0.05713170
      1.87724655      0.28574555
      0.66178750      0.55178731
      0.26346901      0.26323149
s              7   1.000000
      0.47894987     -0.18771653
      0.05878681      0.90697728
      0.02775758      0.23818601
     61.42331420      0.00395548
     10.57760296      0.01806107
      0.84995553     -0.19161936
      0.32393909     -0.15744138
p              7   1.000000
      2.28619608     -0.01155972
      0.12644335      0.56806245
      0.04872781      0.59325684
      7.24008742     -0.02456816
      1.87724655     -0.12287821
      0.66178750     -0.23728326
      0.26346901     -0.11319656
 
          11   0
s              4   1.000000
     35.62590475     -0.01198412
      6.13507559     -0.05472053
      0.49297950      0.58055871
      0.18788669      0.47700799
p              4   1.000000
      5.74204526      0.05713170
      1.48882659      0.28574555
      0.52485745      0.55178731
      0.20895479      0.26323149
s              7   1.000000
      0.38350848     -0.19560012
      0.04707223      0.94506790
      0.02222627      0.24818917
     35.62590475      0.00541333
      6.13507559      0.02471773
      0.49297950     -0.26224340
      0.18788669     -0.21546864
p              7   1.000000
      1.83062075     -0.01157648
      0.10124670      0.56888577
      0.03901771      0.59411667
      5.74204526     -0.02479543
      1.48882659     -0.12401493
      0.52485745     -0.23947832
      0.20895479     -0.11424372
 
          12   0
s              4   1.000000
     34.94142829     -0.01198412
      6.01720308     -0.05472053
      0.48350794      0.58055871
      0.18427684      0.47700800
p              4   1.000000
      5.63172400      0.05713170
      1.46022194      0.28574555
      0.51477342      0.55178731
      0.20494017      0.26323149
s              7   1.000000
      0.38350848     -0.19622520
      0.04707223      0.94808804
      0.02222627      0.24898232
     34.94142829      0.00551463
      6.01720308      0.02518027
      0.48350794     -0.26715070
      0.18427684     -0.21950066
p              7   1.000000
      1.83062075     -0.01161122
      0.10124670      0.57059323
      0.03901771      0.59589989
      5.63172400     -0.02526128
      1.46022194     -0.12634489
      0.51477342     -0.24397757
      0.20494017     -0.11639010
 
          13   0
s              4   1.000000
     34.93400349     -0.01198412
      6.01592447     -0.05472052
      0.48340520      0.58055871
      0.18423769      0.47700799
p              4   1.000000
      5.63052730      0.05713170
      1.45991165      0.28574555
      0.51466403      0.55178731
      0.20489662      0.26323149
s              7   1.000000
      0.38350848     -0.19623216
      0.04707223      0.94812167
      0.02222627      0.24899115
     34.93400349      0.00551575
      6.01592447      0.02518538
      0.48340520     -0.26720492
      0.18423769     -0.21954520
p              7   1.000000
      1.83062075     -0.01161161
      0.10124670      0.57061224
      0.03901771      0.59591971
      5.63052730     -0.02526643
      1.45991165     -0.12637063
      0.51466403     -0.24402728
      0.20489662     -0.11641381
 
          14   0
s              4   1.000000
     34.92045250     -0.01198412
      6.01359088     -0.05472053
      0.48321769      0.58055871
      0.18416622      0.47700799
p              4   1.000000
      5.62834320      0.05713170
      1.45934535      0.28574555
      0.51446439      0.55178731
      0.20481714      0.26323149
s              7   1.000000
      0.38350848     -0.19624487
      0.04707223      0.94818309
      0.02222627      0.24900728
     34.92045250      0.00551779
      6.01359088      0.02519471
      0.48321769     -0.26730393
      0.18416622     -0.21962656
p              7   1.000000
      1.83062075     -0.01161232
      0.10124670      0.57064696
      0.03901771      0.59595600
      5.62834320     -0.02527582
      1.45934535     -0.12641763
      0.51446439     -0.24411804
      0.20481714     -0.11645711
 
          15   0
s              4   1.000000
     34.93601009     -0.01198412
      6.01627002     -0.05472052
      0.48343297      0.58055871
      0.18424827      0.47700799
p              4   1.000000
      5.63085072      0.05713170
      1.45999551      0.28574555
      0.51469360      0.55178731
      0.20490839      0.26323149
s              7   1.000000
      0.38350848     -0.19623028
      0.04707223      0.94811258
      0.02222627      0.24898876
     34.93601009      0.00551544
      6.01627002      0.02518400
      0.48343297     -0.26719026
      0.18424827     -0.21953316
p              7   1.000000
      1.83062075     -0.01161150
      0.10124670      0.57060710
      0.03901771      0.59591437
      5.63085072     -0.02526504
      1.45999551     -0.12636367
      0.51469360     -0.24401384
      0.20490839     -0.11640740
 
          16   0
s              4   1.000000
     35.41602060     -0.01198412
      6.09893180     -0.05472052
      0.49007519      0.58055871
      0.18677979      0.47700799
p              4   1.000000
      5.70821695      0.05713170
      1.48005542      0.28574555
      0.52176533      0.55178731
      0.20772377      0.26323149
s              7   1.000000
      0.38350848     -0.19578837
      0.04707223      0.94597746
      0.02222627      0.24842804
     35.41602060      0.00544400
      6.09893180      0.02485779
      0.49007519     -0.26372927
      0.18677979     -0.21668949
p              7   1.000000
      1.83062075     -0.01158694
      0.10124670      0.56939998
      0.03901771      0.59465372
      5.70821695     -0.02493649
      1.48005542     -0.12472046
      0.52176533     -0.24084073
      0.20772377     -0.11489366
 
          17   0
s              4   1.000000
     35.41553695     -0.01198412
      6.09884851     -0.05472052
      0.49006850      0.58055871
      0.18677724      0.47700800
p              4   1.000000
      5.70813900      0.05713170
      1.48003521      0.28574555
      0.52175821      0.55178731
      0.20772093      0.26323149
s              7   1.000000
      0.38350848     -0.19578881
      0.04707223      0.94597958
      0.02222627      0.24842860
     35.41553695      0.00544407
      6.09884851      0.02485811
      0.49006850     -0.26373271
      0.18677724     -0.21669232
p              7   1.000000
      1.83062075     -0.01158696
      0.10124670      0.56940118
      0.03901771      0.59465494
      5.70813900     -0.02493682
      1.48003521     -0.12472210
      0.52175821     -0.24084389
      0.20772093     -0.11489517
 
          18   0
s              4   1.000000
     34.93583903     -0.01198412
      6.01624056     -0.05472052
      0.48343060      0.58055871
      0.18424737      0.47700799
p              4   1.000000
      5.63082315      0.05713170
      1.45998836      0.28574555
      0.51469108      0.55178731
      0.20490739      0.26323149
s              7   1.000000
      0.38350848     -0.19623044
      0.04707223      0.94811335
      0.02222627      0.24898895
     34.93583903      0.00551547
      6.01624056      0.02518412
      0.48343060     -0.26719151
      0.18424737     -0.21953419
p              7   1.000000
      1.83062075     -0.01161151
      0.10124670      0.57060754
      0.03901771      0.59591482
      5.63082315     -0.02526515
      1.45998836     -0.12636426
      0.51469108     -0.24401499
      0.20490739     -0.11640795
 
          19   0
s              4   1.000000
     34.92041427     -0.01198412
      6.01358429     -0.05472052
      0.48321716      0.58055871
      0.18416602      0.47700800
p              4   1.000000
      5.62833704      0.05713170
      1.45934375      0.28574555
      0.51446383      0.55178731
      0.20481692      0.26323149
s              7   1.000000
      0.38350848     -0.19624491
      0.04707223      0.94818326
      0.02222627      0.24900733
     34.92041427      0.00551780
      6.01358429      0.02519474
      0.48321716     -0.26730421
      0.18416602     -0.21962679
p              7   1.000000
      1.83062075     -0.01161232
      0.10124670      0.57064706
      0.03901771      0.59595608
      5.62833704     -0.02527585
      1.45934375     -0.12641776
      0.51446383     -0.24411830
      0.20481692     -0.11645724
 
          20   0
s              4   1.000000
     34.93344810     -0.01198412
      6.01582882     -0.05472052
      0.48339751      0.58055871
      0.18423476      0.47700799
p              4   1.000000
      5.63043778      0.05713170
      1.45988844      0.28574555
      0.51465585      0.55178731
      0.20489336      0.26323149
s              7   1.000000
      0.38350848     -0.19623268
      0.04707223      0.94812418
      0.02222627      0.24899181
     34.93344810      0.00551583
      6.01582882      0.02518577
      0.48339751     -0.26720897
      0.18423476     -0.21954854
p              7   1.000000
      1.83062075     -0.01161164
      0.10124670      0.57061366
      0.03901771      0.59592121
      5.63043778     -0.02526681
      1.45988844     -0.12637255
      0.51465585     -0.24403100
      0.20489336     -0.11641559
 
          21   0
s              4   1.000000
     34.94082160     -0.01198412
      6.01709860     -0.05472053
      0.48349955      0.58055871
      0.18427365      0.47700800
p              4   1.000000
      5.63162622      0.05713170
      1.46019658      0.28574555
      0.51476448      0.55178731
      0.20493661      0.26323149
s              7   1.000000
      0.38350848     -0.19622577
      0.04707223      0.94809079
      0.02222627      0.24898303
     34.94082160      0.00551472
      6.01709860      0.02518069
      0.48349955     -0.26715513
      0.18427365     -0.21950430
p              7   1.000000
      1.83062075     -0.01161125
      0.10124670      0.57059478
      0.03901771      0.59590151
      5.63162622     -0.02526170
      1.46019658     -0.12634699
      0.51476448     -0.24398163
      0.20493661     -0.11639204
 
          22   0
s              4   1.000000
     35.62510990     -0.01198412
      6.13493871     -0.05472053
      0.49296850      0.58055871
      0.18788250      0.47700799
p              4   1.000000
      5.74191715      0.05713170
      1.48879338      0.28574555
      0.52484574      0.55178731
      0.20895013      0.26323149
s              7   1.000000
      0.38350848     -0.19560083
      0.04707223      0.94507132
      0.02222627      0.24819007
     35.62510990      0.00541345
      6.13493871      0.02471826
      0.49296850     -0.26224899
      0.18788250     -0.21547324
p              7   1.000000
      1.83062075     -0.01157652
      0.10124670      0.56888770
      0.03901771      0.59411869
      5.74191715     -0.02479596
      1.48879338     -0.12401759
      0.52484574     -0.23948345
      0.20895013     -0.11424617
 
          23   0
s              4   1.000000
     35.11089716     -0.01198412
      6.04638702     -0.05472053
      0.48585300      0.58055871
      0.18517060      0.47700799
p              4   1.000000
      5.65903834      0.05713170
      1.46730414      0.28574555
      0.51727011      0.55178731
      0.20593415      0.26323149
s              7   1.000000
      0.38350848     -0.19606741
      0.04707223      0.94732567
      0.02222627      0.24878211
     35.11089716      0.00548920
      6.04638702      0.02506418
      0.48585300     -0.26591902
      0.18517060     -0.21848867
p              7   1.000000
      1.83062075     -0.01160245
      0.10124670      0.57016221
      0.03901771      0.59544974
      5.65903834     -0.02514437
      1.46730414     -0.12576014
      0.51727011     -0.24284840
      0.20593415     -0.11585142
 
          24   0
s              4   1.000000
     35.00045436     -0.01198412
      6.02736786     -0.05472052
      0.48432473      0.58055871
      0.18458814      0.47700800
p              4   1.000000
      5.64123759      0.05713170
      1.46268867      0.28574555
      0.51564302      0.55178731
      0.20528637      0.26323149
s              7   1.000000
      0.38350848     -0.19617001
      0.04707223      0.94782139
      0.02222627      0.24891230
     35.00045436      0.00550575
      6.02736786      0.02513972
      0.48432473     -0.26672044
      0.18458814     -0.21914714
p              7   1.000000
      1.83062075     -0.01160815
      0.10124670      0.57044247
      0.03901771      0.59574243
      5.64123759     -0.02522044
      1.46268867     -0.12614062
      0.51564302     -0.24358312
      0.20528637     -0.11620193
 
          25   0
s              4   1.000000
     36.92372647     -0.01198412
      6.35857123     -0.05472052
      0.51093833      0.58055871
      0.19473124      0.47700799
p              4   1.000000
      5.95122314      0.05713170
      1.54306329      0.28574555
      0.54397756      0.55178731
      0.21656684      0.26323149
s              7   1.000000
      0.38350848     -0.19449891
      0.04707223      0.93974724
      0.02222627      0.24679189
     36.92372647      0.00523092
      6.35857123      0.02388484
      0.51093833     -0.25340677
      0.19473124     -0.20820815
p              7   1.000000
      1.83062075     -0.01151527
      0.10124670      0.56587802
      0.03901771      0.59097555
      5.95122314     -0.02395634
      1.54306329     -0.11981819
      0.54397756     -0.23137423
      0.21656684     -0.11037764
 
          26   0
s              4   1.000000
     35.11323148     -0.01198412
      6.04678901     -0.05472053
      0.48588530      0.58055871
      0.18518291      0.47700799
p              4   1.000000
      5.65941457      0.05713170
      1.46740169      0.28574555
      0.51730450      0.55178731
      0.20594784      0.26323149
s              7   1.000000
      0.38350848     -0.19606525
      0.04707223      0.94731523
      0.02222627      0.24877936
     35.11323148      0.00548885
      6.04678901      0.02506259
      0.48588530     -0.26590214
      0.18518291     -0.21847479
p              7   1.000000
      1.83062075     -0.01160233
      0.10124670      0.57015631
      0.03901771      0.59544359
      5.65941457     -0.02514276
      1.46740169     -0.12575212
      0.51730450     -0.24283291
      0.20594784     -0.11584404
 
          27   0
s              4   1.000000
     35.15948738     -0.01198412
      6.05475466     -0.05472053
      0.48652537      0.58055871
      0.18542686      0.47700799
p              4   1.000000
      5.66686992      0.05713170
      1.46933475      0.28574555
      0.51798597      0.55178731
      0.20621914      0.26323149
s              7   1.000000
      0.38350848     -0.19602254
      0.04707223      0.94710889
      0.02222627      0.24872517
     35.15948738      0.00548196
      6.05475466      0.02503109
      0.48652537     -0.26556793
      0.18542686     -0.21820020
p              7   1.000000
      1.83062075     -0.01159996
      0.10124670      0.57003964
      0.03901771      0.59532173
      5.66686992     -0.02511104
      1.46933475     -0.12559345
      0.51798597     -0.24252651
      0.20621914     -0.11569787
 
          28   0
s              4   1.000000
     35.10621352     -0.01198412
      6.04558046     -0.05472053
      0.48578819      0.58055871
      0.18514590      0.47700799
p              4   1.000000
      5.65828345      0.05713170
      1.46710841      0.28574555
      0.51720111      0.55178731
      0.20590668      0.26323149
s              7   1.000000
      0.38350848     -0.19607174
      0.04707223      0.94734661
      0.02222627      0.24878759
     35.10621352      0.00548990
      6.04558046      0.02506738
      0.48578819     -0.26595291
      0.18514590     -0.21851652
p              7   1.000000
      1.83062075     -0.01160269
      0.10124670      0.57017403
      0.03901771      0.59546207
      5.65828345     -0.02514758
      1.46710841     -0.12577623
      0.51720111     -0.24287947
      0.20590668     -0.11586625
 
          29   0
s              4   1.000000
     35.00505917     -0.01198412
      6.02816084     -0.05472052
      0.48438845      0.58055871
      0.18461243      0.47700799
p              4   1.000000
      5.64197978      0.05713170
      1.46288111      0.28574555
      0.51571086      0.55178731
      0.20531338      0.26323149
s              7   1.000000
      0.38350848     -0.19616572
      0.04707223      0.94780064
      0.02222627      0.24890684
     35.00505917      0.00550505
      6.02816084      0.02513656
      0.48438845     -0.26668693
      0.18461243     -0.21911961
p              7   1.000000
      1.83062075     -0.01160792
      0.10124670      0.57043074
      0.03901771      0.59573018
      5.64197978     -0.02521726
      1.46288111     -0.12612471
      0.51571086     -0.24355240
      0.20531338     -0.11618727
 
          30   0
s              4   1.000000
     34.91401965     -0.01198412
      6.01248309     -0.05472053
      0.48312867      0.58055871
      0.18413230      0.47700799
p              4   1.000000
      5.62730638      0.05713170
      1.45907652      0.28574555
      0.51436962      0.55178731
      0.20477941      0.26323149
s              7   1.000000
      0.38350848     -0.19625091
      0.04707223      0.94821228
      0.02222627      0.24901494
     34.91401965      0.00551876
      6.01248309      0.02519915
      0.48312867     -0.26735095
      0.18413230     -0.21966520
p              7   1.000000
      1.83062075     -0.01161265
      0.10124670      0.57066346
      0.03901771      0.59597324
      5.62730638     -0.02528029
      1.45907652     -0.12643996
      0.51436962     -0.24416116
      0.20477941     -0.11647768
 
          31   0
s              4   1.000000
     35.03170555     -0.01198412
      6.03274957     -0.05472052
      0.48475717      0.58055871
      0.18475296      0.47700799
p              4   1.000000
      5.64627454      0.05713170
      1.46399468      0.28574555
      0.51610343      0.55178731
      0.20546967      0.26323149
s              7   1.000000
      0.38350848     -0.19614089
      0.04707223      0.94768070
      0.02222627      0.24887534
     35.03170555      0.00550106
      6.03274957      0.02511830
      0.48475717     -0.26649319
      0.18475296     -0.21896042
p              7   1.000000
      1.83062075     -0.01160654
      0.10124670      0.57036292
      0.03901771      0.59565934
      5.64627454     -0.02519887
      1.46399468     -0.12603273
      0.51610343     -0.24337479
      0.20546967     -0.11610254
 
          32   0
s              4   1.000000
     35.06930491     -0.01198412
      6.03922449     -0.05472052
      0.48527746      0.58055871
      0.18495125      0.47700799
p              4   1.000000
      5.65233466      0.05713170
      1.46556597      0.28574555
      0.51665736      0.55178731
      0.20569020      0.26323149
s              7   1.000000
      0.38350848     -0.19610595
      0.04707223      0.94751187
      0.02222627      0.24883101
     35.06930491      0.00549542
      6.03922449      0.02509258
      0.48527746     -0.26622028
      0.18495125     -0.21873619
p              7   1.000000
      1.83062075     -0.01160459
      0.10124670      0.57026748
      0.03901771      0.59555965
      5.65233466     -0.02517296
      1.46556597     -0.12590316
      0.51665736     -0.24312458
      0.20569020     -0.11598318
 
          33   0
s              4   1.000000
     35.89900577     -0.01198412
      6.18210585     -0.05472052
      0.49675858      0.58055871
      0.18932699      0.47700799
p              4   1.000000
      5.78606263      0.05713170
      1.50023964      0.28574555
      0.52888090      0.55178731
      0.21055660      0.26323149
s              7   1.000000
      0.38350848     -0.19535955
      0.04707223      0.94390554
      0.02222627      0.24788392
     35.89900577      0.00537392
      6.18210585      0.02453780
      0.49675858     -0.26033433
      0.18932699     -0.21390008
p              7   1.000000
      1.83062075     -0.01156310
      0.10124670      0.56822866
      0.03901771      0.59343042
      5.78606263     -0.02461418
      1.50023964     -0.12310839
      0.52888090     -0.23772775
      0.21055660     -0.11340860
 
          34   0
s              4   1.000000
     57.50071898     -0.01198412
      9.90209961     -0.05472053
      0.79567595      0.58055871
      0.30325180      0.47700799
p              4   1.000000
      6.77772337      0.05713170
      1.75736246      0.28574555
      0.61952465      0.55178731
      0.24664344      0.26323149
s              7   1.000000
      0.47894987     -0.18899635
      0.05878681      0.91316094
      0.02775758      0.23980992
     57.50071898      0.00422196
      9.90209961      0.01927783
      0.79567595     -0.20452856
      0.30325180     -0.16804805
p              7   1.000000
      2.28619608     -0.01168070
      0.12644335      0.57400740
      0.04872781      0.59946546
      6.77772337     -0.02617192
      1.75736246     -0.13089949
      0.61952465     -0.25277271
      0.24664344     -0.12058584
 
          35   0
s              4   1.000000
     35.83704655     -0.01198412
      6.17143596     -0.05472052
      0.49590121      0.58055871
      0.18900023      0.47700799
p              4   1.000000
      5.77607628      0.05713170
      1.49765033      0.28574555
      0.52796809      0.55178731
      0.21019319      0.26323149
s              7   1.000000
      0.38350848     -0.19541370
      0.04707223      0.94416717
      0.02222627      0.24795264
     35.83704655      0.00538281
      6.17143596      0.02457839
      0.49590121     -0.26076506
      0.18900023     -0.21425398
p              7   1.000000
      1.83062075     -0.01156611
      0.10124670      0.56837657
      0.03901771      0.59358488
      5.77607628     -0.02465507
      1.49765033     -0.12331293
      0.52796809     -0.23812273
      0.21019319     -0.11359703
 
          36   0
s              4   1.000000
     35.18822833     -0.01198412
      6.05970409     -0.05472052
      0.48692308      0.58055871
      0.18557844      0.47700799
p              4   1.000000
      5.67150227      0.05713170
      1.47053585      0.28574555
      0.51840939      0.55178731
      0.20638771      0.26323149
s              7   1.000000
      0.38350848     -0.19599608
      0.04707223      0.94698103
      0.02222627      0.24869161
     35.18822833      0.00547768
      6.05970409      0.02501155
      0.48692308     -0.26536069
      0.18557844     -0.21802992
p              7   1.000000
      1.83062075     -0.01159849
      0.10124670      0.56996736
      0.03901771      0.59524624
      5.67150227     -0.02509137
      1.47053585     -0.12549505
      0.51840939     -0.24233650
      0.20638771     -0.11560723
 
          37   0
s              4   1.000000
     35.00191358     -0.01198412
      6.02761915     -0.05472052
      0.48434492      0.58055871
      0.18459584      0.47700799
p              4   1.000000
      5.64147279      0.05713170
      1.46274965      0.28574555
      0.51566452      0.55178731
      0.20529493      0.26323149
s              7   1.000000
      0.38350848     -0.19616865
      0.04707223      0.94781482
      0.02222627      0.24891056
     35.00191358      0.00550553
      6.02761915      0.02513872
      0.48434492     -0.26670982
      0.18459584     -0.21913842
p              7   1.000000
      1.83062075     -0.01160808
      0.10124670      0.57043875
      0.03901771      0.59573855
      5.64147279     -0.02521943
      1.46274965     -0.12613558
      0.51566452     -0.24357339
      0.20529493     -0.11619728
 
          38   0
s              4   1.000000
     34.90693032     -0.01198412
      6.01126224     -0.05472053
      0.48303057      0.58055871
      0.18409491      0.47700800
p              4   1.000000
      5.62616375      0.05713170
      1.45878025      0.28574555
      0.51426518      0.55178730
      0.20473783      0.26323149
s              7   1.000000
      0.38350848     -0.19625757
      0.04707223      0.94824445
      0.02222627      0.24902340
     34.90693032      0.00551983
      6.01126224      0.02520403
      0.48303057     -0.26740280
      0.18409491     -0.21970779
p              7   1.000000
      1.83062075     -0.01161302
      0.10124670      0.57068165
      0.03901771      0.59599221
      5.62616375     -0.02528521
      1.45878025     -0.12646457
      0.51426518     -0.24420868
      0.20473783     -0.11650035
 
          39   0
s              4   1.000000
     34.91406565     -0.01198412
      6.01249101     -0.05472053
      0.48312931      0.58055871
      0.18413254      0.47700800
p              4   1.000000
      5.62731380      0.05713170
      1.45907844      0.28574555
      0.51437030      0.55178731
      0.20477968      0.26323149
s              7   1.000000
      0.38350848     -0.19625087
      0.04707223      0.94821206
      0.02222627      0.24901489
     34.91406565      0.00551875
      6.01249101      0.02519912
      0.48312931     -0.26735062
      0.18413254     -0.21966492
p              7   1.000000
      1.83062075     -0.01161265
      0.10124670      0.57066335
      0.03901771      0.59597311
      5.62731380     -0.02528026
      1.45907844     -0.12643980
      0.51437030     -0.24416085
      0.20477968     -0.11647753
 
          40   0
s              4   1.000000
     35.00229218     -0.01198412
      6.02768434     -0.05472052
      0.48435016      0.58055871
      0.18459783      0.47700799
p              4   1.000000
      5.64153381      0.05713170
      1.46276547      0.28574555
      0.51567010      0.55178731
      0.20529715      0.26323149
s              7   1.000000
      0.38350848     -0.19616830
      0.04707223      0.94781311
      0.02222627      0.24891010
     35.00229218      0.00550547
      6.02768434      0.02513846
      0.48435016     -0.26670706
      0.18459783     -0.21913615
p              7   1.000000
      1.83062075     -0.01160806
      0.10124670      0.57043778
      0.03901771      0.59573754
      5.64153381     -0.02521917
      1.46276547     -0.12613427
      0.51567010     -0.24357086
      0.20529715     -0.11619608
 
          41   0
s              4   1.000000
     35.17828877     -0.01198412
      6.05799241     -0.05472053
      0.48678554      0.58055871
      0.18552602      0.47700800
p              4   1.000000
      5.66990025      0.05713170
      1.47012047      0.28574555
      0.51826296      0.55178731
      0.20632941      0.26323149
s              7   1.000000
      0.38350848     -0.19600523
      0.04707223      0.94702522
      0.02222627      0.24870321
     35.17828877      0.00547916
      6.05799241      0.02501831
      0.48678554     -0.26543232
      0.18552602     -0.21808877
p              7   1.000000
      1.83062075     -0.01159899
      0.10124670      0.56999233
      0.03901771      0.59527234
      5.66990025     -0.02509817
      1.47012047     -0.12552906
      0.51826296     -0.24240218
      0.20632941     -0.11563855
 
          42   0
s              4   1.000000
     35.18267486     -0.01198412
      6.05874774     -0.05472053
      0.48684623      0.58055871
      0.18554915      0.47700799
p              4   1.000000
      5.67060719      0.05713170
      1.47030377      0.28574555
      0.51832758      0.55178730
      0.20635514      0.26323149
s              7   1.000000
      0.38350848     -0.19600119
      0.04707223      0.94700571
      0.02222627      0.24869807
     35.18267486      0.00547850
      6.05874774      0.02501533
      0.48684623     -0.26540071
      0.18554915     -0.21806280
p              7   1.000000
      1.83062075     -0.01159877
      0.10124670      0.56998131
      0.03901771      0.59526081
      5.67060719     -0.02509516
      1.47030377     -0.12551405
      0.51832758     -0.24237319
      0.20635514     -0.11562473
 
          43   0
s              4   1.000000
     35.00861719     -0.01198412
      6.02877356     -0.05472053
      0.48443768      0.58055871
      0.18463119      0.47700799
p              4   1.000000
      5.64255325      0.05713170
      1.46302980      0.28574555
      0.51576328      0.55178731
      0.20533425      0.26323149
s              7   1.000000
      0.38350848     -0.19616240
      0.04707223      0.94778461
      0.02222627      0.24890262
     35.00861719      0.00550452
      6.02877356      0.02513412
      0.48443768     -0.26666104
      0.18463119     -0.21909834
p              7   1.000000
      1.83062075     -0.01160773
      0.10124670      0.57042168
      0.03901771      0.59572071
      5.64255325     -0.02521480
      1.46302980     -0.12611242
      0.51576328     -0.24352867
      0.20533425     -0.11617595
 
          44   0
s              4   1.000000
     34.90839856     -0.01198412
      6.01151509     -0.05472052
      0.48305089      0.58055871
      0.18410265      0.47700799
p              4   1.000000
      5.62640040      0.05713170
      1.45884161      0.28574555
      0.51428681      0.55178731
      0.20474644      0.26323149
s              7   1.000000
      0.38350848     -0.19625619
      0.04707223      0.94823778
      0.02222627      0.24902164
     34.90839856      0.00551961
      6.01151509      0.02520302
      0.48305089     -0.26739206
      0.18410265     -0.21969897
p              7   1.000000
      1.83062075     -0.01161294
      0.10124670      0.57067788
      0.03901771      0.59598829
      5.62640040     -0.02528419
      1.45884161     -0.12645947
      0.51428681     -0.24419884
      0.20474644     -0.11649566
 
          45   0
s              4   1.000000
     34.90824695     -0.01198412
      6.01148898     -0.05472052
      0.48304879      0.58055871
      0.18410185      0.47700800
p              4   1.000000
      5.62637596      0.05713170
      1.45883527      0.28574555
      0.51428458      0.55178731
      0.20474555      0.26323149
s              7   1.000000
      0.38350848     -0.19625633
      0.04707223      0.94823846
      0.02222627      0.24902181
     34.90824695      0.00551963
      6.01148898      0.02520313
      0.48304879     -0.26739317
      0.18410185     -0.21969988
p              7   1.000000
      1.83062075     -0.01161295
      0.10124670      0.57067827
      0.03901771      0.59598869
      5.62637596     -0.02528430
      1.45883527     -0.12646000
      0.51428458     -0.24419986
      0.20474555     -0.11649614
 
          46   0
s              4   1.000000
     35.00035531     -0.01198412
      6.02735080     -0.05472052
      0.48432336      0.58055871
      0.18458762      0.47700799
p              4   1.000000
      5.64122163      0.05713170
      1.46268453      0.28574555
      0.51564156      0.55178731
      0.20528579      0.26323149
s              7   1.000000
      0.38350848     -0.19617010
      0.04707223      0.94782185
      0.02222627      0.24891239
     35.00035531      0.00550576
      6.02735080      0.02513979
      0.48432336     -0.26672116
      0.18458762     -0.21914773
p              7   1.000000
      1.83062075     -0.01160816
      0.10124670      0.57044272
      0.03901771      0.59574268
      5.64122163     -0.02522051
      1.46268453     -0.12614096
      0.51564156     -0.24358378
      0.20528579     -0.11620224
 
          47   0
s              4   1.000000
     35.15016207     -0.01198412
      6.05314876     -0.05472052
      0.48639633      0.58055871
      0.18537768      0.47700799
p              4   1.000000
      5.66536690      0.05713170
      1.46894504      0.28574555
      0.51784858      0.55178731
      0.20616444      0.26323149
s              7   1.000000
      0.38350848     -0.19603114
      0.04707223      0.94715043
      0.02222627      0.24873609
     35.15016207      0.00548335
      6.05314876      0.02503743
      0.48639633     -0.26563524
      0.18537768     -0.21825550
p              7   1.000000
      1.83062075     -0.01160043
      0.10124670      0.57006312
      0.03901771      0.59534625
      5.66536690     -0.02511743
      1.46894504     -0.12562541
      0.51784858     -0.24258822
      0.20616444     -0.11572731
 
          48   0
s              4   1.000000
     35.64880229     -0.01198412
      6.13901874     -0.05472053
      0.49329635      0.58055871
      0.18800745      0.47700799
p              4   1.000000
      5.74573580      0.05713170
      1.48978349      0.28574555
      0.52519478      0.55178731
      0.20908909      0.26323149
s              7   1.000000
      0.38350848     -0.19557976
      0.04707223      0.94496953
      0.02222627      0.24816336
     35.64880229      0.00541000
      6.13901874      0.02470255
      0.49329635     -0.26208229
      0.18800745     -0.21533627
p              7   1.000000
      1.83062075     -0.01157534
      0.10124670      0.56883016
      0.03901771      0.59405862
      5.74573580     -0.02478013
      1.48978349     -0.12393843
      0.52519478     -0.23933059
      0.20908909     -0.11417324
 
          49   0
s              4   1.000000
     61.55478011     -0.01198412
     10.60024248     -0.05472053
      0.85177471      0.58055871
      0.32463243      0.47700799
p              4   1.000000
      7.25558356      0.05713170
      1.88126447      0.28574555
      0.66320394      0.55178731
      0.26403292      0.26323149
s              7   1.000000
      0.47894987     -0.18767748
      0.05878681      0.90678861
      0.02775758      0.23813645
     61.55478011      0.00394710
     10.60024248      0.01802279
      0.85177471     -0.19121319
      0.32463243     -0.15710766
p              7   1.000000
      2.28619608     -0.01155602
      0.12644335      0.56788057
      0.04872781      0.59306688
      7.25558356     -0.02451771
      1.88126447     -0.12262589
      0.66320394     -0.23679601
      0.26403292     -0.11296412
 
          50   0
s              4   1.000000
     35.14665948     -0.01198412
      6.05254559     -0.05472052
      0.48634786      0.58055871
      0.18535921      0.47700799
p              4   1.000000
      5.66480237      0.05713170
      1.46879867      0.28574555
      0.51779698      0.55178731
      0.20614390      0.26323149
s              7   1.000000
      0.38350848     -0.19603437
      0.04707223      0.94716603
      0.02222627      0.24874019
     35.14665948      0.00548387
      6.05254559      0.02503982
      0.48634786     -0.26566053
      0.18535921     -0.21827628
p              7   1.000000
      1.83062075     -0.01160061
      0.10124670      0.57007196
      0.03901771      0.59535547
      5.66480237     -0.02511983
      1.46879867     -0.12563741
      0.51779698     -0.24261141
      0.20614390     -0.11573837
 
          51   0
s              4   1.000000
     35.01154201     -0.01198412
      6.02927724     -0.05472053
      0.48447815      0.58055871
      0.18464662      0.47700799
p              4   1.000000
      5.64302466      0.05713170
      1.46315203      0.28574555
      0.51580637      0.55178731
      0.20535140      0.26323149
s              7   1.000000
      0.38350848     -0.19615967
      0.04707223      0.94777143
      0.02222627      0.24889916
     35.01154201      0.00550408
      6.02927724      0.02513211
      0.48447815     -0.26663977
      0.18464662     -0.21908086
p              7   1.000000
      1.83062075     -0.01160758
      0.10124670      0.57041423
      0.03901771      0.59571294
      5.64302466     -0.02521278
      1.46315203     -0.12610232
      0.51580637     -0.24350917
      0.20535140     -0.11616664
 
          52   0
s              4   1.000000
     34.92539021     -0.01198412
      6.01444119     -0.05472052
      0.48328601      0.58055871
      0.18419226      0.47700800
p              4   1.000000
      5.62913905      0.05713170
      1.45955170      0.28574555
      0.51453714      0.55178731
      0.20484610      0.26323149
s              7   1.000000
      0.38350848     -0.19624024
      0.04707223      0.94816070
      0.02222627      0.24900138
     34.92539021      0.00551705
      6.01444119      0.02519131
      0.48328601     -0.26726784
      0.18419226     -0.21959690
p              7   1.000000
      1.83062075     -0.01161206
      0.10124670      0.57063431
      0.03901771      0.59594277
      5.62913905     -0.02527240
      1.45955170     -0.12640050
      0.51453714     -0.24408496
      0.20484610     -0.11644133
 
          53   0
s              4   1.000000
     34.92161545     -0.01198412
      6.01379114     -0.05472052
      0.48323378      0.58055871
      0.18417235      0.47700799
p              4   1.000000
      5.62853064      0.05713170
      1.45939395      0.28574555
      0.51448153      0.55178731
      0.20482396      0.26323149
s              7   1.000000
      0.38350848     -0.19624378
      0.04707223      0.94817782
      0.02222627      0.24900589
     34.92161545      0.00551762
      6.01379114      0.02519391
      0.48323378     -0.26729543
      0.18417235     -0.21961957
p              7   1.000000
      1.83062075     -0.01161225
      0.10124670      0.57064398
      0.03901771      0.59595289
      5.62853064     -0.02527502
      1.45939395     -0.12641360
      0.51448153     -0.24411025
      0.20482396     -0.11645339
 
          54   0
s              4   1.000000
     34.92380460     -0.01198412
      6.01416813     -0.05472052
      0.48326407      0.58055871
      0.18418390      0.47700799
p              4   1.000000
      5.62888348      0.05713170
      1.45948543      0.28574555
      0.51451378      0.55178731
      0.20483680      0.26323149
s              7   1.000000
      0.38350848     -0.19624172
      0.04707223      0.94816789
      0.02222627      0.24900329
     34.92380460      0.00551729
      6.01416813      0.02519241
      0.48326407     -0.26727943
      0.18418390     -0.21960642
p              7   1.000000
      1.83062075     -0.01161214
      0.10124670      0.57063838
      0.03901771      0.59594702
      5.62888348     -0.02527350
      1.45948543     -0.12640600
      0.51451378     -0.24409558
      0.20483680     -0.11644640
 
          55   0
s              4   1.000000
     35.00673370     -0.01198412
      6.02844921     -0.05472052
      0.48441162      0.58055871
      0.18462126      0.47700800
p              4   1.000000
      5.64224967      0.05713170
      1.46295109      0.28574555
      0.51573553      0.55178731
      0.20532320      0.26323149
s              7   1.000000
      0.38350848     -0.19616415
      0.04707223      0.94779309
      0.02222627      0.24890486
     35.00673370      0.00550480
      6.02844921      0.02513541
      0.48441162     -0.26667475
      0.18462126     -0.21910960
p              7   1.000000
      1.83062075     -0.01160783
      0.10124670      0.57042647
      0.03901771      0.59572573
      5.64224967     -0.02521610
      1.46295109     -0.12611893
      0.51573553     -0.24354123
      0.20532320     -0.11618195
 
          56   0
s              4   1.000000
     35.12822373     -0.01198412
      6.04937080     -0.05472052
      0.48609276      0.58055871
      0.18526198      0.47700799
p              4   1.000000
      5.66183097      0.05713170
      1.46802823      0.28574555
      0.51752538      0.55178731
      0.20603577      0.26323149
s              7   1.000000
      0.38350848     -0.19605139
      0.04707223      0.94724828
      0.02222627      0.24876178
     35.12822373      0.00548662
      6.04937080      0.02505237
      0.48609276     -0.26579373
      0.18526198     -0.21838572
p              7   1.000000
      1.83062075     -0.01160156
      0.10124670      0.57011845
      0.03901771      0.59540402
      5.66183097     -0.02513247
      1.46802823     -0.12570065
      0.51752538     -0.24273352
      0.20603577     -0.11579662
 
          57   0
s              4   1.000000
      8.30605642      0.05675242
      1.51990599      0.26014135
      0.42224653      0.53284611
      0.14013983      0.29162544
s              7   1.000000
      0.92936822     -0.06733215
      0.05643440      0.66949239
      0.02166600      0.51464307
      8.30605642     -0.02903045
      1.51990599     -0.13306957
      0.42224653     -0.27256567
      0.14013983     -0.14917456
p              4   1.000000
      0.64737396      0.05713170
      0.16785440      0.28574555
      0.05917387      0.55178731
      0.02355814      0.26323150
 
          58   0
s              4   1.000000
      8.30696246      0.05675242
      1.52007179      0.26014135
      0.42229259      0.53284611
      0.14015511      0.29162544
s              7   1.000000
      0.92936822     -0.06733098
      0.05643440      0.66948079
      0.02166600      0.51463417
      8.30696246     -0.02902802
      1.52007179     -0.13305845
      0.42229259     -0.27254290
      0.14015511     -0.14916210
p              4   1.000000
      0.64737396      0.05713170
      0.16785440      0.28574555
      0.05917387      0.55178731
      0.02355814      0.26323150
 
          59   0
s              4   1.000000
      8.30635451      0.05675242
      1.51996054      0.26014135
      0.42226168      0.53284611
      0.14014486      0.29162544
s              7   1.000000
      0.92936822     -0.06733176
      0.05643440      0.66948857
      0.02166600      0.51464014
      8.30635451     -0.02902965
      1.51996054     -0.13306591
      0.42226168     -0.27255818
      0.14014486     -0.14917046
p              4   1.000000
      0.64737396      0.05713170
      0.16785440      0.28574555
      0.05917387      0.55178731
      0.02355814      0.26323150
 
          60   0
s              4   1.000000
      8.30994674      0.05675242
      1.52061787      0.26014135
      0.42244430      0.53284611
      0.14020546      0.29162544
s              7   1.000000
      0.92936822     -0.06732714
      0.05643440      0.66944261
      0.02166600      0.51460481
      8.30994674     -0.02902004
      1.52061787     -0.13302185
      0.42244430     -0.27246793
      0.14020546     -0.14912107
p              4   1.000000
      0.64737396      0.05713170
      0.16785440      0.28574555
      0.05917387      0.55178731
      0.02355814      0.26323150
 
          61   0
s              4   1.000000
      8.30948333      0.05675242
      1.52053307      0.26014135
      0.42242074      0.53284611
      0.14019765      0.29162544
s              7   1.000000
      0.92936822     -0.06732774
      0.05643440      0.66944854
      0.02166600      0.51460938
      8.30948333     -0.02902128
      1.52053307     -0.13302754
      0.42242074     -0.27247957
      0.14019765     -0.14912744
p              4   1.000000
      0.64737396      0.05713170
      0.16785440      0.28574555
      0.05917387      0.55178731
      0.02355814      0.26323150
 
          62   0
s              4   1.000000
      8.30896540      0.05675242
      1.52043830      0.26014135
      0.42239441      0.53284611
      0.14018891      0.29162544
s              7   1.000000
      0.92936822     -0.06732840
      0.05643440      0.66945516
      0.02166600      0.51461447
      8.30896540     -0.02902266
      1.52043830     -0.13303389
      0.42239441     -0.27249258
      0.14018891     -0.14913455
p              4   1.000000
      0.64737396      0.05713170
      0.16785440      0.28574555
      0.05917387      0.55178731
      0.02355814      0.26323150
 
          63   0
s              4   1.000000
      8.30939842      0.05675242
      1.52051754      0.26014135
      0.42241642      0.53284611
      0.14019621      0.29162544
s              7   1.000000
      0.92936822     -0.06732784
      0.05643440      0.66944963
      0.02166600      0.51461020
      8.30939842     -0.02902151
      1.52051754     -0.13302858
      0.42241642     -0.27248171
      0.14019621     -0.14912860
p              4   1.000000
      0.64737396      0.05713170
      0.16785440      0.28574555
      0.05917387      0.55178731
      0.02355814      0.26323150
 
          64   0
s              4   1.000000
      8.30929600      0.05675242
      1.52049879      0.26014135
      0.42241121      0.53284611
      0.14019449      0.29162544
s              7   1.000000
      0.92936822     -0.06732798
      0.05643440      0.66945094
      0.02166600      0.51461122
      8.30929600     -0.02902178
      1.52049879     -0.13302983
      0.42241121     -0.27248428
      0.14019449     -0.14913001
p              4   1.000000
      0.64737396      0.05713170
      0.16785440      0.28574555
      0.05917387      0.55178731
      0.02355814      0.26323150
 
          65   0
s              4   1.000000
      8.30897861      0.05675242
      1.52044072      0.26014135
      0.42239508      0.53284611
      0.14018913      0.29162544
s              7   1.000000
      0.92936822     -0.06732838
      0.05643440      0.66945500
      0.02166600      0.51461432
      8.30897861     -0.02902263
      1.52044072     -0.13303372
      0.42239508     -0.27249225
      0.14018913     -0.14913438
p              4   1.000000
      0.64737396      0.05713170
      0.16785440      0.28574555
      0.05917387      0.55178731
      0.02355814      0.26323150
 
          66   0
s              4   1.000000
      8.30888878      0.05675242
      1.52042428      0.26014135
      0.42239051      0.53284611
      0.14018761      0.29162544
s              7   1.000000
      0.92936822     -0.06732850
      0.05643440      0.66945615
      0.02166600      0.51461522
      8.30888878     -0.02902287
      1.52042428     -0.13303483
      0.42239051     -0.27249451
      0.14018761     -0.14913561
p              4   1.000000
      0.64737396      0.05713170
      0.16785440      0.28574555
      0.05917387      0.55178731
      0.02355814      0.26323150
 
          67   0
s              4   1.000000
      8.30888530      0.05675242
      1.52042364      0.26014135
      0.42239034      0.53284611
      0.14018755      0.29162544
s              7   1.000000
      0.92936822     -0.06732851
      0.05643440      0.66945619
      0.02166600      0.51461524
      8.30888530     -0.02902288
      1.52042364     -0.13303487
      0.42239034     -0.27249459
      0.14018755     -0.14913566
p              4   1.000000
      0.64737396      0.05713170
      0.16785440      0.28574555
      0.05917387      0.55178731
      0.02355814      0.26323150
 
          68   0
s              4   1.000000
      8.30888222      0.05675242
      1.52042308      0.26014135
      0.42239018      0.53284611
      0.14018750      0.29162544
s              7   1.000000
      0.92936822     -0.06732851
      0.05643440      0.66945623
      0.02166600      0.51461529
      8.30888222     -0.02902289
      1.52042308     -0.13303491
      0.42239018     -0.27249467
      0.14018750     -0.14913570
p              4   1.000000
      0.64737396      0.05713170
      0.16785440      0.28574555
      0.05917387      0.55178731
      0.02355814      0.26323150
 
          69   0
s              4   1.000000
      8.30888025      0.05675242
      1.52042272      0.26014135
      0.42239008      0.53284611
      0.14018747      0.29162544
s              7   1.000000
      0.92936822     -0.06732851
      0.05643440      0.66945626
      0.02166600      0.51461529
      8.30888025     -0.02902289
      1.52042272     -0.13303493
      0.42239008     -0.27249472
      0.14018747     -0.14913573
p              4   1.000000
      0.64737396      0.05713170
      0.16785440      0.28574555
      0.05917387      0.55178731
      0.02355814      0.26323150
 
          70   0
s              4   1.000000
      8.30894890      0.05675242
      1.52043528      0.26014135
      0.42239357      0.53284611
      0.14018863      0.29162544
s              7   1.000000
      0.92936822     -0.06732842
      0.05643440      0.66945537
      0.02166600      0.51461462
      8.30894890     -0.02902271
      1.52043528     -0.13303409
      0.42239357     -0.27249300
      0.14018863     -0.14913478
p              4   1.000000
      0.64737396      0.05713170
      0.16785440      0.28574555
      0.05917387      0.55178731
      0.02355814      0.26323150
 
          71   0
s              4   1.000000
      8.30921380      0.05675242
      1.52048375      0.26014135
      0.42240704      0.53284611
      0.14019310      0.29162544
s              7   1.000000
      0.92936822     -0.06732808
      0.05643440      0.66945199
      0.02166600      0.51461201
      8.30921380     -0.02902200
      1.52048375     -0.13303084
      0.42240704     -0.27248634
      0.14019310     -0.14913114
p              4   1.000000
      0.64737396      0.05713170
      0.16785440      0.28574555
      0.05917387      0.55178731
      0.02355814      0.26323150
 
          72   0
s              4   1.000000
      8.30999861      0.05675242
      1.52062736      0.26014135
      0.42244693      0.53284611
      0.14020634      0.29162544
s              7   1.000000
      0.92936822     -0.06732707
      0.05643440      0.66944194
      0.02166600      0.51460431
      8.30999861     -0.02901990
      1.52062736     -0.13302122
      0.42244693     -0.27246663
      0.14020634     -0.14912035
p              4   1.000000
      0.64737396      0.05713170
      0.16785440      0.28574555
      0.05917387      0.55178731
      0.02355814      0.26323150
 
          73   0
s              4   1.000000
      8.30605598      0.05675242
      1.51990591      0.26014135
      0.42224650      0.53284611
      0.14013982      0.29162544
s              7   1.000000
      0.92936822     -0.06733215
      0.05643440      0.66949240
      0.02166600      0.51464309
      8.30605598     -0.02903045
      1.51990591     -0.13306958
      0.42224650     -0.27256568
      0.14013982     -0.14917456
p              4   1.000000
      0.64737396      0.05713170
      0.16785440      0.28574555
      0.05917387      0.55178731
      0.02355814      0.26323150
 
          74   0
s              4   1.000000
      8.30687720      0.05675242
      1.52005618      0.26014135
      0.42228825      0.53284611
      0.14015368      0.29162544
s              7   1.000000
      0.92936822     -0.06733109
      0.05643440      0.66948188
      0.02166600      0.51463499
      8.30687720     -0.02902825
      1.52005618     -0.13305950
      0.42228825     -0.27254504
      0.14015368     -0.14916327
p              4   1.000000
      0.64737396      0.05713170
      0.16785440      0.28574555
      0.05917387      0.55178731
      0.02355814      0.26323150
 
          75   0
s              4   1.000000
      8.30634126      0.05675242
      1.51995811      0.26014135
      0.42226101      0.53284611
      0.14014463      0.29162544
s              7   1.000000
      0.92936822     -0.06733178
      0.05643440      0.66948874
      0.02166600      0.51464029
      8.30634126     -0.02902969
      1.51995811     -0.13306608
      0.42226101     -0.27255851
      0.14014463     -0.14917064
p              4   1.000000
      0.64737396      0.05713170
      0.16785440      0.28574555
      0.05917387      0.55178731
      0.02355814      0.26323150
 
          76   0
s              4   1.000000
      8.30996138      0.05675242
      1.52062055      0.26014135
      0.42244504      0.53284611
      0.14020571      0.29162544
s              7   1.000000
      0.92936822     -0.06732712
      0.05643440      0.66944243
      0.02166600      0.51460466
      8.30996138     -0.02902000
      1.52062055     -0.13302167
      0.42244504     -0.27246757
      0.14020571     -0.14912087
p              4   1.000000
      0.64737396      0.05713170
      0.16785440      0.28574555
      0.05917387      0.55178731
      0.02355814      0.26323150
 
          77   0
s              4   1.000000
      8.30940266      0.05675242
      1.52051831      0.26014135
      0.42241664      0.53284611
      0.14019628      0.29162544
s              7   1.000000
      0.92936822     -0.06732784
      0.05643440      0.66944957
      0.02166600      0.51461017
      8.30940266     -0.02902149
      1.52051831     -0.13302853
      0.42241664     -0.27248160
      0.14019628     -0.14912855
p              4   1.000000
      0.64737396      0.05713170
      0.16785440      0.28574555
      0.05917387      0.55178731
      0.02355814      0.26323150
 
          78   0
s              4   1.000000
      8.30894922      0.05675242
      1.52043534      0.26014135
      0.42239359      0.53284611
      0.14018863      0.29162544
s              7   1.000000
      0.92936822     -0.06732842
      0.05643440      0.66945537
      0.02166600      0.51461462
      8.30894922     -0.02902271
      1.52043534     -0.13303408
      0.42239359     -0.27249299
      0.14018863     -0.14913478
p              4   1.000000
      0.64737396      0.05713170
      0.16785440      0.28574555
      0.05917387      0.55178731
      0.02355814      0.26323150
 
          79   0
s              4   1.000000
      8.30959755      0.05675242
      1.52055397      0.26014135
      0.42242654      0.53284611
      0.14019957      0.29162544
s              7   1.000000
      0.92936822     -0.06732759
      0.05643440      0.66944708
      0.02166600      0.51460823
      8.30959755     -0.02902097
      1.52055397     -0.13302613
      0.42242654     -0.27247670
      0.14019957     -0.14912587
p              4   1.000000
      0.64737396      0.05713170
      0.16785440      0.28574555
      0.05917387      0.55178731
      0.02355814      0.26323150
 
          80   0
s              4   1.000000
      8.30955149      0.05675242
      1.52054555      0.26014135
      0.42242420      0.53284611
      0.14019879      0.29162544
s              7   1.000000
      0.92936822     -0.06732765
      0.05643440      0.66944766
      0.02166600      0.51460871
      8.30955149     -0.02902110
      1.52054555     -0.13302670
      0.42242420     -0.27247786
      0.14019879     -0.14912650
p              4   1.000000
      0.64737396      0.05713170
      0.16785440      0.28574555
      0.05917387      0.55178731
      0.02355814      0.26323150
 
          81   0
s              4   1.000000
      8.30877312      0.05675242
      1.52040311      0.26014135
      0.42238463      0.53284611
      0.14018566      0.29162544
s              7   1.000000
      0.92936822     -0.06732865
      0.05643440      0.66945762
      0.02166600      0.51461636
      8.30877312     -0.02902318
      1.52040311     -0.13303624
      0.42238463     -0.27249741
      0.14018566     -0.14913720
p              4   1.000000
      0.64737396      0.05713170
      0.16785440      0.28574555
      0.05917387      0.55178731
      0.02355814      0.26323150
 
          82   0
s              4   1.000000
      8.30889647      0.05675242
      1.52042568      0.26014135
      0.42239090      0.53284611
      0.14018774      0.29162544
s              7   1.000000
      0.92936822     -0.06732849
      0.05643440      0.66945605
      0.02166600      0.51461514
      8.30889647     -0.02902285
      1.52042568     -0.13303473
      0.42239090     -0.27249431
      0.14018774     -0.14913551
p              4   1.000000
      0.64737396      0.05713170
      0.16785440      0.28574555
      0.05917387      0.55178731
      0.02355814      0.26323150
 
          83   0
s              4   1.000000
      8.30982322      0.05675242
      1.52059527      0.26014135
      0.42243802      0.53284611
      0.14020338      0.29162544
s              7   1.000000
      0.92936822     -0.06732730
      0.05643440      0.66944420
      0.02166600      0.51460602
      8.30982322     -0.02902037
      1.52059527     -0.13302337
      0.42243802     -0.27247104
      0.14020338     -0.14912276
p              4   1.000000
      0.64737396      0.05713170
      0.16785440      0.28574555
      0.05917387      0.55178731
      0.02355814      0.26323150
 
          84   0
s              4   1.000000
      8.30999877      0.05675242
      1.52062739      0.26014135
      0.42244694      0.53284611
      0.14020634      0.29162544
s              7   1.000000
      0.92936822     -0.06732707
      0.05643440      0.66944194
      0.02166600      0.51460431
      8.30999877     -0.02901990
      1.52062739     -0.13302122
      0.42244694     -0.27246663
      0.14020634     -0.14912035
p              4   1.000000
      0.64737396      0.05713170
      0.16785440      0.28574555
      0.05917387      0.55178731
      0.02355814      0.26323150
 
          85   0
s              4   1.000000
      8.30888484      0.05675242
      1.52042356      0.26014135
      0.42239031      0.53284611
      0.14018755      0.29162544
s              7   1.000000
      0.92936822     -0.06732851
      0.05643440      0.66945619
      0.02166600      0.51461527
      8.30888484     -0.02902288
      1.52042356     -0.13303487
      0.42239031     -0.27249461
      0.14018755     -0.14913566
p              4   1.000000
      0.64737396      0.05713170
      0.16785440      0.28574555
      0.05917387      0.55178731
      0.02355814      0.26323150
 
          86   0
s              4   1.000000
      8.30887675      0.05675242
      1.52042208      0.26014135
      0.42238990      0.53284611
      0.14018741      0.29162544
s              7   1.000000
      0.92936822     -0.06732852
      0.05643440      0.66945630
      0.02166600      0.51461534
      8.30887675     -0.02902290
      1.52042208     -0.13303497
      0.42238990     -0.27249481
      0.14018741     -0.14913578
p              4   1.000000
      0.64737396      0.05713170
      0.16785440      0.28574555
      0.05917387      0.55178731
      0.02355814      0.26323150
 
          87   0
s              4   1.000000
      8.31102010      0.05675242
      1.52081428      0.26014135
      0.42249886      0.53284611
      0.14022357      0.29162544
s              7   1.000000
      0.92936822     -0.06732576
      0.05643440      0.66942889
      0.02166600      0.51459427
      8.31102010     -0.02901717
      1.52081428     -0.13300869
      0.42249886     -0.27244098
      0.14022357     -0.14910632
p              4   1.000000
      0.64737396      0.05713170
      0.16785440      0.28574555
      0.05917387      0.55178731
      0.02355814      0.26323150
 
          88   0
s              4   1.000000
      8.30936501      0.05675242
      1.52051142      0.26014135
      0.42241472      0.53284611
      0.14019565      0.29162544
s              7   1.000000
      0.92936822     -0.06732789
      0.05643440      0.66945005
      0.02166600      0.51461052
      8.30936501     -0.02902159
      1.52051142     -0.13302899
      0.42241472     -0.27248255
      0.14019565     -0.14912907
p              4   1.000000
      0.64737396      0.05713170
      0.16785440      0.28574555
      0.05917387      0.55178731
      0.02355814      0.26323150
 
          89   0
s              4   1.000000
      8.30902076      0.05675242
      1.52044843      0.26014135
      0.42239722      0.53284611
      0.14018984      0.29162544
s              7   1.000000
      0.92936822     -0.06732833
      0.05643440      0.66945446
      0.02166600      0.51461392
      8.30902076     -0.02902252
      1.52044843     -0.13303321
      0.42239722     -0.27249119
      0.14018984     -0.14913380
p              4   1.000000
      0.64737396      0.05713170
      0.16785440      0.28574555
      0.05917387      0.55178731
      0.02355814      0.26323150
 
          90   0
s              4   1.000000
      8.30895905      0.05675242
      1.52043714      0.26014135
      0.42239408      0.53284611
      0.14018880      0.29162544
s              7   1.000000
      0.92936822     -0.06732841
      0.05643440      0.66945525
      0.02166600      0.51461452
      8.30895905     -0.02902268
      1.52043714     -0.13303396
      0.42239408     -0.27249274
      0.14018880     -0.14913465
p              4   1.000000
      0.64737396      0.05713170
      0.16785440      0.28574555
      0.05917387      0.55178731
      0.02355814      0.26323150
 
          91   0
s              4   1.000000
      8.30898418      0.05675242
      1.52044173      0.26014135
      0.42239536      0.53284611
      0.14018922      0.29162544
s              7   1.000000
      0.92936822     -0.06732838
      0.05643440      0.66945492
      0.02166600      0.51461427
      8.30898418     -0.02902261
      1.52044173     -0.13303366
      0.42239536     -0.27249211
      0.14018922     -0.14913430
p              4   1.000000
      0.64737396      0.05713170
      0.16785440      0.28574555
      0.05917387      0.55178731
      0.02355814      0.26323150
 
          92   0
s              4   1.000000
      8.30924033      0.05675242
      1.52048861      0.26014135
      0.42240838      0.53284611
      0.14019355      0.29162544
s              7   1.000000
      0.92936822     -0.06732805
      0.05643440      0.66945165
      0.02166600      0.51461176
      8.30924033     -0.02902193
      1.52048861     -0.13303052
      0.42240838     -0.27248568
      0.14019355     -0.14913078
p              4   1.000000
      0.64737396      0.05713170
      0.16785440      0.28574555
      0.05917387      0.55178731
      0.02355814      0.26323150
 
          93   0
s              4   1.000000
      8.31147355      0.05675242
      1.52089726      0.26014135
      0.42252191      0.53284611
      0.14023122      0.29162544
s              7   1.000000
      0.92936822     -0.06732518
      0.05643440      0.66942309
      0.02166600      0.51458980
      8.31147355     -0.02901596
      1.52089726     -0.13300314
      0.42252191     -0.27242960
      0.14023122     -0.14910008
p              4   1.000000
      0.64737396      0.05713170
      0.16785440      0.28574555
      0.05917387      0.55178731
      0.02355814      0.26323150
 
 [MO]
 Sym= Hole
 Ene= -0.9680030    
 Spin= Alpha
 Occup= 0
           1  9.5457923E-05
           2  2.5607395E-04
           3  3.0846339E-05
           4  6.2942796E-04
           5  1.6988933E-04
           6  2.6769619E-04
           7  4.7209716E-04
           8 -1.8988985E-04
           9 -1.0389352E-03
          10 -2.6855376E-03
          11  8.4575766E-04
          12 -6.6550210E-04
          13  9.0301858E-04
          14  9.1216620E-04
          15  9.0651895E-04
          16 -3.3396867E-04
          17  5.0886435E-04
          18  2.2713537E-03
          19 -2.3873539E-03
          20  4.8234925E-04
          21 -1.8518408E-04
          22 -9.1817958E-04
          23 -4.3555253E-04
          24  5.2296661E-04
          25 -8.4236171E-03
          26 -1.3589633E-02
          27 -5.2034068E-03
          28 -4.0630032E-03
          29  2.7456097E-03
          30 -4.0886752E-04
          31 -6.3716131E-04
          32  8.3675043E-04
          33  1.0463286E-02
          34  1.5903873E-02
          35  6.8830573E-03
          36 -1.0087402E-02
          37 -2.1726605E-03
          38 -4.1427277E-03
          39  9.3892863E-04
          40  3.9880346E-03
          41 -1.1049981E-03
          42  3.3420708E-02
          43 -6.9540605E-02
          44 -0.1073015    
          45  1.5299616E-03
          46  3.4902405E-04
          47  3.8196782E-03
          48  9.7585171E-03
          49 -1.1483575E-02
          50 -1.2904134E-03
          51 -2.0010708E-02
          52  9.3120401E-04
          53  3.9978982E-03
          54 -2.3190742E-03
          55  4.7521605E-03
          56  2.5594789E-03
          57  3.7363999E-02
          58 -7.6626286E-02
          59  0.1233621    
          60  6.1216068E-02
          61 -2.1185635E-02
          62  2.8039087E-03
          63 -1.9079585E-02
          64  1.6040084E-03
          65 -1.0679729E-03
          66  1.4460797E-02
          67  1.4714874E-02
          68  5.5682018E-02
          69  1.4416737E-03
          70 -7.6694479E-03
          71 -5.2296203E-03
          72 -2.3555703E-02
          73  3.7410413E-03
          74 -0.2187696    
          75 -7.8098409E-02
          76 -0.4490041    
          77 -1.5808609E-03
          78  2.0270759E-02
          79  3.1001056E-03
          80  3.1507798E-02
          81 -2.0800054E-03
          82  4.2137716E-02
          83  1.7552445E-02
          84  8.7803304E-02
          85  2.5427686E-03
          86 -6.1818706E-03
          87 -5.0261640E-03
          88 -1.7553147E-02
          89 -2.5506918E-03
          90  0.1492025    
          91  4.6136480E-02
          92  0.2733007    
          93  1.6986253E-03
          94 -5.8443784E-03
          95 -4.0740010E-04
          96 -1.0053449E-02
          97  2.9473993E-04
          98  1.3507787E-02
          99  3.7930440E-03
         100  2.8079556E-02
         101 -6.3612702E-04
         102  1.0554626E-03
         103  2.1681292E-03
         104  2.3095428E-03
         105 -7.0050609E-04
         106 -0.1427906    
         107 -4.3927446E-02
         108 -0.2852453    
         109 -2.1676938E-07
         110  4.5314846E-03
         111  1.8388327E-03
         112  8.7496378E-03
         113 -4.2644177E-05
         114 -7.6655284E-02
         115 -2.3320992E-02
         116 -0.1573434    
         117 -4.5938985E-05
         118  5.2671339E-03
         119  1.8191877E-03
         120  9.6242800E-03
         121 -1.9715603E-03
         122  0.1105287    
         123  3.6129851E-02
         124  0.2331056    
         125  7.1787991E-04
         126 -3.4299518E-03
         127 -1.4115474E-03
         128 -1.0890414E-02
         129  3.0460351E-03
         130  0.1115412    
         131  3.7002381E-02
         132  0.2328636    
         133 -9.2677574E-04
         134 -4.3771318E-03
         135 -3.0812037E-03
         136 -1.0092150E-02
         137 -4.6773982E-04
         138 -7.7318475E-02
         139 -2.5242394E-02
         140 -0.1587097    
         141  7.5314165E-05
         142  5.0077778E-03
         143  1.3195145E-03
         144  9.8183537E-03
         145  4.8798599E-04
         146 -0.1416093    
         147 -4.3199260E-02
         148 -0.2881836    
         149 -2.7489996E-05
         150  4.2184233E-03
         151  1.1361170E-03
         152  8.8796625E-03
         153 -4.7803932E-04
         154  1.3817856E-02
         155  4.9643028E-03
         156  2.6689628E-02
         157  6.2606297E-04
         158  3.0778570E-04
         159 -2.3896889E-04
         160  3.2213808E-03
         161  1.8106512E-03
         162  0.1408628    
         163  2.9310040E-02
         164  0.2818191    
         165 -7.5067062E-04
         166 -6.5271184E-03
         167 -1.2178334E-03
         168 -9.5434301E-03
         169  6.9961214E-04
         170  4.3888170E-02
         171  1.5148668E-02
         172  9.0626553E-02
         173 -7.5991749E-04
         174 -7.0487633E-03
         175 -4.2183427E-03
         176 -1.7418941E-02
         177 -3.8201507E-02
         178 -0.1119246    
         179  6.2274404E-02
         180  9.1703676E-02
         181  2.2591673E-02
         182  1.6602622E-02
         183  4.3495740E-03
         184 -1.0652540E-02
         185  3.0395554E-03
         186  5.2645537E-03
         187 -2.7373971E-03
         188 -2.5882933E-03
         189 -1.2558389E-03
         190 -2.3566499E-04
         191  6.6641677E-04
         192  7.4087823E-04
         193  2.6887164E-03
         194  3.0176449E-03
         195  1.2236079E-03
         196 -9.0225879E-04
         197 -1.9968033E-03
         198 -2.8786340E-04
         199 -4.6479210E-04
         200  3.2377086E-04
         201 -1.7078960E-03
         202 -2.6295097E-03
         203 -6.0762529E-04
         204 -1.2553788E-03
         205  1.1206254E-03
         206  1.0793599E-03
         207  6.8702077E-04
         208  5.6693674E-04
         209 -2.1446045E-04
         210 -1.3242466E-04
         211  2.9539657E-03
         212 -7.6640653E-04
         213  3.6412355E-04
         214 -1.0101376E-04
         215  4.1247776E-04
         216  1.8420746E-04
         217 -3.2457727E-04
         218 -7.5185683E-04
         219 -3.9680410E-04
         220 -1.4381250E-04
         221  4.5655121E-05
         222 -3.7362694E-04
         223 -1.3648912E-04
         224 -8.3091254E-05
         225  2.7815657E-04
         226  1.2096533E-04
         227 -1.1891548E-04
         228  1.3070339E-03
         229 -1.8119009E-04
         230  4.2976895E-05
         231 -1.6750484E-04
         232 -1.7534168E-05
         233 -1.5566489E-04
         234 -2.9347380E-04
         235 -2.9447069E-04
         236  2.1004252E-04
         237  7.1760100E-05
         238  1.7410250E-04
         239 -3.6987254E-05
         240  4.3535274E-05
         241 -1.6118520E-05
         242 -6.7542824E-05
         243  3.3791768E-04
         244 -7.5440138E-04
         245  6.4404189E-06
         246  5.0690678E-06
         247 -4.4093329E-05
         248 -5.8032633E-06
         249 -2.1144378E-06
         250  1.0078240E-04
         251  3.4808324E-04
         252 -4.6645603E-04
         253 -2.9103710E-05
         254  1.9760209E-05
         255  3.1119445E-05
         256  3.7397855E-05
         257 -2.1270856E-05
         258 -6.5638545E-05
         259 -2.0047805E-04
         260  1.9884320E-04
         261 -8.1525632E-06
         262  8.9502009E-06
         263  1.9033447E-05
         264 -1.2484522E-05
         265 -2.1509353E-04
         266  2.6975464E-04
         267  2.5137168E-04
         268  1.3140235E-04
         269  3.0091407E-05
         270 -3.8187733E-05
         271 -2.1466285E-05
         272  1.6802629E-05
         273  8.1737046E-05
         274  2.3858749E-05
         275  9.0058704E-05
         276 -2.8725324E-04
         277 -2.0666203E-05
         278  7.6069737E-06
         279  5.2434396E-05
         280  2.7394466E-05
         281  1.9657695E-05
         282 -6.9062103E-06
         283 -8.4077423E-05
         284 -1.2274462E-05
         285 -2.3525750E-05
         286 -4.1361138E-05
         287 -6.0809605E-05
         288  3.7707057E-06
         289  2.5535495E-05
         290 -7.9180563E-06
         291  1.2630633E-04
         292  1.1735732E-04
         293  9.5947871E-06
         294 -8.1811845E-07
         295  2.4093697E-05
         296 -4.5936863E-06
         297  8.5365309E-06
         298  8.0713762E-05
         299  1.5449345E-04
         300  1.8836941E-05
         301  1.4283085E-05
         302  2.5921778E-05
         303  1.9157187E-05
         304 -5.6355484E-06
         305 -1.4791657E-05
         306 -6.8566282E-05
         307 -1.2872144E-04
         308 -9.0247166E-05
         309 -2.4633546E-06
         310 -2.3581239E-05
         311 -9.2597118E-05
         312  2.9889461E-06
         313  4.8517431E-06
         314  3.1378753E-05
         315  1.8619369E-04
         316 -3.1744239E-06
         317 -1.1760024E-05
         318  1.1621460E-05
         319  3.5926732E-05
         320  5.5733094E-06
         321 -5.2953674E-05
         322  7.7604436E-06
         323  5.5424134E-05
         324  1.3275110E-04
         325 -8.5615948E-06
         326  1.6738853E-05
         327  6.8490913E-06
         328 -7.2868370E-06
         329  3.3195669E-05
         330  1.0237243E-04
         331 -5.4396169E-05
         332  3.5073153E-05
         333 -2.0243301E-06
         334  3.7950402E-05
         335 -4.1003943E-05
         336 -1.7937926E-05
         337 -6.9984620E-05
         338 -1.4583410E-04
         339 -6.8927775E-06
         340  2.0737818E-04
         341 -2.1175125E-05
         342 -3.7871072E-05
         343 -2.6778347E-05
         344  1.7850060E-05
         345  3.0257090E-05
         346  3.8970084E-05
         347  2.1904442E-04
         348  1.8584548E-04
         349 -1.6052019E-05
         350  3.4525034E-05
         351  5.2584564E-05
         352  7.2347129E-06
         353 -4.1974359E-05
         354  1.8550271E-06
         355 -5.8314978E-05
         356  1.4368010E-04
         357 -1.1601453E-06
         358  4.3291348E-05
         359 -4.3587668E-05
         360 -9.2791533E-06
         361  6.4889595E-05
         362 -7.1609204E-05
         363  4.9979949E-06
         364 -4.6423887E-05
         365  1.7236684E-05
         366 -1.7674065E-06
         367 -1.6565607E-05
         368 -8.7897197E-06
         369 -3.4083137E-06
         370 -1.8883192E-04
         371  1.8311305E-04
         372 -3.0487662E-04
         373  5.8531700E-06
         374 -1.2855279E-05
         375  8.4900072E-05
         376 -6.2468775E-06
         377 -4.1746327E-05
         378 -2.8554989E-05
         379 -1.5792981E-04
         380 -4.1472720E-04
         381  2.2017912E-06
         382 -6.9014318E-06
         383 -5.1429135E-05
         384  2.4812929E-05
         385 -7.2085444E-05
         386  9.1754031E-05
         387  2.1884988E-04
         388  3.1143232E-04
         389  3.0087205E-05
         390  4.2356700E-05
         391  7.9733960E-05
         392 -5.0771458E-05
         393 -6.5763011E-06
         394  1.0366224E-05
         395 -3.5400392E-04
         396  2.6209150E-06
         397 -3.4687087E-05
         398 -8.2652288E-05
         399 -8.9115729E-06
         400 -3.5964025E-05
         401  3.8901111E-05
         402 -5.2842788E-05
         403  1.5748617E-04
         404  5.0542818E-05
         405 -1.0401828E-05
         406  6.4434731E-05
         407  4.9843486E-05
         408 -6.2821768E-05
         409 -3.1237509E-05
         410 -3.0169106E-04
         411  3.7605234E-04
         412  3.2584849E-05
         413  1.3184121E-04
         414  2.5640783E-04
         415 -2.2372822E-06
         416  3.9336392E-05
         417  2.0131358E-05
         418 -2.4164042E-04
         419  2.2916864E-04
         420 -9.5183859E-05
         421  1.9762122E-04
         422  4.5660458E-04
         423 -8.4210260E-05
         424  8.6367390E-06
         425 -4.2450672E-05
         426  4.6255907E-05
         427 -9.9348727E-05
         428  5.8170495E-05
         429  1.2492084E-04
         430  3.5577404E-04
         431  1.6164762E-05
         432 -1.2980845E-04
         433 -5.4100896E-05
         434  1.1824320E-04
         435 -3.6993186E-04
         436  3.4632778E-04
         437  9.0438762E-06
         438 -7.0279086E-05
         439 -8.4401347E-07
         440  4.8782415E-05
         441 -1.5086596E-04
         442 -1.6550324E-04
         443 -1.8981750E-04
         444  1.4466140E-04
         445  1.3609594E-04
         446  3.1812440E-06
         447 -7.3529562E-05
         448 -4.1917086E-05
         449  1.3710513E-04
         450 -1.1316332E-04
         451 -2.0988424E-05
         452 -1.7672723E-04
         453 -3.0864435E-04
         454 -8.6764962E-04
         455  2.4326007E-05
         456 -9.2841445E-05
         457 -2.0845831E-05
         458  8.6726068E-06
         459  1.3542688E-04
         460 -1.2354302E-04
         461  5.6894562E-05
         462 -2.0089567E-05
         463  1.7363516E-04
         464  3.3829368E-03
         465 -3.5333412E-03
         466 -4.2783185E-03
         467 -3.2115404E-03
         468 -2.9471860E-04
         469  4.3307760E-04
         470  6.2997884E-04
         471  1.0107345E-03
         472 -5.9031523E-03
         473 -1.0483090E-02
         474  2.1119129E-02
         475 -2.0602094E-03
         476  8.1671355E-04
         477  1.5541058E-03
         478 -2.0701496E-03
         479 -1.4386062E-02
         480 -3.9049084E-03
         481 -3.4121026E-03
         482 -8.7213702E-03
         483  1.3651783E-02
         484 -5.6700548E-04
         485  9.4572443E-04
         486  4.7833314E-03
         487 -6.1948120E-04
         488  1.4658784E-02
         489  3.4274682E-03
         490 -1.0725519E-03
         491  2.0044581E-03
         492  9.0691535E-04
         493  3.7891264E-03
         494  5.3730991E-04
         495 -1.3121992E-04
         496 -6.0935155E-03
         497 -2.1356163E-03
         498 -1.2451003E-02
         499  2.1254416E-03
         500 -4.3543859E-04
         501 -1.2923847E-03
         502 -4.2729094E-04
         503 -3.1879779E-03
         504 -1.1603947E-03
         505  1.7769246E-04
         506 -1.5269525E-03
         507 -6.5320515E-04
         508 -3.0004042E-03
         509 -6.1565172E-04
         510 -1.4134970E-05
         511 -5.8028377E-03
         512 -1.8708067E-03
         513 -1.2376066E-02
         514 -3.6624288E-03
         515  8.8014180E-04
         516  1.7181449E-03
         517  3.1123208E-04
         518  3.9532850E-03
         519  1.5993492E-03
         520 -1.0233809E-03
         521  7.5981985E-03
         522  4.7498574E-03
         523  1.1996628E-02
         524  1.6063614E-02
         525  4.0471051E-03
         526  1.0134305E-02
         527  1.3030606E-02
         528  1.1126451E-03
         529 -8.4051624E-04
         530 -2.8899050E-04
         531 -5.3722947E-04
         532  2.0686707E-04
         533  1.4676152E-04
         534  2.5855377E-04
         535 -5.7315349E-04
         536 -2.4080533E-03
         537  1.5643034E-03
         538 -3.6162205E-04
         539 -1.8698764E-03
         540  6.7320792E-04
         541  1.4520065E-03
         542 -7.4780820E-04
         543 -6.5968477E-04
         544  1.9872966E-03
         545 -5.1479012E-04
         546 -5.6681584E-04
         547 -3.2396907E-05
         548  3.5808864E-04
         549  1.2504721E-04
         550 -1.6070667E-04
         551 -1.0919500E-04
         552  1.5349462E-05
         553  3.8383674E-05
         554  2.1465568E-04
         555  1.8918186E-05
         556  7.2600655E-05
         557  8.8906027E-06
         558 -1.2010947E-05
         559  1.5805732E-04
         560  3.2869299E-05
         561 -3.0399699E-05
         562  2.8267728E-05
         563 -7.3758427E-05
         564 -1.1542309E-04
         565 -4.2817668E-05
         566 -2.4632576E-05
         567 -2.1751479E-05
         568  1.0724468E-05
         569 -1.5901042E-04
         570 -4.1934509E-05
         571  1.1278594E-05
         572 -3.4437198E-05
         573 -5.1362272E-06
         574  2.7457383E-05
         575  9.8221085E-07
         576 -1.9977936E-06
         577 -6.7643430E-07
         578 -1.0557652E-05
         579  1.5671532E-04
         580  4.2481293E-05
         581 -2.9892019E-05
         582 -4.1246018E-05
         583  1.0979229E-06
         584  1.5041999E-04
         585  2.7934240E-05
         586  1.1866870E-05
         587  2.1519809E-06
         588 -1.9069992E-05
         589  1.9715745E-04
         590  5.9282745E-05
         591  1.2188008E-05
         592 -1.7909322E-05
         593 -2.9208513E-05
         594 -9.9191566E-05
         595 -1.8250117E-05
         596  3.8452083E-05
         597 -1.7558095E-05
         598 -9.9975905E-06
         599 -2.7262175E-05
         600 -1.1858799E-05
         601  6.0131366E-05
         602 -2.8242346E-05
         603  1.1998291E-05
         604 -6.6258734E-05
         605 -3.9809279E-06
         606 -1.4479253E-06
         607  3.7977199E-05
         608 -5.6229999E-07
         609 -1.8339895E-04
         610 -1.1477698E-04
         611 -1.3210638E-04
         612 -5.3962340E-05
         613 -6.9395624E-06
         614 -2.0918805E-04
         615 -3.7930784E-04
         616 -8.2568562E-04
         617 -3.5746118E-05
         618  3.2529861E-04
         619 -7.1703878E-05
         620 -3.3047284E-06
         621  9.4773014E-07
         622  4.3185504E-05
         623 -1.6901450E-04
         624  2.0971864E-04
         625  5.4904052E-05
         626 -5.9338730E-05
         627  2.7356171E-05
         628 -3.0353793E-05
         629  6.2575593E-05
         630  1.0693654E-05
         631 -1.3090584E-05
         632  1.6369015E-05
         633  1.2229136E-04
 Sym= Particle
 Ene= -0.9680030    
 Spin= Alpha
 Occup= 2
           1 -2.3197617E-04
           2 -1.5415890E-04
           3 -3.6195671E-04
           4 -3.8260379E-04
           5  8.7126777E-05
           6  8.1484584E-05
           7 -1.7309490E-04
           8  5.6062130E-05
           9  1.1199105E-03
          10  2.6861336E-03
          11 -4.0732944E-04
          12  7.4825797E-04
          13 -6.3107337E-04
          14 -1.4724645E-03
          15 -2.2729016E-04
          16 -3.4480105E-04
          17 -2.4897864E-03
          18 -3.0597304E-03
          19  6.4883614E-03
          20 -3.1005929E-03
          21  1.5402064E-03
          22  1.6446668E-03
          23 -1.1903194E-03
          24  3.8059763E-04
          25  2.5144720E-03
          26  4.5038597E-03
          27 -1.7333457E-03
          28  2.0741476E-03
          29 -2.2583827E-03
          30 -1.2924402E-03
          31 -1.1841572E-03
          32 -2.0677878E-03
          33 -2.5035071E-03
          34  7.3007997E-03
          35 -1.8127061E-02
          36 -2.1041876E-02
          37  7.8878854E-04
          38  3.4271571E-04
          39  4.1286265E-03
          40  3.2527784E-03
          41  5.4420898E-04
          42 -2.6407579E-02
          43  4.9997319E-02
          44  7.4840412E-02
          45 -1.6171521E-03
          46  5.9237601E-03
          47 -1.0076034E-02
          48 -1.7103422E-02
          49  3.1092430E-03
          50  1.2221043E-02
          51 -1.6510498E-02
          52 -2.5534784E-02
          53 -3.5724472E-03
          54 -1.0667910E-03
          55  2.1371841E-03
          56  4.0880209E-03
          57 -7.6266169E-03
          58  3.9377932E-02
          59 -5.1094942E-02
          60 -4.5226209E-02
          61  1.8948296E-03
          62 -1.4829024E-02
          63  1.5688840E-02
          64  1.0692606E-02
          65  7.2292198E-04
          66 -2.9844629E-02
          67  5.3375155E-02
          68  7.2299615E-02
          69 -1.7406341E-03
          70  1.1479289E-02
          71 -2.1461038E-02
          72 -2.8796878E-02
          73 -1.2267889E-03
          74  6.4581737E-02
          75  2.2067267E-02
          76  0.1308167    
          77  6.0632068E-04
          78 -2.3160918E-02
          79 -5.9789866E-03
          80 -4.2934071E-02
          81 -3.2559293E-03
          82 -7.5039409E-02
          83 -1.2863323E-02
          84 -0.1482626    
          85  1.9615053E-03
          86  3.0285824E-02
          87  4.8605665E-03
          88  6.1438087E-02
          89  1.0740747E-03
          90 -0.1307930    
          91 -3.9910693E-02
          92 -0.2443741    
          93 -1.5310373E-03
          94  3.4960277E-02
          95  1.0508051E-02
          96  6.1304606E-02
          97 -9.6498593E-04
          98  0.1655424    
          99  5.2311935E-02
         100  0.3219076    
         101  1.9435525E-05
         102 -4.1904986E-02
         103 -1.3143398E-02
         104 -8.1477001E-02
         105 -7.8614386E-05
         106 -4.6186754E-03
         107 -1.2013166E-03
         108 -4.5549963E-03
         109  1.0744987E-04
         110  1.2891972E-03
         111  1.5220940E-04
         112 -6.8829785E-04
         113 -6.4927287E-04
         114 -0.1553567    
         115 -4.7019038E-02
         116 -0.3156115    
         117  5.5949175E-04
         118  4.1003529E-02
         119  1.2816384E-02
         120  8.3719231E-02
         121 -1.0270920E-03
         122  0.1281498    
         123  4.1599203E-02
         124  0.2785712    
         125  9.7636651E-04
         126 -3.0774120E-02
         127 -1.0125070E-02
         128 -6.8666600E-02
         129  7.0925796E-04
         130  0.1328068    
         131  5.0766997E-02
         132  0.2748913    
         133 -1.2341925E-03
         134 -3.2461479E-02
         135 -1.3520950E-02
         136 -6.7296624E-02
         137  1.3737436E-03
         138 -0.1559217    
         139 -4.9551100E-02
         140 -0.3139727    
         141 -1.1002941E-03
         142  4.0870987E-02
         143  1.3099577E-02
         144  8.3637819E-02
         145  1.3734442E-04
         146 -3.4815958E-03
         147  8.5808372E-04
         148 -6.6605834E-03
         149 -6.5994827E-05
         150  3.9680144E-05
         151 -1.1645816E-03
         152  4.2510367E-04
         153  7.8386569E-04
         154  0.1601112    
         155  4.3494996E-02
         156  0.3265376    
         157  2.9716963E-05
         158 -4.0993489E-02
         159 -1.0926549E-02
         160 -8.2034364E-02
         161  1.2512326E-04
         162 -0.1240999    
         163 -2.9368814E-02
         164 -0.2472893    
         165 -1.9627681E-04
         166  3.2229494E-02
         167  6.2606740E-03
         168  6.3283056E-02
         169  3.7142662E-03
         170 -8.3752632E-02
         171 -2.4906367E-02
         172 -0.1442102    
         173 -3.4415452E-03
         174  3.5031538E-02
         175  1.1483260E-02
         176  5.9119001E-02
         177  9.2151575E-03
         178  4.4386208E-02
         179 -4.5478337E-02
         180 -5.2762188E-02
         181 -5.1040393E-03
         182 -1.6105643E-02
         183  1.3931266E-02
         184  1.4258632E-02
         185  1.2094727E-03
         186  7.5664505E-04
         187  6.5097422E-03
         188 -1.8484516E-03
         189 -1.4262385E-03
         190 -1.2728490E-03
         191 -2.3604410E-03
         192  1.1075221E-03
         193 -1.5284932E-03
         194 -1.1169792E-03
         195  3.0625367E-04
         196  2.5853797E-04
         197  1.7117526E-03
         198  1.6898998E-03
         199  1.8761228E-04
         200 -1.7631685E-04
         201  2.8058598E-06
         202 -1.1946922E-05
         203  8.2400796E-04
         204 -5.5925590E-05
         205 -1.8486736E-04
         206 -3.3659273E-04
         207 -1.3414603E-04
         208  3.1032934E-05
         209 -6.9277710E-05
         210  1.3665374E-03
         211 -5.8248020E-03
         212  4.4828648E-04
         213  1.1803355E-04
         214 -3.1961245E-04
         215  6.6693826E-04
         216 -2.2255152E-04
         217  3.5804126E-04
         218  6.5011601E-04
         219  1.6203611E-03
         220 -2.2259001E-03
         221 -6.5185427E-06
         222  1.7375768E-04
         223 -6.2538031E-04
         224  7.2528922E-04
         225 -5.9745437E-04
         226 -8.0627482E-04
         227 -1.8925848E-03
         228  1.9367099E-03
         229  5.8739225E-04
         230  5.8082229E-04
         231  6.8676908E-04
         232 -6.2302215E-04
         233  1.4769932E-04
         234  3.0806137E-04
         235  1.4917027E-04
         236 -2.2702255E-04
         237 -7.8766236E-05
         238 -2.0598952E-04
         239 -2.2675464E-05
         240 -1.1260099E-04
         241  1.3644002E-04
         242  5.4936059E-04
         243  1.2017294E-03
         244 -2.1402158E-03
         245 -7.7287812E-05
         246 -2.8070010E-04
         247 -4.6804504E-04
         248  7.9239532E-04
         249 -1.3929726E-04
         250 -9.2394475E-04
         251 -1.6781384E-03
         252  3.1465786E-03
         253  1.9914305E-04
         254  3.3424830E-04
         255  5.5687950E-04
         256 -1.0455127E-03
         257 -3.4197248E-05
         258  3.9739418E-04
         259 -3.4074418E-04
         260  2.2433107E-03
         261  2.3504991E-04
         262 -1.8344016E-04
         263 -1.0269925E-05
         264 -6.7187875E-04
         265 -1.0637658E-04
         266 -7.4676599E-04
         267  1.9063050E-04
         268 -2.4483653E-03
         269  6.4141008E-05
         270  1.7858736E-04
         271 -1.5064651E-04
         272  7.8840682E-04
         273  4.2142960E-06
         274  1.9364961E-04
         275 -1.6899391E-04
         276  8.5311430E-04
         277 -5.4279749E-06
         278 -9.9427278E-05
         279  8.2792554E-05
         280 -4.0541560E-04
         281 -1.3615813E-05
         282  2.8026052E-04
         283 -1.3269896E-04
         284  1.5479049E-03
         285 -9.3386836E-05
         286 -1.6380408E-04
         287  7.4707059E-05
         288 -5.3980068E-04
         289  8.1385129E-05
         290 -2.7104054E-04
         291  1.5730286E-05
         292 -1.6410262E-03
         293 -1.7505922E-04
         294 -2.9423240E-05
         295  8.0131264E-05
         296  3.8201403E-04
         297  6.4735621E-05
         298 -4.2555628E-05
         299 -1.3007375E-04
         300  1.7376486E-04
         301 -1.8098284E-04
         302  2.3141221E-05
         303  8.5340362E-05
         304 -7.2280222E-05
         305  9.1814160E-05
         306  1.1934917E-04
         307 -1.0930204E-04
         308  1.3501360E-03
         309 -2.4233732E-04
         310  8.1770857E-05
         311  1.1225644E-05
         312 -3.1633268E-04
         313  3.8362494E-05
         314 -3.0485782E-04
         315  1.9171152E-04
         316 -1.1556580E-03
         317 -1.7923010E-04
         318  8.9561538E-05
         319 -5.7504101E-05
         320  3.4340681E-04
         321  6.4016524E-05
         322 -2.1190312E-05
         323 -4.1434265E-05
         324 -2.3976706E-04
         325 -1.6499689E-04
         326 -4.7560530E-05
         327  3.4242974E-05
         328  7.0443086E-05
         329 -2.4295217E-05
         330 -6.7361216E-05
         331  3.2348253E-05
         332 -2.6043234E-04
         333 -6.1519197E-05
         334 -4.6595123E-06
         335 -2.4747496E-05
         336  1.7380051E-04
         337  6.3731153E-05
         338 -6.4635868E-05
         339 -2.2597758E-06
         340  1.1777640E-04
         341 -1.7471396E-04
         342  1.9665476E-05
         343 -1.6770979E-05
         344 -1.1393599E-05
         345  5.1007250E-05
         346  2.1002045E-07
         347  1.0308097E-04
         348  2.4448818E-04
         349 -1.3567283E-04
         350  4.6277175E-05
         351 -7.2419782E-05
         352 -6.8614878E-05
         353  4.9827810E-05
         354  1.3924747E-05
         355  7.9755548E-05
         356 -2.0217490E-04
         357 -7.3175936E-05
         358 -6.2596482E-05
         359 -4.8680031E-05
         360  1.3646172E-04
         361  4.0125746E-05
         362  3.7892736E-05
         363 -2.6328938E-05
         364 -1.2461467E-04
         365 -2.6830874E-05
         366 -8.2907223E-05
         367  2.3866995E-05
         368  5.6325200E-05
         369  3.5907724E-05
         370  5.2423853E-05
         371 -3.9969298E-05
         372  2.3194219E-04
         373 -6.9567336E-06
         374  3.0003494E-05
         375 -5.2895098E-06
         376  1.0166851E-04
         377 -5.0258408E-05
         378 -1.1748424E-04
         379 -5.9192163E-05
         380  5.2214396E-04
         381  8.3388062E-05
         382  9.9594341E-05
         383  6.4001586E-05
         384 -1.9498711E-04
         385  1.6964108E-04
         386 -2.7672001E-04
         387 -1.2886574E-04
         388 -1.4832896E-03
         389 -3.6889567E-05
         390  8.0712663E-05
         391  2.1765027E-04
         392  6.4297463E-04
         393 -3.6499230E-05
         394 -1.1962756E-04
         395  5.3533900E-04
         396 -1.0818205E-04
         397  2.0242004E-04
         398  8.6818764E-05
         399 -2.8971201E-04
         400  1.2370721E-05
         401 -1.4355355E-04
         402 -1.2095537E-04
         403  6.0969085E-04
         404 -2.5255361E-04
         405  3.2914741E-04
         406  5.2810090E-05
         407 -3.2349167E-04
         408  1.2536788E-04
         409 -5.7108045E-05
         410  3.7791504E-04
         411 -1.1090146E-03
         412  7.5918266E-05
         413  2.4397181E-04
         414  4.4786673E-05
         415  5.5373384E-04
         416  9.4760027E-05
         417  3.4936544E-05
         418 -7.6868882E-06
         419  5.6548556E-04
         420 -1.5358634E-04
         421  1.5802549E-04
         422  6.5119774E-04
         423  9.3419559E-04
         424  2.2316950E-04
         425 -1.0255518E-04
         426 -3.5645562E-04
         427  6.7440764E-04
         428 -3.4738905E-06
         429  1.8200539E-04
         430  7.7319139E-04
         431  4.2613246E-04
         432  1.4551640E-04
         433  1.2828789E-04
         434  4.6330944E-04
         435 -1.2278516E-03
         436  1.8408759E-04
         437 -1.3939129E-05
         438  8.9389185E-05
         439  3.0648409E-04
         440 -5.9679337E-06
         441  1.8124546E-04
         442  9.2964433E-04
         443  8.0017635E-04
         444 -1.9232028E-03
         445  8.2622028E-05
         446 -1.4505468E-04
         447  5.2357402E-05
         448  2.1852160E-04
         449 -8.1854314E-06
         450  1.3118838E-04
         451  1.3881816E-04
         452  3.1320949E-04
         453  1.8947359E-04
         454  5.1982800E-04
         455 -7.3877445E-06
         456  3.4887937E-04
         457  2.2630647E-04
         458  4.6041378E-04
         459  2.9783427E-05
         460 -1.2276031E-04
         461 -1.0102961E-04
         462 -3.3437458E-04
         463 -1.3228927E-05
         464 -3.5480247E-04
         465  1.8810715E-03
         466  3.9091860E-03
         467  2.9296032E-03
         468  1.7811070E-03
         469 -7.5114495E-04
         470 -1.1990607E-03
         471 -4.7353990E-03
         472  1.0533109E-02
         473  1.4486372E-02
         474 -6.6767097E-03
         475  1.5407586E-03
         476  2.9584642E-03
         477 -3.0229064E-03
         478 -6.3123805E-03
         479  1.5735566E-03
         480 -5.3504482E-03
         481 -6.0718427E-03
         482 -9.4427625E-03
         483 -1.4584571E-03
         484  5.4588099E-04
         485 -2.6582163E-03
         486 -2.1848075E-02
         487 -2.8246876E-03
         488 -4.7542050E-02
         489 -4.0166167E-04
         490  2.6661309E-04
         491  3.5814319E-02
         492  1.1491365E-02
         493  7.0698425E-02
         494 -1.3980061E-04
         495  4.1688618E-04
         496  4.0545742E-04
         497 -5.6011435E-05
         498 -5.6056347E-04
         499  2.5534516E-03
         500 -4.8889790E-04
         501 -3.3024516E-02
         502 -9.4531886E-03
         503 -6.7102768E-02
         504 -2.8906891E-03
         505  7.9656788E-04
         506 -3.3385240E-02
         507 -1.1099236E-02
         508 -6.6320546E-02
         509  1.5708190E-04
         510 -1.0124774E-04
         511 -3.8852484E-04
         512 -6.2319875E-04
         513 -9.7655237E-04
         514  4.9794931E-04
         515  2.0128986E-04
         516  3.4657829E-02
         517  9.7402772E-03
         518  7.1197316E-02
         519 -1.2328967E-03
         520  2.7946921E-03
         521 -2.4699531E-02
         522 -8.5052811E-03
         523 -4.4519771E-02
         524 -2.9603180E-03
         525  5.0703590E-03
         526  3.5171751E-03
         527  5.6851967E-03
         528 -7.8342473E-03
         529  8.5859228E-04
         530  9.1209234E-04
         531  2.1560688E-03
         532  8.3115499E-04
         533 -8.1547775E-04
         534 -9.5473812E-04
         535  6.3724059E-04
         536  2.3759352E-03
         537 -3.8324490E-03
         538  1.6214655E-03
         539  1.1054819E-03
         540 -3.3889594E-04
         541 -1.2178086E-03
         542  1.0632087E-03
         543 -2.1920004E-04
         544  5.6171400E-04
         545 -7.7948003E-05
         546  4.0258039E-04
         547  2.9982268E-04
         548  3.2119127E-04
         549  1.3090184E-04
         550  2.4841964E-04
         551  3.2442462E-04
         552 -4.0667033E-04
         553  6.5156515E-04
         554 -1.3842825E-04
         555  5.4436689E-05
         556 -2.3880142E-05
         557  2.4095143E-05
         558 -2.2538018E-04
         559 -1.5271583E-04
         560  1.8122236E-04
         561  1.0040655E-04
         562  2.6763172E-04
         563 -3.8660006E-04
         564 -1.1960151E-04
         565  5.3145861E-05
         566 -1.6451662E-04
         567  1.4434961E-04
         568 -5.3016405E-04
         569 -1.2819603E-04
         570  4.9288876E-05
         571  1.2568974E-04
         572  3.3344437E-05
         573  1.3655082E-04
         574 -1.3453265E-04
         575 -5.7867219E-05
         576  2.8552025E-04
         577 -9.0474641E-05
         578  3.0817415E-04
         579 -1.6659893E-05
         580 -1.1017813E-04
         581  5.4256037E-07
         582 -2.8423416E-05
         583 -2.7142078E-04
         584 -3.0767638E-05
         585 -1.1431520E-04
         586  5.7793339E-05
         587 -7.4839540E-05
         588 -6.8165871E-05
         589 -9.4011164E-05
         590 -1.3566040E-05
         591  1.2011002E-04
         592 -8.1165126E-05
         593 -1.2138500E-04
         594 -1.3784728E-04
         595  1.7747311E-04
         596  2.5307716E-05
         597 -4.9835067E-05
         598  2.7476352E-05
         599 -8.8600573E-05
         600  1.3301826E-04
         601 -3.3765464E-05
         602  1.3697722E-06
         603 -1.1981462E-04
         604 -6.5736436E-05
         605  2.1431250E-04
         606 -1.2265626E-04
         607  2.0281151E-04
         608 -2.2077596E-05
         609 -2.0417840E-04
         610  2.5389213E-04
         611  1.4855486E-04
         612 -1.8179079E-04
         613  1.5495600E-04
         614 -8.8909532E-05
         615 -4.2968677E-04
         616 -1.0878762E-03
         617  1.4106577E-04
         618 -1.1031755E-04
         619  4.1874238E-05
         620  3.9091913E-04
         621  3.8517234E-04
         622  6.0811552E-04
         623  6.6053421E-05
         624 -2.3418990E-05
         625  3.5454948E-05
         626  2.1382196E-04
         627 -3.5278540E-04
         628  2.5292729E-05
         629 -1.0346418E-04
         630  1.6152253E-04
         631 -7.8392513E-05
         632  4.0460617E-04
         633 -2.7527049E-04
