 [Molden Format]
 [Atoms] Angs
C       1      6     -7.63830323      0.19525460     -0.87056162
C       2      6     -6.50610704      0.45086192      0.11827874
C       3      6     -6.53326661      1.88406074      0.64670521
C       4      6     -5.47336328      2.15345999      1.71683187
C       5      6     -4.03345833      2.21348584      1.19929511
C       6      6     -3.73983672      3.48187287      0.39881963
C       7      6     -2.28583535      3.57186592     -0.06661836
C       8      6     -1.31546477      3.85514387      1.08544984
N       9      7      0.03908441      4.02470188      0.62793399
C      10      6      0.63715379      5.21536224      0.29546849
C      11      6      0.10803925      6.49997674      0.27438758
C      12      6      0.94115957      7.53878055     -0.09192047
C      13      6      2.27459044      7.31794551     -0.43460234
C      14      6      2.80851005      6.04517251     -0.42015530
C      15      6      1.99070077      4.98309867     -0.05424223
C      16      6      2.20035652      3.56925739      0.07016966
C      17      6      3.30426388      2.74815930     -0.10701185
C      18      6      3.16766793      1.38307291      0.11129556
N      19      7      4.31242513      0.58742462     -0.02258415
C      20      6      4.45882231     -0.74900355     -0.11154933
N      21      7      3.40976045     -1.54917880     -0.24266093
C      22      6      3.70248395     -2.84314823     -0.32337272
N      23      7      2.73092002     -3.76404542     -0.47498673
C      24      6      1.35980917     -3.60619722     -0.70365508
C      25      6      0.54033215     -4.72699761     -0.50660654
C      26      6     -0.82178717     -4.67699227     -0.71779643
C      27      6     -1.38086922     -3.47722837     -1.14089749
C      28      6     -0.55313540     -2.35014587     -1.36944211
C      29      6      0.81488638     -2.41302782     -1.15022638
C      30      6     -1.41612242     -1.30173123     -1.83094821
C      31      6     -1.19695246      0.01143164     -2.22938173
C      32      6     -2.27713876      0.76090556     -2.65038311
C      33      6     -3.56189999      0.21860269     -2.67056643
C      34      6     -3.80552209     -1.08028207     -2.26899424
C      35      6     -2.72392368     -1.84511123     -1.84927917
N      36      7     -2.68447055     -3.15450971     -1.43140466
C      37      6     -3.84294558     -3.96554655     -1.16388913
C      38      6     -4.53349564     -3.61475977      0.16377852
C      39      6     -3.62667274     -3.80072283      1.38618622
C      40      6     -2.80827848     -2.55069222      1.72351376
C      41      6     -1.58461881     -2.87177405      2.57945023
C      42      6     -0.71242816     -1.63573526      2.78890526
C      43      6      0.51611757     -1.89271712      3.66233993
C      44      6      1.55294975     -2.78484477      2.98771772
N      45      7      4.93567197     -3.36584017     -0.24240624
C      46      6      5.90107172     -2.46688947     -0.13382620
O      47      8      7.13450817     -2.97361518     -0.07717895
C      48      6      8.20190738     -2.04570355      0.03494322
N      49      7      5.74109173     -1.15452984     -0.08121098
C      50      6      1.93313524      0.84689792      0.49514037
C      51      6      0.82721133      1.65097324      0.67876185
C      52      6      0.96031655      3.01875128      0.47908844
H      53      1     -7.61017366     -0.83002380     -1.23337652
H      54      1     -7.55916444      0.86443680     -1.72503891
H      55      1     -8.60420505      0.36224917     -0.39719795
H      56      1     -6.59972359     -0.24147689      0.95894049
H      57      1     -5.55028686      0.25623674     -0.37106111
H      58      1     -6.40799573      2.57959002     -0.18474720
H      59      1     -7.51785994      2.07353120      1.08324130
H      60      1     -5.70293302      3.10186539      2.20972431
H      61      1     -5.54210864      1.36821627      2.47429841
H      62      1     -3.82225076      1.34146794      0.57869206
H      63      1     -3.36729544      2.17297966      2.06317443
H      64      1     -4.38269855      3.50621997     -0.48200585
H      65      1     -3.97944720      4.35809723      1.00655306
H      66      1     -1.99934428      2.63867807     -0.55526598
H      67      1     -2.19091494      4.37696872     -0.79925696
H      68      1     -1.61790265      4.76662887      1.60814515
H      69      1     -1.32783841      3.03135495      1.80250427
H      70      1     -0.92329660      6.68905309      0.53011870
H      71      1      0.55156615      8.54618097     -0.11598455
H      72      1      2.89385802      8.15684334     -0.71636215
H      73      1      3.84069513      5.87374553     -0.68794321
H      74      1      4.25759703      3.16281336     -0.40237211
H      75      1      5.19461686      1.07516006     -0.03088962
H      76      1      3.08193478     -4.70654362     -0.41924222
H      77      1      0.99469603     -5.65163342     -0.17844259
H      78      1     -1.42029591     -5.56057912     -0.55806309
H      79      1      1.44540776     -1.55803879     -1.32159854
H      80      1     -0.20076556      0.42902144     -2.20766078
H      81      1     -2.12910994      1.77985920     -2.97653041
H      82      1     -4.38464480      0.83082233     -3.00918006
H      83      1     -4.80557608     -1.48415175     -2.29211977
H      84      1     -3.53045758     -5.01165033     -1.14933892
H      85      1     -4.55373833     -3.83633811     -1.98638979
H      86      1     -5.40670771     -4.26367179      0.25154833
H      87      1     -4.88419574     -2.58244654      0.12827807
H      88      1     -2.94774882     -4.63557869      1.20461003
H      89      1     -4.23630113     -4.06470561      2.25275994
H      90      1     -3.44303630     -1.83207757      2.24713342
H      91      1     -2.46230396     -2.07023146      0.80943855
H      92      1     -1.90070863     -3.26723624      3.54785322
H      93      1     -0.99859015     -3.64216578      2.07481331
H      94      1     -1.31621138     -0.85360346      3.25643626
H      95      1     -0.38172207     -1.26750741      1.81455132
H      96      1      0.98355669     -0.93338184      3.89909826
H      97      1      0.20375729     -2.35052078      4.60399981
H      98      1      1.15873440     -3.78316358      2.81558873
H      99      1      1.85067452     -2.36694044      2.02725499
H     100      1      2.44153265     -2.87456449      3.61063499
H     101      1      9.10776525     -2.64677269      0.06925014
H     102      1      8.10152079     -1.45037500      0.94507868
H     103      1      8.22041540     -1.37343675     -0.82565930
H     104      1      1.86090655     -0.21576879      0.64883529
H     105      1     -0.11273842      1.21208314      0.97267235
 [GTO]
           1   0
s              4   1.000000
     36.83703744     -0.01198412
      6.34364266     -0.05472053
      0.50973875      0.58055871
      0.19427406      0.47700799
p              4   1.000000
      5.93725094      0.05713170
      1.53944051      0.28574555
      0.54270042      0.55178731
      0.21605839      0.26323149
s              7   1.000000
      0.38350848     -0.19456925
      0.04707223      0.94008709
      0.02222627      0.24688115
     36.83703744      0.00524273
      6.34364266      0.02393876
      0.50973875     -0.25397888
      0.19427406     -0.20867822
p              7   1.000000
      1.83062075     -0.01151918
      0.10124670      0.56607012
      0.03901771      0.59117617
      5.93725094     -0.02401067
      1.53944051     -0.12008995
      0.54270042     -0.23189900
      0.21605839     -0.11062799
 
           2   0
s              4   1.000000
     36.85922304     -0.01198412
      6.34746320     -0.05472052
      0.51004575      0.58055871
      0.19439106      0.47700799
p              4   1.000000
      5.94082673      0.05713170
      1.54036766      0.28574555
      0.54302727      0.55178731
      0.21618851      0.26323149
s              7   1.000000
      0.38350848     -0.19455120
      0.04707223      0.93999992
      0.02222627      0.24685824
     36.85922304      0.00523970
      6.34746320      0.02392494
      0.51004575     -0.25383223
      0.19439106     -0.20855772
p              7   1.000000
      1.83062075     -0.01151818
      0.10124670      0.56602085
      0.03901771      0.59112471
      5.94082673     -0.02399675
      1.54036766     -0.12002029
      0.54302727     -0.23176449
      0.21618851     -0.11056382
 
           3   0
s              4   1.000000
     36.91725422     -0.01198412
      6.35745665     -0.05472052
      0.51084877      0.58055871
      0.19469711      0.47700799
p              4   1.000000
      5.95017997      0.05713170
      1.54279282      0.28574555
      0.54388221      0.55178731
      0.21652888      0.26323149
s              7   1.000000
      0.38350848     -0.19450414
      0.04707223      0.93977254
      0.02222627      0.24679854
     36.91725422      0.00523180
      6.35745665      0.02388886
      0.51084877     -0.25344940
      0.19469711     -0.20824317
p              7   1.000000
      1.83062075     -0.01151556
      0.10124670      0.56589232
      0.03901771      0.59099048
      5.95017997     -0.02396039
      1.54279282     -0.11983844
      0.54388221     -0.23141333
      0.21652888     -0.11039630
 
           4   0
s              4   1.000000
     36.91173775     -0.01198412
      6.35650667     -0.05472052
      0.51077243      0.58055871
      0.19466802      0.47700799
p              4   1.000000
      5.94929084      0.05713170
      1.54256228      0.28574555
      0.54380094      0.55178730
      0.21649652      0.26323149
s              7   1.000000
      0.38350848     -0.19450861
      0.04707223      0.93979411
      0.02222627      0.24680420
     36.91173775      0.00523255
      6.35650667      0.02389228
      0.51077243     -0.25348574
      0.19466802     -0.20827304
p              7   1.000000
      1.83062075     -0.01151581
      0.10124670      0.56590451
      0.03901771      0.59100322
      5.94929084     -0.02396384
      1.54256228     -0.11985570
      0.54380094     -0.23144667
      0.21649652     -0.11041220
 
           5   0
s              4   1.000000
     36.91678783     -0.01198412
      6.35737634     -0.05472053
      0.51084231      0.58055871
      0.19469465      0.47700799
p              4   1.000000
      5.95010480      0.05713170
      1.54277332      0.28574555
      0.54387534      0.55178731
      0.21652614      0.26323149
s              7   1.000000
      0.38350848     -0.19450452
      0.04707223      0.93977436
      0.02222627      0.24679901
     36.91678783      0.00523186
      6.35737634      0.02388915
      0.51084231     -0.25345247
      0.19469465     -0.20824570
p              7   1.000000
      1.83062075     -0.01151558
      0.10124670      0.56589335
      0.03901771      0.59099153
      5.95010480     -0.02396068
      1.54277332     -0.11983990
      0.54387534     -0.23141615
      0.21652614     -0.11039765
 
           6   0
s              4   1.000000
     36.92110779     -0.01198412
      6.35812027     -0.05472052
      0.51090209      0.58055871
      0.19471743      0.47700799
p              4   1.000000
      5.95080107      0.05713170
      1.54295386      0.28574555
      0.54393898      0.55178731
      0.21655148      0.26323149
s              7   1.000000
      0.38350848     -0.19450102
      0.04707223      0.93975747
      0.02222627      0.24679457
     36.92110779      0.00523128
      6.35812027      0.02388646
      0.51090209     -0.25342401
      0.19471743     -0.20822232
p              7   1.000000
      1.83062075     -0.01151539
      0.10124670      0.56588381
      0.03901771      0.59098158
      5.95080107     -0.02395798
      1.54295386     -0.11982638
      0.54393898     -0.23139005
      0.21655148     -0.11038519
 
           7   0
s              4   1.000000
     36.92720222     -0.01198412
      6.35916978     -0.05472052
      0.51098643      0.58055871
      0.19474958      0.47700799
p              4   1.000000
      5.95178335      0.05713170
      1.54320855      0.28574555
      0.54402877      0.55178731
      0.21658723      0.26323149
s              7   1.000000
      0.38350848     -0.19449610
      0.04707223      0.93973366
      0.02222627      0.24678833
     36.92720222      0.00523045
      6.35916978      0.02388268
      0.51098643     -0.25338388
      0.19474958     -0.20818934
p              7   1.000000
      1.83062075     -0.01151511
      0.10124670      0.56587035
      0.03901771      0.59096750
      5.95178335     -0.02395417
      1.54320855     -0.11980732
      0.54402877     -0.23135324
      0.21658723     -0.11036763
 
           8   0
s              4   1.000000
     37.02807131     -0.01198412
      6.37654027     -0.05472052
      0.51238222      0.58055871
      0.19528155      0.47700800
p              4   1.000000
      5.96804104      0.05713170
      1.54742392      0.28574555
      0.54551482      0.55178731
      0.21717885      0.26323149
s              7   1.000000
      0.38350848     -0.19441482
      0.04707223      0.93934098
      0.02222627      0.24668520
     37.02807131      0.00521677
      6.37654027      0.02382024
      0.51238222     -0.25272145
      0.19528155     -0.20764506
p              7   1.000000
      1.83062075     -0.01151060
      0.10124670      0.56564838
      0.03901771      0.59073572
      5.96804104     -0.02389125
      1.54742392     -0.11949265
      0.54551482     -0.23074561
      0.21717885     -0.11007776
 
           9   0
s              4   1.000000
     61.27321159     -0.01198412
     10.55175405     -0.05472052
      0.84787846      0.58055871
      0.32314747      0.47700799
p              4   1.000000
      7.22239453      0.05713170
      1.87265905      0.28574555
      0.66017026      0.55178731
      0.26282516      0.26323149
s              7   1.000000
      0.47894987     -0.18776140
      0.05878681      0.90719408
      0.02775758      0.23824294
     61.27321159      0.00396509
     10.55175405      0.01810497
      0.84787846     -0.19208509
      0.32314747     -0.15782404
p              7   1.000000
      2.28619608     -0.01156397
      0.12644335      0.56827139
      0.04872781      0.59347505
      7.22239453     -0.02462600
      1.87265905     -0.12316753
      0.66017026     -0.23784194
      0.26282516     -0.11346308
 
          10   0
s              4   1.000000
     35.62687810     -0.01198412
      6.13524321     -0.05472053
      0.49299297      0.58055871
      0.18789182      0.47700800
p              4   1.000000
      5.74220214      0.05713170
      1.48886727      0.28574555
      0.52487179      0.55178731
      0.20896050      0.26323149
s              7   1.000000
      0.38350848     -0.19559925
      0.04707223      0.94506371
      0.02222627      0.24818807
     35.62687810      0.00541319
      6.13524321      0.02471709
      0.49299297     -0.26223655
      0.18789182     -0.21546301
p              7   1.000000
      1.83062075     -0.01157643
      0.10124670      0.56888341
      0.03901771      0.59411420
      5.74220214     -0.02479478
      1.48886727     -0.12401167
      0.52487179     -0.23947203
      0.20896050     -0.11424072
 
          11   0
s              4   1.000000
     34.93745643     -0.01198412
      6.01651909     -0.05472053
      0.48345298      0.58055871
      0.18425590      0.47700799
p              4   1.000000
      5.63108383      0.05713170
      1.46005595      0.28574555
      0.51471490      0.55178731
      0.20491687      0.26323149
s              7   1.000000
      0.38350848     -0.19622892
      0.04707223      0.94810602
      0.02222627      0.24898703
     34.93745643      0.00551523
      6.01651909      0.02518301
      0.48345298     -0.26717970
      0.18425590     -0.21952449
p              7   1.000000
      1.83062075     -0.01161143
      0.10124670      0.57060339
      0.03901771      0.59591049
      5.63108383     -0.02526403
      1.46005595     -0.12635866
      0.51471490     -0.24400416
      0.20491687     -0.11640278
 
          12   0
s              4   1.000000
     34.93195941     -0.01198412
      6.01557246     -0.05472052
      0.48337692      0.58055871
      0.18422691      0.47700799
p              4   1.000000
      5.63019784      0.05713170
      1.45982623      0.28574555
      0.51463392      0.55178731
      0.20488463      0.26323149
s              7   1.000000
      0.38350848     -0.19623407
      0.04707223      0.94813093
      0.02222627      0.24899358
     34.93195941      0.00551606
      6.01557246      0.02518679
      0.48337692     -0.26721985
      0.18422691     -0.21955747
p              7   1.000000
      1.83062075     -0.01161172
      0.10124670      0.57061747
      0.03901771      0.59592517
      5.63019784     -0.02526784
      1.45982623     -0.12637772
      0.51463392     -0.24404097
      0.20488463     -0.11642034
 
          13   0
s              4   1.000000
     34.91995675     -0.01198412
      6.01350550     -0.05472052
      0.48321083      0.58055871
      0.18416361      0.47700799
p              4   1.000000
      5.62826330      0.05713170
      1.45932463      0.28574555
      0.51445709      0.55178731
      0.20481423      0.26323149
s              7   1.000000
      0.38350848     -0.19624534
      0.04707223      0.94818534
      0.02222627      0.24900787
     34.91995675      0.00551787
      6.01350550      0.02519506
      0.48321083     -0.26730755
      0.18416361     -0.21962953
p              7   1.000000
      1.83062075     -0.01161234
      0.10124670      0.57064824
      0.03901771      0.59595734
      5.62826330     -0.02527617
      1.45932463     -0.12641935
      0.51445709     -0.24412137
      0.20481423     -0.11645870
 
          14   0
s              4   1.000000
     34.93395808     -0.01198412
      6.01591665     -0.05472052
      0.48340457      0.58055871
      0.18423745      0.47700800
p              4   1.000000
      5.63051998      0.05713170
      1.45990975      0.28574555
      0.51466336      0.55178731
      0.20489635      0.26323149
s              7   1.000000
      0.38350848     -0.19623220
      0.04707223      0.94812188
      0.02222627      0.24899120
     34.93395808      0.00551575
      6.01591665      0.02518541
      0.48340457     -0.26720525
      0.18423745     -0.21954548
p              7   1.000000
      1.83062075     -0.01161161
      0.10124670      0.57061236
      0.03901771      0.59591983
      5.63051998     -0.02526646
      1.45990975     -0.12637079
      0.51466336     -0.24402758
      0.20489635     -0.11641396
 
          15   0
s              4   1.000000
     35.42154914     -0.01198412
      6.09988386     -0.05472052
      0.49015170      0.58055871
      0.18680894      0.47700799
p              4   1.000000
      5.70910802      0.05713170
      1.48028646      0.28574555
      0.52184678      0.55178731
      0.20775620      0.26323149
s              7   1.000000
      0.38350848     -0.19578338
      0.04707223      0.94595333
      0.02222627      0.24842170
     35.42154914      0.00544319
      6.09988386      0.02485408
      0.49015170     -0.26368992
      0.18680894     -0.21665716
p              7   1.000000
      1.83062075     -0.01158666
      0.10124670      0.56938633
      0.03901771      0.59463944
      5.70910802     -0.02493276
      1.48028646     -0.12470178
      0.52184678     -0.24080465
      0.20775620     -0.11487645
 
          16   0
s              4   1.000000
     35.41826590     -0.01198412
      6.09931846     -0.05472053
      0.49010626      0.58055871
      0.18679163      0.47700799
p              4   1.000000
      5.70857884      0.05713170
      1.48014925      0.28574555
      0.52179841      0.55178731
      0.20773694      0.26323149
s              7   1.000000
      0.38350848     -0.19578634
      0.04707223      0.94596766
      0.02222627      0.24842546
     35.41826590      0.00544367
      6.09931846      0.02485628
      0.49010626     -0.26371329
      0.18679163     -0.21667636
p              7   1.000000
      1.83062075     -0.01158683
      0.10124670      0.56939444
      0.03901771      0.59464790
      5.70857884     -0.02493498
      1.48014925     -0.12471287
      0.52179841     -0.24082608
      0.20773694     -0.11488667
 
          17   0
s              4   1.000000
     35.03305168     -0.01198412
      6.03298139     -0.05472052
      0.48477580      0.58055871
      0.18476006      0.47700799
p              4   1.000000
      5.64649150      0.05713170
      1.46405093      0.28574555
      0.51612326      0.55178731
      0.20547756      0.26323149
s              7   1.000000
      0.38350848     -0.19613964
      0.04707223      0.94767465
      0.02222627      0.24887376
     35.03305168      0.00550085
      6.03298139      0.02511738
      0.48477580     -0.26648341
      0.18476006     -0.21895239
p              7   1.000000
      1.83062075     -0.01160647
      0.10124670      0.57035951
      0.03901771      0.59565578
      5.64649150     -0.02519794
      1.46405093     -0.12602809
      0.51612326     -0.24336582
      0.20547756     -0.11609826
 
          18   0
s              4   1.000000
     35.03211992     -0.01198412
      6.03282093     -0.05472053
      0.48476290      0.58055871
      0.18475514      0.47700799
p              4   1.000000
      5.64634133      0.05713170
      1.46401199      0.28574555
      0.51610953      0.55178731
      0.20547210      0.26323149
s              7   1.000000
      0.38350848     -0.19614051
      0.04707223      0.94767884
      0.02222627      0.24887486
     35.03211992      0.00550099
      6.03282093      0.02511801
      0.48476290     -0.26649018
      0.18475514     -0.21895795
p              7   1.000000
      1.83062075     -0.01160651
      0.10124670      0.57036187
      0.03901771      0.59565825
      5.64634133     -0.02519858
      1.46401199     -0.12603130
      0.51610953     -0.24337202
      0.20547210     -0.11610122
 
          19   0
s              4   1.000000
     61.00925246     -0.01198412
     10.50629810     -0.05472052
      0.84422588      0.58055871
      0.32175538      0.47700799
p              4   1.000000
      7.19128114      0.05713170
      1.86459182      0.28574555
      0.65732632      0.55178731
      0.26169293      0.26323149
s              7   1.000000
      0.47894987     -0.18784104
      0.05878681      0.90757887
      0.02775758      0.23834400
     61.00925246      0.00398211
     10.50629810      0.01818265
      0.84422588     -0.19290923
      0.32175538     -0.15850119
p              7   1.000000
      2.28619608     -0.01157152
      0.12644335      0.56864217
      0.04872781      0.59386226
      7.19128114     -0.02472837
      1.86459182     -0.12367951
      0.65732632     -0.23883061
      0.26169293     -0.11393473
 
          20   0
s              4   1.000000
     35.42250693     -0.01198412
      6.10004880     -0.05472052
      0.49016495      0.58055871
      0.18681400      0.47700799
p              4   1.000000
      5.70926239      0.05713170
      1.48032648      0.28574555
      0.52186089      0.55178731
      0.20776181      0.26323149
s              7   1.000000
      0.38350848     -0.19578251
      0.04707223      0.94594914
      0.02222627      0.24842061
     35.42250693      0.00544305
      6.10004880      0.02485343
      0.49016495     -0.26368310
      0.18681400     -0.21665155
p              7   1.000000
      1.83062075     -0.01158661
      0.10124670      0.56938398
      0.03901771      0.59463697
      5.70926239     -0.02493211
      1.48032648     -0.12469854
      0.52186089     -0.24079840
      0.20776181     -0.11487347
 
          21   0
s              4   1.000000
     57.31591157     -0.01198412
      9.87027424     -0.05472052
      0.79311865      0.58055871
      0.30227715      0.47700799
p              4   1.000000
      6.75593975      0.05713170
      1.75171429      0.28574555
      0.61753350      0.55178731
      0.24585073      0.26323149
s              7   1.000000
      0.47894987     -0.18906262
      0.05878681      0.91348109
      0.02775758      0.23989400
     57.31591157      0.00423535
      9.87027424      0.01933896
      0.79311865     -0.20517711
      0.30227715     -0.16858092
p              7   1.000000
      2.28619608     -0.01168695
      0.12644335      0.57431442
      0.04872781      0.59978609
      6.75593975     -0.02625253
      1.75171429     -0.13130262
      0.61753350     -0.25355118
      0.24585073     -0.12095721
 
          22   0
s              4   1.000000
     35.43659960     -0.01198412
      6.10247568     -0.05472052
      0.49035996      0.58055871
      0.18688832      0.47700799
p              4   1.000000
      5.71153379      0.05713170
      1.48091543      0.28574555
      0.52206851      0.55178731
      0.20784447      0.26323149
s              7   1.000000
      0.38350848     -0.19576978
      0.04707223      0.94588764
      0.02222627      0.24840445
     35.43659960      0.00544098
      6.10247568      0.02484399
      0.49035996     -0.26358285
      0.18688832     -0.21656918
p              7   1.000000
      1.83062075     -0.01158591
      0.10124670      0.56934921
      0.03901771      0.59460069
      5.71153379     -0.02492259
      1.48091543     -0.12465094
      0.52206851     -0.24070648
      0.20784447     -0.11482962
 
          23   0
s              4   1.000000
     61.01469729     -0.01198412
     10.50723575     -0.05472052
      0.84430123      0.58055871
      0.32178409      0.47700799
p              4   1.000000
      7.19192294      0.05713170
      1.86475822      0.28574555
      0.65738498      0.55178731
      0.26171629      0.26323149
s              7   1.000000
      0.47894987     -0.18783938
      0.05878681      0.90757089
      0.02775758      0.23834189
     61.01469729      0.00398175
     10.50723575      0.01818104
      0.84430123     -0.19289217
      0.32178409     -0.15848717
p              7   1.000000
      2.28619608     -0.01157136
      0.12644335      0.56863447
      0.04872781      0.59385424
      7.19192294     -0.02472625
      1.86475822     -0.12366891
      0.65738498     -0.23881014
      0.26171629     -0.11392496
 
          24   0
s              4   1.000000
     35.03954615     -0.01198412
      6.03409979     -0.05472052
      0.48486566      0.58055871
      0.18479431      0.47700799
p              4   1.000000
      5.64753826      0.05713170
      1.46432234      0.28574555
      0.51621894      0.55178731
      0.20551565      0.26323149
s              7   1.000000
      0.38350848     -0.19613360
      0.04707223      0.94764545
      0.02222627      0.24886608
     35.03954615      0.00549988
      6.03409979      0.02511293
      0.48486566     -0.26643623
      0.18479431     -0.21891363
p              7   1.000000
      1.83062075     -0.01160613
      0.10124670      0.57034300
      0.03901771      0.59563854
      5.64753826     -0.02519346
      1.46432234     -0.12600569
      0.51621894     -0.24332257
      0.20551565     -0.11607763
 
          25   0
s              4   1.000000
     35.02854300     -0.01198412
      6.03220495     -0.05472052
      0.48471341      0.58055871
      0.18473628      0.47700799
p              4   1.000000
      5.64576481      0.05713170
      1.46386251      0.28574555
      0.51605683      0.55178731
      0.20545112      0.26323149
s              7   1.000000
      0.38350848     -0.19614383
      0.04707223      0.94769492
      0.02222627      0.24887907
     35.02854300      0.00550153
      6.03220495      0.02512046
      0.48471341     -0.26651617
      0.18473628     -0.21897930
p              7   1.000000
      1.83062075     -0.01160670
      0.10124670      0.57037097
      0.03901771      0.59566775
      5.64576481     -0.02520105
      1.46386251     -0.12604364
      0.51605683     -0.24339585
      0.20545112     -0.11611259
 
          26   0
s              4   1.000000
     34.94112275     -0.01198412
      6.01715046     -0.05472052
      0.48350371      0.58055871
      0.18427523      0.47700800
p              4   1.000000
      5.63167475      0.05713170
      1.46020917      0.28574555
      0.51476892      0.55178731
      0.20493838      0.26323149
s              7   1.000000
      0.38350848     -0.19622548
      0.04707223      0.94808943
      0.02222627      0.24898269
     34.94112275      0.00551467
      6.01715046      0.02518048
      0.48350371     -0.26715293
      0.18427523     -0.21950249
p              7   1.000000
      1.83062075     -0.01161124
      0.10124670      0.57059401
      0.03901771      0.59590070
      5.63167475     -0.02526149
      1.46020917     -0.12634595
      0.51476892     -0.24397962
      0.20493838     -0.11639108
 
          27   0
s              4   1.000000
     35.62259167     -0.01198412
      6.13450505     -0.05472052
      0.49293366      0.58055871
      0.18786922      0.47700799
p              4   1.000000
      5.74151127      0.05713170
      1.48868814      0.28574555
      0.52480864      0.55178731
      0.20893536      0.26323149
s              7   1.000000
      0.38350848     -0.19560307
      0.04707223      0.94508215
      0.02222627      0.24819292
     35.62259167      0.00541381
      6.13450505      0.02471993
      0.49293366     -0.26226673
      0.18786922     -0.21548781
p              7   1.000000
      1.83062075     -0.01157664
      0.10124670      0.56889383
      0.03901771      0.59412509
      5.74151127     -0.02479765
      1.48868814     -0.12402601
      0.52480864     -0.23949971
      0.20893536     -0.11425392
 
          28   0
s              4   1.000000
     35.43541677     -0.01198412
      6.10227198     -0.05472052
      0.49034359      0.58055871
      0.18688208      0.47700800
p              4   1.000000
      5.71134315      0.05713170
      1.48086599      0.28574555
      0.52205109      0.55178731
      0.20783753      0.26323149
s              7   1.000000
      0.38350848     -0.19577085
      0.04707223      0.94589281
      0.02222627      0.24840581
     35.43541677      0.00544115
      6.10227198      0.02484478
      0.49034359     -0.26359127
      0.18688208     -0.21657610
p              7   1.000000
      1.83062075     -0.01158597
      0.10124670      0.56935212
      0.03901771      0.59460372
      5.71134315     -0.02492339
      1.48086599     -0.12465493
      0.52205109     -0.24071420
      0.20783753     -0.11483330
 
          29   0
s              4   1.000000
     35.02968531     -0.01198412
      6.03240167     -0.05472052
      0.48472921      0.58055871
      0.18474230      0.47700799
p              4   1.000000
      5.64594893      0.05713170
      1.46391025      0.28574555
      0.51607366      0.55178731
      0.20545782      0.26323149
s              7   1.000000
      0.38350848     -0.19614277
      0.04707223      0.94768978
      0.02222627      0.24887773
     35.02968531      0.00550136
      6.03240167      0.02511968
      0.48472921     -0.26650787
      0.18474230     -0.21897249
p              7   1.000000
      1.83062075     -0.01160664
      0.10124670      0.57036806
      0.03901771      0.59566472
      5.64594893     -0.02520026
      1.46391025     -0.12603970
      0.51607366     -0.24338824
      0.20545782     -0.11610896
 
          30   0
s              4   1.000000
     35.42669674     -0.01198412
      6.10077032     -0.05472053
      0.49022293      0.58055871
      0.18683609      0.47700800
p              4   1.000000
      5.70993769      0.05713170
      1.48050158      0.28574555
      0.52192262      0.55178731
      0.20778639      0.26323149
s              7   1.000000
      0.38350848     -0.19577873
      0.04707223      0.94593085
      0.02222627      0.24841581
     35.42669674      0.00544243
      6.10077032      0.02485062
      0.49022293     -0.26365329
      0.18683609     -0.21662706
p              7   1.000000
      1.83062075     -0.01158640
      0.10124670      0.56937363
      0.03901771      0.59462617
      5.70993769     -0.02492928
      1.48050158     -0.12468438
      0.52192262     -0.24077107
      0.20778639     -0.11486043
 
          31   0
s              4   1.000000
     34.93721635     -0.01198412
      6.01647775     -0.05472053
      0.48344966      0.58055871
      0.18425463      0.47700799
p              4   1.000000
      5.63104514      0.05713170
      1.46004592      0.28574555
      0.51471137      0.55178731
      0.20491546      0.26323149
s              7   1.000000
      0.38350848     -0.19622915
      0.04707223      0.94810712
      0.02222627      0.24898732
     34.93721635      0.00551526
      6.01647775      0.02518317
      0.48344966     -0.26718145
      0.18425463     -0.21952593
p              7   1.000000
      1.83062075     -0.01161144
      0.10124670      0.57060401
      0.03901771      0.59591114
      5.63104514     -0.02526420
      1.46004592     -0.12635949
      0.51471137     -0.24400577
      0.20491546     -0.11640355
 
          32   0
s              4   1.000000
     34.92546013     -0.01198412
      6.01445323     -0.05472052
      0.48328698      0.58055871
      0.18419263      0.47700799
p              4   1.000000
      5.62915032      0.05713170
      1.45955462      0.28574555
      0.51453817      0.55178731
      0.20484651      0.26323149
s              7   1.000000
      0.38350848     -0.19624017
      0.04707223      0.94816039
      0.02222627      0.24900131
     34.92546013      0.00551704
      6.01445323      0.02519127
      0.48328698     -0.26726733
      0.18419263     -0.21959649
p              7   1.000000
      1.83062075     -0.01161205
      0.10124670      0.57063413
      0.03901771      0.59594257
      5.62915032     -0.02527235
      1.45955462     -0.12640026
      0.51453817     -0.24408449
      0.20484651     -0.11644111
 
          33   0
s              4   1.000000
     34.93655407     -0.01198412
      6.01636370     -0.05472053
      0.48344049      0.58055871
      0.18425114      0.47700800
p              4   1.000000
      5.63093839      0.05713170
      1.46001824      0.28574555
      0.51470161      0.55178731
      0.20491158      0.26323149
s              7   1.000000
      0.38350848     -0.19622977
      0.04707223      0.94811012
      0.02222627      0.24898810
     34.93655407      0.00551536
      6.01636370      0.02518363
      0.48344049     -0.26718629
      0.18425114     -0.21952990
p              7   1.000000
      1.83062075     -0.01161148
      0.10124670      0.57060570
      0.03901771      0.59591292
      5.63093839     -0.02526466
      1.46001824     -0.12636178
      0.51470161     -0.24401020
      0.20491158     -0.11640567
 
          34   0
s              4   1.000000
     34.94181736     -0.01198412
      6.01727008     -0.05472052
      0.48351333      0.58055871
      0.18427890      0.47700799
p              4   1.000000
      5.63178671      0.05713170
      1.46023820      0.28574555
      0.51477915      0.55178730
      0.20494245      0.26323149
s              7   1.000000
      0.38350848     -0.19622483
      0.04707223      0.94808628
      0.02222627      0.24898186
     34.94181736      0.00551457
      6.01727008      0.02518000
      0.48351333     -0.26714786
      0.18427890     -0.21949833
p              7   1.000000
      1.83062075     -0.01161120
      0.10124670      0.57059223
      0.03901771      0.59589884
      5.63178671     -0.02526101
      1.46023820     -0.12634354
      0.51477915     -0.24397497
      0.20494245     -0.11638886
 
          35   0
s              4   1.000000
     35.63847840     -0.01198412
      6.13724088     -0.05472052
      0.49315349      0.58055871
      0.18795300      0.47700799
p              4   1.000000
      5.74407184      0.05713170
      1.48935205      0.28574555
      0.52504269      0.55178731
      0.20902854      0.26323149
s              7   1.000000
      0.38350848     -0.19558894
      0.04707223      0.94501386
      0.02222627      0.24817498
     35.63847840      0.00541150
      6.13724088      0.02470939
      0.49315349     -0.26215490
      0.18795300     -0.21539593
p              7   1.000000
      1.83062075     -0.01157585
      0.10124670      0.56885522
      0.03901771      0.59408479
      5.74407184     -0.02478703
      1.48935205     -0.12397291
      0.52504269     -0.23939717
      0.20902854     -0.11420501
 
          36   0
s              4   1.000000
     61.27327534     -0.01198412
     10.55176503     -0.05472053
      0.84787934      0.58055871
      0.32314780      0.47700800
p              4   1.000000
      7.22240204      0.05713170
      1.87266100      0.28574555
      0.66017095      0.55178731
      0.26282543      0.26323149
s              7   1.000000
      0.47894987     -0.18776138
      0.05878681      0.90719398
      0.02775758      0.23824292
     61.27327534      0.00396509
     10.55176503      0.01810495
      0.84787934     -0.19208489
      0.32314780     -0.15782388
p              7   1.000000
      2.28619608     -0.01156397
      0.12644335      0.56827131
      0.04872781      0.59347496
      7.22240204     -0.02462598
      1.87266100     -0.12316740
      0.66017095     -0.23784171
      0.26282543     -0.11346297
 
          37   0
s              4   1.000000
     37.01959091     -0.01198412
      6.37507988     -0.05472052
      0.51226487      0.58055871
      0.19523682      0.47700800
p              4   1.000000
      5.96667420      0.05713170
      1.54706952      0.28574555
      0.54538988      0.55178731
      0.21712911      0.26323149
s              7   1.000000
      0.38350848     -0.19442163
      0.04707223      0.93937388
      0.02222627      0.24669385
     37.01959091      0.00521792
      6.37507988      0.02382548
      0.51226487     -0.25277701
      0.19523682     -0.20769072
p              7   1.000000
      1.83062075     -0.01151098
      0.10124670      0.56566697
      0.03901771      0.59075514
      5.96667420     -0.02389653
      1.54706952     -0.11951905
      0.54538988     -0.23079657
      0.21712911     -0.11010207
 
          38   0
s              4   1.000000
     36.91635288     -0.01198412
      6.35730144     -0.05472052
      0.51083630      0.58055871
      0.19469236      0.47700799
p              4   1.000000
      5.95003469      0.05713170
      1.54275515      0.28574555
      0.54386893      0.55178731
      0.21652359      0.26323149
s              7   1.000000
      0.38350848     -0.19450487
      0.04707223      0.93977606
      0.02222627      0.24679947
     36.91635288      0.00523192
      6.35730144      0.02388942
      0.51083630     -0.25345533
      0.19469236     -0.20824805
p              7   1.000000
      1.83062075     -0.01151560
      0.10124670      0.56589431
      0.03901771      0.59099254
      5.95003469     -0.02396095
      1.54275515     -0.11984126
      0.54386893     -0.23141878
      0.21652359     -0.11039890
 
          39   0
s              4   1.000000
     36.92209252     -0.01198412
      6.35828985     -0.05472052
      0.51091572      0.58055871
      0.19472263      0.47700800
p              4   1.000000
      5.95095979      0.05713170
      1.54299501      0.28574555
      0.54395349      0.55178731
      0.21655726      0.26323149
s              7   1.000000
      0.38350848     -0.19450023
      0.04707223      0.93975363
      0.02222627      0.24679357
     36.92209252      0.00523114
      6.35828985      0.02388585
      0.51091572     -0.25341753
      0.19472263     -0.20821699
p              7   1.000000
      1.83062075     -0.01151534
      0.10124670      0.56588162
      0.03901771      0.59097931
      5.95095979     -0.02395736
      1.54299501     -0.11982330
      0.54395349     -0.23138410
      0.21655726     -0.11038235
 
          40   0
s              4   1.000000
     36.93849225     -0.01198412
      6.36111402     -0.05472053
      0.51114265      0.58055871
      0.19480912      0.47700800
p              4   1.000000
      5.95360303      0.05713170
      1.54368036      0.28574555
      0.54419510      0.55178731
      0.21665345      0.26323149
s              7   1.000000
      0.38350848     -0.19448697
      0.04707223      0.93968957
      0.02222627      0.24677675
     36.93849225      0.00522891
      6.36111402      0.02387568
      0.51114265     -0.25330957
      0.19480912     -0.20812829
p              7   1.000000
      1.83062075     -0.01151461
      0.10124670      0.56584542
      0.03901771      0.59094148
      5.95360303     -0.02394711
      1.54368036     -0.11977202
      0.54419510     -0.23128508
      0.21665345     -0.11033511
 
          41   0
s              4   1.000000
     36.92735718     -0.01198412
      6.35919647     -0.05472052
      0.51098857      0.58055871
      0.19475039      0.47700800
p              4   1.000000
      5.95180832      0.05713170
      1.54321502      0.28574555
      0.54403105      0.55178731
      0.21658814      0.26323149
s              7   1.000000
      0.38350848     -0.19449597
      0.04707223      0.93973305
      0.02222627      0.24678816
     36.92735718      0.00523043
      6.35919647      0.02388259
      0.51098857     -0.25338286
      0.19475039     -0.20818851
p              7   1.000000
      1.83062075     -0.01151511
      0.10124670      0.56587000
      0.03901771      0.59096717
      5.95180832     -0.02395407
      1.54321502     -0.11980684
      0.54403105     -0.23135230
      0.21658814     -0.11036718
 
          42   0
s              4   1.000000
     36.92777277     -0.01198412
      6.35926804     -0.05472053
      0.51099432      0.58055871
      0.19475258      0.47700799
p              4   1.000000
      5.95187531      0.05713170
      1.54323239      0.28574555
      0.54403717      0.55178731
      0.21659057      0.26323149
s              7   1.000000
      0.38350848     -0.19449563
      0.04707223      0.93973143
      0.02222627      0.24678774
     36.92777277      0.00523037
      6.35926804      0.02388233
      0.51099432     -0.25338013
      0.19475258     -0.20818626
p              7   1.000000
      1.83062075     -0.01151509
      0.10124670      0.56586908
      0.03901771      0.59096620
      5.95187531     -0.02395381
      1.54323239     -0.11980554
      0.54403717     -0.23134979
      0.21659057     -0.11036599
 
          43   0
s              4   1.000000
     36.85110082     -0.01198412
      6.34606449     -0.05472052
      0.50993336      0.58055871
      0.19434823      0.47700799
p              4   1.000000
      5.93951762      0.05713170
      1.54002823      0.28574555
      0.54290761      0.55178731
      0.21614087      0.26323149
s              7   1.000000
      0.38350848     -0.19455781
      0.04707223      0.94003181
      0.02222627      0.24686662
     36.85110082      0.00524081
      6.34606449      0.02393000
      0.50993336     -0.25388590
      0.19434823     -0.20860182
p              7   1.000000
      1.83062075     -0.01151854
      0.10124670      0.56603888
      0.03901771      0.59114352
      5.93951762     -0.02400184
      1.54002823     -0.12004578
      0.54290761     -0.23181372
      0.21614087     -0.11058730
 
          44   0
s              4   1.000000
     36.83978885     -0.01198412
      6.34411648     -0.05472052
      0.50977683      0.58055871
      0.19428857      0.47700799
p              4   1.000000
      5.93769440      0.05713170
      1.53955549      0.28574555
      0.54274095      0.55178731
      0.21607453      0.26323149
s              7   1.000000
      0.38350848     -0.19456701
      0.04707223      0.94007628
      0.02222627      0.24687830
     36.83978885      0.00524235
      6.34411648      0.02393705
      0.50977683     -0.25396068
      0.19428857     -0.20866327
p              7   1.000000
      1.83062075     -0.01151905
      0.10124670      0.56606401
      0.03901771      0.59116978
      5.93769440     -0.02400895
      1.53955549     -0.12008130
      0.54274095     -0.23188231
      0.21607453     -0.11062003
 
          45   0
s              4   1.000000
     57.29738400     -0.01198412
      9.86708364     -0.05472053
      0.79286227      0.58055871
      0.30217944      0.47700799
p              4   1.000000
      6.75375587      0.05713170
      1.75114805      0.28574555
      0.61733388      0.55178731
      0.24577125      0.26323149
s              7   1.000000
      0.47894987     -0.18906929
      0.05878681      0.91351333
      0.02775758      0.23990248
     57.29738400      0.00423669
      9.86708364      0.01934510
      0.79286227     -0.20524235
      0.30217944     -0.16863452
p              7   1.000000
      2.28619608     -0.01168757
      0.12644335      0.57434534
      0.04872781      0.59981839
      6.75375587     -0.02626063
      1.75114805     -0.13134317
      0.61733388     -0.25362948
      0.24577125     -0.12099457
 
          46   0
s              4   1.000000
     35.48548005     -0.01198412
      6.11089330     -0.05472053
      0.49103635      0.58055871
      0.18714611      0.47700800
p              4   1.000000
      5.71941216      0.05713170
      1.48295817      0.28574555
      0.52278864      0.55178731
      0.20813117      0.26323149
s              7   1.000000
      0.38350848     -0.19572574
      0.04707223      0.94567487
      0.02222627      0.24834858
     35.48548005      0.00543381
      6.11089330      0.02481127
      0.49103635     -0.26323571
      0.18714611     -0.21628396
p              7   1.000000
      1.83062075     -0.01158346
      0.10124670      0.56922892
      0.03901771      0.59447503
      5.71941216     -0.02488964
      1.48295817     -0.12448611
      0.52278864     -0.24038819
      0.20813117     -0.11467778
 
          47   0
s              4   1.000000
     77.90897073     -0.01198412
     13.41656943     -0.05472052
      1.07807860      0.58055871
      0.41088244      0.47700799
p              4   1.000000
      8.03418957      0.05713170
      2.08314539      0.28574555
      0.73437321      0.55178731
      0.29236663      0.26323149
s              7   1.000000
      0.57971233     -0.18689412
      0.07115450      0.90300370
      0.03359728      0.23714248
     77.90897073      0.00377536
     13.41656943      0.01723864
      1.07807860     -0.18289376
      0.41088244     -0.15027212
p              7   1.000000
      2.76717072     -0.01172180
      0.15304476      0.57602734
      0.05897927      0.60157499
      8.03418957     -0.02669853
      2.08314539     -0.13353334
      0.73437321     -0.25785880
      0.29236663     -0.12301217
 
          48   0
s              4   1.000000
     36.95975515     -0.01198412
      6.36477567     -0.05472053
      0.51143688      0.58055871
      0.19492125      0.47700799
p              4   1.000000
      5.95703010      0.05713170
      1.54456895      0.28574555
      0.54450835      0.55178731
      0.21677816      0.26323149
s              7   1.000000
      0.38350848     -0.19446980
      0.04707223      0.93960662
      0.02222627      0.24675496
     36.95975515      0.00522603
      6.36477567      0.02386250
      0.51143688     -0.25316973
      0.19492125     -0.20801339
p              7   1.000000
      1.83062075     -0.01151365
      0.10124670      0.56579853
      0.03901771      0.59089253
      5.95703010     -0.02393383
      1.54456895     -0.11970560
      0.54450835     -0.23115681
      0.21677816     -0.11027392
 
          49   0
s              4   1.000000
     57.32427796     -0.01198412
      9.87171500     -0.05472053
      0.79323442      0.58055871
      0.30232127      0.47700799
p              4   1.000000
      6.75692592      0.05713170
      1.75196999      0.28574555
      0.61762364      0.55178731
      0.24588661      0.26323149
s              7   1.000000
      0.47894987     -0.18905960
      0.05878681      0.91346652
      0.02775758      0.23989018
     57.32427796      0.00423474
      9.87171500      0.01933618
      0.79323442     -0.20514767
      0.30232127     -0.16855673
p              7   1.000000
      2.28619608     -0.01168666
      0.12644335      0.57430046
      0.04872781      0.59977150
      6.75692592     -0.02624887
      1.75196999     -0.13128432
      0.61762364     -0.25351584
      0.24588661     -0.12094035
 
          50   0
s              4   1.000000
     35.01871400     -0.01198412
      6.03051232     -0.05472052
      0.48457740      0.58055871
      0.18468444      0.47700799
p              4   1.000000
      5.64418061      0.05713170
      1.46345175      0.28574555
      0.51591203      0.55178731
      0.20539347      0.26323149
s              7   1.000000
      0.38350848     -0.19615299
      0.04707223      0.94773915
      0.02222627      0.24889070
     35.01871400      0.00550300
      6.03051232      0.02512720
      0.48457740     -0.26658761
      0.18468444     -0.21903801
p              7   1.000000
      1.83062075     -0.01160721
      0.10124670      0.57039597
      0.03901771      0.59569385
      5.64418061     -0.02520783
      1.46345175     -0.12607756
      0.51591203     -0.24346135
      0.20539347     -0.11614384
 
          51   0
s              4   1.000000
     34.94578813     -0.01198412
      6.01795388     -0.05472052
      0.48356827      0.58055871
      0.18429984      0.47700799
p              4   1.000000
      5.63242670      0.05713170
      1.46040414      0.28574555
      0.51483765      0.55178731
      0.20496574      0.26323149
s              7   1.000000
      0.38350848     -0.19622111
      0.04707223      0.94806831
      0.02222627      0.24897713
     34.94578813      0.00551397
      6.01795388      0.02517727
      0.48356827     -0.26711887
      0.18429984     -0.21947451
p              7   1.000000
      1.83062075     -0.01161099
      0.10124670      0.57058207
      0.03901771      0.59588820
      5.63242670     -0.02525826
      1.46040414     -0.12632978
      0.51483765     -0.24394839
      0.20496574     -0.11637618
 
          52   0
s              4   1.000000
     35.62775653     -0.01198412
      6.13539448     -0.05472052
      0.49300512      0.58055871
      0.18789646      0.47700799
p              4   1.000000
      5.74234373      0.05713170
      1.48890398      0.28574555
      0.52488473      0.55178731
      0.20896566      0.26323149
s              7   1.000000
      0.38350848     -0.19559847
      0.04707223      0.94505993
      0.02222627      0.24818710
     35.62775653      0.00541306
      6.13539448      0.02471651
      0.49300512     -0.26223036
      0.18789646     -0.21545793
p              7   1.000000
      1.83062075     -0.01157638
      0.10124670      0.56888127
      0.03901771      0.59411198
      5.74234373     -0.02479419
      1.48890398     -0.12400874
      0.52488473     -0.23946636
      0.20896566     -0.11423802
 
          53   0
s              4   1.000000
      8.30564062      0.05675242
      1.51982990      0.26014135
      0.42222539      0.53284611
      0.14013281      0.29162544
s              7   1.000000
      0.92936822     -0.06733268
      0.05643440      0.66949772
      0.02166600      0.51464717
      8.30564062     -0.02903156
      1.51982990     -0.13307467
      0.42222539     -0.27257612
      0.14013281     -0.14918028
p              4   1.000000
      0.64737396      0.05713170
      0.16785440      0.28574555
      0.05917387      0.55178731
      0.02355814      0.26323150
 
          54   0
s              4   1.000000
      8.30581999      0.05675242
      1.51986273      0.26014135
      0.42223451      0.53284611
      0.14013584      0.29162543
s              7   1.000000
      0.92936822     -0.06733245
      0.05643440      0.66949542
      0.02166600      0.51464540
      8.30581999     -0.02903108
      1.51986273     -0.13307247
      0.42223451     -0.27257161
      0.14013584     -0.14917781
p              4   1.000000
      0.64737396      0.05713170
      0.16785440      0.28574555
      0.05917387      0.55178731
      0.02355814      0.26323150
 
          55   0
s              4   1.000000
      8.30576664      0.05675242
      1.51985296      0.26014135
      0.42223180      0.53284611
      0.14013494      0.29162544
s              7   1.000000
      0.92936822     -0.06733252
      0.05643440      0.66949610
      0.02166600      0.51464593
      8.30576664     -0.02903122
      1.51985296     -0.13307313
      0.42223180     -0.27257296
      0.14013494     -0.14917855
p              4   1.000000
      0.64737396      0.05713170
      0.16785440      0.28574555
      0.05917387      0.55178731
      0.02355814      0.26323150
 
          56   0
s              4   1.000000
      8.30812807      0.05675242
      1.52028508      0.26014135
      0.42235184      0.53284611
      0.14017478      0.29162544
s              7   1.000000
      0.92936822     -0.06732948
      0.05643440      0.66946588
      0.02166600      0.51462270
      8.30812807     -0.02902490
      1.52028508     -0.13304416
      0.42235184     -0.27251362
      0.14017478     -0.14914607
p              4   1.000000
      0.64737396      0.05713170
      0.16785440      0.28574555
      0.05917387      0.55178731
      0.02355814      0.26323150
 
          57   0
s              4   1.000000
      8.30862244      0.05675242
      1.52037554      0.26014135
      0.42237697      0.53284611
      0.14018312      0.29162544
s              7   1.000000
      0.92936822     -0.06732884
      0.05643440      0.66945955
      0.02166600      0.51461783
      8.30862244     -0.02902358
      1.52037554     -0.13303809
      0.42237697     -0.27250120
      0.14018312     -0.14913927
p              4   1.000000
      0.64737396      0.05713170
      0.16785440      0.28574555
      0.05917387      0.55178731
      0.02355814      0.26323150
 
          58   0
s              4   1.000000
      8.30840990      0.05675242
      1.52033665      0.26014135
      0.42236617      0.53284611
      0.14017953      0.29162544
s              7   1.000000
      0.92936822     -0.06732912
      0.05643440      0.66946227
      0.02166600      0.51461994
      8.30840990     -0.02902415
      1.52033665     -0.13304070
      0.42236617     -0.27250654
      0.14017953     -0.14914219
p              4   1.000000
      0.64737396      0.05713170
      0.16785440      0.28574555
      0.05917387      0.55178731
      0.02355814      0.26323150
 
          59   0
s              4   1.000000
      8.30824120      0.05675242
      1.52030578      0.26014135
      0.42235759      0.53284611
      0.14017669      0.29162544
s              7   1.000000
      0.92936822     -0.06732933
      0.05643440      0.66946444
      0.02166600      0.51462158
      8.30824120     -0.02902460
      1.52030578     -0.13304277
      0.42235759     -0.27251078
      0.14017669     -0.14914451
p              4   1.000000
      0.64737396      0.05713170
      0.16785440      0.28574555
      0.05917387      0.55178731
      0.02355814      0.26323150
 
          60   0
s              4   1.000000
      8.30819152      0.05675242
      1.52029669      0.26014135
      0.42235507      0.53284611
      0.14017585      0.29162544
s              7   1.000000
      0.92936822     -0.06732940
      0.05643440      0.66946507
      0.02166600      0.51462207
      8.30819152     -0.02902473
      1.52029669     -0.13304338
      0.42235507     -0.27251202
      0.14017585     -0.14914520
p              4   1.000000
      0.64737396      0.05713170
      0.16785440      0.28574555
      0.05917387      0.55178731
      0.02355814      0.26323150
 
          61   0
s              4   1.000000
      8.30823210      0.05675242
      1.52030411      0.26014135
      0.42235713      0.53284611
      0.14017653      0.29162544
s              7   1.000000
      0.92936822     -0.06732935
      0.05643440      0.66946454
      0.02166600      0.51462168
      8.30823210     -0.02902463
      1.52030411     -0.13304288
      0.42235713     -0.27251100
      0.14017653     -0.14914464
p              4   1.000000
      0.64737396      0.05713170
      0.16785440      0.28574555
      0.05917387      0.55178731
      0.02355814      0.26323150
 
          62   0
s              4   1.000000
      8.30868880      0.05675242
      1.52038768      0.26014135
      0.42238035      0.53284611
      0.14018424      0.29162544
s              7   1.000000
      0.92936822     -0.06732876
      0.05643440      0.66945870
      0.02166600      0.51461718
      8.30868880     -0.02902340
      1.52038768     -0.13303728
      0.42238035     -0.27249953
      0.14018424     -0.14913836
p              4   1.000000
      0.64737396      0.05713170
      0.16785440      0.28574555
      0.05917387      0.55178731
      0.02355814      0.26323150
 
          63   0
s              4   1.000000
      8.30866206      0.05675242
      1.52038279      0.26014135
      0.42237899      0.53284611
      0.14018379      0.29162544
s              7   1.000000
      0.92936822     -0.06732879
      0.05643440      0.66945904
      0.02166600      0.51461745
      8.30866206     -0.02902348
      1.52038279     -0.13303761
      0.42237899     -0.27250020
      0.14018379     -0.14913873
p              4   1.000000
      0.64737396      0.05713170
      0.16785440      0.28574555
      0.05917387      0.55178731
      0.02355814      0.26323150
 
          64   0
s              4   1.000000
      8.30860291      0.05675242
      1.52037197      0.26014135
      0.42237598      0.53284611
      0.14018279      0.29162544
s              7   1.000000
      0.92936822     -0.06732887
      0.05643440      0.66945981
      0.02166600      0.51461802
      8.30860291     -0.02902363
      1.52037197     -0.13303833
      0.42237598     -0.27250169
      0.14018279     -0.14913954
p              4   1.000000
      0.64737396      0.05713170
      0.16785440      0.28574555
      0.05917387      0.55178731
      0.02355814      0.26323150
 
          65   0
s              4   1.000000
      8.30827332      0.05675242
      1.52031166      0.26014135
      0.42235923      0.53284611
      0.14017723      0.29162544
s              7   1.000000
      0.92936822     -0.06732929
      0.05643440      0.66946402
      0.02166600      0.51462128
      8.30827332     -0.02902452
      1.52031166     -0.13304237
      0.42235923     -0.27250997
      0.14017723     -0.14914407
p              4   1.000000
      0.64737396      0.05713170
      0.16785440      0.28574555
      0.05917387      0.55178731
      0.02355814      0.26323150
 
          66   0
s              4   1.000000
      8.30880616      0.05675242
      1.52040916      0.26014135
      0.42238631      0.53284611
      0.14018622      0.29162544
s              7   1.000000
      0.92936822     -0.06732861
      0.05643440      0.66945720
      0.02166600      0.51461604
      8.30880616     -0.02902309
      1.52040916     -0.13303584
      0.42238631     -0.27249658
      0.14018622     -0.14913675
p              4   1.000000
      0.64737396      0.05713170
      0.16785440      0.28574555
      0.05917387      0.55178731
      0.02355814      0.26323150
 
          67   0
s              4   1.000000
      8.30836243      0.05675242
      1.52032796      0.26014135
      0.42236376      0.53284611
      0.14017873      0.29162544
s              7   1.000000
      0.92936822     -0.06732918
      0.05643440      0.66946288
      0.02166600      0.51462038
      8.30836243     -0.02902428
      1.52032796     -0.13304128
      0.42236376     -0.27250773
      0.14017873     -0.14914285
p              4   1.000000
      0.64737396      0.05713170
      0.16785440      0.28574555
      0.05917387      0.55178731
      0.02355814      0.26323150
 
          68   0
s              4   1.000000
      8.30862299      0.05675242
      1.52037564      0.26014135
      0.42237700      0.53284611
      0.14018313      0.29162544
s              7   1.000000
      0.92936822     -0.06732884
      0.05643440      0.66945954
      0.02166600      0.51461783
      8.30862299     -0.02902358
      1.52037564     -0.13303809
      0.42237700     -0.27250118
      0.14018313     -0.14913926
p              4   1.000000
      0.64737396      0.05713170
      0.16785440      0.28574555
      0.05917387      0.55178731
      0.02355814      0.26323150
 
          69   0
s              4   1.000000
      8.30886775      0.05675242
      1.52042043      0.26014135
      0.42238944      0.53284611
      0.14018726      0.29162544
s              7   1.000000
      0.92936822     -0.06732853
      0.05643440      0.66945641
      0.02166600      0.51461542
      8.30886775     -0.02902293
      1.52042043     -0.13303508
      0.42238944     -0.27249504
      0.14018726     -0.14913590
p              4   1.000000
      0.64737396      0.05713170
      0.16785440      0.28574555
      0.05917387      0.55178731
      0.02355814      0.26323150
 
          70   0
s              4   1.000000
      8.30902922      0.05675242
      1.52044998      0.26014135
      0.42239765      0.53284611
      0.14018998      0.29162544
s              7   1.000000
      0.92936822     -0.06732832
      0.05643440      0.66945435
      0.02166600      0.51461383
      8.30902922     -0.02902249
      1.52044998     -0.13303310
      0.42239765     -0.27249098
      0.14018998     -0.14913368
p              4   1.000000
      0.64737396      0.05713170
      0.16785440      0.28574555
      0.05917387      0.55178731
      0.02355814      0.26323150
 
          71   0
s              4   1.000000
      8.30896774      0.05675242
      1.52043873      0.26014135
      0.42239453      0.53284611
      0.14018895      0.29162544
s              7   1.000000
      0.92936822     -0.06732840
      0.05643440      0.66945514
      0.02166600      0.51461445
      8.30896774     -0.02902266
      1.52043873     -0.13303386
      0.42239453     -0.27249252
      0.14018895     -0.14913452
p              4   1.000000
      0.64737396      0.05713170
      0.16785440      0.28574555
      0.05917387      0.55178731
      0.02355814      0.26323150
 
          72   0
s              4   1.000000
      8.30890068      0.05675242
      1.52042646      0.26014135
      0.42239112      0.53284611
      0.14018781      0.29162544
s              7   1.000000
      0.92936822     -0.06732848
      0.05643440      0.66945599
      0.02166600      0.51461509
      8.30890068     -0.02902284
      1.52042646     -0.13303468
      0.42239112     -0.27249421
      0.14018781     -0.14913544
p              4   1.000000
      0.64737396      0.05713170
      0.16785440      0.28574555
      0.05917387      0.55178731
      0.02355814      0.26323150
 
          73   0
s              4   1.000000
      8.30889749      0.05675242
      1.52042587      0.26014135
      0.42239096      0.53284611
      0.14018776      0.29162544
s              7   1.000000
      0.92936822     -0.06732849
      0.05643440      0.66945604
      0.02166600      0.51461514
      8.30889749     -0.02902285
      1.52042587     -0.13303472
      0.42239096     -0.27249429
      0.14018776     -0.14913549
p              4   1.000000
      0.64737396      0.05713170
      0.16785440      0.28574555
      0.05917387      0.55178731
      0.02355814      0.26323150
 
          74   0
s              4   1.000000
      8.30913361      0.05675242
      1.52046908      0.26014135
      0.42240296      0.53284611
      0.14019175      0.29162544
s              7   1.000000
      0.92936822     -0.06732818
      0.05643440      0.66945301
      0.02166600      0.51461281
      8.30913361     -0.02902221
      1.52046908     -0.13303182
      0.42240296     -0.27248836
      0.14019175     -0.14913225
p              4   1.000000
      0.64737396      0.05713170
      0.16785440      0.28574555
      0.05917387      0.55178731
      0.02355814      0.26323150
 
          75   0
s              4   1.000000
      8.31738503      0.05675242
      1.52197899      0.26014135
      0.42282243      0.53284611
      0.14033096      0.29162544
s              7   1.000000
      0.92936822     -0.06731758
      0.05643440      0.66934758
      0.02166600      0.51453176
      8.31738503     -0.02900016
      1.52197899     -0.13293073
      0.42282243     -0.27228128
      0.14033096     -0.14901892
p              4   1.000000
      0.64737396      0.05713170
      0.16785440      0.28574555
      0.05917387      0.55178731
      0.02355814      0.26323150
 
          76   0
s              4   1.000000
      8.31730573      0.05675242
      1.52196448      0.26014135
      0.42281840      0.53284611
      0.14032963      0.29162544
s              7   1.000000
      0.92936822     -0.06731768
      0.05643440      0.66934860
      0.02166600      0.51453253
      8.31730573     -0.02900037
      1.52196448     -0.13293170
      0.42281840     -0.27228327
      0.14032963     -0.14902000
p              4   1.000000
      0.64737396      0.05713170
      0.16785440      0.28574555
      0.05917387      0.55178731
      0.02355814      0.26323150
 
          77   0
s              4   1.000000
      8.30926403      0.05675242
      1.52049294      0.26014135
      0.42240959      0.53284611
      0.14019394      0.29162544
s              7   1.000000
      0.92936822     -0.06732802
      0.05643440      0.66945135
      0.02166600      0.51461151
      8.30926403     -0.02902186
      1.52049294     -0.13303022
      0.42240959     -0.27248508
      0.14019394     -0.14913046
p              4   1.000000
      0.64737396      0.05713170
      0.16785440      0.28574555
      0.05917387      0.55178731
      0.02355814      0.26323150
 
          78   0
s              4   1.000000
      8.30918436      0.05675242
      1.52047836      0.26014135
      0.42240554      0.53284611
      0.14019260      0.29162544
s              7   1.000000
      0.92936822     -0.06732812
      0.05643440      0.66945237
      0.02166600      0.51461231
      8.30918436     -0.02902208
      1.52047836     -0.13303120
      0.42240554     -0.27248708
      0.14019260     -0.14913155
p              4   1.000000
      0.64737396      0.05713170
      0.16785440      0.28574555
      0.05917387      0.55178731
      0.02355814      0.26323150
 
          79   0
s              4   1.000000
      8.31108917      0.05675242
      1.52082692      0.26014135
      0.42250237      0.53284611
      0.14022474      0.29162544
s              7   1.000000
      0.92936822     -0.06732567
      0.05643440      0.66942801
      0.02166600      0.51459358
      8.31108917     -0.02901698
      1.52082692     -0.13300785
      0.42250237     -0.27243925
      0.14022474     -0.14910537
p              4   1.000000
      0.64737396      0.05713170
      0.16785440      0.28574555
      0.05917387      0.55178731
      0.02355814      0.26323150
 
          80   0
s              4   1.000000
      8.30910507      0.05675242
      1.52046386      0.26014135
      0.42240151      0.53284611
      0.14019126      0.29162544
s              7   1.000000
      0.92936822     -0.06732822
      0.05643440      0.66945338
      0.02166600      0.51461308
      8.30910507     -0.02902229
      1.52046386     -0.13303217
      0.42240151     -0.27248907
      0.14019126     -0.14913264
p              4   1.000000
      0.64737396      0.05713170
      0.16785440      0.28574555
      0.05917387      0.55178731
      0.02355814      0.26323150
 
          81   0
s              4   1.000000
      8.30907924      0.05675242
      1.52045913      0.26014135
      0.42240019      0.53284611
      0.14019083      0.29162544
s              7   1.000000
      0.92936822     -0.06732825
      0.05643440      0.66945371
      0.02166600      0.51461335
      8.30907924     -0.02902236
      1.52045913     -0.13303249
      0.42240019     -0.27248972
      0.14019083     -0.14913299
p              4   1.000000
      0.64737396      0.05713170
      0.16785440      0.28574555
      0.05917387      0.55178731
      0.02355814      0.26323150
 
          82   0
s              4   1.000000
      8.30914257      0.05675242
      1.52047072      0.26014135
      0.42240342      0.53284611
      0.14019190      0.29162544
s              7   1.000000
      0.92936822     -0.06732817
      0.05643440      0.66945290
      0.02166600      0.51461273
      8.30914257     -0.02902219
      1.52047072     -0.13303171
      0.42240342     -0.27248813
      0.14019190     -0.14913212
p              4   1.000000
      0.64737396      0.05713170
      0.16785440      0.28574555
      0.05917387      0.55178731
      0.02355814      0.26323150
 
          83   0
s              4   1.000000
      8.30921055      0.05675242
      1.52048316      0.26014135
      0.42240687      0.53284611
      0.14019304      0.29162544
s              7   1.000000
      0.92936822     -0.06732809
      0.05643440      0.66945203
      0.02166600      0.51461206
      8.30921055     -0.02902201
      1.52048316     -0.13303088
      0.42240687     -0.27248643
      0.14019304     -0.14913119
p              4   1.000000
      0.64737396      0.05713170
      0.16785440      0.28574555
      0.05917387      0.55178731
      0.02355814      0.26323150
 
          84   0
s              4   1.000000
      8.30873527      0.05675242
      1.52039619      0.26014135
      0.42238271      0.53284611
      0.14018502      0.29162544
s              7   1.000000
      0.92936822     -0.06732870
      0.05643440      0.66945811
      0.02166600      0.51461673
      8.30873527     -0.02902328
      1.52039619     -0.13303671
      0.42238271     -0.27249836
      0.14018502     -0.14913772
p              4   1.000000
      0.64737396      0.05713170
      0.16785440      0.28574555
      0.05917387      0.55178731
      0.02355814      0.26323150
 
          85   0
s              4   1.000000
      8.30814690      0.05675242
      1.52028852      0.26014135
      0.42235280      0.53284611
      0.14017510      0.29162544
s              7   1.000000
      0.92936822     -0.06732946
      0.05643440      0.66946563
      0.02166600      0.51462252
      8.30814690     -0.02902485
      1.52028852     -0.13304392
      0.42235280     -0.27251314
      0.14017510     -0.14914581
p              4   1.000000
      0.64737396      0.05713170
      0.16785440      0.28574555
      0.05917387      0.55178731
      0.02355814      0.26323150
 
          86   0
s              4   1.000000
      8.30813767      0.05675242
      1.52028683      0.26014135
      0.42235233      0.53284611
      0.14017494      0.29162544
s              7   1.000000
      0.92936822     -0.06732947
      0.05643440      0.66946576
      0.02166600      0.51462260
      8.30813767     -0.02902488
      1.52028683     -0.13304404
      0.42235233     -0.27251338
      0.14017494     -0.14914594
p              4   1.000000
      0.64737396      0.05713170
      0.16785440      0.28574555
      0.05917387      0.55178731
      0.02355814      0.26323150
 
          87   0
s              4   1.000000
      8.30868997      0.05675242
      1.52038790      0.26014135
      0.42238041      0.53284611
      0.14018426      0.29162544
s              7   1.000000
      0.92936822     -0.06732876
      0.05643440      0.66945869
      0.02166600      0.51461718
      8.30868997     -0.02902340
      1.52038790     -0.13303726
      0.42238041     -0.27249950
      0.14018426     -0.14913834
p              4   1.000000
      0.64737396      0.05713170
      0.16785440      0.28574555
      0.05917387      0.55178731
      0.02355814      0.26323150
 
          88   0
s              4   1.000000
      8.30903366      0.05675242
      1.52045079      0.26014135
      0.42239788      0.53284611
      0.14019006      0.29162544
s              7   1.000000
      0.92936822     -0.06732831
      0.05643440      0.66945429
      0.02166600      0.51461380
      8.30903366     -0.02902248
      1.52045079     -0.13303305
      0.42239788     -0.27249087
      0.14019006     -0.14913362
p              4   1.000000
      0.64737396      0.05713170
      0.16785440      0.28574555
      0.05917387      0.55178731
      0.02355814      0.26323150
 
          89   0
s              4   1.000000
      8.30803321      0.05675242
      1.52026772      0.26014135
      0.42234702      0.53284611
      0.14017318      0.29162544
s              7   1.000000
      0.92936822     -0.06732960
      0.05643440      0.66946709
      0.02166600      0.51462364
      8.30803321     -0.02902516
      1.52026772     -0.13304532
      0.42234702     -0.27251600
      0.14017318     -0.14914737
p              4   1.000000
      0.64737396      0.05713170
      0.16785440      0.28574555
      0.05917387      0.55178731
      0.02355814      0.26323150
 
          90   0
s              4   1.000000
      8.30818506      0.05675242
      1.52029551      0.26014135
      0.42235474      0.53284611
      0.14017574      0.29162544
s              7   1.000000
      0.92936822     -0.06732941
      0.05643440      0.66946515
      0.02166600      0.51462215
      8.30818506     -0.02902475
      1.52029551     -0.13304346
      0.42235474     -0.27251219
      0.14017574     -0.14914529
p              4   1.000000
      0.64737396      0.05713170
      0.16785440      0.28574555
      0.05917387      0.55178731
      0.02355814      0.26323150
 
          91   0
s              4   1.000000
      8.31048380      0.05675242
      1.52071615      0.26014135
      0.42247160      0.53284611
      0.14021453      0.29162544
s              7   1.000000
      0.92936822     -0.06732645
      0.05643440      0.66943574
      0.02166600      0.51459954
      8.31048380     -0.02901860
      1.52071615     -0.13301527
      0.42247160     -0.27245445
      0.14021453     -0.14911369
p              4   1.000000
      0.64737396      0.05713170
      0.16785440      0.28574555
      0.05917387      0.55178731
      0.02355814      0.26323150
 
          92   0
s              4   1.000000
      8.30809250      0.05675242
      1.52027857      0.26014135
      0.42235003      0.53284611
      0.14017418      0.29162544
s              7   1.000000
      0.92936822     -0.06732952
      0.05643440      0.66946634
      0.02166600      0.51462304
      8.30809250     -0.02902500
      1.52027857     -0.13304459
      0.42235003     -0.27251451
      0.14017418     -0.14914656
p              4   1.000000
      0.64737396      0.05713170
      0.16785440      0.28574555
      0.05917387      0.55178731
      0.02355814      0.26323150
 
          93   0
s              4   1.000000
      8.30910820      0.05675242
      1.52046443      0.26014135
      0.42240167      0.53284611
      0.14019132      0.29162544
s              7   1.000000
      0.92936822     -0.06732822
      0.05643440      0.66945333
      0.02166600      0.51461305
      8.30910820     -0.02902228
      1.52046443     -0.13303214
      0.42240167     -0.27248900
      0.14019132     -0.14913260
p              4   1.000000
      0.64737396      0.05713170
      0.16785440      0.28574555
      0.05917387      0.55178731
      0.02355814      0.26323150
 
          94   0
s              4   1.000000
      8.30828308      0.05675242
      1.52031344      0.26014135
      0.42235972      0.53284611
      0.14017740      0.29162544
s              7   1.000000
      0.92936822     -0.06732928
      0.05643440      0.66946389
      0.02166600      0.51462118
      8.30828308     -0.02902449
      1.52031344     -0.13304225
      0.42235972     -0.27250972
      0.14017740     -0.14914394
p              4   1.000000
      0.64737396      0.05713170
      0.16785440      0.28574555
      0.05917387      0.55178731
      0.02355814      0.26323150
 
          95   0
s              4   1.000000
      8.30881952      0.05675242
      1.52041160      0.26014135
      0.42238699      0.53284611
      0.14018645      0.29162544
s              7   1.000000
      0.92936822     -0.06732859
      0.05643440      0.66945703
      0.02166600      0.51461589
      8.30881952     -0.02902305
      1.52041160     -0.13303568
      0.42238699     -0.27249625
      0.14018645     -0.14913656
p              4   1.000000
      0.64737396      0.05713170
      0.16785440      0.28574555
      0.05917387      0.55178731
      0.02355814      0.26323150
 
          96   0
s              4   1.000000
      8.30805333      0.05675242
      1.52027140      0.26014135
      0.42234804      0.53284611
      0.14017352      0.29162544
s              7   1.000000
      0.92936822     -0.06732958
      0.05643440      0.66946683
      0.02166600      0.51462344
      8.30805333     -0.02902510
      1.52027140     -0.13304507
      0.42234804     -0.27251549
      0.14017352     -0.14914710
p              4   1.000000
      0.64737396      0.05713170
      0.16785440      0.28574555
      0.05917387      0.55178731
      0.02355814      0.26323150
 
          97   0
s              4   1.000000
      8.30799885      0.05675242
      1.52026143      0.26014135
      0.42234527      0.53284611
      0.14017260      0.29162544
s              7   1.000000
      0.92936822     -0.06732964
      0.05643440      0.66946754
      0.02166600      0.51462396
      8.30799885     -0.02902525
      1.52026143     -0.13304574
      0.42234527     -0.27251686
      0.14017260     -0.14914785
p              4   1.000000
      0.64737396      0.05713170
      0.16785440      0.28574555
      0.05917387      0.55178731
      0.02355814      0.26323150
 
          98   0
s              4   1.000000
      8.30613175      0.05675242
      1.51991977      0.26014135
      0.42225036      0.53284611
      0.14014110      0.29162544
s              7   1.000000
      0.92936822     -0.06733205
      0.05643440      0.66949143
      0.02166600      0.51464235
      8.30613175     -0.02903025
      1.51991977     -0.13306865
      0.42225036     -0.27256378
      0.14014110     -0.14917353
p              4   1.000000
      0.64737396      0.05713170
      0.16785440      0.28574555
      0.05917387      0.55178731
      0.02355814      0.26323150
 
          99   0
s              4   1.000000
      8.30649133      0.05675242
      1.51998557      0.26014135
      0.42226864      0.53284611
      0.14014716      0.29162544
s              7   1.000000
      0.92936822     -0.06733159
      0.05643440      0.66948683
      0.02166600      0.51463880
      8.30649133     -0.02902928
      1.51998557     -0.13306423
      0.42226864     -0.27255474
      0.14014716     -0.14916858
p              4   1.000000
      0.64737396      0.05713170
      0.16785440      0.28574555
      0.05917387      0.55178731
      0.02355814      0.26323150
 
         100   0
s              4   1.000000
      8.30565072      0.05675242
      1.51983175      0.26014135
      0.42222590      0.53284611
      0.14013298      0.29162544
s              7   1.000000
      0.92936822     -0.06733267
      0.05643440      0.66949759
      0.02166600      0.51464707
      8.30565072     -0.02903153
      1.51983175     -0.13307455
      0.42222590     -0.27257587
      0.14013298     -0.14918014
p              4   1.000000
      0.64737396      0.05713170
      0.16785440      0.28574555
      0.05917387      0.55178731
      0.02355814      0.26323150
 
         101   0
s              4   1.000000
      8.30473957      0.05675242
      1.51966502      0.26014135
      0.42217958      0.53284611
      0.14011761      0.29162544
s              7   1.000000
      0.92936822     -0.06733384
      0.05643440      0.66950926
      0.02166600      0.51465604
      8.30473957     -0.02903397
      1.51966502     -0.13308573
      0.42217958     -0.27259877
      0.14011761     -0.14919268
p              4   1.000000
      0.64737396      0.05713170
      0.16785440      0.28574555
      0.05917387      0.55178731
      0.02355814      0.26323150
 
         102   0
s              4   1.000000
      8.30457332      0.05675242
      1.51963460      0.26014135
      0.42217113      0.53284611
      0.14011480      0.29162543
s              7   1.000000
      0.92936822     -0.06733406
      0.05643440      0.66951139
      0.02166600      0.51465768
      8.30457332     -0.02903442
      1.51963460     -0.13308777
      0.42217113     -0.27260295
      0.14011480     -0.14919496
p              4   1.000000
      0.64737396      0.05713170
      0.16785440      0.28574555
      0.05917387      0.55178731
      0.02355814      0.26323150
 
         103   0
s              4   1.000000
      8.30455855      0.05675242
      1.51963190      0.26014135
      0.42217038      0.53284611
      0.14011455      0.29162544
s              7   1.000000
      0.92936822     -0.06733408
      0.05643440      0.66951157
      0.02166600      0.51465783
      8.30455855     -0.02903446
      1.51963190     -0.13308795
      0.42217038     -0.27260332
      0.14011455     -0.14919517
p              4   1.000000
      0.64737396      0.05713170
      0.16785440      0.28574555
      0.05917387      0.55178731
      0.02355814      0.26323150
 
         104   0
s              4   1.000000
      8.31140249      0.05675242
      1.52088426      0.26014135
      0.42251830      0.53284611
      0.14023003      0.29162544
s              7   1.000000
      0.92936822     -0.06732527
      0.05643440      0.66942400
      0.02166600      0.51459049
      8.31140249     -0.02901615
      1.52088426     -0.13300401
      0.42251830     -0.27243138
      0.14023003     -0.14910106
p              4   1.000000
      0.64737396      0.05713170
      0.16785440      0.28574555
      0.05917387      0.55178731
      0.02355814      0.26323150
 
         105   0
s              4   1.000000
      8.30951594      0.05675242
      1.52053904      0.26014135
      0.42242240      0.53284611
      0.14019820      0.29162544
s              7   1.000000
      0.92936822     -0.06732769
      0.05643440      0.66944812
      0.02166600      0.51460905
      8.30951594     -0.02902119
      1.52053904     -0.13302714
      0.42242240     -0.27247875
      0.14019820     -0.14912699
p              4   1.000000
      0.64737396      0.05713170
      0.16785440      0.28574555
      0.05917387      0.55178731
      0.02355814      0.26323150
 
 [MO]
 Sym= Hole
 Ene= -0.7645461    
 Spin= Alpha
 Occup= 0
           1 -2.6465539E-04
           2 -9.9794904E-04
           3 -6.9009729E-05
           4 -6.2709168E-04
           5 -3.5813113E-04
           6  5.5425667E-04
           7  2.9520728E-04
           8  2.4768387E-05
           9  2.6958392E-03
          10  6.0883695E-03
          11 -9.3143649E-04
          12 -3.5287775E-03
          13 -2.4647960E-03
          14 -1.1980052E-03
          15  4.4460408E-04
          16  5.5615478E-06
          17 -4.7870332E-04
          18 -4.1334314E-04
          19  1.1798438E-03
          20  5.6688330E-04
          21 -9.7669319E-05
          22  2.0673130E-04
          23 -3.3338688E-04
          24 -5.2479288E-04
          25 -4.0886304E-04
          26 -1.2852078E-04
          27  1.5671297E-04
          28  5.6037493E-04
          29 -9.9671102E-05
          30 -1.2007402E-04
          31 -1.7205086E-04
          32  1.1225820E-06
          33  6.7767978E-04
          34  6.1070205E-05
          35  4.9634790E-04
          36 -2.5813229E-04
          37 -2.7899074E-04
          38 -2.9279079E-04
          39  6.0536331E-05
          40  6.0121436E-04
          41 -4.6655899E-04
          42 -1.1880026E-03
          43 -3.5035625E-04
          44 -1.6177160E-04
          45  5.7021150E-04
          46 -2.2072680E-04
          47  2.6095950E-04
          48  6.0723146E-04
          49  4.3562538E-04
          50  3.7753663E-03
          51  9.4522219E-03
          52  1.0856166E-02
          53  5.1779102E-04
          54 -1.9756833E-03
          55 -9.3096343E-04
          56  8.3963510E-05
          57  1.1112657E-03
          58 -2.2349160E-03
          59 -1.1100335E-03
          60 -4.1142507E-03
          61 -3.4979839E-04
          62  9.9370198E-04
          63  5.2373315E-04
          64  2.6270011E-03
          65  9.9914789E-04
          66  1.1848776E-02
          67  4.2249495E-03
          68  3.7316885E-02
          69 -5.4568110E-04
          70 -1.4563669E-03
          71  3.5489773E-04
          72 -3.4909609E-03
          73 -2.1285607E-04
          74  1.6614525E-03
          75  8.8503625E-04
          76  4.6246666E-03
          77  2.0636922E-05
          78  3.7007414E-06
          79 -9.1707341E-05
          80  4.2225909E-04
          81  1.2490660E-04
          82 -5.1565212E-03
          83 -2.6190772E-03
          84 -1.9432491E-02
          85 -2.5250789E-04
          86  4.1943381E-04
          87  5.2051712E-04
          88  1.5410309E-03
          89 -6.8900910E-05
          90 -1.8839384E-03
          91 -1.1064365E-03
          92 -7.3500094E-03
          93  9.0458656E-05
          94 -2.4929000E-06
          95 -1.3515391E-05
          96  1.7052465E-04
          97 -1.2142951E-04
          98  5.0677238E-03
          99  2.0169225E-03
         100  1.9147994E-02
         101  1.5622633E-06
         102 -3.0156859E-04
         103 -1.7975729E-04
         104 -1.3109748E-03
         105  6.6400957E-05
         106  2.8426207E-03
         107  1.5182910E-03
         108  1.1044883E-02
         109  3.1715848E-05
         110 -2.5751721E-04
         111  1.8339017E-05
         112 -1.2839710E-03
         113 -5.6625227E-04
         114 -4.9873767E-03
         115 -1.9717792E-03
         116 -1.8429076E-02
         117  1.2361894E-04
         118  3.7219137E-04
         119  3.6929475E-04
         120  1.2808923E-03
         121 -1.8313891E-05
         122 -5.4081003E-03
         123 -3.0530447E-03
         124 -2.2255855E-02
         125  2.5551859E-04
         126  3.5440858E-04
         127  1.0816516E-04
         128  1.9653141E-03
         129 -1.8651615E-03
         130  8.3333775E-03
         131  7.4060149E-03
         132  3.3338185E-02
         133  9.3941687E-04
         134 -6.7731953E-04
         135 -8.9487492E-04
         136 -2.4833516E-03
         137 -3.2185166E-05
         138  3.8860869E-03
         139  3.4144176E-03
         140  3.2374483E-02
         141 -4.5030995E-04
         142 -1.0531326E-03
         143  1.1778688E-04
         144 -2.4507353E-03
         145  3.4176998E-03
         146 -4.0898467E-03
         147  1.9535997E-03
         148 -5.4493666E-02
         149 -2.6181133E-03
         150  1.0046124E-03
         151  1.0101951E-03
         152  7.3069693E-03
         153 -4.5480163E-04
         154 -7.9271640E-04
         155 -1.2135644E-03
         156  1.7319128E-02
         157 -4.1301901E-04
         158  3.5908062E-04
         159 -2.2695177E-04
         160  2.7980157E-03
         161 -3.8256220E-04
         162 -5.3991000E-03
         163 -1.9826654E-02
         164  0.1396383    
         165 -9.5078070E-04
         166  5.1669958E-03
         167  5.5324482E-03
         168 -1.8960020E-02
         169 -6.5454817E-03
         170  1.5092174E-02
         171  1.4498258E-02
         172 -7.5189166E-02
         173  5.3503653E-03
         174 -1.7168924E-03
         175 -5.7263430E-03
         176  8.4641855E-03
         177 -2.1588958E-03
         178  4.7244586E-02
         179 -6.8255044E-03
         180 -0.2775094    
         181  1.1707487E-03
         182 -8.4853517E-03
         183 -1.9476467E-03
         184  4.0637542E-02
         185  1.6621986E-03
         186 -4.9936537E-02
         187  9.3153983E-02
         188  0.3384633    
         189 -3.0545460E-04
         190  4.4620624E-03
         191 -6.4806775E-03
         192 -2.6918508E-02
         193  8.9101978E-03
         194 -1.0288816E-02
         195  4.1747589E-02
         196  0.1153032    
         197 -4.9064951E-03
         198 -1.3447651E-03
         199 -4.0619927E-03
         200 -9.9322312E-03
         201 -1.4872414E-03
         202  3.6951341E-02
         203 -7.4586622E-02
         204 -0.2814045    
         205 -4.4317922E-04
         206  6.9350906E-04
         207  1.4923221E-03
         208  1.7811174E-02
         209  3.7107659E-03
         210  2.0648906E-02
         211 -6.2578797E-02
         212 -0.2175903    
         213 -4.4001057E-03
         214  4.0590479E-03
         215  3.3984012E-03
         216  2.5019284E-02
         217 -3.6144149E-03
         218  4.3606326E-02
         219 -7.3944449E-02
         220 -0.2518522    
         221  8.6224645E-05
         222  4.3085887E-04
         223  5.2438672E-03
         224  1.5140088E-02
         225 -2.5228625E-03
         226 -4.3236546E-02
         227  9.4490670E-02
         228  0.2453943    
         229  2.1565210E-03
         230  3.7516765E-03
         231 -8.7068547E-03
         232 -1.4025590E-02
         233 -5.8488841E-03
         234  3.2990295E-02
         235 -5.8655895E-02
         236 -0.2017308    
         237  1.3561165E-05
         238 -1.1875604E-03
         239  6.7306957E-03
         240  1.0643428E-02
         241  1.6810442E-03
         242 -2.2391269E-02
         243  4.0275730E-02
         244  0.1367818    
         245 -1.0317616E-03
         246  1.7297692E-03
         247 -2.9058885E-03
         248 -1.0621141E-02
         249 -1.2730229E-04
         250 -3.4722179E-02
         251  7.8602985E-02
         252  0.2269360    
         253 -1.5858622E-04
         254  1.2245915E-03
         255 -4.5726197E-03
         256 -1.0535022E-02
         257  8.4467873E-04
         258  7.3334696E-03
         259 -2.2688588E-02
         260 -5.9163649E-02
         261 -1.3068362E-04
         262 -6.1602844E-04
         263 -9.2156243E-04
         264  6.3771242E-04
         265 -3.7823407E-05
         266  3.9922785E-02
         267 -7.7053003E-02
         268 -0.2287924    
         269 -1.4980761E-03
         270 -4.6557765E-03
         271  7.5890045E-03
         272  1.2291239E-02
         273  4.9032001E-03
         274 -2.6391449E-03
         275 -8.5510919E-03
         276  3.2847628E-03
         277 -5.6548114E-03
         278 -2.3547951E-03
         279  1.0710100E-02
         280  6.1333529E-03
         281 -2.5264408E-02
         282 -3.2147747E-02
         283  0.1520782    
         284  0.4133961    
         285  7.6656789E-03
         286  4.8134043E-03
         287 -1.3122524E-02
         288 -4.0903080E-02
         289  2.6970068E-03
         290  1.5730271E-02
         291 -8.0568658E-04
         292 -3.2071464E-02
         293 -1.6764578E-03
         294 -6.9783120E-03
         295  2.8747863E-03
         296  2.1210087E-02
         297 -4.6355538E-02
         298 -5.1277127E-02
         299  2.1014797E-02
         300  8.2628250E-02
         301  2.9247442E-02
         302  2.0843344E-02
         303  5.5705835E-03
         304 -1.3070129E-02
         305  4.6942849E-03
         306  9.7138924E-04
         307 -6.2942910E-03
         308 -1.2190398E-02
         309  2.8254616E-03
         310  8.4213298E-03
         311  5.4550041E-03
         312 -3.7871781E-03
         313 -2.7404011E-03
         314  1.1369390E-04
         315  9.6041785E-04
         316  5.7251672E-03
         317  2.6303052E-03
         318  3.1715001E-03
         319 -9.2160226E-05
         320 -1.0055923E-02
         321  3.4351619E-03
         322  4.6488448E-04
         323 -3.3976543E-03
         324 -4.6287794E-03
         325 -2.0463569E-03
         326 -1.3279358E-03
         327  8.2724943E-04
         328 -1.3348479E-04
         329 -3.9498875E-04
         330  1.1403306E-03
         331  1.4733488E-03
         332  3.3692498E-04
         333 -1.0230483E-04
         334 -1.8561062E-03
         335 -1.7367114E-05
         336  4.4090938E-04
         337  6.6308369E-04
         338  5.9074332E-04
         339 -8.4963377E-04
         340 -7.8656297E-04
         341  1.1283924E-03
         342 -6.5794634E-04
         343 -8.5173047E-04
         344 -6.5028993E-04
         345 -2.6399898E-03
         346 -9.5595251E-04
         347 -2.0800203E-03
         348  5.7350248E-03
         349  1.5552390E-03
         350  7.3544239E-04
         351 -6.4970565E-04
         352  2.2010924E-03
         353 -1.6754186E-03
         354 -5.2611879E-03
         355 -6.8586715E-03
         356  0.1069469    
         357  9.8685152E-04
         358 -9.1069458E-05
         359  1.2404332E-03
         360 -8.2169641E-03
         361 -9.2336838E-04
         362 -1.5025547E-03
         363 -2.0795385E-03
         364  3.1487629E-02
         365  7.3328492E-04
         366 -6.7941815E-05
         367 -3.1442536E-04
         368  1.4176136E-03
         369 -1.6910663E-04
         370  1.0259354E-03
         371  1.6314900E-03
         372 -2.1469304E-02
         373 -1.3051913E-04
         374  2.4362539E-04
         375 -6.9408059E-05
         376  6.7480286E-03
         377  1.8178333E-04
         378 -5.6783971E-04
         379 -2.6488435E-04
         380  3.1638958E-03
         381 -2.9241617E-04
         382  5.3942093E-04
         383  5.0709775E-04
         384 -5.0709336E-03
         385  1.2855186E-03
         386  5.2116853E-03
         387  5.3651184E-03
         388 -8.7487385E-02
         389 -1.3086386E-03
         390  4.1776296E-04
         391  7.7295816E-05
         392  1.0252168E-02
         393 -3.0213201E-03
         394  8.6451201E-03
         395  1.2504205E-02
         396  1.8565750E-02
         397  2.0941512E-03
         398 -3.3106087E-04
         399 -2.5297678E-03
         400  6.5402742E-06
         401  6.3541892E-04
         402 -5.3118910E-03
         403 -4.1155457E-03
         404 -2.5512259E-02
         405  6.6375587E-04
         406  5.4842007E-04
         407  5.2136561E-04
         408  1.6785561E-03
         409 -1.2609146E-03
         410 -6.7585218E-03
         411 -1.7546271E-03
         412 -2.6731325E-02
         413  1.1321171E-03
         414  5.9237919E-04
         415 -3.6565666E-04
         416  2.7668781E-03
         417 -6.7857222E-04
         418 -6.9384091E-04
         419 -3.2965268E-04
         420  3.8536190E-04
         421  5.9269631E-04
         422 -6.6564127E-04
         423 -1.8685250E-04
         424 -1.9130956E-04
         425  1.6405205E-04
         426  1.0335025E-04
         427  1.4818585E-03
         428 -2.8350597E-04
         429 -2.5176976E-04
         430 -6.8904701E-05
         431 -1.6721523E-04
         432 -1.7058987E-03
         433 -3.1388332E-05
         434 -6.9787545E-04
         435 -5.6231889E-04
         436  7.1611500E-04
         437 -5.4288149E-04
         438 -3.5090300E-03
         439 -5.7686423E-03
         440  3.0771652E-03
         441  2.4097492E-03
         442 -6.5570476E-04
         443  2.1766574E-04
         444  6.5560416E-05
         445  1.1608267E-04
         446 -3.1510039E-04
         447  1.5590300E-03
         448 -4.1114260E-04
         449 -2.2613895E-04
         450  2.9884704E-04
         451  2.2296127E-04
         452 -6.5255030E-05
         453 -1.0493874E-04
         454 -3.7425334E-04
         455  1.5610043E-05
         456  2.3756655E-04
         457  2.6357025E-04
         458 -1.3833038E-04
         459  1.4278656E-04
         460 -5.2027003E-04
         461  3.3584365E-04
         462 -3.9524320E-04
         463 -1.1252143E-03
         464  2.7471487E-04
         465  3.0407645E-03
         466  1.3437707E-03
         467 -9.4841751E-05
         468 -1.9468609E-04
         469  1.5754008E-04
         470 -5.3637585E-04
         471  2.2494457E-04
         472  2.5877713E-03
         473 -3.7360977E-04
         474  8.6926630E-05
         475 -5.7424069E-04
         476 -5.4682931E-04
         477 -2.8033233E-03
         478  4.6230122E-04
         479  3.3428727E-04
         480 -1.2956205E-04
         481 -4.0024650E-04
         482 -4.8609814E-04
         483  2.0992416E-03
         484 -3.7229687E-04
         485 -4.5964471E-03
         486 -2.4735755E-03
         487  8.5849478E-04
         488 -9.3901576E-04
         489 -1.5429562E-03
         490  2.6102879E-04
         491  3.2019330E-04
         492 -7.0905620E-03
         493  1.4670824E-03
         494  1.8732238E-03
         495 -9.3661615E-04
         496 -8.0003822E-04
         497 -5.2170055E-03
         498  1.0514848E-03
         499  1.4457559E-03
         500  5.3990114E-04
         501 -1.3434426E-03
         502 -1.6143094E-04
         503 -3.5563085E-04
         504 -4.6212369E-04
         505  1.2235476E-04
         506 -1.7588035E-03
         507 -9.6737371E-05
         508 -1.2142477E-04
         509 -1.6731241E-04
         510  2.8215247E-05
         511 -7.8496442E-04
         512 -5.2628870E-04
         513 -1.9191329E-04
         514  4.6469510E-04
         515  2.7960440E-04
         516  1.5652673E-03
         517 -1.0244271E-04
         518 -1.4898925E-04
         519  1.0771233E-04
         520  2.3695569E-04
         521  7.7069434E-04
         522  1.6391079E-03
         523 -1.6209997E-04
         524  6.3112786E-04
         525  1.3872459E-04
         526  2.3774731E-03
         527 -2.5681392E-03
         528  5.4205182E-05
         529 -9.3335955E-04
         530  8.5555634E-04
         531 -1.7405150E-02
         532  2.5632916E-02
         533 -6.2980112E-03
         534  1.1862113E-02
         535 -2.3354732E-03
         536 -5.2865166E-02
         537 -2.1981345E-03
         538 -1.3740964E-03
         539 -3.5383604E-03
         540  6.8423490E-04
         541  6.6494355E-03
         542 -2.0303194E-04
         543  1.3323746E-03
         544  5.3625839E-04
         545 -4.5555863E-03
         546 -1.5231698E-02
         547  1.4491469E-03
         548 -5.9111841E-04
         549 -7.0263096E-03
         550 -2.3572631E-03
         551  1.0571213E-02
         552 -2.6289118E-03
         553 -1.4699438E-05
         554 -3.5037249E-04
         555  3.3891408E-03
         556  5.4492559E-03
         557  1.8430637E-03
         558 -2.3850787E-04
         559 -2.0464768E-03
         560  5.2172840E-03
         561  1.3010884E-02
         562  5.8658671E-04
         563  3.5769460E-04
         564  8.2008907E-04
         565 -2.8998789E-03
         566 -5.3127795E-03
         567 -3.0359356E-03
         568  1.0216081E-03
         569  2.0394900E-03
         570 -7.1051358E-03
         571 -1.5796609E-02
         572  4.1785225E-02
         573 -1.2091205E-02
         574 -5.9496821E-03
         575 -1.4056122E-02
         576  2.4775877E-03
         577  7.6342106E-02
         578 -2.1109819E-02
         579 -2.3817651E-02
         580 -8.2739573E-03
         581 -4.4272039E-03
         582  3.1049889E-02
         583 -1.0745174E-03
         584 -1.1923520E-02
         585 -4.4969576E-03
         586  4.6174414E-03
         587  8.7259151E-03
         588  6.3727153E-03
         589  4.6320306E-03
         590  7.8572752E-03
         591 -2.0066281E-03
         592  1.4735537E-02
         593 -2.8630763E-03
         594  1.2991640E-03
         595  1.0352237E-03
         596 -2.0062178E-03
         597 -1.9065328E-02
         598  3.7757135E-03
         599 -1.3920654E-03
         600 -1.3530792E-03
         601  4.2246594E-03
         602  4.0801871E-03
         603  6.7656067E-05
         604  9.1300206E-04
         605  1.9145190E-03
         606  3.2557922E-03
         607 -6.5873349E-03
         608  5.2572251E-03
         609 -6.4087771E-03
         610 -1.1894001E-02
         611 -2.0014873E-02
         612 -3.6959753E-03
         613  5.2174373E-04
         614 -6.2539964E-04
         615  8.5583865E-04
         616  1.3051306E-04
         617  1.1035564E-03
         618  6.3372002E-04
         619  2.9147717E-03
         620  8.0539897E-04
         621  3.7769075E-03
         622  1.3183296E-03
         623 -3.5476926E-04
         624 -1.7961327E-03
         625  1.0837206E-04
         626 -9.0491441E-05
         627 -8.9041312E-04
         628  3.6008703E-04
         629  2.3751615E-03
         630 -5.8641925E-04
         631  2.8971692E-03
         632 -3.7792910E-04
         633  5.8517250E-04
         634 -4.1210139E-04
         635 -8.6821232E-04
         636 -4.4674688E-04
         637 -1.1611496E-03
         638  5.9374591E-04
         639  1.8072115E-04
         640 -1.0399786E-04
         641 -1.0376697E-03
         642  1.5481474E-03
         643  3.8765313E-05
         644 -7.4705377E-04
         645 -2.5461586E-03
         646  5.4112333E-04
         647  1.7634113E-05
         648  8.9173473E-04
         649  4.2216486E-04
         650  7.6735984E-03
         651  3.8294017E-04
         652  2.7061102E-03
         653  1.1343891E-03
         654  1.9868410E-03
         655 -1.9164688E-03
         656 -1.5766607E-03
         657 -7.5584088E-05
         658 -3.2307123E-04
         659  3.1614618E-04
         660 -6.1740634E-06
         661 -8.7198411E-04
         662  5.4087560E-03
         663 -2.7434875E-03
         664  6.7324415E-03
         665  8.0926140E-04
         666 -9.8034239E-04
         667 -5.7000075E-03
         668  2.1448995E-03
         669 -6.2001762E-03
         670 -4.8167590E-04
         671 -1.9742337E-03
         672  1.5747390E-04
         673  1.5365036E-03
         674  3.7618135E-03
         675 -8.6201159E-03
         676  4.6672882E-03
         677  2.5804015E-03
         678 -6.5030972E-04
         679  2.4866336E-04
         680  5.1790616E-04
         681 -2.2819100E-03
 Sym= Particle
 Ene= -0.7645461    
 Spin= Alpha
 Occup= 2
           1  3.5557212E-05
           2 -2.3446254E-04
           3  8.2171249E-04
           4 -9.4275415E-04
           5 -3.8544484E-04
           6  5.4754433E-04
           7  1.7244255E-03
           8 -1.9635378E-04
           9  4.5800561E-04
          10  7.6514634E-04
          11  4.3125392E-04
          12 -6.6618057E-04
          13 -9.3255047E-04
          14  1.1393365E-04
          15  1.7804890E-03
          16 -4.5656969E-04
          17  5.3720007E-04
          18 -3.3434381E-04
          19  1.2926485E-04
          20 -1.4439201E-03
          21 -1.4214449E-03
          22  8.6923479E-04
          23  1.2326037E-03
          24 -1.3897151E-03
          25  1.3393935E-04
          26  2.3691240E-05
          27 -4.2516782E-05
          28 -4.8941741E-04
          29 -4.1071229E-04
          30 -3.6029360E-04
          31  5.1606883E-04
          32 -1.2048796E-03
          33  9.7640778E-04
          34  5.8187800E-04
          35 -1.9828060E-03
          36 -2.1549037E-03
          37 -1.6199863E-03
          38 -1.1285559E-03
          39  1.1527127E-03
          40  5.2162784E-05
          41  1.2057452E-03
          42  3.4774025E-04
          43 -6.1937270E-04
          44 -1.8311649E-03
          45 -2.4714244E-03
          46 -1.4240586E-03
          47  1.0066779E-03
          48 -2.2542183E-04
          49 -1.1959850E-03
          50 -1.8472623E-04
          51  2.7320290E-03
          52  1.7541881E-03
          53  8.4641355E-04
          54 -1.6632128E-03
          55 -5.6668249E-04
          56 -1.3385857E-03
          57 -4.7328758E-05
          58 -1.1470263E-03
          59  1.9400870E-05
          60 -5.8046926E-04
          61  1.2147167E-03
          62 -1.7179261E-03
          63  4.2757145E-04
          64 -2.8501262E-04
          65  8.5684948E-04
          66  1.9129133E-03
          67  3.5627363E-05
          68  4.7722333E-03
          69 -1.4214150E-03
          70 -8.7614165E-04
          71  2.9241892E-03
          72  1.1303866E-04
          73 -4.0230225E-04
          74 -2.7573449E-03
          75 -1.0472498E-03
          76 -1.0598262E-02
          77 -1.2094253E-05
          78  7.4931153E-04
          79  1.4267873E-03
          80  4.0127905E-03
          81 -2.6881064E-05
          82 -1.7798204E-03
          83 -1.3858817E-03
          84 -7.9311933E-03
          85 -1.1559921E-04
          86 -3.0931947E-04
          87  9.3584601E-04
          88  9.7819336E-04
          89 -6.2112551E-05
          90  3.9785164E-03
          91  1.8795585E-03
          92  1.4028872E-02
          93 -1.6903154E-04
          94 -8.5824367E-04
          95 -9.3165698E-05
          96 -3.1822624E-03
          97 -2.4563649E-05
          98 -1.1582475E-04
          99 -2.7548277E-04
         100 -9.2636904E-04
         101 -2.2099496E-04
         102 -6.3087515E-05
         103  4.4996309E-04
         104 -1.0120979E-04
         105 -1.2243996E-04
         106 -4.0906556E-03
         107 -1.7329889E-03
         108 -1.4117161E-02
         109 -3.4011918E-04
         110  1.1891405E-03
         111  9.4188622E-04
         112  2.9632377E-03
         113  4.5125711E-05
         114  3.8019964E-03
         115  1.1513985E-03
         116  1.2289516E-02
         117 -5.5772159E-04
         118 -3.6010155E-04
         119  7.6695881E-04
         120 -2.6047023E-03
         121 -9.1042242E-04
         122  4.9000992E-03
         123  3.0656967E-03
         124  1.8478001E-02
         125  3.1648041E-04
         126  1.7519708E-04
         127  1.2602282E-04
         128 -4.9805488E-03
         129 -6.7377189E-04
         130 -7.8811161E-03
         131 -3.5535111E-03
         132 -3.0089894E-02
         133  1.0552537E-04
         134  3.6923315E-03
         135  1.1502666E-03
         136  8.6494721E-03
         137 -3.2253788E-04
         138 -9.9196572E-05
         139  1.1625718E-03
         140  8.4323892E-03
         141  1.1206096E-04
         142  2.9827901E-03
         143  1.1129439E-03
         144 -1.8232152E-03
         145  1.5026501E-03
         146 -9.3797734E-04
         147  3.1488619E-04
         148  3.2763591E-03
         149 -1.9786961E-03
         150  2.8560942E-03
         151  7.0913148E-04
         152 -2.0014297E-03
         153  2.1298507E-03
         154 -1.9907914E-03
         155 -2.4380402E-03
         156 -1.1930298E-02
         157 -1.8854272E-03
         158  3.5785746E-03
         159  6.1126711E-04
         160  3.5276478E-03
         161 -7.8720264E-03
         162  8.9332601E-03
         163 -2.0692667E-03
         164 -9.9349199E-03
         165  6.1007407E-03
         166 -3.9537442E-03
         167 -4.5836088E-03
         168 -7.0585601E-04
         169  2.7695217E-03
         170 -3.5805744E-03
         171 -2.0948634E-03
         172  1.3630593E-02
         173 -5.3762081E-03
         174  2.2162092E-03
         175  6.8228587E-04
         176  2.9778397E-03
         177 -1.1669133E-03
         178 -1.6407343E-03
         179  2.7465732E-03
         180  9.6188458E-03
         181 -1.0822034E-03
         182  1.1919915E-03
         183 -3.0016550E-03
         184 -2.9304347E-03
         185  4.8666151E-04
         186  4.5060855E-03
         187 -7.5741159E-03
         188 -2.0739507E-02
         189 -4.3062288E-03
         190 -2.8451975E-03
         191  9.2537323E-04
         192  9.9176755E-03
         193  1.2453006E-03
         194  5.8845676E-02
         195 -0.1084412    
         196 -0.3877697    
         197 -3.3723903E-03
         198 -1.3560338E-02
         199  2.9902047E-02
         200  0.1053094    
         201  1.6150605E-04
         202 -5.0577585E-02
         203  9.5914170E-02
         204  0.3510509    
         205 -2.8599866E-03
         206  1.6172355E-02
         207 -2.3723874E-02
         208 -0.1007923    
         209 -1.0724346E-03
         210 -9.3025584E-03
         211  2.8222999E-02
         212  9.3966752E-02
         213 -2.2204944E-03
         214  2.8402521E-03
         215 -8.7635918E-03
         216 -4.1213468E-02
         217  2.1591657E-03
         218  4.4111721E-02
         219 -0.1010828    
         220 -0.3176676    
         221 -4.6020648E-03
         222 -1.4757251E-02
         223  2.7147001E-02
         224  8.7974042E-02
         225  7.2571181E-04
         226 -5.5473238E-02
         227  0.1236257    
         228  0.3908123    
         229 -5.6118602E-03
         230  1.1502851E-02
         231 -3.7711546E-02
         232 -0.1086569    
         233  1.0590827E-03
         234  3.4023043E-02
         235 -7.8925543E-02
         236 -0.2387402    
         237 -2.5800238E-03
         238 -9.3317050E-03
         239  1.6025061E-02
         240  5.2784070E-02
         241 -9.6159689E-05
         242 -4.7178347E-02
         243  9.8878093E-02
         244  0.2979820    
         245 -1.8457415E-03
         246  1.0538143E-02
         247 -2.6249947E-02
         248 -7.6209851E-02
         249 -2.2506336E-04
         250 -7.0062262E-04
         251 -5.5681309E-04
         252 -2.2011243E-03
         253  1.6880968E-04
         254 -1.5904371E-03
         255  8.8102487E-04
         256  4.4065095E-03
         257 -2.8424998E-04
         258  4.6967063E-02
         259 -9.9936031E-02
         260 -0.2975675    
         261  4.0912684E-05
         262 -1.2025602E-02
         263  2.5803782E-02
         264  7.3071890E-02
         265  8.3988736E-04
         266 -3.5728697E-02
         267  7.2805285E-02
         268  0.2152785    
         269 -1.1359177E-03
         270  1.0298100E-02
         271 -1.5806144E-02
         272 -4.8015121E-02
         273 -1.3726087E-03
         274 -2.3802046E-02
         275  5.5058766E-02
         276  0.1601574    
         277 -5.2851700E-04
         278  1.1155844E-02
         279 -2.3021463E-02
         280 -6.2766716E-02
         281  1.1192688E-02
         282  1.0464180E-02
         283 -4.9603254E-02
         284 -0.1349995    
         285 -7.5589223E-03
         286 -3.3833256E-03
         287  1.6542356E-02
         288  4.2444389E-02
         289  6.0364080E-04
         290 -1.1440744E-02
         291 -1.1165358E-02
         292 -8.0235088E-03
         293 -3.3747195E-03
         294  6.2301075E-03
         295  6.0367514E-03
         296  1.9410605E-03
         297  1.3534629E-02
         298  1.3997645E-02
         299 -1.2580588E-02
         300 -2.1895722E-02
         301 -9.5282830E-03
         302 -8.6210333E-03
         303  3.9919042E-03
         304  5.9089260E-03
         305 -5.2816416E-03
         306 -7.6117055E-03
         307  6.0969130E-03
         308  2.9985926E-03
         309  5.2954918E-03
         310  4.2608785E-03
         311 -6.0204682E-03
         312 -1.1779148E-03
         313  4.0707192E-03
         314  1.9311418E-03
         315  5.9719267E-04
         316 -6.5111467E-03
         317 -1.4871798E-03
         318 -1.0507427E-03
         319 -3.2688300E-03
         320  6.1877416E-03
         321 -1.4643938E-03
         322  7.1215014E-05
         323  2.1768957E-03
         324  1.6545911E-03
         325  6.1830663E-04
         326  2.3351233E-03
         327 -3.9574085E-03
         328 -5.3789816E-04
         329 -4.3491169E-04
         330 -1.6232119E-03
         331 -1.5521862E-03
         332  1.4325463E-03
         333 -7.0946064E-04
         334  1.8259911E-03
         335 -1.4305231E-03
         336  2.7843763E-03
         337 -5.4320542E-04
         338 -1.0309193E-03
         339 -4.4347027E-05
         340 -4.8043809E-04
         341  4.9759849E-04
         342  1.9147294E-04
         343 -1.2602769E-03
         344  3.1279196E-04
         345  1.1922766E-03
         346 -1.8190750E-03
         347 -5.1960736E-03
         348  1.1077058E-03
         349 -2.6573339E-03
         350  1.2791152E-03
         351 -1.3154021E-03
         352  8.5361622E-04
         353  8.0773543E-04
         354  1.7173100E-03
         355 -1.1217293E-03
         356 -1.1081544E-02
         357 -2.8426977E-04
         358 -1.5082810E-03
         359  3.0774725E-04
         360  3.1066968E-03
         361 -6.0069491E-05
         362  4.9323181E-04
         363 -7.4741372E-04
         364 -2.1072708E-03
         365  1.6984571E-04
         366 -4.8474123E-04
         367 -8.1021432E-04
         368  4.7468196E-04
         369 -3.5538836E-04
         370  6.0334621E-04
         371 -5.5335672E-04
         372  8.3573710E-04
         373  8.0610480E-04
         374 -1.1612511E-03
         375 -2.3511269E-04
         376 -8.9181098E-04
         377 -4.3106002E-06
         378 -1.2932964E-04
         379 -8.7905028E-05
         380 -4.5853903E-04
         381  1.5316365E-04
         382 -9.9372090E-05
         383 -1.2311003E-04
         384  7.9474115E-04
         385 -4.9949886E-04
         386  2.1992719E-03
         387 -4.8956490E-04
         388  1.2308603E-02
         389  5.9604133E-04
         390 -1.0375116E-03
         391 -9.2042109E-04
         392 -5.0085257E-03
         393 -4.6964735E-03
         394  7.5638001E-03
         395  1.1031318E-02
         396  2.2421299E-02
         397  7.5493362E-03
         398 -1.2584004E-03
         399 -4.3895021E-03
         400 -7.0218919E-03
         401 -1.5727702E-03
         402 -1.3728173E-03
         403 -9.8011212E-04
         404 -2.0685263E-02
         405  6.8208752E-03
         406 -8.0139871E-04
         407  8.6524850E-04
         408  5.0649690E-03
         409 -1.4429478E-03
         410  1.8487574E-03
         411  9.3053479E-04
         412  2.7565151E-03
         413  2.6886673E-03
         414  2.3621838E-05
         415  1.3150381E-03
         416  1.2679363E-03
         417 -2.0957690E-04
         418  9.4628398E-04
         419 -1.3590755E-04
         420  1.5864667E-04
         421 -9.8832988E-04
         422 -9.8112223E-06
         423 -1.9684703E-04
         424 -2.2389289E-04
         425  1.2152133E-03
         426  4.2821540E-04
         427  1.8472737E-04
         428  9.2092851E-05
         429  3.6584850E-05
         430  4.2481750E-04
         431  5.0569426E-05
         432 -9.0189057E-04
         433  1.1378456E-03
         434  8.5806976E-05
         435  1.8910907E-03
         436 -8.3048764E-04
         437 -4.4915662E-04
         438 -1.4504687E-04
         439 -2.2863252E-04
         440 -9.1543375E-03
         441  3.6895331E-03
         442  5.4900412E-04
         443 -6.0686731E-04
         444 -6.6818245E-04
         445  6.1892445E-04
         446 -4.7195647E-04
         447 -5.4336333E-04
         448  8.2829734E-04
         449  1.0734946E-03
         450 -4.0251939E-04
         451 -9.6904481E-04
         452  6.6711154E-04
         453  1.2862532E-04
         454 -1.2015020E-04
         455 -5.1508605E-04
         456 -2.4026781E-04
         457  9.9645797E-05
         458  1.3212452E-04
         459 -6.9437246E-04
         460  1.0448830E-03
         461 -1.5235181E-04
         462 -7.4324512E-04
         463 -1.2111946E-03
         464  2.0356064E-03
         465 -1.5160739E-03
         466  6.3031157E-03
         467 -8.0017396E-04
         468  8.0002454E-04
         469 -3.6800693E-04
         470 -2.0642795E-04
         471 -1.4152229E-03
         472  5.7384605E-04
         473 -2.7408570E-03
         474 -1.2971553E-03
         475  4.3124519E-03
         476  2.4457327E-03
         477 -1.0113324E-03
         478  6.9919950E-04
         479  4.0658578E-04
         480 -1.6198664E-03
         481 -1.4774904E-03
         482  1.4487084E-03
         483  3.0645041E-03
         484  7.6784752E-03
         485 -7.6935757E-03
         486 -1.7429250E-03
         487  1.6292114E-03
         488 -4.4393018E-04
         489 -7.2316872E-04
         490  9.5769101E-05
         491 -6.4187241E-04
         492 -7.5119938E-04
         493  9.2754359E-05
         494 -9.1616606E-04
         495 -4.8476949E-04
         496 -2.6816910E-05
         497 -8.3546952E-04
         498  6.1244663E-04
         499 -1.3629484E-03
         500  4.9977534E-04
         501 -3.0332167E-05
         502  1.0172295E-04
         503 -4.1929932E-04
         504 -1.1375594E-03
         505  7.1961287E-05
         506 -1.7309993E-03
         507 -6.6355627E-05
         508 -1.5944226E-04
         509  8.6336187E-04
         510  6.3398993E-04
         511  3.0698874E-03
         512 -1.3243525E-04
         513 -1.6511483E-04
         514  2.4241048E-04
         515  4.7029115E-04
         516  4.2981986E-04
         517 -2.2723903E-04
         518 -3.7753492E-04
         519 -5.5324961E-04
         520 -1.8273747E-04
         521 -3.4360823E-03
         522  5.4268504E-04
         523 -4.8062275E-04
         524 -1.5703457E-03
         525 -6.3932006E-04
         526 -6.7427722E-03
         527 -1.2432301E-03
         528  2.4153461E-04
         529 -1.0519010E-03
         530 -1.9654301E-03
         531  1.7455883E-03
         532  5.5146427E-04
         533  1.9095486E-03
         534 -3.9896662E-03
         535 -9.3462830E-03
         536 -1.5617228E-02
         537 -1.8321541E-03
         538 -9.0466827E-05
         539  1.4365386E-02
         540 -2.3050679E-02
         541 -8.3967544E-02
         542  8.2915218E-04
         543 -4.6050670E-03
         544 -6.6971807E-03
         545  1.9389490E-02
         546  7.0831656E-02
         547  3.6311458E-04
         548 -4.8233266E-03
         549 -1.4782306E-02
         550  2.0079838E-02
         551  7.1892530E-02
         552  1.0460811E-03
         553 -2.6248253E-03
         554 -1.1048417E-02
         555  2.0137174E-02
         556  5.5476528E-02
         557  1.4830664E-04
         558  8.6024788E-04
         559 -1.5146143E-03
         560  3.7139765E-04
         561 -2.1028856E-03
         562  8.5307767E-07
         563  1.4592102E-03
         564  8.9908652E-03
         565 -1.9239279E-02
         566 -6.1294377E-02
         567 -3.9530540E-05
         568 -1.5676896E-03
         569 -5.9311958E-03
         570  1.7679101E-02
         571  3.9761726E-02
         572 -1.5855672E-02
         573  3.0361626E-03
         574 -4.2030700E-03
         575  1.0151420E-02
         576  4.5470139E-03
         577 -2.5574854E-02
         578  7.3420005E-03
         579  9.5643215E-03
         580 -2.6583062E-03
         581  8.6707966E-03
         582 -1.0661900E-02
         583  1.3839180E-03
         584  4.4807652E-03
         585  1.9501441E-03
         586 -5.4206309E-04
         587 -2.1891112E-03
         588  2.2100459E-03
         589  3.1219595E-03
         590  6.9507654E-03
         591 -8.1960633E-03
         592 -1.8737201E-03
         593  8.1527689E-03
         594  1.7699886E-02
         595 -1.7438636E-03
         596 -9.2505058E-03
         597  7.9396293E-03
         598 -3.5286620E-03
         599 -3.1619973E-03
         600 -1.0316602E-03
         601  1.5101314E-03
         602 -4.3590874E-03
         603  1.1735736E-04
         604 -6.5202627E-04
         605  1.0870288E-03
         606  1.0677218E-04
         607 -2.4903938E-03
         608 -4.3611554E-03
         609 -1.5222215E-02
         610 -1.1339287E-03
         611  1.6017715E-02
         612  1.6662474E-03
         613 -8.7260839E-04
         614  1.5530876E-03
         615 -2.8165186E-05
         616  4.6399978E-04
         617  2.7281744E-04
         618 -6.0601335E-04
         619 -8.3860122E-03
         620 -2.8364225E-03
         621 -8.7261088E-03
         622  5.2840311E-05
         623 -1.9629032E-03
         624 -2.8969877E-04
         625  3.9942987E-04
         626  1.3631394E-03
         627  9.0420211E-04
         628 -1.9320945E-03
         629  8.9723282E-03
         630 -3.1716723E-03
         631  4.1118087E-03
         632  1.6804945E-03
         633 -8.3197409E-04
         634  9.4205729E-04
         635  1.9252884E-03
         636  7.5716386E-04
         637 -9.8679133E-04
         638 -2.4012646E-04
         639 -5.8753014E-04
         640 -4.1996530E-04
         641 -6.2295678E-04
         642  3.2139619E-04
         643 -6.5366547E-03
         644  3.0890151E-03
         645  5.5553676E-03
         646  1.2117011E-02
         647  2.6982307E-04
         648  2.0357077E-03
         649 -1.7673029E-03
         650  3.2222087E-03
         651 -8.1185466E-03
         652 -2.5383779E-04
         653 -3.2203671E-04
         654  1.0695029E-03
         655 -1.8711240E-03
         656 -1.0071057E-03
         657  8.3169565E-05
         658  8.0121739E-05
         659 -8.8564477E-05
         660  7.9026519E-05
         661  2.9733992E-06
         662 -1.5199772E-04
         663  6.2039099E-04
         664 -1.2116620E-03
         665  3.1322349E-04
         666  3.3507470E-04
         667  1.1927349E-04
         668 -1.0578869E-05
         669  9.3447266E-04
         670 -4.1039463E-04
         671  8.8506407E-04
         672  2.1418035E-03
         673  7.0376457E-03
         674 -6.7918231E-03
         675 -1.5107743E-02
         676 -1.1129071E-03
         677  1.0960593E-04
         678  3.7632680E-03
         679 -5.9724874E-03
         680 -1.0309510E-03
         681 -9.8271286E-03
 Sym= Hole
 Ene= -0.3039101    
 Spin= Alpha
 Occup= 0
           1 -1.7789025E-04
           2 -1.5441343E-04
           3 -9.4306073E-05
           4 -3.0845913E-04
           5 -2.4802721E-04
           6 -1.4437201E-04
           7 -1.0633600E-04
           8 -1.2789122E-04
           9  1.2130242E-04
          10  7.4933353E-04
          11 -8.7829609E-04
          12 -6.0026732E-04
          13 -3.2457066E-04
          14 -2.8309752E-05
          15 -3.7462847E-05
          16 -7.8600635E-05
          17 -5.4294916E-05
          18 -1.0268845E-03
          19  9.6245314E-04
          20 -1.6930898E-03
          21 -2.4420777E-04
          22  4.7329889E-04
          23 -2.6329703E-04
          24  7.6252996E-05
          25  2.1662803E-03
          26  4.9115825E-03
          27  4.1853833E-05
          28 -1.8377724E-03
          29 -1.0080790E-03
          30 -9.0530229E-04
          31 -1.8672894E-04
          32 -6.9157884E-04
          33 -1.5236560E-03
          34 -3.3638526E-03
          35  2.7335330E-03
          36 -4.0931348E-03
          37 -1.2163166E-04
          38 -3.3670703E-03
          39 -2.0459194E-03
          40  2.6637801E-05
          41  1.0492369E-02
          42  2.6561137E-02
          43 -8.2419504E-04
          44 -4.1114641E-03
          45 -3.1395894E-03
          46 -9.0987599E-03
          47 -7.5664953E-04
          48 -9.9411374E-04
          49 -4.6351444E-02
          50 -6.3997149E-02
          51 -1.9989518E-02
          52 -6.9639824E-02
          53  3.0537046E-02
          54  2.2361096E-02
          55  4.5459555E-03
          56  5.0828941E-03
          57 -4.6059424E-03
          58  9.4273118E-03
          59  4.6945452E-03
          60  2.7978353E-02
          61  6.7046075E-03
          62 -7.8271832E-03
          63 -3.1588802E-03
          64 -2.1824978E-02
          65 -1.2940412E-03
          66 -0.1326142    
          67 -5.2192546E-02
          68 -0.4185814    
          69 -1.0725899E-03
          70  1.7500706E-02
          71  5.3246063E-03
          72  3.7074495E-02
          73 -7.4543530E-04
          74 -1.0640081E-03
          75 -1.0910402E-03
          76 -5.3640740E-04
          77  1.2634648E-03
          78 -2.7637349E-03
          79 -3.0750374E-04
          80 -1.0074317E-02
          81 -2.1272763E-03
          82  6.6882357E-02
          83  3.2766685E-02
          84  0.2342107    
          85  1.8457215E-03
          86 -3.3668010E-03
          87 -1.0220222E-03
          88 -1.3777915E-02
          89  1.0976720E-03
          90  1.5833382E-02
          91  6.1933850E-03
          92  6.1390501E-02
          93 -5.6240731E-04
          94  5.8622280E-04
          95  1.0030987E-03
          96 -1.6457301E-05
          97 -3.9827437E-04
          98 -6.5175004E-02
          99 -3.0186016E-02
         100 -0.2340817    
         101 -2.1033094E-04
         102  3.2898355E-03
         103  1.8236475E-03
         104  1.1408366E-02
         105 -1.7658970E-04
         106 -3.7621211E-02
         107 -1.7199101E-02
         108 -0.1365171    
         109 -5.0658546E-04
         110  3.8688136E-03
         111  2.0232771E-03
         112  1.1516886E-02
         113  2.9171791E-03
         114  5.6293022E-02
         115  2.5299976E-02
         116  0.2097952    
         117 -1.6255473E-03
         118 -1.8267237E-03
         119 -1.4107515E-03
         120 -1.2874674E-02
         121 -4.1525278E-04
         122  6.1670221E-02
         123  3.3197194E-02
         124  0.2555890    
         125 -1.9812807E-04
         126 -1.9088492E-03
         127 -2.5221994E-03
         128 -1.7617932E-02
         129  5.8777402E-03
         130 -6.5100037E-02
         131 -4.5666367E-02
         132 -0.2622220    
         133 -3.7828616E-03
         134  4.4746078E-03
         135  4.8249890E-03
         136  1.7629089E-02
         137  1.4094227E-03
         138 -7.6692522E-02
         139 -4.4876136E-02
         140 -0.3424306    
         141  5.2249763E-04
         142  5.0987005E-03
         143  1.9653076E-03
         144  2.8197017E-02
         145 -2.5709316E-03
         146  2.1024909E-02
         147 -1.4578629E-02
         148  0.2752709    
         149  1.4093788E-03
         150 -2.2807335E-03
         151  5.0939592E-03
         152 -3.9634094E-02
         153 -6.5007340E-03
         154 -3.4657244E-03
         155 -1.7241817E-02
         156  8.0798261E-02
         157  5.7412717E-03
         158  2.2117328E-03
         159  3.8308199E-03
         160 -6.7094835E-03
         161  2.4751320E-03
         162  1.3771283E-02
         163  1.2457808E-02
         164 -0.1101428    
         165 -1.7336925E-03
         166 -1.8042438E-03
         167 -6.2117465E-03
         168  1.4361516E-02
         169 -2.4110824E-03
         170  4.2881728E-03
         171  2.4396793E-03
         172 -3.0895552E-02
         173  1.6988151E-03
         174 -7.0527021E-04
         175 -3.3598990E-05
         176 -2.8859812E-04
         177  2.1668684E-03
         178  2.5850781E-03
         179  2.5849254E-04
         180 -1.0684893E-02
         181 -1.2386730E-03
         182 -1.3000086E-03
         183 -8.8450720E-04
         184  1.7176471E-03
         185  3.4555569E-04
         186 -7.0476374E-03
         187  1.1764598E-02
         188  3.6100402E-02
         189  6.4298350E-05
         190 -1.3334802E-04
         191  1.6212849E-04
         192 -3.8864615E-03
         193  2.3344002E-05
         194 -1.2952908E-03
         195  2.1805766E-03
         196  7.1075219E-03
         197 -2.5176058E-07
         198  1.7943861E-05
         199  2.0170730E-04
         200 -7.9869298E-04
         201 -1.4230960E-04
         202  3.9420067E-03
         203 -7.9870569E-03
         204 -3.0261323E-02
         205  1.0694451E-04
         206  3.3043107E-04
         207  2.4544925E-04
         208  1.3330638E-03
         209 -3.9226562E-04
         210  1.0559688E-03
         211 -6.8372129E-03
         212 -1.9385744E-02
         213 -3.3525601E-05
         214  1.0954684E-03
         215  8.0357445E-04
         216  2.0813178E-03
         217  4.2765820E-04
         218  6.2621064E-03
         219 -7.2716097E-03
         220 -2.5069863E-02
         221 -3.1226350E-04
         222  6.1161933E-04
         223  7.2175974E-04
         224  2.2326135E-03
         225 -3.0402951E-03
         226 -7.0879427E-03
         227  1.9839690E-03
         228  2.0425826E-02
         229  2.2909860E-03
         230  2.7068097E-03
         231  1.7356272E-03
         232 -1.8662072E-03
         233 -4.1358799E-04
         234  3.4997365E-03
         235 -6.3645155E-03
         236 -1.7326111E-02
         237 -7.9217419E-04
         238  1.9621778E-04
         239 -2.2801540E-05
         240  1.9255666E-03
         241  1.0648350E-03
         242 -1.9943433E-05
         243  5.2610217E-03
         244  1.3146397E-02
         245 -2.2738138E-03
         246 -3.9373717E-04
         247 -3.0662282E-03
         248 -8.6528645E-04
         249 -7.1479421E-04
         250 -3.8200682E-03
         251  6.8139005E-03
         252  2.2436284E-02
         253 -7.8821310E-04
         254 -1.6028383E-03
         255 -2.0340658E-03
         256 -1.2155253E-03
         257  3.8606784E-04
         258  1.3283984E-03
         259 -2.4819474E-03
         260 -6.9567030E-03
         261 -1.4980024E-04
         262 -5.6051329E-04
         263 -1.0110640E-04
         264  5.6827773E-04
         265 -1.2416694E-04
         266  4.0335497E-03
         267 -8.0045843E-03
         268 -2.3413541E-02
         269 -1.0770706E-04
         270 -2.6530054E-04
         271  6.7438761E-04
         272  1.3662175E-03
         273  9.0250693E-04
         274  6.8131936E-05
         275 -7.1521173E-04
         276  1.0928066E-03
         277 -7.5294374E-04
         278 -1.3861158E-05
         279  9.8140223E-04
         280  1.2753113E-03
         281 -2.3840065E-03
         282 -2.7465685E-03
         283  1.5019087E-02
         284  4.1607998E-02
         285  7.6894369E-04
         286  6.8391889E-04
         287 -9.3855755E-04
         288 -3.7206779E-03
         289  1.3910937E-04
         290  1.2545938E-03
         291 -5.4660626E-04
         292 -3.3789957E-03
         293 -5.4505617E-05
         294 -5.4245902E-04
         295  2.2906395E-04
         296  1.9432076E-03
         297 -4.6595819E-03
         298 -4.9530906E-03
         299  2.0867605E-03
         300  8.2638143E-03
         301  2.8363192E-03
         302  2.0100130E-03
         303  4.5127035E-04
         304 -1.2208713E-03
         305  5.5926747E-04
         306  3.2184843E-04
         307 -5.6767080E-04
         308 -1.5569992E-03
         309  2.9457198E-04
         310  8.7169459E-04
         311  5.2913447E-04
         312 -4.1313225E-04
         313 -3.2695409E-04
         314 -1.8885349E-04
         315  8.4705840E-05
         316  5.1000598E-04
         317  3.5723098E-04
         318  3.2777563E-04
         319 -1.3326728E-04
         320 -1.2521786E-03
         321  3.9326289E-04
         322  3.8891390E-04
         323 -2.3262155E-04
         324 -4.3501024E-04
         325 -2.6954297E-04
         326 -3.8274669E-04
         327 -1.0877488E-04
         328 -3.8279875E-04
         329 -3.2607012E-04
         330  1.0089793E-05
         331 -3.3600943E-04
         332  1.2516248E-04
         333  4.3799941E-04
         334 -1.5166940E-04
         335 -9.2074595E-04
         336 -5.2554673E-04
         337 -2.9598258E-04
         338 -8.4210641E-04
         339 -3.4832596E-04
         340  5.1789306E-04
         341 -1.0557014E-04
         342 -2.7650557E-04
         343 -1.2154379E-04
         344  1.6169889E-04
         345  1.1596415E-03
         346  8.0883561E-04
         347  1.1437540E-03
         348 -2.1876991E-03
         349 -1.6035562E-03
         350 -6.9761445E-04
         351 -6.5258105E-04
         352  1.5167868E-03
         353  5.9524860E-04
         354 -9.0545826E-03
         355 -6.1673550E-03
         356  0.1169694    
         357 -5.0387502E-04
         358  7.0985861E-04
         359 -1.8439272E-04
         360 -1.0147600E-02
         361 -5.8911456E-04
         362  2.0347796E-03
         363  1.6300451E-03
         364 -2.5692651E-02
         365  7.1566249E-04
         366 -3.6742390E-04
         367 -2.4850477E-04
         368  1.6980788E-03
         369  2.1445562E-04
         370 -1.5086931E-03
         371 -2.7841277E-04
         372  1.5541627E-02
         373 -6.3574984E-04
         374  4.1575840E-04
         375 -6.2852184E-04
         376 -3.6882258E-05
         377 -3.7859971E-04
         378  2.2641352E-05
         379 -1.4905578E-04
         380  3.3350980E-03
         381  1.4692325E-04
         382  5.2486442E-04
         383 -1.9472736E-04
         384 -3.3694790E-03
         385 -2.5143267E-03
         386  8.8919522E-03
         387  5.5050380E-03
         388 -0.1311223    
         389  1.4159754E-03
         390 -1.4072128E-03
         391 -9.4466610E-04
         392  1.2098555E-02
         393 -5.5850996E-03
         394 -4.1453823E-02
         395 -2.1501178E-02
         396 -0.1033606    
         397  4.7151321E-03
         398  6.0452344E-03
         399  9.4850548E-04
         400  8.0653811E-03
         401 -4.4076022E-04
         402  7.9074673E-02
         403  3.2989517E-02
         404  0.2831930    
         405  2.2357830E-03
         406 -3.7867923E-03
         407 -2.7479057E-03
         408 -1.5385593E-02
         409  8.9108973E-04
         410  6.2046196E-02
         411  2.3177467E-02
         412  0.2137196    
         413  1.0958877E-03
         414 -6.4629237E-03
         415 -2.9218055E-03
         416 -2.4261514E-02
         417  1.0039614E-05
         418 -2.3503092E-04
         419 -1.3909039E-04
         420 -1.2509849E-04
         421  2.3244478E-05
         422  1.1293811E-04
         423 -3.0969345E-04
         424 -3.4644440E-04
         425 -2.5432200E-05
         426 -2.1234219E-04
         427  1.0935550E-04
         428 -2.9685083E-04
         429 -2.4098789E-04
         430 -2.2024431E-05
         431  1.7018929E-05
         432  2.1021646E-04
         433 -2.9909590E-04
         434 -3.3630180E-04
         435 -5.4785964E-04
         436  2.4357234E-04
         437  1.6885609E-04
         438 -2.4785101E-04
         439 -1.4213264E-05
         440  1.4267364E-04
         441  7.2127303E-05
         442 -4.0462997E-04
         443  4.4876659E-05
         444 -3.9608823E-04
         445 -3.4249746E-04
         446 -2.2839550E-04
         447  8.4317528E-04
         448 -5.7119969E-04
         449 -8.6297718E-04
         450 -1.7192062E-04
         451  1.8328772E-04
         452 -8.8967831E-04
         453 -9.9367804E-05
         454  9.1363548E-04
         455 -6.7682675E-04
         456 -6.0281868E-04
         457 -7.9137628E-04
         458 -5.5414345E-04
         459  7.9139267E-05
         460 -4.0284653E-05
         461 -5.3547055E-04
         462 -1.2463917E-03
         463 -1.4092283E-03
         464 -1.5272764E-03
         465  2.1485846E-04
         466 -1.0214582E-03
         467 -4.9056471E-03
         468  2.3536212E-03
         469  1.6816610E-03
         470  2.2965318E-03
         471  1.4486001E-03
         472 -2.0508014E-02
         473  1.9933942E-03
         474  3.6190886E-05
         475  1.5664329E-04
         476 -2.8317649E-04
         477  8.9608366E-03
         478 -4.2218273E-03
         479 -1.9458440E-03
         480  3.7679597E-04
         481  2.2177338E-03
         482  9.7284866E-03
         483  6.3614193E-03
         484  9.5911939E-03
         485 -9.7991154E-04
         486 -3.6763689E-03
         487  7.3165507E-03
         488  7.2871922E-03
         489  1.3978104E-02
         490  1.9777799E-03
         491 -6.1834429E-04
         492  5.8212124E-02
         493 -1.3277676E-02
         494 -1.7114667E-02
         495  6.1504459E-03
         496  6.3714446E-03
         497  6.4921319E-02
         498 -1.4225535E-02
         499 -1.2947913E-02
         500 -1.0763548E-02
         501  1.0423576E-02
         502 -1.5735548E-03
         503  5.1608222E-04
         504  3.6828711E-03
         505  2.7181659E-05
         506  1.7548975E-02
         507 -8.5427030E-04
         508 -6.2474760E-04
         509  1.7308493E-03
         510  9.5544202E-04
         511  6.3960655E-03
         512  3.5775985E-04
         513 -5.8287277E-04
         514 -4.1734078E-03
         515 -1.5527643E-03
         516 -1.4787895E-02
         517  4.8677006E-04
         518 -1.0809709E-04
         519 -1.0504326E-03
         520 -1.2910806E-03
         521 -6.1293463E-03
         522 -2.8831619E-03
         523 -1.0952073E-03
         524 -3.1903714E-03
         525  6.8166875E-04
         526 -1.2217176E-02
         527  2.5631048E-02
         528 -6.7215236E-03
         529  7.3304614E-03
         530 -4.9529099E-03
         531  5.0532565E-02
         532  2.7033784E-03
         533 -5.7920063E-04
         534 -2.1811960E-04
         535 -3.8549580E-04
         536  6.7965826E-03
         537  6.4321945E-04
         538 -5.4855114E-05
         539 -1.8175622E-04
         540 -7.0106122E-05
         541 -4.4124661E-04
         542 -2.0078271E-04
         543  3.6833968E-04
         544  2.3807073E-04
         545 -4.4533683E-04
         546 -1.5195494E-03
         547  5.7552697E-04
         548  2.1284898E-03
         549  8.3152456E-03
         550  2.0657475E-03
         551 -2.3150775E-03
         552  1.9860509E-04
         553 -2.0761483E-03
         554  1.4144962E-03
         555 -5.1582628E-03
         556 -2.1082701E-03
         557 -1.1399295E-03
         558 -1.8291305E-03
         559 -3.5916085E-03
         560 -1.9895292E-03
         561 -3.3583845E-05
         562 -1.3249414E-04
         563  9.5418138E-05
         564 -1.4372573E-04
         565  2.1435792E-04
         566 -4.4331951E-05
         567 -2.5980439E-04
         568 -3.8698439E-05
         569  1.6335766E-04
         570 -1.1110922E-03
         571 -1.6797195E-03
         572  4.2723012E-03
         573 -1.0043008E-03
         574 -4.5088524E-04
         575 -1.3118883E-03
         576  1.2956819E-04
         577  7.9374611E-03
         578 -2.0480885E-03
         579 -2.2075628E-03
         580 -8.5315504E-04
         581 -5.7923933E-04
         582  2.8844944E-03
         583 -1.4923693E-04
         584 -1.1459003E-03
         585 -4.3577605E-04
         586  3.9059442E-04
         587  8.4099529E-04
         588  4.9326388E-04
         589  3.0570518E-04
         590  5.6817109E-04
         591 -1.4981018E-04
         592  1.6443612E-03
         593 -1.6829706E-04
         594  1.4442687E-04
         595 -5.7434438E-05
         596 -3.4633023E-04
         597 -2.2741260E-03
         598  2.7601694E-04
         599 -2.2702244E-04
         600 -8.7760011E-05
         601  4.5983499E-04
         602  4.7842803E-04
         603 -2.7055893E-04
         604 -9.5115145E-05
         605 -6.6031986E-05
         606  3.6246053E-04
         607 -6.4253970E-04
         608  8.0856250E-04
         609 -9.4008785E-05
         610 -1.0839466E-03
         611 -2.3073517E-03
         612 -4.9149361E-04
         613 -1.5790640E-04
         614 -4.7760108E-04
         615  6.8066423E-05
         616  1.6449401E-04
         617  1.0958919E-04
         618 -1.1461895E-04
         619 -3.2085186E-04
         620  2.5321188E-04
         621 -1.2281432E-04
         622  9.6215095E-05
         623  2.0605345E-04
         624  4.5268607E-04
         625  1.3929556E-04
         626 -2.3526441E-04
         627 -1.6439418E-04
         628 -6.0891686E-04
         629 -2.0486479E-05
         630 -4.0571893E-05
         631 -2.6647313E-04
         632 -6.3451752E-04
         633 -2.2791811E-04
         634 -5.7264662E-04
         635  1.3853166E-03
         636  1.2061721E-06
         637  1.1225658E-03
         638 -4.5481237E-04
         639 -2.3106999E-04
         640  3.1746470E-04
         641  2.3593671E-04
         642 -7.3488022E-04
         643 -2.3223666E-04
         644 -1.2139977E-04
         645 -4.5713360E-04
         646 -1.0636586E-04
         647 -6.8937120E-04
         648 -3.0049309E-03
         649 -4.5877034E-03
         650 -2.3503860E-03
         651  5.0370935E-03
         652 -4.0410348E-04
         653 -8.5384340E-04
         654  9.8040164E-04
         655 -8.5844210E-04
         656  6.9268950E-04
         657  2.7316474E-04
         658 -4.6028942E-04
         659  2.2591683E-04
         660 -5.4719843E-05
         661  1.1269478E-03
         662 -2.7437436E-03
         663 -1.6725215E-03
         664  7.0395772E-03
         665 -4.5953752E-03
         666 -3.9160652E-03
         667  2.6744753E-03
         668  1.0968961E-03
         669 -6.5678852E-03
         670  4.9632303E-03
         671 -5.0859074E-03
         672  1.2926061E-03
         673  7.2774623E-04
         674 -5.0632033E-04
         675  3.9329831E-03
         676 -5.0413683E-03
         677 -5.5854567E-03
         678  1.2591021E-03
         679  1.9504069E-03
         680  3.4801513E-03
         681  1.5405563E-02
 Sym= Particle
 Ene= -0.3039101    
 Spin= Alpha
 Occup= 2
           1  1.9113983E-04
           2 -2.9067803E-04
           3  3.2707481E-05
           4 -3.0259500E-04
           5 -4.4613943E-04
           6  1.9944948E-04
           7 -1.4334298E-05
           8 -6.8681722E-05
           9  2.0995573E-04
          10  2.8000367E-04
          11 -1.5025286E-04
          12 -3.3959505E-04
          13 -4.8665071E-04
          14 -1.2033859E-04
          15 -3.7728096E-05
          16  3.1322503E-04
          17 -2.4633811E-04
          18 -2.6264851E-04
          19  1.6103739E-04
          20 -4.0155751E-04
          21  1.8523875E-04
          22  1.6375764E-04
          23 -1.4066357E-04
          24 -5.5608485E-05
          25  7.7612296E-04
          26  1.6353707E-03
          27 -3.3624997E-04
          28 -4.0865748E-04
          29 -8.4198036E-05
          30 -7.0274662E-04
          31  4.4917695E-05
          32 -3.5347915E-04
          33 -1.1150317E-03
          34 -1.4085779E-03
          35 -2.3801807E-04
          36 -2.2767626E-03
          37  1.4886002E-03
          38 -1.3688934E-04
          39 -2.0432837E-04
          40 -1.0546715E-03
          41  2.7812624E-03
          42  6.9514145E-03
          43 -1.2972509E-03
          44 -1.9048143E-03
          45 -8.3533581E-04
          46 -2.9253645E-03
          47  2.6146704E-04
          48 -5.1046250E-04
          49 -1.0438318E-02
          50 -1.2700739E-02
          51 -6.0349349E-03
          52 -2.0110624E-02
          53  7.0174402E-03
          54  6.0451943E-03
          55  1.6369615E-03
          56  4.9113403E-03
          57 -8.2021942E-03
          58 -3.0159159E-03
          59 -2.5233356E-04
          60 -1.1625038E-02
          61  9.7719207E-03
          62  4.7656542E-04
          63  2.3652539E-04
          64  4.9230698E-03
          65  6.5413804E-04
          66 -4.1293200E-02
          67 -1.6001781E-02
          68 -0.1265215    
          69  2.5073774E-04
          70  1.3097766E-02
          71  4.8716250E-03
          72  3.7481107E-02
          73  9.7239092E-05
          74  4.7900207E-02
          75  2.2462290E-02
          76  0.1683591    
          77  1.9511024E-03
          78 -1.9962747E-02
          79 -8.5071549E-03
          80 -6.7305289E-02
          81 -1.8236438E-03
          82  5.9888169E-02
          83  2.9515266E-02
          84  0.2131342    
          85  3.0163510E-03
          86 -1.3901570E-02
          87 -7.0075132E-03
          88 -4.6622314E-02
          89 -7.6247752E-06
          90 -8.4169090E-02
          91 -3.9994650E-02
          92 -0.3025249    
          93  3.1026988E-04
          94  2.0268638E-02
          95  1.0284564E-02
          96  7.2394267E-02
          97 -1.3056803E-04
          98  5.8569125E-04
          99  4.8566071E-04
         100  3.3619539E-03
         101 -3.3131982E-06
         102  9.7636151E-04
         103  7.6723483E-04
         104  2.2992324E-03
         105 -9.9596928E-04
         106  8.4418453E-02
         107  3.9299011E-02
         108  0.2993145    
         109  8.5860823E-04
         110 -2.1629930E-02
         111 -9.6979681E-03
         112 -7.7053726E-02
         113  1.1062078E-04
         114 -7.1782023E-02
         115 -3.1065911E-02
         116 -0.2513554    
         117  2.9261751E-04
         118  1.6033495E-02
         119  6.8906024E-03
         120  5.4791845E-02
         121  3.3793072E-03
         122 -8.4473372E-02
         123 -4.3500192E-02
         124 -0.3146465    
         125 -1.8774628E-03
         126  2.1804135E-02
         127  1.2603189E-02
         128  8.5430823E-02
         129 -2.3459285E-03
         130  0.1070105    
         131  5.4026507E-02
         132  0.4227187    
         133  1.6227695E-03
         134 -3.2109931E-02
         135 -1.5537592E-02
         136 -0.1215487    
         137  1.2112441E-03
         138 -1.6884131E-02
         139 -1.2268465E-02
         140 -7.7536218E-02
         141 -1.5548427E-03
         142  6.1281915E-03
         143  4.5223352E-03
         144  2.7033124E-02
         145 -4.5555122E-03
         146 -4.3908181E-03
         147 -4.8951628E-03
         148  8.7824194E-03
         149  1.6645296E-03
         150  2.1124249E-03
         151  2.6396558E-05
         152 -9.2348503E-03
         153  1.4555450E-03
         154 -2.8541998E-03
         155 -2.7625323E-03
         156  3.6420558E-02
         157 -1.2306154E-03
         158  1.0424156E-03
         159  2.7661573E-04
         160 -2.2777410E-02
         161 -6.8332511E-03
         162  7.7970647E-03
         163 -9.7590976E-04
         164 -1.9302823E-02
         165  6.2795156E-03
         166 -2.9358687E-03
         167  3.9954609E-03
         168  6.6630216E-03
         169  1.6835920E-03
         170  1.5236715E-04
         171  3.5779532E-03
         172 -3.6680519E-03
         173 -2.8032748E-04
         174  1.0557394E-03
         175 -2.0095182E-03
         176  1.7638250E-03
         177  7.8613282E-04
         178 -1.3186956E-03
         179  6.7329721E-04
         180  3.1123997E-03
         181 -7.6522847E-04
         182  3.3736601E-04
         183 -1.8184611E-03
         184 -9.5048810E-05
         185  3.6558672E-04
         186 -1.1798050E-03
         187  1.3705392E-03
         188 -1.2727183E-03
         189  3.0611243E-04
         190 -3.1898468E-04
         191 -1.2130289E-03
         192 -1.4150416E-03
         193 -6.5479428E-04
         194  3.0655970E-03
         195 -7.3169363E-03
         196 -2.4873311E-02
         197  7.1862072E-04
         198 -5.2843936E-04
         199  2.5789023E-03
         200  6.5631750E-03
         201 -2.4264862E-04
         202 -3.4438069E-03
         203  6.1854944E-03
         204  2.2629898E-02
         205  4.0108705E-04
         206  1.3823219E-03
         207 -1.1704861E-03
         208 -7.0582479E-03
         209 -7.7868131E-04
         210 -1.1516449E-03
         211  7.4845395E-04
         212  5.9406757E-03
         213  5.1391171E-04
         214  7.8127434E-04
         215  9.5416335E-06
         216 -3.0412609E-03
         217  8.6204673E-04
         218  4.0153051E-03
         219 -6.2805880E-03
         220 -1.9366823E-02
         221  2.6971250E-04
         222 -1.1211968E-03
         223  1.2491327E-03
         224  5.8404058E-03
         225 -3.5960819E-03
         226 -6.6637159E-03
         227  3.4009930E-04
         228  2.1054592E-02
         229  4.7539617E-03
         230  1.8040490E-03
         231  1.9742684E-03
         232 -5.2640666E-03
         233  5.4923765E-04
         234  1.9152022E-03
         235 -3.9880723E-03
         236 -1.0308250E-02
         237 -1.3832159E-03
         238 -2.0454861E-03
         239  6.4534630E-04
         240  3.3835520E-03
         241  8.0526259E-04
         242 -1.1941966E-03
         243  5.9499950E-03
         244  1.4223869E-02
         245 -4.6929792E-03
         246 -4.1261008E-03
         247 -3.1126530E-03
         248 -6.3419156E-03
         249  5.4654316E-04
         250 -4.1611434E-04
         251  1.9386406E-03
         252  6.1889156E-03
         253 -2.8241284E-03
         254 -1.2051840E-03
         255  7.8544003E-04
         256 -8.0103928E-04
         257  2.1880103E-04
         258  3.0069065E-03
         259 -5.8076670E-03
         260 -1.7555775E-02
         261 -1.2610749E-04
         262  2.0442622E-04
         263  2.3491818E-03
         264  5.8762319E-03
         265  1.7407861E-04
         266 -1.6903711E-03
         267  2.3571954E-03
         268  7.5509814E-03
         269 -8.2534112E-05
         270  1.0976886E-03
         271  6.9695717E-04
         272 -6.9766887E-04
         273  2.4154095E-04
         274 -1.8044350E-03
         275  4.8169559E-03
         276  1.3974122E-02
         277 -2.8697820E-04
         278  8.0480764E-04
         279 -8.9584850E-04
         280 -4.3247226E-03
         281  9.5966581E-04
         282  1.1469414E-03
         283 -4.1910405E-03
         284 -1.0268038E-02
         285 -3.1460577E-04
         286 -2.8538605E-04
         287  1.8572075E-03
         288  3.6376293E-03
         289 -2.4072824E-05
         290 -1.0353543E-03
         291 -1.0118084E-03
         292 -7.6082052E-04
         293 -3.9784980E-04
         294  5.0599041E-04
         295  3.6962857E-04
         296 -1.6985675E-04
         297  1.3178363E-03
         298  8.3288510E-04
         299 -8.0069614E-04
         300 -1.8164805E-03
         301 -1.1172171E-03
         302 -5.9098942E-04
         303  1.7467927E-04
         304  4.0835969E-04
         305 -1.8383120E-04
         306 -1.5747796E-04
         307  2.2104835E-04
         308  3.2091685E-04
         309  1.0857535E-04
         310 -5.7741276E-05
         311 -1.1476083E-04
         312 -7.5746044E-05
         313  2.8423392E-04
         314  1.3377769E-04
         315  2.0170490E-04
         316 -3.3559263E-04
         317 -1.1692582E-04
         318 -4.9943417E-05
         319 -2.2023292E-04
         320 -2.0810401E-06
         321  3.5608824E-05
         322  3.6302421E-04
         323  3.3561719E-04
         324 -1.9817575E-05
         325 -8.5672718E-07
         326  1.4156064E-04
         327 -6.7287619E-04
         328  1.0282174E-04
         329 -2.7958254E-04
         330  7.3397782E-04
         331 -7.9856627E-04
         332 -1.0543627E-03
         333  4.0704789E-04
         334  1.1717877E-03
         335 -1.4796025E-03
         336 -9.8770841E-05
         337  3.3987322E-04
         338  1.2291566E-04
         339  8.7102945E-04
         340  1.9343973E-04
         341 -1.4317414E-03
         342  1.6557530E-03
         343 -1.1320248E-03
         344 -3.3298202E-05
         345  1.8296322E-03
         346  1.5942196E-03
         347  1.8675178E-03
         348 -2.8362088E-03
         349 -2.9850919E-03
         350  9.6723269E-04
         351 -2.1287640E-04
         352  1.1084311E-03
         353  1.5874350E-05
         354 -3.2909794E-04
         355 -2.6900456E-03
         356  2.0238360E-02
         357  3.5509357E-04
         358 -2.8227014E-04
         359  1.2013705E-03
         360 -1.6103577E-03
         361 -5.0559995E-04
         362  1.3648111E-03
         363  1.1738504E-03
         364 -1.5228652E-02
         365  1.2883134E-03
         366 -1.2774024E-03
         367  2.2998912E-04
         368  5.6836451E-03
         369 -2.5655161E-05
         370 -4.1243722E-04
         371 -1.0573849E-04
         372  6.9533754E-03
         373  2.2237455E-04
         374 -3.1348947E-04
         375  3.1968992E-04
         376 -2.2575662E-03
         377 -1.9457220E-04
         378  6.6732100E-05
         379  1.8233022E-05
         380  7.1978575E-04
         381  5.7274301E-04
         382 -2.0293839E-04
         383 -1.2405199E-04
         384 -9.3267718E-04
         385  3.0017062E-04
         386  1.0221353E-03
         387  1.0048465E-03
         388 -1.6803037E-02
         389 -2.2979102E-05
         390 -1.1248601E-03
         391 -1.3100938E-03
         392  4.7465591E-03
         393  1.1027220E-03
         394 -9.5507488E-02
         395 -4.8552532E-02
         396 -0.3637622    
         397 -1.8620002E-03
         398  2.4064789E-02
         399  1.4128250E-02
         400  9.3350582E-02
         401 -1.8802136E-03
         402  9.2641249E-02
         403  4.1954748E-02
         404  0.3597196    
         405  2.7592531E-03
         406 -2.6859129E-02
         407 -1.0460877E-02
         408 -0.1000177    
         409 -1.0176939E-03
         410  1.5822176E-02
         411  6.2705684E-03
         412  6.7118496E-02
         413  3.0314326E-03
         414 -8.8011799E-03
         415 -3.4312389E-03
         416 -3.1564083E-02
         417 -5.2141353E-05
         418 -7.4077885E-05
         419 -6.3001797E-05
         420  2.2892903E-04
         421 -2.4484523E-04
         422 -1.7329278E-04
         423  1.7346162E-04
         424 -3.5509837E-04
         425 -1.0509820E-04
         426 -1.6352643E-04
         427 -2.4491036E-04
         428  2.2701270E-04
         429  2.9046880E-04
         430  1.5180882E-04
         431 -1.8802870E-04
         432  4.7119676E-05
         433  1.8958512E-05
         434 -2.2371423E-04
         435  1.5893556E-05
         436  1.5134180E-04
         437 -1.5195890E-04
         438  5.8180747E-05
         439  1.5249441E-04
         440 -4.5374717E-04
         441  5.6620629E-04
         442  7.3985633E-05
         443 -2.2750425E-04
         444 -4.0763101E-04
         445  2.6529629E-04
         446  1.8538105E-05
         447  2.9704699E-04
         448  3.3820993E-06
         449 -1.7653298E-04
         450 -2.8597776E-04
         451  9.9761106E-05
         452 -1.6989143E-05
         453 -3.2419579E-05
         454  7.3907676E-04
         455 -6.6868041E-04
         456 -1.4402665E-04
         457 -1.7684446E-04
         458  1.2296972E-04
         459 -1.6925253E-04
         460  5.1372068E-04
         461 -1.2587660E-04
         462  1.2002370E-04
         463 -2.0167563E-04
         464  4.3345694E-04
         465 -3.3009710E-04
         466 -7.8031456E-04
         467 -4.8091405E-04
         468  1.8833033E-03
         469  2.2342876E-03
         470  1.6841189E-03
         471 -7.6684676E-04
         472 -5.2352715E-03
         473  1.7978594E-03
         474  9.9942915E-04
         475  5.6478661E-04
         476  1.1839676E-03
         477  2.9016398E-03
         478 -9.1068295E-04
         479  1.1168774E-03
         480  5.4988416E-04
         481  1.1254746E-03
         482  5.7927857E-04
         483 -2.9530192E-03
         484 -6.9387457E-03
         485  4.9344269E-03
         486 -4.2890403E-03
         487 -2.5061611E-04
         488 -1.4875105E-03
         489 -2.0137525E-03
         490 -7.7292337E-03
         491 -4.0432726E-04
         492  2.1449436E-02
         493 -3.9080195E-03
         494 -1.2981946E-03
         495  1.1753343E-02
         496  6.2060961E-03
         497  2.2961680E-02
         498 -2.8405243E-03
         499  4.1690576E-03
         500 -1.2809711E-02
         501  9.4453553E-03
         502 -9.4917687E-06
         503  1.6635933E-03
         504  9.1015846E-03
         505  3.3726809E-03
         506  4.3102443E-02
         507  4.3628101E-05
         508 -3.7414901E-04
         509 -1.8416436E-02
         510 -8.0783879E-03
         511 -6.5198667E-02
         512 -5.8176283E-05
         513 -4.8987829E-04
         514 -2.6201300E-04
         515  1.2871556E-04
         516 -1.1873927E-03
         517  8.7253796E-04
         518 -1.3451881E-03
         519  1.8335093E-02
         520  9.0442104E-03
         521  6.2440582E-02
         522  1.1285354E-03
         523 -1.3469321E-03
         524  2.4932226E-02
         525  1.2186319E-02
         526  9.0930752E-02
         527  1.0455959E-02
         528 -6.0691737E-04
         529  8.1422385E-03
         530  1.1923881E-02
         531  2.1811452E-02
         532  4.1557517E-04
         533  6.3916505E-04
         534 -5.7466107E-04
         535  5.7841954E-04
         536  1.1504377E-03
         537  8.0127246E-04
         538  2.0079326E-04
         539  8.3641254E-04
         540 -1.1485657E-03
         541 -5.0120447E-03
         542  1.4064672E-04
         543 -2.4562987E-04
         544 -4.7224900E-04
         545  1.2593188E-03
         546  4.7729276E-03
         547  2.1592821E-03
         548  7.9950895E-03
         549  4.1204910E-03
         550  1.6720582E-02
         551  7.7051604E-03
         552  3.2600359E-04
         553 -2.5608281E-03
         554  2.9560823E-03
         555 -6.0351444E-03
         556 -5.3953268E-03
         557  3.0119048E-04
         558 -5.5081362E-04
         559 -2.7926292E-04
         560  5.2021572E-04
         561  4.4847908E-04
         562  1.2584847E-04
         563  2.7411000E-04
         564  9.2261104E-04
         565 -1.7929617E-03
         566 -3.7565485E-03
         567  1.4597470E-04
         568 -3.6190962E-05
         569 -1.9523877E-05
         570  8.9567754E-04
         571  8.0992171E-04
         572 -1.2344562E-03
         573  3.3271487E-04
         574 -1.6445547E-04
         575  9.3079376E-04
         576  8.4711421E-05
         577 -1.7466850E-03
         578  5.8746012E-04
         579  9.6063875E-04
         580 -1.2111447E-04
         581  4.4727026E-04
         582 -1.0912104E-03
         583  2.7728436E-04
         584  5.6338165E-04
         585  3.9726857E-04
         586 -1.2549860E-04
         587 -2.9436973E-04
         588  2.1022372E-04
         589  1.6403962E-04
         590 -5.9672853E-05
         591 -3.4696900E-04
         592 -2.1994584E-04
         593  5.8444892E-04
         594  9.6983567E-04
         595 -1.1925000E-04
         596 -7.2707573E-04
         597  4.6896556E-04
         598 -1.3672149E-04
         599 -1.8595638E-04
         600  3.3681834E-04
         601  4.8567035E-05
         602 -3.2319265E-04
         603 -3.8058070E-07
         604 -8.2542065E-05
         605 -5.4047880E-04
         606 -2.5469318E-04
         607  2.0639871E-05
         608 -1.5840107E-05
         609 -8.0335489E-04
         610  7.3904393E-04
         611  2.7281622E-04
         612  5.7958235E-04
         613 -2.3289720E-04
         614 -1.0135938E-04
         615 -5.5302899E-05
         616  3.8621083E-04
         617 -4.1089681E-04
         618  4.2421449E-04
         619 -4.1460828E-04
         620  8.6114866E-05
         621 -2.9812366E-04
         622 -7.6383830E-04
         623  1.1419995E-03
         624  1.6408509E-03
         625 -3.8075843E-05
         626 -1.3267568E-03
         627 -3.4136610E-04
         628 -6.3259434E-04
         629 -6.6338433E-04
         630 -5.0018996E-04
         631  1.2912003E-03
         632  4.7382095E-05
         633 -1.5753926E-03
         634 -1.2257333E-03
         635 -5.9911644E-04
         636  2.2679830E-03
         637  1.1625142E-04
         638 -1.8419003E-05
         639  5.1107956E-04
         640  7.6419943E-05
         641 -8.4022962E-04
         642 -1.0191344E-03
         643  3.2213648E-04
         644  6.0534384E-04
         645  1.2147287E-03
         646  1.4928842E-04
         647 -6.0061063E-04
         648 -3.9475136E-03
         649 -1.4245292E-03
         650 -6.7782155E-03
         651  4.0293890E-03
         652 -5.3925993E-04
         653  3.4844980E-04
         654  1.0274007E-03
         655  1.2103036E-03
         656 -7.9815101E-04
         657  2.5575195E-04
         658 -9.0190500E-05
         659  3.1026010E-04
         660  5.1387901E-06
         661  5.9572596E-04
         662 -1.5495522E-03
         663  1.6535155E-04
         664  7.8495394E-04
         665 -1.8369728E-03
         666 -1.4812106E-03
         667  1.6540514E-03
         668  1.0367614E-04
         669 -1.7419906E-03
         670  1.3939306E-03
         671 -1.5308204E-03
         672 -3.0718620E-03
         673 -8.2746084E-04
         674 -2.0515390E-02
         675 -5.4069161E-03
         676 -7.0788719E-02
         677 -1.8408607E-03
         678  2.3402041E-03
         679  1.5899051E-02
         680  1.0955850E-02
         681  7.3799059E-02
