 [Molden Format]
 [Atoms] Angs
C       1      6      0.57827240     -4.49059280     -1.05484322
C       2      6      1.16783251     -3.44855186     -0.15052682
C       3      6      2.53985680     -3.25048971     -0.14460166
C       4      6      3.15176228     -2.28298685      0.64461708
C       5      6      4.61975054     -2.15100613      0.57673685
C       6      6      5.42626098     -3.26454628      0.79791737
C       7      6      6.80266148     -3.16105070      0.71302813
C       8      6      7.39636307     -1.95156966      0.40182111
C       9      6      6.59998866     -0.83564775      0.16200441
N      10      7      7.19218964      0.39186318     -0.17102349
C      11      6      6.94055319      1.60377073      0.43960075
C      12      6      6.11496642      1.89695274      1.51535911
C      13      6      6.06339593      3.20656256      1.95210028
C      14      6      6.82046686      4.20620232      1.34497823
C      15      6      7.66348285      3.91630662      0.29105444
C      16      6      7.73157006      2.60689403     -0.16656585
C      17      6      8.49298839      1.95817209     -1.19652432
C      18      6      9.41940948      2.40886062     -2.12763310
C      19      6      9.96377082      1.50010101     -3.01259313
C      20      6      9.58393100      0.15983203     -2.98699155
C      21      6      8.66449195     -0.31252165     -2.07037360
C      22      6      8.13169748      0.59140927     -1.16232662
C      23      6      5.21672735     -0.93945365      0.25041051
C      24      6      2.36277960     -1.47981143      1.47239269
C      25      6      2.95342377     -0.44264151      2.38062961
C      26      6      0.99121552     -1.67586538      1.46450393
C      27      6      0.37985063     -2.64540374      0.67703650
C      28      6     -1.08671154     -2.77975245      0.75917129
C      29      6     -1.68801722     -3.99305851      1.08501744
C      30      6     -3.06234817     -4.07581966      1.21456217
C      31      6     -3.86032541     -2.96576079      1.00563475
C      32      6     -3.27681791     -1.74931025      0.65644354
C      33      6     -4.03569535     -0.52857394      0.43683008
N      34      7     -3.56550853      0.65669203      0.73741841
C      35      6     -4.54040584      1.54296653      0.41051584
C      36      6     -4.52689757      2.95552220      0.57926619
C      37      6     -3.42549535      3.60677791      1.14422040
C      38      6     -3.44310167      4.96687915      1.32596718
C      39      6     -4.57035512      5.69296188      0.94669015
C      40      6     -5.65637913      5.06331873      0.38503316
C      41      6     -5.67316148      3.67598024      0.17369022
C      42      6     -6.78902970      2.98552062     -0.44983044
C      43      6     -7.90800109      3.68193626     -0.92801370
C      44      6     -8.94940124      3.04516287     -1.56019030
C      45      6     -8.90774382      1.66906402     -1.75932655
C      46      6     -7.83402912      0.94796367     -1.29873558
C      47      6     -6.77524477      1.57382075     -0.62509375
C      48      6     -5.64119325      0.87494132     -0.12336383
N      49      7     -5.30687002     -0.46077820     -0.09139222
C      50      6     -6.07601561     -1.56637187     -0.50414418
C      51      6     -7.24717767     -1.89223162      0.17399492
C      52      6     -7.98022123     -2.99657493     -0.21863407
C      53      6     -7.54814601     -3.77926639     -1.27755285
C      54      6     -6.38058317     -3.45533542     -1.94816452
C      55      6     -5.64137556     -2.35035051     -1.56617480
C      56      6     -1.88941921     -1.66672089      0.55407566
H      57      1     -0.45570906     -4.25956454     -1.29890902
H      58      1      1.15313864     -4.55674226     -1.97652140
H      59      1      0.60502910     -5.47031377     -0.57682486
H      60      1      3.15971971     -3.85670476     -0.79118835
H      61      1      4.96694091     -4.20873455      1.05082830
H      62      1      7.42039452     -4.02762821      0.89802067
H      63      1      8.47106303     -1.86155578      0.35353868
H      64      1      5.54074722      1.12638595      2.00565176
H      65      1      5.42497825      3.45991164      2.78583424
H      66      1      6.75069858      5.21865901      1.71418935
H      67      1      8.26323826      4.68741939     -0.16867657
H      68      1      9.70180551      3.45053929     -2.15713859
H      69      1     10.68808858      1.82927083     -3.74286121
H      70      1     10.01569471     -0.52487833     -3.70224585
H      71      1      8.36383559     -1.34954090     -2.06951927
H      72      1      4.60444177     -0.07797095      0.03110360
H      73      1      2.33428327     -0.32340344      3.26728304
H      74      1      3.95886583     -0.72148257      2.68869488
H      75      1      3.00076824      0.52374702      1.87765207
H      76      1      0.36916896     -1.06808163      2.10660994
H      77      1     -1.07445580     -4.86226040      1.26794517
H      78      1     -3.52008885     -5.01457262      1.49120286
H      79      1     -4.92755206     -3.04637842      1.14206914
H      80      1     -2.57725976      3.00525354      1.43176104
H      81      1     -2.59543682      5.47434962      1.76238633
H      82      1     -4.59218683      6.76317361      1.09445691
H      83      1     -6.50645756      5.66710000      0.10948277
H      84      1     -7.96319614      4.75217346     -0.81125317
H      85      1     -9.79484859      3.61622606     -1.91477224
H      86      1     -9.71319540      1.16958365     -2.27726773
H      87      1     -7.79854055     -0.11574319     -1.47273832
H      88      1     -7.57250142     -1.27522899      0.99903342
H      89      1     -8.88912668     -3.24866190      0.30674995
H      90      1     -8.12233926     -4.64222427     -1.57887969
H      91      1     -6.04351716     -4.06381630     -2.77371272
H      92      1     -4.72795177     -2.08980840     -2.07986355
H      93      1     -1.44695195     -0.71544768      0.30160159
 [GTO]
           1   0
s              4   1.000000
     36.92423826     -0.01198412
      6.35865936     -0.05472052
      0.51094541      0.58055871
      0.19473394      0.47700799
p              4   1.000000
      5.95130563      0.05713170
      1.54308468      0.28574555
      0.54398510      0.55178731
      0.21656984      0.26323149
s              7   1.000000
      0.38350848     -0.19449849
      0.04707223      0.93974524
      0.02222627      0.24679138
     36.92423826      0.00523085
      6.35865936      0.02388452
      0.51094541     -0.25340340
      0.19473394     -0.20820538
p              7   1.000000
      1.83062075     -0.01151525
      0.10124670      0.56587689
      0.03901771      0.59097433
      5.95130563     -0.02395602
      1.54308468     -0.11981659
      0.54398510     -0.23137114
      0.21656984     -0.11037617
 
           2   0
s              4   1.000000
     34.99909243     -0.01198412
      6.02713332     -0.05472052
      0.48430588      0.58055871
      0.18458096      0.47700800
p              4   1.000000
      5.64101808      0.05713170
      1.46263176      0.28574555
      0.51562295      0.55178731
      0.20527838      0.26323149
s              7   1.000000
      0.38350848     -0.19617128
      0.04707223      0.94782754
      0.02222627      0.24891390
     34.99909243      0.00550595
      6.02713332      0.02514065
      0.48430588     -0.26673035
      0.18458096     -0.21915529
p              7   1.000000
      1.83062075     -0.01160822
      0.10124670      0.57044594
      0.03901771      0.59574603
      5.64101808     -0.02522138
      1.46263176     -0.12614533
      0.51562295     -0.24359221
      0.20527838     -0.11620626
 
           3   0
s              4   1.000000
     35.11589553     -0.01198412
      6.04724778     -0.05472052
      0.48592216      0.58055871
      0.18519696      0.47700799
p              4   1.000000
      5.65984396      0.05713170
      1.46751302      0.28574555
      0.51734375      0.55178731
      0.20596346      0.26323149
s              7   1.000000
      0.38350848     -0.19606279
      0.04707223      0.94730333
      0.02222627      0.24877624
     35.11589553      0.00548846
      6.04724778      0.02506077
      0.48592216     -0.26588287
      0.18519696     -0.21845896
p              7   1.000000
      1.83062075     -0.01160219
      0.10124670      0.57014958
      0.03901771      0.59543655
      5.65984396     -0.02514093
      1.46751302     -0.12574297
      0.51734375     -0.24281524
      0.20596346     -0.11583561
 
           4   0
s              4   1.000000
     35.15642937     -0.01198412
      6.05422804     -0.05472052
      0.48648306      0.58055871
      0.18541073      0.47700799
p              4   1.000000
      5.66637704      0.05713170
      1.46920695      0.28574555
      0.51794092      0.55178731
      0.20620120      0.26323149
s              7   1.000000
      0.38350848     -0.19602536
      0.04707223      0.94712251
      0.02222627      0.24872875
     35.15642937      0.00548241
      6.05422804      0.02503317
      0.48648306     -0.26559000
      0.18541073     -0.21821833
p              7   1.000000
      1.83062075     -0.01160011
      0.10124670      0.57004734
      0.03901771      0.59532978
      5.66637704     -0.02511313
      1.46920695     -0.12560393
      0.51794092     -0.24254674
      0.20620120     -0.11570752
 
           5   0
s              4   1.000000
     35.10589628     -0.01198412
      6.04552583     -0.05472052
      0.48578380      0.58055871
      0.18514423      0.47700799
p              4   1.000000
      5.65823232      0.05713170
      1.46709515      0.28574555
      0.51719644      0.55178731
      0.20590481      0.26323149
s              7   1.000000
      0.38350848     -0.19607204
      0.04707223      0.94734802
      0.02222627      0.24878798
     35.10589628      0.00548995
      6.04552583      0.02506759
      0.48578380     -0.26595521
      0.18514423     -0.21851840
p              7   1.000000
      1.83062075     -0.01160271
      0.10124670      0.57017485
      0.03901771      0.59546292
      5.65823232     -0.02514780
      1.46709515     -0.12577732
      0.51719644     -0.24288157
      0.20590481     -0.11586725
 
           6   0
s              4   1.000000
     35.01682702     -0.01198412
      6.03018736     -0.05472053
      0.48455128      0.58055871
      0.18467449      0.47700800
p              4   1.000000
      5.64387647      0.05713170
      1.46337289      0.28574555
      0.51588423      0.55178730
      0.20538240      0.26323149
s              7   1.000000
      0.38350848     -0.19615475
      0.04707223      0.94774765
      0.02222627      0.24889292
     35.01682702      0.00550329
      6.03018736      0.02512849
      0.48455128     -0.26660133
      0.18467449     -0.21904928
p              7   1.000000
      1.83062075     -0.01160731
      0.10124670      0.57040077
      0.03901771      0.59569886
      5.64387647     -0.02520913
      1.46337289     -0.12608407
      0.51588423     -0.24347393
      0.20538240     -0.11614984
 
           7   0
s              4   1.000000
     34.91820138     -0.01198412
      6.01320321     -0.05472052
      0.48318654      0.58055871
      0.18415435      0.47700799
p              4   1.000000
      5.62798038      0.05713170
      1.45925127      0.28574555
      0.51443123      0.55178731
      0.20480394      0.26323149
s              7   1.000000
      0.38350848     -0.19624698
      0.04707223      0.94819330
      0.02222627      0.24900996
     34.91820138      0.00551813
      6.01320321      0.02519627
      0.48318654     -0.26732038
      0.18415435     -0.21964008
p              7   1.000000
      1.83062075     -0.01161243
      0.10124670      0.57065274
      0.03901771      0.59596203
      5.62798038     -0.02527739
      1.45925127     -0.12642544
      0.51443123     -0.24413313
      0.20480394     -0.11646431
 
           8   0
s              4   1.000000
     35.00985191     -0.01198412
      6.02898619     -0.05472053
      0.48445477      0.58055871
      0.18463770      0.47700799
p              4   1.000000
      5.64275226      0.05713170
      1.46308140      0.28574555
      0.51578147      0.55178731
      0.20534149      0.26323149
s              7   1.000000
      0.38350848     -0.19616125
      0.04707223      0.94777905
      0.02222627      0.24890116
     35.00985191      0.00550433
      6.02898619      0.02513327
      0.48445477     -0.26665206
      0.18463770     -0.21909096
p              7   1.000000
      1.83062075     -0.01160767
      0.10124670      0.57041853
      0.03901771      0.59571743
      5.64275226     -0.02521395
      1.46308140     -0.12610816
      0.51578147     -0.24352044
      0.20534149     -0.11617203
 
           9   0
s              4   1.000000
     35.13144308     -0.01198412
      6.04992520     -0.05472052
      0.48613730      0.58055871
      0.18527896      0.47700799
p              4   1.000000
      5.66234985      0.05713170
      1.46816276      0.28574555
      0.51757281      0.55178731
      0.20605465      0.26323149
s              7   1.000000
      0.38350848     -0.19604842
      0.04707223      0.94723391
      0.02222627      0.24875800
     35.13144308      0.00548614
      6.04992520      0.02505018
      0.48613730     -0.26577046
      0.18527896     -0.21836660
p              7   1.000000
      1.83062075     -0.01160139
      0.10124670      0.57011032
      0.03901771      0.59539556
      5.66234985     -0.02513026
      1.46816276     -0.12568960
      0.51757281     -0.24271219
      0.20605465     -0.11578645
 
          10   0
s              4   1.000000
     61.42901599     -0.01198412
     10.57858486     -0.05472052
      0.85003443      0.58055871
      0.32396916      0.47700799
p              4   1.000000
      7.24075950      0.05713170
      1.87742082      0.28574555
      0.66184893      0.55178731
      0.26349346      0.26323149
s              7   1.000000
      0.47894987     -0.18771483
      0.05878681      0.90696908
      0.02775758      0.23818385
     61.42901599      0.00395512
     10.57858486      0.01805941
      0.85003443     -0.19160171
      0.32396916     -0.15742688
p              7   1.000000
      2.28619608     -0.01155956
      0.12644335      0.56805454
      0.04872781      0.59324860
      7.24075950     -0.02456596
      1.87742082     -0.12286724
      0.66184893     -0.23726208
      0.26349346     -0.11318646
 
          11   0
s              4   1.000000
     35.62917199     -0.01198412
      6.13563824     -0.05472052
      0.49302471      0.58055871
      0.18790392      0.47700799
p              4   1.000000
      5.74257187      0.05713170
      1.48896313      0.28574555
      0.52490558      0.55178731
      0.20897396      0.26323149
s              7   1.000000
      0.38350848     -0.19559722
      0.04707223      0.94505385
      0.02222627      0.24818549
     35.62917199      0.00541285
      6.13563824      0.02471557
      0.49302471     -0.26222040
      0.18790392     -0.21544974
p              7   1.000000
      1.83062075     -0.01157631
      0.10124670      0.56887783
      0.03901771      0.59410838
      5.74257187     -0.02479325
      1.48896313     -0.12400401
      0.52490558     -0.23945723
      0.20897396     -0.11423366
 
          12   0
s              4   1.000000
     34.94437565     -0.01198412
      6.01771064     -0.05472053
      0.48354873      0.58055871
      0.18429239      0.47700800
p              4   1.000000
      5.63219905      0.05713170
      1.46034511      0.28574555
      0.51481684      0.55178731
      0.20495746      0.26323149
s              7   1.000000
      0.38350848     -0.19622244
      0.04707223      0.94807470
      0.02222627      0.24897881
     34.94437565      0.00551418
      6.01771064      0.02517824
      0.48354873     -0.26712918
      0.18429239     -0.21948298
p              7   1.000000
      1.83062075     -0.01161107
      0.10124670      0.57058568
      0.03901771      0.59589200
      5.63219905     -0.02525924
      1.46034511     -0.12633467
      0.51481684     -0.24395785
      0.20495746     -0.11638069
 
          13   0
s              4   1.000000
     34.93551552     -0.01198412
      6.01618485     -0.05472052
      0.48342612      0.58055871
      0.18424566      0.47700799
p              4   1.000000
      5.63077100      0.05713170
      1.45997484      0.28574555
      0.51468631      0.55178731
      0.20490549      0.26323149
s              7   1.000000
      0.38350848     -0.19623074
      0.04707223      0.94811483
      0.02222627      0.24898934
     34.93551552      0.00551552
      6.01618485      0.02518434
      0.48342612     -0.26719387
      0.18424566     -0.21953613
p              7   1.000000
      1.83062075     -0.01161153
      0.10124670      0.57060837
      0.03901771      0.59591567
      5.63077100     -0.02526538
      1.45997484     -0.12636539
      0.51468631     -0.24401715
      0.20490549     -0.11640898
 
          14   0
s              4   1.000000
     34.92215520     -0.01198412
      6.01388409     -0.05472053
      0.48324125      0.58055871
      0.18417520      0.47700799
p              4   1.000000
      5.62861764      0.05713170
      1.45941651      0.28574555
      0.51448948      0.55178731
      0.20482713      0.26323149
s              7   1.000000
      0.38350848     -0.19624327
      0.04707223      0.94817537
      0.02222627      0.24900524
     34.92215520      0.00551753
      6.01388409      0.02519354
      0.48324125     -0.26729148
      0.18417520     -0.21961633
p              7   1.000000
      1.83062075     -0.01161223
      0.10124670      0.57064260
      0.03901771      0.59595143
      5.62861764     -0.02527464
      1.45941651     -0.12641172
      0.51448948     -0.24410664
      0.20482713     -0.11645167
 
          15   0
s              4   1.000000
     34.93758534     -0.01198412
      6.01654129     -0.05472052
      0.48345476      0.58055871
      0.18425658      0.47700799
p              4   1.000000
      5.63110461      0.05713170
      1.46006134      0.28574555
      0.51471680      0.55178730
      0.20491763      0.26323149
s              7   1.000000
      0.38350848     -0.19622880
      0.04707223      0.94810544
      0.02222627      0.24898688
     34.93758534      0.00551521
      6.01654129      0.02518292
      0.48345476     -0.26717876
      0.18425658     -0.21952371
p              7   1.000000
      1.83062075     -0.01161142
      0.10124670      0.57060307
      0.03901771      0.59591012
      5.63110461     -0.02526394
      1.46006134     -0.12635821
      0.51471680     -0.24400330
      0.20491763     -0.11640237
 
          16   0
s              4   1.000000
     35.41896738     -0.01198412
      6.09943926     -0.05472052
      0.49011597      0.58055871
      0.18679533      0.47700799
p              4   1.000000
      5.70869190      0.05713170
      1.48017856      0.28574555
      0.52180875      0.55178731
      0.20774105      0.26323149
s              7   1.000000
      0.38350848     -0.19578571
      0.04707223      0.94596460
      0.02222627      0.24842465
     35.41896738      0.00544357
      6.09943926      0.02485581
      0.49011597     -0.26370829
      0.18679533     -0.21667225
p              7   1.000000
      1.83062075     -0.01158679
      0.10124670      0.56939271
      0.03901771      0.59464612
      5.70869190     -0.02493450
      1.48017856     -0.12471050
      0.52180875     -0.24082150
      0.20774105     -0.11488449
 
          17   0
s              4   1.000000
     35.41923912     -0.01198412
      6.09948606     -0.05472052
      0.49011973      0.58055871
      0.18679676      0.47700799
p              4   1.000000
      5.70873570      0.05713170
      1.48018992      0.28574555
      0.52181275      0.55178731
      0.20774265      0.26323149
s              7   1.000000
      0.38350848     -0.19578546
      0.04707223      0.94596341
      0.02222627      0.24842436
     35.41923912      0.00544353
      6.09948606      0.02485563
      0.49011973     -0.26370636
      0.18679676     -0.21667066
p              7   1.000000
      1.83062075     -0.01158678
      0.10124670      0.56939205
      0.03901771      0.59464539
      5.70873570     -0.02493432
      1.48018992     -0.12470958
      0.52181275     -0.24081973
      0.20774265     -0.11488364
 
          18   0
s              4   1.000000
     34.93736055     -0.01198412
      6.01650258     -0.05472052
      0.48345165      0.58055871
      0.18425539      0.47700799
p              4   1.000000
      5.63106838      0.05713170
      1.46005195      0.28574555
      0.51471349      0.55178730
      0.20491631      0.26323149
s              7   1.000000
      0.38350848     -0.19622901
      0.04707223      0.94810647
      0.02222627      0.24898715
     34.93736055      0.00551524
      6.01650258      0.02518307
      0.48345165     -0.26718040
      0.18425539     -0.21952506
p              7   1.000000
      1.83062075     -0.01161143
      0.10124670      0.57060364
      0.03901771      0.59591073
      5.63106838     -0.02526410
      1.46005195     -0.12635899
      0.51471349     -0.24400480
      0.20491631     -0.11640309
 
          19   0
s              4   1.000000
     34.92202704     -0.01198412
      6.01386202     -0.05472052
      0.48323947      0.58055871
      0.18417453      0.47700799
p              4   1.000000
      5.62859698      0.05713170
      1.45941115      0.28574555
      0.51448759      0.55178731
      0.20482638      0.26323149
s              7   1.000000
      0.38350848     -0.19624339
      0.04707223      0.94817596
      0.02222627      0.24900541
     34.92202704      0.00551755
      6.01386202      0.02519363
      0.48323947     -0.26729242
      0.18417453     -0.21961710
p              7   1.000000
      1.83062075     -0.01161223
      0.10124670      0.57064293
      0.03901771      0.59595179
      5.62859698     -0.02527473
      1.45941115     -0.12641217
      0.51448759     -0.24410749
      0.20482638     -0.11645208
 
          20   0
s              4   1.000000
     34.93519903     -0.01198412
      6.01613035     -0.05472052
      0.48342174      0.58055871
      0.18424399      0.47700800
p              4   1.000000
      5.63071999      0.05713170
      1.45996161      0.28574555
      0.51468165      0.55178731
      0.20490363      0.26323149
s              7   1.000000
      0.38350848     -0.19623104
      0.04707223      0.94811626
      0.02222627      0.24898973
     34.93519903      0.00551557
      6.01613035      0.02518456
      0.48342174     -0.26719619
      0.18424399     -0.21953803
p              7   1.000000
      1.83062075     -0.01161155
      0.10124670      0.57060918
      0.03901771      0.59591652
      5.63071999     -0.02526560
      1.45996161     -0.12636648
      0.51468165     -0.24401927
      0.20490363     -0.11640999
 
          21   0
s              4   1.000000
     34.94223863     -0.01198412
      6.01734263     -0.05472053
      0.48351915      0.58055871
      0.18428112      0.47700799
p              4   1.000000
      5.63185461      0.05713170
      1.46025580      0.28574555
      0.51478536      0.55178731
      0.20494492      0.26323149
s              7   1.000000
      0.38350848     -0.19622444
      0.04707223      0.94808438
      0.02222627      0.24898135
     34.94223863      0.00551451
      6.01734263      0.02517971
      0.48351915     -0.26714479
      0.18428112     -0.21949580
p              7   1.000000
      1.83062075     -0.01161118
      0.10124670      0.57059116
      0.03901771      0.59589770
      5.63185461     -0.02526072
      1.46025580     -0.12634208
      0.51478536     -0.24397215
      0.20494492     -0.11638752
 
          22   0
s              4   1.000000
     35.62938209     -0.01198412
      6.13567442     -0.05472053
      0.49302762      0.58055871
      0.18790503      0.47700799
p              4   1.000000
      5.74260573      0.05713170
      1.48897191      0.28574555
      0.52490868      0.55178731
      0.20897519      0.26323149
s              7   1.000000
      0.38350848     -0.19559703
      0.04707223      0.94505295
      0.02222627      0.24818525
     35.62938209      0.00541282
      6.13567442      0.02471543
      0.49302762     -0.26221892
      0.18790503     -0.21544853
p              7   1.000000
      1.83062075     -0.01157630
      0.10124670      0.56887732
      0.03901771      0.59410785
      5.74260573     -0.02479311
      1.48897191     -0.12400330
      0.52490868     -0.23945587
      0.20897519     -0.11423301
 
          23   0
s              4   1.000000
     35.10657375     -0.01198412
      6.04564250     -0.05472053
      0.48579317      0.58055871
      0.18514780      0.47700799
p              4   1.000000
      5.65834151      0.05713170
      1.46712346      0.28574555
      0.51720642      0.55178730
      0.20590879      0.26323149
s              7   1.000000
      0.38350848     -0.19607141
      0.04707223      0.94734500
      0.02222627      0.24878718
     35.10657375      0.00548985
      6.04564250      0.02506713
      0.48579317     -0.26595031
      0.18514780     -0.21851437
p              7   1.000000
      1.83062075     -0.01160267
      0.10124670      0.57017313
      0.03901771      0.59546114
      5.65834151     -0.02514734
      1.46712346     -0.12577499
      0.51720642     -0.24287708
      0.20590879     -0.11586511
 
          24   0
s              4   1.000000
     35.00120129     -0.01198412
      6.02749649     -0.05472052
      0.48433506      0.58055871
      0.18459208      0.47700799
p              4   1.000000
      5.64135798      0.05713170
      1.46271989      0.28574555
      0.51565402      0.55178731
      0.20529075      0.26323149
s              7   1.000000
      0.38350848     -0.19616931
      0.04707223      0.94781803
      0.02222627      0.24891139
     35.00120129      0.00550563
      6.02749649      0.02513921
      0.48433506     -0.26671500
      0.18459208     -0.21914267
p              7   1.000000
      1.83062075     -0.01160812
      0.10124670      0.57044057
      0.03901771      0.59574045
      5.64135798     -0.02521992
      1.46271989     -0.12613804
      0.51565402     -0.24357814
      0.20529075     -0.11619955
 
          25   0
s              4   1.000000
     36.92694373     -0.01198412
      6.35912527     -0.05472052
      0.51098285      0.58055871
      0.19474821      0.47700800
p              4   1.000000
      5.95174169      0.05713170
      1.54319775      0.28574555
      0.54402496      0.55178731
      0.21658571      0.26323149
s              7   1.000000
      0.38350848     -0.19449631
      0.04707223      0.93973466
      0.02222627      0.24678860
     36.92694373      0.00523048
      6.35912527      0.02388284
      0.51098285     -0.25338558
      0.19474821     -0.20819074
p              7   1.000000
      1.83062075     -0.01151513
      0.10124670      0.56587091
      0.03901771      0.59096810
      5.95174169     -0.02395433
      1.54319775     -0.11980813
      0.54402496     -0.23135480
      0.21658571     -0.11036838
 
          26   0
s              4   1.000000
     35.11908891     -0.01198412
      6.04779771     -0.05472052
      0.48596635      0.58055871
      0.18521381      0.47700799
p              4   1.000000
      5.66035865      0.05713170
      1.46764648      0.28574555
      0.51739080      0.55178731
      0.20598219      0.26323149
s              7   1.000000
      0.38350848     -0.19605983
      0.04707223      0.94728907
      0.02222627      0.24877248
     35.11908891      0.00548798
      6.04779771      0.02505860
      0.48596635     -0.26585977
      0.18521381     -0.21843998
p              7   1.000000
      1.83062075     -0.01160203
      0.10124670      0.57014151
      0.03901771      0.59542813
      5.66035865     -0.02513874
      1.46764648     -0.12573201
      0.51739080     -0.24279407
      0.20598219     -0.11582551
 
          27   0
s              4   1.000000
     35.15773457     -0.01198412
      6.05445281     -0.05472052
      0.48650112      0.58055871
      0.18541762      0.47700800
p              4   1.000000
      5.66658741      0.05713170
      1.46926150      0.28574555
      0.51796014      0.55178731
      0.20620886      0.26323149
s              7   1.000000
      0.38350848     -0.19602416
      0.04707223      0.94711669
      0.02222627      0.24872722
     35.15773457      0.00548222
      6.05445281      0.02503228
      0.48650112     -0.26558058
      0.18541762     -0.21821059
p              7   1.000000
      1.83062075     -0.01160005
      0.10124670      0.57004406
      0.03901771      0.59532634
      5.66658741     -0.02511224
      1.46926150     -0.12559945
      0.51796014     -0.24253810
      0.20620886     -0.11570340
 
          28   0
s              4   1.000000
     35.10265444     -0.01198412
      6.04496756     -0.05472053
      0.48573894      0.58055871
      0.18512713      0.47700799
p              4   1.000000
      5.65770981      0.05713170
      1.46695967      0.28574555
      0.51714868      0.55178730
      0.20588580      0.26323149
s              7   1.000000
      0.38350848     -0.19607504
      0.04707223      0.94736252
      0.02222627      0.24879179
     35.10265444      0.00549043
      6.04496756      0.02506980
      0.48573894     -0.26597867
      0.18512713     -0.21853768
p              7   1.000000
      1.83062075     -0.01160287
      0.10124670      0.57018304
      0.03901771      0.59547150
      5.65770981     -0.02515003
      1.46695967     -0.12578846
      0.51714868     -0.24290308
      0.20588580     -0.11587751
 
          29   0
s              4   1.000000
     35.01023790     -0.01198412
      6.02905266     -0.05472053
      0.48446011      0.58055871
      0.18463974      0.47700799
p              4   1.000000
      5.64281447      0.05713170
      1.46309753      0.28574555
      0.51578716      0.55178731
      0.20534375      0.26323149
s              7   1.000000
      0.38350848     -0.19616089
      0.04707223      0.94777732
      0.02222627      0.24890072
     35.01023790      0.00550428
      6.02905266      0.02513301
      0.48446011     -0.26664926
      0.18463974     -0.21908865
p              7   1.000000
      1.83062075     -0.01160765
      0.10124670      0.57041755
      0.03901771      0.59571638
      5.64281447     -0.02521368
      1.46309753     -0.12610683
      0.51578716     -0.24351786
      0.20534375     -0.11617079
 
          30   0
s              4   1.000000
     34.92033529     -0.01198412
      6.01357069     -0.05472053
      0.48321606      0.58055871
      0.18416560      0.47700799
p              4   1.000000
      5.62832431      0.05713170
      1.45934045      0.28574555
      0.51446267      0.55178731
      0.20481645      0.26323149
s              7   1.000000
      0.38350848     -0.19624498
      0.04707223      0.94818362
      0.02222627      0.24900741
     34.92033529      0.00551781
      6.01357069      0.02519480
      0.48321606     -0.26730478
      0.18416560     -0.21962726
p              7   1.000000
      1.83062075     -0.01161232
      0.10124670      0.57064727
      0.03901771      0.59595628
      5.62832431     -0.02527591
      1.45934045     -0.12641804
      0.51446267     -0.24411883
      0.20481645     -0.11645749
 
          31   0
s              4   1.000000
     35.01022121     -0.01198412
      6.02904979     -0.05472052
      0.48445988      0.58055871
      0.18463965      0.47700799
p              4   1.000000
      5.64281178      0.05713170
      1.46309683      0.28574555
      0.51578691      0.55178731
      0.20534366      0.26323149
s              7   1.000000
      0.38350848     -0.19616090
      0.04707223      0.94777739
      0.02222627      0.24890074
     35.01022121      0.00550428
      6.02904979      0.02513302
      0.48445988     -0.26664938
      0.18463965     -0.21908875
p              7   1.000000
      1.83062075     -0.01160765
      0.10124670      0.57041759
      0.03901771      0.59571646
      5.64281178     -0.02521369
      1.46309683     -0.12610688
      0.51578691     -0.24351798
      0.20534366     -0.11617085
 
          32   0
s              4   1.000000
     35.07326910     -0.01198412
      6.03990716     -0.05472053
      0.48533231      0.58055871
      0.18497216      0.47700799
p              4   1.000000
      5.65297359      0.05713170
      1.46573164      0.28574555
      0.51671576      0.55178731
      0.20571345      0.26323149
s              7   1.000000
      0.38350848     -0.19610227
      0.04707223      0.94749410
      0.02222627      0.24882633
     35.07326910      0.00549483
      6.03990716      0.02508987
      0.48533231     -0.26619154
      0.18497216     -0.21871257
p              7   1.000000
      1.83062075     -0.01160439
      0.10124670      0.57025743
      0.03901771      0.59554918
      5.65297359     -0.02517023
      1.46573164     -0.12588952
      0.51671576     -0.24309823
      0.20571345     -0.11597061
 
          33   0
s              4   1.000000
     35.90675007     -0.01198412
      6.18343948     -0.05472052
      0.49686575      0.58055871
      0.18936783      0.47700799
p              4   1.000000
      5.78731082      0.05713170
      1.50056328      0.28574555
      0.52899499      0.55178731
      0.21060202      0.26323149
s              7   1.000000
      0.38350848     -0.19535280
      0.04707223      0.94387293
      0.02222627      0.24787537
     35.90675007      0.00537281
      6.18343948      0.02453273
      0.49686575     -0.26028059
      0.18936783     -0.21385593
p              7   1.000000
      1.83062075     -0.01156273
      0.10124670      0.56821022
      0.03901771      0.59341116
      5.78731082     -0.02460908
      1.50056328     -0.12308287
      0.52899499     -0.23767847
      0.21060202     -0.11338510
 
          34   0
s              4   1.000000
     57.51523230     -0.01198412
      9.90459892     -0.05472052
      0.79587679      0.58055871
      0.30332834      0.47700799
p              4   1.000000
      6.77943408      0.05713170
      1.75780602      0.28574555
      0.61968102      0.55178731
      0.24670569      0.26323149
s              7   1.000000
      0.47894987     -0.18899118
      0.05878681      0.91313590
      0.02775758      0.23980336
     57.51523230      0.00422091
      9.90459892      0.01927304
      0.79587679     -0.20447779
      0.30332834     -0.16800633
p              7   1.000000
      2.28619608     -0.01168021
      0.12644335      0.57398339
      0.04872781      0.59944040
      6.77943408     -0.02616561
      1.75780602     -0.13086793
      0.61968102     -0.25271177
      0.24670569     -0.12055677
 
          35   0
s              4   1.000000
     35.84455432     -0.01198412
      6.17272885     -0.05472053
      0.49600510      0.58055871
      0.18903982      0.47700800
p              4   1.000000
      5.77728635      0.05713170
      1.49796408      0.28574555
      0.52807869      0.55178730
      0.21023723      0.26323149
s              7   1.000000
      0.38350848     -0.19540712
      0.04707223      0.94413541
      0.02222627      0.24794430
     35.84455432      0.00538173
      6.17272885      0.02457347
      0.49600510     -0.26071279
      0.18903982     -0.21421104
p              7   1.000000
      1.83062075     -0.01156575
      0.10124670      0.56835861
      0.03901771      0.59356615
      5.77728635     -0.02465011
      1.49796408     -0.12328811
      0.52807869     -0.23807480
      0.21023723     -0.11357417
 
          36   0
s              4   1.000000
     35.19272204     -0.01198412
      6.06047794     -0.05472052
      0.48698526      0.58055871
      0.18560214      0.47700800
p              4   1.000000
      5.67222655      0.05713170
      1.47072365      0.28574555
      0.51847560      0.55178731
      0.20641407      0.26323149
s              7   1.000000
      0.38350848     -0.19599195
      0.04707223      0.94696106
      0.02222627      0.24868634
     35.19272204      0.00547701
      6.06047794      0.02500850
      0.48698526     -0.26532831
      0.18560214     -0.21800332
p              7   1.000000
      1.83062075     -0.01159826
      0.10124670      0.56995607
      0.03901771      0.59523447
      5.67222655     -0.02508829
      1.47072365     -0.12547968
      0.51847560     -0.24230682
      0.20641407     -0.11559306
 
          37   0
s              4   1.000000
     35.00393303     -0.01198412
      6.02796691     -0.05472052
      0.48437286      0.58055871
      0.18460649      0.47700799
p              4   1.000000
      5.64179827      0.05713170
      1.46283405      0.28574555
      0.51569427      0.55178731
      0.20530677      0.26323149
s              7   1.000000
      0.38350848     -0.19616676
      0.04707223      0.94780571
      0.02222627      0.24890818
     35.00393303      0.00550522
      6.02796691      0.02513733
      0.48437286     -0.26669512
      0.18460649     -0.21912634
p              7   1.000000
      1.83062075     -0.01160797
      0.10124670      0.57043360
      0.03901771      0.59573317
      5.64179827     -0.02521804
      1.46283405     -0.12612860
      0.51569427     -0.24355992
      0.20530677     -0.11619085
 
          38   0
s              4   1.000000
     34.90875350     -0.01198412
      6.01157621     -0.05472053
      0.48305580      0.58055871
      0.18410452      0.47700799
p              4   1.000000
      5.62645760      0.05713170
      1.45885644      0.28574555
      0.51429204      0.55178731
      0.20474852      0.26323149
s              7   1.000000
      0.38350848     -0.19625586
      0.04707223      0.94823617
      0.02222627      0.24902123
     34.90875350      0.00551956
      6.01157621      0.02520278
      0.48305580     -0.26738946
      0.18410452     -0.21969683
p              7   1.000000
      1.83062075     -0.01161293
      0.10124670      0.57067697
      0.03901771      0.59598731
      5.62645760     -0.02528394
      1.45885644     -0.12645824
      0.51429204     -0.24419646
      0.20474852     -0.11649452
 
          39   0
s              4   1.000000
     34.91562165     -0.01198412
      6.01275896     -0.05472053
      0.48315084      0.58055871
      0.18414074      0.47700800
p              4   1.000000
      5.62756459      0.05713170
      1.45914346      0.28574555
      0.51439322      0.55178731
      0.20478881      0.26323149
s              7   1.000000
      0.38350848     -0.19624941
      0.04707223      0.94820500
      0.02222627      0.24901304
     34.91562165      0.00551852
      6.01275896      0.02519804
      0.48315084     -0.26733924
      0.18414074     -0.21965557
p              7   1.000000
      1.83062075     -0.01161257
      0.10124670      0.57065936
      0.03901771      0.59596895
      5.62756459     -0.02527918
      1.45914346     -0.12643440
      0.51439322     -0.24415042
      0.20478881     -0.11647256
 
          40   0
s              4   1.000000
     35.00367205     -0.01198412
      6.02792197     -0.05472052
      0.48436925      0.58055871
      0.18460511      0.47700800
p              4   1.000000
      5.64175621      0.05713170
      1.46282314      0.28574555
      0.51569042      0.55178731
      0.20530524      0.26323149
s              7   1.000000
      0.38350848     -0.19616701
      0.04707223      0.94780689
      0.02222627      0.24890847
     35.00367205      0.00550526
      6.02792197      0.02513751
      0.48436925     -0.26669702
      0.18460511     -0.21912790
p              7   1.000000
      1.83062075     -0.01160799
      0.10124670      0.57043427
      0.03901771      0.59573386
      5.64175621     -0.02521822
      1.46282314     -0.12612950
      0.51569042     -0.24356166
      0.20530524     -0.11619169
 
          41   0
s              4   1.000000
     35.18096085     -0.01198412
      6.05845257     -0.05472053
      0.48682251      0.58055871
      0.18554011      0.47700799
p              4   1.000000
      5.67033093      0.05713170
      1.47023214      0.28574555
      0.51830232      0.55178731
      0.20634509      0.26323149
s              7   1.000000
      0.38350848     -0.19600277
      0.04707223      0.94701334
      0.02222627      0.24870009
     35.18096085      0.00547876
      6.05845257      0.02501649
      0.48682251     -0.26541306
      0.18554011     -0.21807295
p              7   1.000000
      1.83062075     -0.01159886
      0.10124670      0.56998563
      0.03901771      0.59526530
      5.67033093     -0.02509634
      1.47023214     -0.12551992
      0.51830232     -0.24238452
      0.20634509     -0.11563013
 
          42   0
s              4   1.000000
     35.18559460     -0.01198412
      6.05925054     -0.05472052
      0.48688664      0.58055871
      0.18556455      0.47700799
p              4   1.000000
      5.67107778      0.05713170
      1.47042579      0.28574555
      0.51837059      0.55178731
      0.20637226      0.26323149
s              7   1.000000
      0.38350848     -0.19599850
      0.04707223      0.94699273
      0.02222627      0.24869468
     35.18559460      0.00547807
      6.05925054      0.02501334
      0.48688664     -0.26537966
      0.18556455     -0.21804551
p              7   1.000000
      1.83062075     -0.01159862
      0.10124670      0.56997398
      0.03901771      0.59525316
      5.67107778     -0.02509317
      1.47042579     -0.12550406
      0.51837059     -0.24235390
      0.20637226     -0.11561553
 
          43   0
s              4   1.000000
     35.01071334     -0.01198412
      6.02913454     -0.05472052
      0.48446669      0.58055871
      0.18464225      0.47700799
p              4   1.000000
      5.64289110      0.05713170
      1.46311740      0.28574555
      0.51579416      0.55178731
      0.20534654      0.26323149
s              7   1.000000
      0.38350848     -0.19616044
      0.04707223      0.94777517
      0.02222627      0.24890016
     35.01071334      0.00550421
      6.02913454      0.02513268
      0.48446669     -0.26664580
      0.18464225     -0.21908581
p              7   1.000000
      1.83062075     -0.01160762
      0.10124670      0.57041633
      0.03901771      0.59571513
      5.64289110     -0.02521335
      1.46311740     -0.12610518
      0.51579416     -0.24351469
      0.20534654     -0.11616928
 
          44   0
s              4   1.000000
     34.90934559     -0.01198412
      6.01167817     -0.05472052
      0.48306399      0.58055871
      0.18410764      0.47700799
p              4   1.000000
      5.62655303      0.05713170
      1.45888118      0.28574555
      0.51430076      0.55178731
      0.20475200      0.26323149
s              7   1.000000
      0.38350848     -0.19625530
      0.04707223      0.94823348
      0.02222627      0.24902052
     34.90934559      0.00551947
      6.01167817      0.02520237
      0.48306399     -0.26738513
      0.18410764     -0.21969327
p              7   1.000000
      1.83062075     -0.01161289
      0.10124670      0.57067545
      0.03901771      0.59598574
      5.62655303     -0.02528353
      1.45888118     -0.12645618
      0.51430076     -0.24419249
      0.20475200     -0.11649263
 
          45   0
s              4   1.000000
     34.90979309     -0.01198412
      6.01175524     -0.05472052
      0.48307018      0.58055871
      0.18411000      0.47700800
p              4   1.000000
      5.62662516      0.05713170
      1.45889988      0.28574555
      0.51430736      0.55178731
      0.20475462      0.26323149
s              7   1.000000
      0.38350848     -0.19625488
      0.04707223      0.94823145
      0.02222627      0.24901998
     34.90979309      0.00551940
      6.01175524      0.02520206
      0.48307018     -0.26738186
      0.18411000     -0.21969059
p              7   1.000000
      1.83062075     -0.01161287
      0.10124670      0.57067431
      0.03901771      0.59598456
      5.62662516     -0.02528322
      1.45889988     -0.12645463
      0.51430736     -0.24418949
      0.20475462     -0.11649120
 
          46   0
s              4   1.000000
     35.00138256     -0.01198412
      6.02752770     -0.05472052
      0.48433757      0.58055871
      0.18459304      0.47700799
p              4   1.000000
      5.64138720      0.05713170
      1.46272746      0.28574555
      0.51565669      0.55178731
      0.20529181      0.26323149
s              7   1.000000
      0.38350848     -0.19616915
      0.04707223      0.94781721
      0.02222627      0.24891120
     35.00138256      0.00550561
      6.02752770      0.02513908
      0.48433757     -0.26671368
      0.18459304     -0.21914159
p              7   1.000000
      1.83062075     -0.01160811
      0.10124670      0.57044010
      0.03901771      0.59573997
      5.64138720     -0.02521980
      1.46272746     -0.12613741
      0.51565669     -0.24357693
      0.20529181     -0.11619898
 
          47   0
s              4   1.000000
     35.15099859     -0.01198412
      6.05329282     -0.05472053
      0.48640791      0.58055871
      0.18538209      0.47700799
p              4   1.000000
      5.66550173      0.05713170
      1.46898000      0.28574555
      0.51786091      0.55178731
      0.20616935      0.26323149
s              7   1.000000
      0.38350848     -0.19603037
      0.04707223      0.94714671
      0.02222627      0.24873509
     35.15099859      0.00548322
      6.05329282      0.02503686
      0.48640791     -0.26562920
      0.18538209     -0.21825054
p              7   1.000000
      1.83062075     -0.01160039
      0.10124670      0.57006102
      0.03901771      0.59534406
      5.66550173     -0.02511685
      1.46898000     -0.12562254
      0.51786091     -0.24258268
      0.20616935     -0.11572466
 
          48   0
s              4   1.000000
     35.65161698     -0.01198412
      6.13950345     -0.05472053
      0.49333530      0.58055871
      0.18802229      0.47700799
p              4   1.000000
      5.74618946      0.05713170
      1.48990112      0.28574555
      0.52523625      0.55178731
      0.20910560      0.26323149
s              7   1.000000
      0.38350848     -0.19557726
      0.04707223      0.94495745
      0.02222627      0.24816016
     35.65161698      0.00540960
      6.13950345      0.02470068
      0.49333530     -0.26206249
      0.18802229     -0.21532001
p              7   1.000000
      1.83062075     -0.01157521
      0.10124670      0.56882333
      0.03901771      0.59405146
      5.74618946     -0.02477826
      1.48990112     -0.12392903
      0.52523625     -0.23931244
      0.20910560     -0.11416459
 
          49   0
s              4   1.000000
     61.56195760     -0.01198412
     10.60147850     -0.05472053
      0.85187403      0.58055871
      0.32467028      0.47700799
p              4   1.000000
      7.25642959      0.05713170
      1.88148384      0.28574555
      0.66328128      0.55178731
      0.26406370      0.26323149
s              7   1.000000
      0.47894987     -0.18767535
      0.05878681      0.90677833
      0.02775758      0.23813375
     61.56195760      0.00394664
     10.60147850      0.01802070
      0.85187403     -0.19119106
      0.32467028     -0.15708948
p              7   1.000000
      2.28619608     -0.01155582
      0.12644335      0.56787067
      0.04872781      0.59305655
      7.25642959     -0.02451496
      1.88148384     -0.12261214
      0.66328128     -0.23676947
      0.26406370     -0.11295146
 
          50   0
s              4   1.000000
     35.14752963     -0.01198412
      6.05269544     -0.05472053
      0.48635990      0.58055871
      0.18536380      0.47700800
p              4   1.000000
      5.66494262      0.05713170
      1.46883503      0.28574555
      0.51780980      0.55178731
      0.20614900      0.26323149
s              7   1.000000
      0.38350848     -0.19603357
      0.04707223      0.94716216
      0.02222627      0.24873916
     35.14752963      0.00548374
      6.05269544      0.02503922
      0.48635990     -0.26565425
      0.18536380     -0.21827112
p              7   1.000000
      1.83062075     -0.01160057
      0.10124670      0.57006976
      0.03901771      0.59535317
      5.66494262     -0.02511923
      1.46883503     -0.12563443
      0.51780980     -0.24260565
      0.20614900     -0.11573562
 
          51   0
s              4   1.000000
     35.00954979     -0.01198412
      6.02893417     -0.05472053
      0.48445058      0.58055871
      0.18463611      0.47700799
p              4   1.000000
      5.64270356      0.05713170
      1.46306877      0.28574555
      0.51577702      0.55178731
      0.20533972      0.26323149
s              7   1.000000
      0.38350848     -0.19616153
      0.04707223      0.94778042
      0.02222627      0.24890152
     35.00954979      0.00550438
      6.02893417      0.02513348
      0.48445058     -0.26665426
      0.18463611     -0.21909277
p              7   1.000000
      1.83062075     -0.01160768
      0.10124670      0.57041929
      0.03901771      0.59571824
      5.64270356     -0.02521416
      1.46306877     -0.12610920
      0.51577702     -0.24352245
      0.20533972     -0.11617298
 
          52   0
s              4   1.000000
     34.92329290     -0.01198412
      6.01408002     -0.05472052
      0.48325699      0.58055871
      0.18418120      0.47700800
p              4   1.000000
      5.62880101      0.05713170
      1.45946405      0.28574555
      0.51450624      0.55178731
      0.20483380      0.26323149
s              7   1.000000
      0.38350848     -0.19624221
      0.04707223      0.94817021
      0.02222627      0.24900390
     34.92329290      0.00551736
      6.01408002      0.02519276
      0.48325699     -0.26728317
      0.18418120     -0.21960950
p              7   1.000000
      1.83062075     -0.01161217
      0.10124670      0.57063968
      0.03901771      0.59594840
      5.62880101     -0.02527385
      1.45946405     -0.12640778
      0.51450624     -0.24409901
      0.20483380     -0.11644804
 
          53   0
s              4   1.000000
     34.92139324     -0.01198412
      6.01375288     -0.05472053
      0.48323070      0.58055871
      0.18417118      0.47700799
p              4   1.000000
      5.62849483      0.05713170
      1.45938466      0.28574555
      0.51447825      0.55178731
      0.20482266      0.26323149
s              7   1.000000
      0.38350848     -0.19624399
      0.04707223      0.94817883
      0.02222627      0.24900616
     34.92139324      0.00551765
      6.01375288      0.02519407
      0.48323070     -0.26729705
      0.18417118     -0.21962091
p              7   1.000000
      1.83062075     -0.01161227
      0.10124670      0.57064455
      0.03901771      0.59595345
      5.62849483     -0.02527517
      1.45938466     -0.12641437
      0.51447825     -0.24411174
      0.20482266     -0.11645411
 
          54   0
s              4   1.000000
     34.92460221     -0.01198412
      6.01430549     -0.05472052
      0.48327511      0.58055871
      0.18418811      0.47700799
p              4   1.000000
      5.62901204      0.05713170
      1.45951877      0.28574555
      0.51452553      0.55178731
      0.20484148      0.26323149
s              7   1.000000
      0.38350848     -0.19624098
      0.04707223      0.94816428
      0.02222627      0.24900234
     34.92460221      0.00551716
      6.01430549      0.02519186
      0.48327511     -0.26727360
      0.18418811     -0.21960164
p              7   1.000000
      1.83062075     -0.01161210
      0.10124670      0.57063632
      0.03901771      0.59594488
      5.62901204     -0.02527295
      1.45951877     -0.12640323
      0.51452553     -0.24409024
      0.20484148     -0.11644385
 
          55   0
s              4   1.000000
     35.01305718     -0.01198412
      6.02953817     -0.05472052
      0.48449912      0.58055871
      0.18465461      0.47700799
p              4   1.000000
      5.64326887      0.05713170
      1.46321535      0.28574555
      0.51582869      0.55178731
      0.20536029      0.26323149
s              7   1.000000
      0.38350848     -0.19615826
      0.04707223      0.94776462
      0.02222627      0.24889738
     35.01305718      0.00550385
      6.02953817      0.02513108
      0.48449912     -0.26662875
      0.18465461     -0.21907180
p              7   1.000000
      1.83062075     -0.01160750
      0.10124670      0.57041036
      0.03901771      0.59570890
      5.64326887     -0.02521174
      1.46321535     -0.12609709
      0.51582869     -0.24349906
      0.20536029     -0.11616183
 
          56   0
s              4   1.000000
     35.14629067     -0.01198412
      6.05248208     -0.05472052
      0.48634276      0.58055871
      0.18535726      0.47700799
p              4   1.000000
      5.66474292      0.05713170
      1.46878325      0.28574555
      0.51779155      0.55178731
      0.20614174      0.26323149
s              7   1.000000
      0.38350848     -0.19603471
      0.04707223      0.94716768
      0.02222627      0.24874062
     35.14629067      0.00548392
      6.05248208      0.02504007
      0.48634276     -0.26566319
      0.18535726     -0.21827847
p              7   1.000000
      1.83062075     -0.01160063
      0.10124670      0.57007288
      0.03901771      0.59535644
      5.66474292     -0.02512008
      1.46878325     -0.12563868
      0.51779155     -0.24261385
      0.20614174     -0.11573953
 
          57   0
s              4   1.000000
      8.30692835      0.05675242
      1.52006554      0.26014135
      0.42229085      0.53284611
      0.14015454      0.29162544
s              7   1.000000
      0.92936822     -0.06733102
      0.05643440      0.66948123
      0.02166600      0.51463450
      8.30692835     -0.02902811
      1.52006554     -0.13305887
      0.42229085     -0.27254376
      0.14015454     -0.14916256
p              4   1.000000
      0.64737396      0.05713170
      0.16785440      0.28574555
      0.05917387      0.55178731
      0.02355814      0.26323150
 
          58   0
s              4   1.000000
      8.30632279      0.05675242
      1.51995473      0.26014135
      0.42226007      0.53284611
      0.14014432      0.29162544
s              7   1.000000
      0.92936822     -0.06733180
      0.05643440      0.66948899
      0.02166600      0.51464046
      8.30632279     -0.02902974
      1.51995473     -0.13306630
      0.42226007     -0.27255898
      0.14014432     -0.14917090
p              4   1.000000
      0.64737396      0.05713170
      0.16785440      0.28574555
      0.05917387      0.55178731
      0.02355814      0.26323150
 
          59   0
s              4   1.000000
      8.30601428      0.05675242
      1.51989828      0.26014135
      0.42224438      0.53284611
      0.14013912      0.29162544
s              7   1.000000
      0.92936822     -0.06733220
      0.05643440      0.66949294
      0.02166600      0.51464349
      8.30601428     -0.02903056
      1.51989828     -0.13307009
      0.42224438     -0.27256673
      0.14013912     -0.14917514
p              4   1.000000
      0.64737396      0.05713170
      0.16785440      0.28574555
      0.05917387      0.55178731
      0.02355814      0.26323150
 
          60   0
s              4   1.000000
      8.30995099      0.05675242
      1.52061865      0.26014135
      0.42244451      0.53284611
      0.14020554      0.29162544
s              7   1.000000
      0.92936822     -0.06732713
      0.05643440      0.66944256
      0.02166600      0.51460478
      8.30995099     -0.02902003
      1.52061865     -0.13302180
      0.42244451     -0.27246783
      0.14020554     -0.14912101
p              4   1.000000
      0.64737396      0.05713170
      0.16785440      0.28574555
      0.05917387      0.55178731
      0.02355814      0.26323150
 
          61   0
s              4   1.000000
      8.30939196      0.05675242
      1.52051635      0.26014135
      0.42241609      0.53284611
      0.14019610      0.29162544
s              7   1.000000
      0.92936822     -0.06732785
      0.05643440      0.66944971
      0.02166600      0.51461027
      8.30939196     -0.02902152
      1.52051635     -0.13302866
      0.42241609     -0.27248187
      0.14019610     -0.14912870
p              4   1.000000
      0.64737396      0.05713170
      0.16785440      0.28574555
      0.05917387      0.55178731
      0.02355814      0.26323150
 
          62   0
s              4   1.000000
      8.30896515      0.05675242
      1.52043825      0.26014135
      0.42239440      0.53284611
      0.14018890      0.29162544
s              7   1.000000
      0.92936822     -0.06732840
      0.05643440      0.66945516
      0.02166600      0.51461447
      8.30896515     -0.02902266
      1.52043825     -0.13303389
      0.42239440     -0.27249259
      0.14018890     -0.14913456
p              4   1.000000
      0.64737396      0.05713170
      0.16785440      0.28574555
      0.05917387      0.55178731
      0.02355814      0.26323150
 
          63   0
s              4   1.000000
      8.30943232      0.05675242
      1.52052374      0.26014135
      0.42241814      0.53284611
      0.14019678      0.29162544
s              7   1.000000
      0.92936822     -0.06732780
      0.05643440      0.66944919
      0.02166600      0.51460987
      8.30943232     -0.02902141
      1.52052374     -0.13302816
      0.42241814     -0.27248085
      0.14019678     -0.14912814
p              4   1.000000
      0.64737396      0.05713170
      0.16785440      0.28574555
      0.05917387      0.55178731
      0.02355814      0.26323150
 
          64   0
s              4   1.000000
      8.30948583      0.05675242
      1.52053353      0.26014135
      0.42242086      0.53284611
      0.14019769      0.29162544
s              7   1.000000
      0.92936822     -0.06732773
      0.05643440      0.66944851
      0.02166600      0.51460935
      8.30948583     -0.02902127
      1.52053353     -0.13302751
      0.42242086     -0.27247951
      0.14019769     -0.14912740
p              4   1.000000
      0.64737396      0.05713170
      0.16785440      0.28574555
      0.05917387      0.55178731
      0.02355814      0.26323150
 
          65   0
s              4   1.000000
      8.30900496      0.05675242
      1.52044554      0.26014135
      0.42239642      0.53284611
      0.14018957      0.29162544
s              7   1.000000
      0.92936822     -0.06732835
      0.05643440      0.66945466
      0.02166600      0.51461407
      8.30900496     -0.02902256
      1.52044554     -0.13303340
      0.42239642     -0.27249159
      0.14018957     -0.14913402
p              4   1.000000
      0.64737396      0.05713170
      0.16785440      0.28574555
      0.05917387      0.55178731
      0.02355814      0.26323150
 
          66   0
s              4   1.000000
      8.30893350      0.05675242
      1.52043246      0.26014135
      0.42239279      0.53284611
      0.14018837      0.29162544
s              7   1.000000
      0.92936822     -0.06732844
      0.05643440      0.66945558
      0.02166600      0.51461477
      8.30893350     -0.02902275
      1.52043246     -0.13303428
      0.42239279     -0.27249338
      0.14018837     -0.14913500
p              4   1.000000
      0.64737396      0.05713170
      0.16785440      0.28574555
      0.05917387      0.55178731
      0.02355814      0.26323150
 
          67   0
s              4   1.000000
      8.30892201      0.05675242
      1.52043036      0.26014135
      0.42239220      0.53284611
      0.14018817      0.29162544
s              7   1.000000
      0.92936822     -0.06732846
      0.05643440      0.66945572
      0.02166600      0.51461489
      8.30892201     -0.02902278
      1.52043036     -0.13303442
      0.42239220     -0.27249367
      0.14018817     -0.14913515
p              4   1.000000
      0.64737396      0.05713170
      0.16785440      0.28574555
      0.05917387      0.55178731
      0.02355814      0.26323150
 
          68   0
s              4   1.000000
      8.30891779      0.05675242
      1.52042959      0.26014135
      0.42239199      0.53284611
      0.14018810      0.29162544
s              7   1.000000
      0.92936822     -0.06732846
      0.05643440      0.66945577
      0.02166600      0.51461492
      8.30891779     -0.02902279
      1.52042959     -0.13303447
      0.42239199     -0.27249378
      0.14018810     -0.14913521
p              4   1.000000
      0.64737396      0.05713170
      0.16785440      0.28574555
      0.05917387      0.55178731
      0.02355814      0.26323150
 
          69   0
s              4   1.000000
      8.30892599      0.05675242
      1.52043109      0.26014135
      0.42239241      0.53284611
      0.14018824      0.29162544
s              7   1.000000
      0.92936822     -0.06732845
      0.05643440      0.66945567
      0.02166600      0.51461484
      8.30892599     -0.02902277
      1.52043109     -0.13303437
      0.42239241     -0.27249357
      0.14018824     -0.14913510
p              4   1.000000
      0.64737396      0.05713170
      0.16785440      0.28574555
      0.05917387      0.55178731
      0.02355814      0.26323150
 
          70   0
s              4   1.000000
      8.30898466      0.05675242
      1.52044182      0.26014135
      0.42239539      0.53284611
      0.14018923      0.29162544
s              7   1.000000
      0.92936822     -0.06732838
      0.05643440      0.66945492
      0.02166600      0.51461427
      8.30898466     -0.02902261
      1.52044182     -0.13303365
      0.42239539     -0.27249210
      0.14018923     -0.14913429
p              4   1.000000
      0.64737396      0.05713170
      0.16785440      0.28574555
      0.05917387      0.55178731
      0.02355814      0.26323150
 
          71   0
s              4   1.000000
      8.30924287      0.05675242
      1.52048907      0.26014135
      0.42240851      0.53284611
      0.14019359      0.29162544
s              7   1.000000
      0.92936822     -0.06732804
      0.05643440      0.66945161
      0.02166600      0.51461174
      8.30924287     -0.02902192
      1.52048907     -0.13303048
      0.42240851     -0.27248561
      0.14019359     -0.14913075
p              4   1.000000
      0.64737396      0.05713170
      0.16785440      0.28574555
      0.05917387      0.55178731
      0.02355814      0.26323150
 
          72   0
s              4   1.000000
      8.31013520      0.05675242
      1.52065236      0.26014135
      0.42245388      0.53284611
      0.14020864      0.29162544
s              7   1.000000
      0.92936822     -0.06732690
      0.05643440      0.66944020
      0.02166600      0.51460297
      8.31013520     -0.02901953
      1.52065236     -0.13301954
      0.42245388     -0.27246320
      0.14020864     -0.14911848
p              4   1.000000
      0.64737396      0.05713170
      0.16785440      0.28574555
      0.05917387      0.55178731
      0.02355814      0.26323150
 
          73   0
s              4   1.000000
      8.30639950      0.05675242
      1.51996877      0.26014135
      0.42226397      0.53284611
      0.14014562      0.29162544
s              7   1.000000
      0.92936822     -0.06733170
      0.05643440      0.66948800
      0.02166600      0.51463971
      8.30639950     -0.02902953
      1.51996877     -0.13306536
      0.42226397     -0.27255705
      0.14014562     -0.14916984
p              4   1.000000
      0.64737396      0.05713170
      0.16785440      0.28574555
      0.05917387      0.55178731
      0.02355814      0.26323150
 
          74   0
s              4   1.000000
      8.30689318      0.05675242
      1.52005911      0.26014135
      0.42228907      0.53284611
      0.14015394      0.29162544
s              7   1.000000
      0.92936822     -0.06733107
      0.05643440      0.66948168
      0.02166600      0.51463484
      8.30689318     -0.02902821
      1.52005911     -0.13305930
      0.42228907     -0.27254464
      0.14015394     -0.14916305
p              4   1.000000
      0.64737396      0.05713170
      0.16785440      0.28574555
      0.05917387      0.55178731
      0.02355814      0.26323150
 
          75   0
s              4   1.000000
      8.30614441      0.05675242
      1.51992209      0.26014135
      0.42225100      0.53284611
      0.14014131      0.29162544
s              7   1.000000
      0.92936822     -0.06733203
      0.05643440      0.66949126
      0.02166600      0.51464222
      8.30614441     -0.02903021
      1.51992209     -0.13306849
      0.42225100     -0.27256346
      0.14014131     -0.14917335
p              4   1.000000
      0.64737396      0.05713170
      0.16785440      0.28574555
      0.05917387      0.55178731
      0.02355814      0.26323150
 
          76   0
s              4   1.000000
      8.31005491      0.05675242
      1.52063766      0.26014135
      0.42244979      0.53284611
      0.14020729      0.29162544
s              7   1.000000
      0.92936822     -0.06732700
      0.05643440      0.66944123
      0.02166600      0.51460374
      8.31005491     -0.02901975
      1.52063766     -0.13302053
      0.42244979     -0.27246522
      0.14020729     -0.14911958
p              4   1.000000
      0.64737396      0.05713170
      0.16785440      0.28574555
      0.05917387      0.55178731
      0.02355814      0.26323150
 
          77   0
s              4   1.000000
      8.30947837      0.05675242
      1.52053217      0.26014135
      0.42242049      0.53284611
      0.14019756      0.29162543
s              7   1.000000
      0.92936822     -0.06732774
      0.05643440      0.66944861
      0.02166600      0.51460943
      8.30947837     -0.02902129
      1.52053217     -0.13302760
      0.42242049     -0.27247970
      0.14019756     -0.14912751
p              4   1.000000
      0.64737396      0.05713170
      0.16785440      0.28574555
      0.05917387      0.55178731
      0.02355814      0.26323150
 
          78   0
s              4   1.000000
      8.30902107      0.05675242
      1.52044849      0.26014135
      0.42239724      0.53284611
      0.14018985      0.29162544
s              7   1.000000
      0.92936822     -0.06732833
      0.05643440      0.66945445
      0.02166600      0.51461392
      8.30902107     -0.02902251
      1.52044849     -0.13303320
      0.42239724     -0.27249118
      0.14018985     -0.14913379
p              4   1.000000
      0.64737396      0.05713170
      0.16785440      0.28574555
      0.05917387      0.55178731
      0.02355814      0.26323150
 
          79   0
s              4   1.000000
      8.31036390      0.05675242
      1.52069421      0.26014135
      0.42246550      0.53284611
      0.14021250      0.29162544
s              7   1.000000
      0.92936822     -0.06732660
      0.05643440      0.66943728
      0.02166600      0.51460071
      8.31036390     -0.02901892
      1.52069421     -0.13301674
      0.42246550     -0.27245746
      0.14021250     -0.14911533
p              4   1.000000
      0.64737396      0.05713170
      0.16785440      0.28574555
      0.05917387      0.55178731
      0.02355814      0.26323150
 
          80   0
s              4   1.000000
      8.30963247      0.05675242
      1.52056036      0.26014135
      0.42242832      0.53284611
      0.14020016      0.29162544
s              7   1.000000
      0.92936822     -0.06732754
      0.05643440      0.66944663
      0.02166600      0.51460791
      8.30963247     -0.02902088
      1.52056036     -0.13302571
      0.42242832     -0.27247583
      0.14020016     -0.14912539
p              4   1.000000
      0.64737396      0.05713170
      0.16785440      0.28574555
      0.05917387      0.55178731
      0.02355814      0.26323150
 
          81   0
s              4   1.000000
      8.30880745      0.05675242
      1.52040940      0.26014135
      0.42238638      0.53284611
      0.14018624      0.29162544
s              7   1.000000
      0.92936822     -0.06732860
      0.05643440      0.66945719
      0.02166600      0.51461601
      8.30880745     -0.02902309
      1.52040940     -0.13303582
      0.42238638     -0.27249655
      0.14018624     -0.14913673
p              4   1.000000
      0.64737396      0.05713170
      0.16785440      0.28574555
      0.05917387      0.55178731
      0.02355814      0.26323150
 
          82   0
s              4   1.000000
      8.30891986      0.05675242
      1.52042997      0.26014135
      0.42239209      0.53284611
      0.14018814      0.29162544
s              7   1.000000
      0.92936822     -0.06732846
      0.05643440      0.66945575
      0.02166600      0.51461492
      8.30891986     -0.02902279
      1.52042997     -0.13303445
      0.42239209     -0.27249373
      0.14018814     -0.14913519
p              4   1.000000
      0.64737396      0.05713170
      0.16785440      0.28574555
      0.05917387      0.55178731
      0.02355814      0.26323150
 
          83   0
s              4   1.000000
      8.30982353      0.05675242
      1.52059533      0.26014135
      0.42243803      0.53284611
      0.14020339      0.29162544
s              7   1.000000
      0.92936822     -0.06732730
      0.05643440      0.66944419
      0.02166600      0.51460602
      8.30982353     -0.02902037
      1.52059533     -0.13302336
      0.42243803     -0.27247103
      0.14020339     -0.14912276
p              4   1.000000
      0.64737396      0.05713170
      0.16785440      0.28574555
      0.05917387      0.55178731
      0.02355814      0.26323150
 
          84   0
s              4   1.000000
      8.31001809      0.05675242
      1.52063093      0.26014135
      0.42244792      0.53284611
      0.14020667      0.29162544
s              7   1.000000
      0.92936822     -0.06732705
      0.05643440      0.66944170
      0.02166600      0.51460411
      8.31001809     -0.02901985
      1.52063093     -0.13302098
      0.42244792     -0.27246614
      0.14020667     -0.14912008
p              4   1.000000
      0.64737396      0.05713170
      0.16785440      0.28574555
      0.05917387      0.55178731
      0.02355814      0.26323150
 
          85   0
s              4   1.000000
      8.30890224      0.05675242
      1.52042674      0.26014135
      0.42239120      0.53284611
      0.14018784      0.29162544
s              7   1.000000
      0.92936822     -0.06732848
      0.05643440      0.66945598
      0.02166600      0.51461509
      8.30890224     -0.02902283
      1.52042674     -0.13303466
      0.42239120     -0.27249417
      0.14018784     -0.14913542
p              4   1.000000
      0.64737396      0.05713170
      0.16785440      0.28574555
      0.05917387      0.55178731
      0.02355814      0.26323150
 
          86   0
s              4   1.000000
      8.30889146      0.05675242
      1.52042477      0.26014135
      0.42239065      0.53284611
      0.14018766      0.29162544
s              7   1.000000
      0.92936822     -0.06732850
      0.05643440      0.66945611
      0.02166600      0.51461519
      8.30889146     -0.02902286
      1.52042477     -0.13303479
      0.42239065     -0.27249444
      0.14018766     -0.14913557
p              4   1.000000
      0.64737396      0.05713170
      0.16785440      0.28574555
      0.05917387      0.55178731
      0.02355814      0.26323150
 
          87   0
s              4   1.000000
      8.31105131      0.05675242
      1.52081999      0.26014135
      0.42250045      0.53284611
      0.14022410      0.29162544
s              7   1.000000
      0.92936822     -0.06732572
      0.05643440      0.66942849
      0.02166600      0.51459395
      8.31105131     -0.02901708
      1.52081999     -0.13300831
      0.42250045     -0.27244020
      0.14022410     -0.14910589
p              4   1.000000
      0.64737396      0.05713170
      0.16785440      0.28574555
      0.05917387      0.55178731
      0.02355814      0.26323150
 
          88   0
s              4   1.000000
      8.30929339      0.05675242
      1.52049832      0.26014135
      0.42241108      0.53284611
      0.14019444      0.29162544
s              7   1.000000
      0.92936822     -0.06732798
      0.05643440      0.66945097
      0.02166600      0.51461124
      8.30929339     -0.02902179
      1.52049832     -0.13302986
      0.42241108     -0.27248435
      0.14019444     -0.14913005
p              4   1.000000
      0.64737396      0.05713170
      0.16785440      0.28574555
      0.05917387      0.55178731
      0.02355814      0.26323150
 
          89   0
s              4   1.000000
      8.30894036      0.05675242
      1.52043372      0.26014135
      0.42239313      0.53284611
      0.14018848      0.29162544
s              7   1.000000
      0.92936822     -0.06732843
      0.05643440      0.66945548
      0.02166600      0.51461472
      8.30894036     -0.02902273
      1.52043372     -0.13303419
      0.42239313     -0.27249321
      0.14018848     -0.14913490
p              4   1.000000
      0.64737396      0.05713170
      0.16785440      0.28574555
      0.05917387      0.55178731
      0.02355814      0.26323150
 
          90   0
s              4   1.000000
      8.30888691      0.05675242
      1.52042394      0.26014135
      0.42239042      0.53284611
      0.14018758      0.29162544
s              7   1.000000
      0.92936822     -0.06732850
      0.05643440      0.66945617
      0.02166600      0.51461524
      8.30888691     -0.02902287
      1.52042394     -0.13303485
      0.42239042     -0.27249455
      0.14018758     -0.14913564
p              4   1.000000
      0.64737396      0.05713170
      0.16785440      0.28574555
      0.05917387      0.55178731
      0.02355814      0.26323150
 
          91   0
s              4   1.000000
      8.30896939      0.05675242
      1.52043903      0.26014135
      0.42239461      0.53284611
      0.14018897      0.29162544
s              7   1.000000
      0.92936822     -0.06732840
      0.05643440      0.66945512
      0.02166600      0.51461442
      8.30896939     -0.02902265
      1.52043903     -0.13303384
      0.42239461     -0.27249248
      0.14018897     -0.14913450
p              4   1.000000
      0.64737396      0.05713170
      0.16785440      0.28574555
      0.05917387      0.55178731
      0.02355814      0.26323150
 
          92   0
s              4   1.000000
      8.30940945      0.05675242
      1.52051955      0.26014135
      0.42241698      0.53284611
      0.14019640      0.29162544
s              7   1.000000
      0.92936822     -0.06732783
      0.05643440      0.66944948
      0.02166600      0.51461010
      8.30940945     -0.02902148
      1.52051955     -0.13302844
      0.42241698     -0.27248143
      0.14019640     -0.14912845
p              4   1.000000
      0.64737396      0.05713170
      0.16785440      0.28574555
      0.05917387      0.55178731
      0.02355814      0.26323150
 
          93   0
s              4   1.000000
      8.31030839      0.05675242
      1.52068405      0.26014135
      0.42246268      0.53284611
      0.14021157      0.29162544
s              7   1.000000
      0.92936822     -0.06732667
      0.05643440      0.66943798
      0.02166600      0.51460125
      8.31030839     -0.02901907
      1.52068405     -0.13301742
      0.42246268     -0.27245885
      0.14021157     -0.14911610
p              4   1.000000
      0.64737396      0.05713170
      0.16785440      0.28574555
      0.05917387      0.55178731
      0.02355814      0.26323150
 
 [MO]
 Sym= Hole
 Ene= -0.7039519    
 Spin= Alpha
 Occup= 0
           1  7.1199774E-04
           2  6.6401897E-04
           3  1.2310211E-03
           4  7.3178287E-04
           5 -2.5468724E-04
           6 -5.6777480E-05
           7  1.9086595E-04
           8 -4.3798244E-04
           9 -5.1857909E-04
          10 -1.5081111E-03
          11  2.5953359E-03
          12 -3.2805786E-03
          13  3.3667815E-04
          14  3.7083821E-04
          15 -1.7407583E-04
          16 -5.9103570E-04
          17  1.0054965E-04
          18  6.2276458E-04
          19 -1.7386517E-03
          20  1.0002930E-02
          21  6.4512994E-04
          22  6.0455105E-04
          23  4.3288854E-04
          24 -5.3581304E-04
          25 -8.9286864E-03
          26 -1.6353954E-02
          27 -3.6714962E-03
          28  2.2784129E-03
          29  1.7976415E-03
          30 -1.2692423E-03
          31 -1.7319622E-03
          32  4.6910299E-04
          33  1.1324840E-02
          34  1.1782053E-02
          35  9.6393144E-03
          36 -1.9712331E-02
          37 -3.7359295E-03
          38 -1.0058552E-03
          39  4.9734622E-04
          40  5.1115430E-03
          41  5.9206405E-04
          42 -1.7138137E-02
          43 -2.9325007E-02
          44 -0.1438440    
          45 -1.7214012E-04
          46  5.0119478E-03
          47  1.1610683E-04
          48  9.3776854E-03
          49 -1.1759145E-02
          50 -3.2083117E-03
          51 -2.0543203E-02
          52 -7.0220931E-03
          53  3.3961111E-03
          54 -6.7054911E-04
          55  3.2577384E-03
          56  4.6810452E-03
          57  3.8287144E-02
          58 -3.2333270E-02
          59  9.9445336E-02
          60  0.1389556    
          61 -2.1414567E-02
          62 -3.2712478E-04
          63 -1.6965142E-02
          64 -6.5503893E-03
          65 -4.8404399E-04
          66  4.0963035E-02
          67 -2.7881092E-03
          68  6.3591629E-02
          69  3.0721622E-04
          70 -1.5283458E-02
          71  2.6079172E-03
          72 -1.8973392E-02
          73  9.8702509E-04
          74 -0.3756877    
          75  9.0651363E-02
          76 -0.3366825    
          77 -4.0904916E-04
          78  3.1046709E-02
          79 -9.2639672E-03
          80  2.0954767E-02
          81 -2.2550537E-03
          82  6.2750354E-02
          83 -1.2370088E-02
          84  5.8082096E-02
          85  2.2194586E-03
          86 -1.3008063E-02
          87  2.0375529E-03
          88 -1.4320139E-02
          89 -2.4471444E-03
          90  0.2325969    
          91 -4.9927060E-02
          92  0.1829627    
          93  1.3662135E-03
          94 -9.8889144E-03
          95  3.6330433E-03
          96 -6.5654214E-03
          97  4.6822859E-04
          98  1.5173031E-02
          99 -4.5940257E-03
         100  1.3987273E-02
         101 -5.1712937E-04
         102  1.8797071E-03
         103  9.1998681E-04
         104  2.1438396E-03
         105 -8.8023511E-04
         106 -0.2405102    
         107  5.9597276E-02
         108 -0.2076090    
         109  4.3747514E-05
         110  7.6347655E-03
         111 -1.5185428E-03
         112  6.6779153E-03
         113  2.4247340E-04
         114 -0.1270333    
         115  3.2703228E-02
         116 -0.1121378    
         117 -6.2300096E-06
         118  8.8495659E-03
         119 -1.9519663E-03
         120  7.1051284E-03
         121 -2.7973172E-03
         122  0.1916305    
         123 -4.7751274E-02
         124  0.1716519    
         125  8.9198077E-04
         126 -6.5826946E-03
         127  2.5414147E-03
         128 -8.2146041E-03
         129  2.7168589E-03
         130  0.1935626    
         131 -4.7098525E-02
         132  0.1732374    
         133 -9.2774950E-04
         134 -7.6307235E-03
         135  2.9292726E-04
         136 -7.6826997E-03
         137 -2.8592913E-04
         138 -0.1284017    
         139  3.1069739E-02
         140 -0.1129844    
         141  5.5551573E-05
         142  8.6008226E-03
         143 -2.4906849E-03
         144  7.1337000E-03
         145  7.9366291E-04
         146 -0.2423009    
         147  6.1896909E-02
         148 -0.2109519    
         149 -2.1965887E-05
         150  7.3104757E-03
         151 -2.1205526E-03
         152  6.7433487E-03
         153 -5.1418139E-04
         154  1.4170826E-02
         155 -2.3263386E-03
         156  1.2216478E-02
         157  6.8448065E-04
         158  1.0927541E-03
         159 -1.3162339E-03
         160  2.7083887E-03
         161  2.4772298E-03
         162  0.2237875    
         163 -7.0409976E-02
         164  0.1907805    
         165 -1.3896788E-03
         166 -9.7386111E-03
         167  2.2778986E-03
         168 -6.4893556E-03
         169  1.9415325E-03
         170  6.5525532E-02
         171 -1.6638212E-02
         172  6.2198050E-02
         173 -1.9680590E-03
         174 -1.2694923E-02
         175  2.5822599E-03
         176 -1.4410066E-02
         177 -3.7358977E-02
         178 -6.7845069E-02
         179  2.6729273E-02
         180  0.1489609    
         181  2.0747442E-02
         182  1.1872776E-02
         183  7.4539613E-03
         184 -1.3054213E-02
         185  1.3808866E-03
         186  3.4121510E-03
         187 -9.4592394E-03
         188  4.4842181E-03
         189 -1.4374411E-03
         190 -9.1053359E-04
         191  1.2880504E-03
         192 -3.6923633E-05
         193 -9.4409974E-04
         194 -4.5222058E-03
         195  1.3052162E-03
         196 -1.7428570E-03
         197 -1.4636919E-04
         198 -3.7013061E-04
         199  4.0511051E-04
         200  1.8048783E-04
         201 -1.4987617E-03
         202 -2.2163980E-03
         203 -1.1459013E-03
         204  1.4555688E-03
         205  9.8529202E-04
         206  1.3545308E-03
         207  6.5311976E-04
         208 -1.9395325E-04
         209 -9.3934167E-04
         210 -1.7808314E-03
         211  6.7216689E-03
         212 -7.4003334E-03
         213  3.7985190E-04
         214  8.9128625E-05
         215 -6.3075556E-04
         216  1.1391954E-04
         217  2.9416726E-05
         218  2.1380997E-04
         219 -5.6515186E-04
         220  5.6408066E-04
         221 -5.5639888E-05
         222 -1.8924824E-04
         223 -9.2105016E-05
         224 -1.5499147E-04
         225  7.7284238E-04
         226  9.9051767E-04
         227  1.8580856E-03
         228  2.9154606E-03
         229 -4.6685676E-04
         230 -1.1053820E-04
         231 -3.1593686E-04
         232  9.0160250E-07
         233 -2.2517508E-04
         234 -3.3611193E-04
         235  5.1087316E-04
         236  5.4470712E-04
         237  1.8480417E-04
         238  1.5246181E-04
         239  1.7454890E-04
         240  3.2880835E-05
         241  4.7292197E-05
         242 -4.0132760E-05
         243 -8.1926817E-04
         244 -2.7671736E-03
         245  9.0158726E-05
         246  1.7933338E-04
         247 -1.7188796E-04
         248  2.2258041E-04
         249  1.7904998E-04
         250  1.5331667E-05
         251 -2.2236198E-04
         252 -1.6347178E-03
         253 -9.1021859E-05
         254 -2.3908810E-04
         255  5.4168206E-05
         256  1.3457894E-04
         257 -1.1673555E-05
         258 -3.8162022E-04
         259 -1.2576049E-04
         260  5.1927706E-04
         261  5.4239004E-05
         262  1.6588672E-05
         263 -1.4742248E-04
         264  5.6221746E-05
         265  1.6603252E-04
         266 -2.4058810E-04
         267  6.6366207E-05
         268  9.8841253E-04
         269 -5.1769392E-05
         270 -9.4658011E-05
         271  7.3915937E-05
         272 -1.0857544E-05
         273  2.0805937E-05
         274  4.3232657E-04
         275  2.3271673E-04
         276 -5.5951648E-04
         277  1.4414407E-05
         278  8.7963213E-05
         279  3.1722873E-05
         280  1.1501161E-04
         281 -5.9457376E-05
         282  1.9646414E-04
         283 -1.0775579E-04
         284 -7.2652678E-04
         285  8.6038990E-06
         286 -1.2198856E-05
         287 -8.3526458E-05
         288 -2.8104145E-05
         289 -1.6374372E-05
         290 -4.0135940E-04
         291  1.8318424E-04
         292  9.7649661E-04
         293  2.3646331E-05
         294  4.9786999E-05
         295  1.6875508E-04
         296  2.1736800E-05
         297  2.3687018E-05
         298 -9.3167613E-04
         299 -4.8862986E-04
         300  1.2143224E-03
         301  4.2107466E-05
         302 -7.0103953E-05
         303 -6.2022387E-05
         304 -1.6318598E-05
         305  1.5549311E-05
         306 -6.7782086E-05
         307 -1.8160876E-04
         308  4.4479914E-04
         309  2.0343667E-05
         310  5.4919728E-05
         311 -1.5638188E-05
         312  5.8220798E-05
         313 -3.3285643E-05
         314  1.7182068E-04
         315  1.4830816E-04
         316 -6.7904964E-04
         317  8.4183119E-07
         318 -1.8117304E-05
         319  6.1748433E-05
         320  1.2556447E-05
         321  2.7729035E-05
         322  2.3948033E-04
         323  4.2681891E-06
         324 -9.3055650E-04
         325  4.0122727E-06
         326 -5.3587977E-05
         327 -5.0670951E-05
         328 -6.8183203E-05
         329 -1.0441570E-04
         330  9.4116185E-05
         331 -4.7440128E-05
         332  4.1089600E-04
         333 -5.4204685E-07
         334  1.2668376E-04
         335  7.3415908E-06
         336  3.8764338E-05
         337  4.6755435E-05
         338 -4.1744972E-04
         339  5.8367503E-05
         340  1.9233084E-04
         341  7.3239171E-06
         342 -1.3634571E-04
         343  2.4186364E-05
         344 -3.4637404E-05
         345 -8.9805042E-05
         346  3.1405874E-04
         347 -2.7972088E-05
         348  1.4216512E-04
         349  1.7147149E-05
         350  2.9111850E-05
         351 -2.9665487E-06
         352  5.2446787E-05
         353  1.2605905E-04
         354 -4.6667942E-06
         355 -5.1650550E-05
         356  7.9349389E-05
         357  2.4647003E-05
         358  7.8320763E-06
         359 -9.8037763E-06
         360  2.5264573E-05
         361 -1.4502015E-04
         362 -2.0648890E-04
         363  2.3588503E-04
         364  4.1833575E-04
         365  1.8838637E-05
         366 -3.5720619E-05
         367  6.5437191E-05
         368 -3.3384480E-05
         369  8.3818086E-05
         370 -1.0842241E-04
         371 -1.2020711E-04
         372  2.4341799E-04
         373  3.9702672E-07
         374  1.5450285E-05
         375 -3.0666561E-05
         376 -1.9129602E-05
         377 -7.2815004E-05
         378  1.3526785E-04
         379 -2.5479369E-05
         380 -7.0032995E-04
         381  3.6838181E-05
         382 -5.9198948E-05
         383 -6.6466891E-05
         384  2.4510911E-05
         385  2.7074828E-05
         386 -4.6933742E-06
         387  1.2922472E-04
         388  2.2404008E-04
         389 -2.2427726E-06
         390  3.5189620E-05
         391  5.8368350E-05
         392  4.2070104E-05
         393 -1.2939227E-04
         394 -4.1558681E-04
         395  3.3485048E-04
         396 -3.9285579E-04
         397  2.9454852E-05
         398 -4.1521405E-05
         399 -1.2244298E-05
         400  5.4512559E-05
         401  1.1970169E-04
         402 -3.1367745E-04
         403  2.7831283E-04
         404 -3.3327084E-04
         405  4.7670463E-05
         406 -8.5527026E-06
         407 -3.1182437E-05
         408 -1.7601544E-05
         409 -9.6258416E-05
         410  2.8036005E-04
         411  5.5238343E-05
         412 -1.8275215E-04
         413  2.0837122E-05
         414  4.2107309E-05
         415  2.7328178E-05
         416 -1.8901444E-05
         417  1.0951717E-04
         418 -1.0231196E-06
         419 -1.7854404E-04
         420  2.4197028E-04
         421  2.4583871E-05
         422 -6.3445375E-05
         423  2.3232809E-05
         424  7.3290525E-05
         425 -1.3109070E-04
         426  1.7751281E-05
         427  1.8366041E-05
         428 -1.1537303E-04
         429  3.3806627E-06
         430  1.6157233E-05
         431 -2.4518775E-05
         432 -9.9098706E-06
         433  7.6611810E-05
         434 -6.6382432E-05
         435  3.1145717E-04
         436 -3.9570336E-04
         437  2.4785941E-05
         438  2.5639083E-05
         439 -6.1477544E-07
         440  3.2902238E-07
         441 -7.4785802E-04
         442 -4.9893104E-04
         443  1.3690145E-03
         444  6.6410622E-04
         445  3.8802263E-04
         446  2.4402481E-04
         447 -1.0778801E-04
         448 -1.8987778E-04
         449 -8.2182325E-04
         450  4.9305067E-04
         451  5.8214861E-04
         452 -7.2842682E-05
         453  1.6563547E-04
         454 -3.9658163E-04
         455  2.9640496E-04
         456  1.4443617E-04
         457  2.9445445E-04
         458  3.7672749E-04
         459  3.8060173E-04
         460 -3.2956497E-04
         461 -1.3648954E-04
         462  1.3679377E-04
         463 -1.0570281E-04
         464  9.0810040E-04
         465 -1.0263407E-04
         466  2.7469904E-03
         467 -3.6675218E-04
         468  1.0328799E-03
         469 -6.9591205E-04
         470  4.4157179E-05
         471 -3.3042580E-03
         472 -1.7234354E-03
         473 -1.1831917E-02
         474  2.2164494E-02
         475 -2.1119423E-03
         476  5.9895782E-04
         477  2.4223677E-03
         478 -1.8942942E-03
         479 -1.6182631E-02
         480 -3.9423439E-03
         481  1.4416102E-04
         482 -1.3833293E-02
         483  9.5601380E-03
         484 -1.2619965E-03
         485  6.4321252E-04
         486  1.0405309E-02
         487 -5.2712075E-03
         488  1.1655360E-02
         489  4.1780397E-03
         490 -8.5258175E-04
         491  3.6386361E-03
         492 -8.0027804E-04
         493  3.2288984E-03
         494  4.2951066E-04
         495 -9.1761111E-05
         496 -1.0153525E-02
         497  2.3493194E-03
         498 -8.9814998E-03
         499  2.0751730E-03
         500 -2.6313955E-04
         501 -2.6670496E-03
         502  8.3474669E-04
         503 -2.5233412E-03
         504 -1.8753038E-03
         505  2.5012373E-04
         506 -2.7681522E-03
         507  4.4011720E-04
         508 -2.3962706E-03
         509 -1.0313460E-03
         510 -1.5799784E-05
         511 -1.0000167E-02
         512  2.5539703E-03
         513 -9.0693804E-03
         514 -4.2339060E-03
         515  9.2833786E-04
         516  3.6590537E-03
         517 -1.1306030E-03
         518  3.3354566E-03
         519  1.2962946E-03
         520 -1.1745531E-03
         521  1.3041344E-02
         522  3.3964924E-04
         523  9.7855050E-03
         524  1.6018795E-02
         525  3.5793486E-03
         526  1.3194572E-02
         527  1.2225585E-02
         528  2.1176534E-03
         529  2.5406282E-03
         530  4.0677635E-04
         531  1.2658567E-04
         532 -3.7041976E-04
         533 -6.2289520E-04
         534 -4.3879841E-03
         535  9.5003360E-04
         536  8.0767786E-04
         537 -2.8988573E-04
         538 -9.9194399E-04
         539  2.1139337E-03
         540 -1.3794723E-03
         541 -1.9129965E-03
         542 -2.3777371E-03
         543  9.4364333E-04
         544  2.2627232E-03
         545  1.2937121E-04
         546 -2.1907821E-04
         547  2.2851628E-04
         548  2.3842519E-04
         549 -1.6855846E-04
         550  5.4941534E-05
         551 -1.4506611E-04
         552  2.5860363E-05
         553  1.4756950E-04
         554 -2.9686991E-05
         555 -5.5030992E-05
         556  1.0565866E-04
         557 -4.7897513E-05
         558 -3.0970099E-05
         559 -2.4550842E-04
         560 -3.8687958E-05
         561 -2.5843059E-05
         562 -3.3299235E-05
         563 -2.1718022E-04
         564 -1.0744682E-04
         565  2.1426440E-05
         566  1.1185752E-04
         567  3.6138648E-05
         568 -1.4602352E-05
         569 -4.3208656E-04
         570 -6.0725233E-05
         571  1.1030606E-04
         572  1.8898221E-05
         573  7.5475180E-07
         574 -6.1177539E-05
         575 -2.3090357E-05
         576  5.0232844E-05
         577  4.8861707E-06
         578 -3.9356848E-05
         579  1.1293131E-04
         580  4.2382155E-05
         581  4.4230026E-05
         582 -1.4589848E-06
         583  2.1580749E-05
         584  1.2392849E-04
         585  5.6681773E-05
         586  1.9276633E-05
         587 -1.7544960E-05
         588  1.3845753E-05
         589 -3.4726679E-04
         590 -9.3818329E-05
         591 -2.6777519E-05
         592 -7.0339693E-06
         593 -8.8820118E-05
         594  1.1502705E-04
         595  2.1170534E-05
         596  1.7776865E-05
         597  2.3890019E-05
         598 -2.8610362E-05
         599 -3.0567293E-04
         600 -9.5119642E-05
         601 -2.3373030E-05
         602  2.1441554E-05
         603 -5.6721979E-05
         604  7.5118885E-05
         605  2.6301104E-05
         606 -2.6309202E-05
         607 -4.1349886E-05
         608 -5.1560405E-06
         609 -3.8507979E-04
         610 -1.0813809E-04
         611 -3.3415796E-05
         612 -8.5022275E-06
         613  5.4505566E-05
         614  1.3107709E-04
         615  3.7661965E-05
         616  8.4961521E-06
         617 -3.8397188E-06
         618  2.1775972E-05
         619  1.1591103E-05
         620 -8.5160364E-06
         621 -6.8566992E-06
         622 -2.9531910E-05
         623 -1.0015065E-06
         624  2.1202132E-04
         625  1.0044615E-04
         626 -9.8874089E-06
         627 -1.0192333E-05
         628  3.6437308E-05
         629  6.2411505E-04
         630  3.3809172E-04
         631  2.8130497E-04
         632  1.5414544E-04
         633  3.2079268E-05
 Sym= Particle
 Ene= -0.7039519    
 Spin= Alpha
 Occup= 2
           1  6.2245940E-04
           2  9.4008719E-04
           3 -7.2444243E-05
           4  5.5708672E-04
           5 -1.5655198E-04
           6 -2.9821770E-04
           7  5.6477112E-04
           8  3.1639115E-04
           9 -7.4117671E-04
          10  2.8966854E-03
          11 -9.1564404E-03
          12  8.0581801E-03
          13  5.1691657E-04
          14 -1.3497900E-03
          15  2.9201224E-03
          16 -2.7991594E-03
          17 -4.8529985E-04
          18  7.1607123E-05
          19 -7.8830058E-03
          20  1.1784345E-02
          21  3.3782082E-04
          22  1.5065150E-03
          23  1.2697901E-03
          24 -4.1232370E-03
          25 -2.2677369E-03
          26 -6.5691243E-03
          27  1.7424561E-02
          28 -2.1270659E-02
          29 -3.7588342E-04
          30  2.7250545E-04
          31 -5.7920516E-03
          32  5.9100846E-03
          33  1.9056639E-03
          34 -2.4216811E-04
          35  1.4395821E-04
          36 -7.6082777E-03
          37 -3.1628651E-03
          38 -4.3255067E-04
          39  1.3302573E-03
          40  5.6970227E-03
          41  2.6008801E-03
          42 -9.2607196E-03
          43 -1.4351304E-02
          44 -7.9390146E-02
          45 -2.8073685E-03
          46  3.7705519E-03
          47  2.2510358E-03
          48  1.6630746E-02
          49 -3.4225285E-03
          50  1.4859985E-03
          51  1.2979257E-02
          52  5.7598978E-02
          53  2.4769953E-03
          54 -1.1753813E-04
          55 -2.0155369E-03
          56 -1.2016911E-02
          57  6.9530080E-03
          58 -1.3885037E-02
          59  2.1786958E-02
          60  3.4100682E-02
          61 -2.7822598E-03
          62  8.0695851E-03
          63 -8.1579071E-03
          64 -9.8499404E-03
          65  3.4991279E-04
          66 -4.4251224E-03
          67 -2.1520697E-02
          68 -8.5106283E-02
          69 -1.1956673E-03
          70  2.5751642E-03
          71  8.9017665E-03
          72  3.5355311E-02
          73  2.6387256E-04
          74 -9.8890208E-02
          75  2.4676070E-02
          76 -8.7649271E-02
          77 -7.6747249E-04
          78  3.0743457E-02
          79 -7.9650516E-03
          80  2.4651550E-02
          81  3.1824298E-03
          82  0.1143373    
          83 -3.8079087E-02
          84  9.5541015E-02
          85 -2.8016160E-03
          86 -4.7908887E-02
          87  1.7185796E-02
          88 -4.0829290E-02
          89 -1.7696763E-03
          90  0.2210949    
          91 -4.8754282E-02
          92  0.1770695    
          93  1.7931933E-03
          94 -6.0854714E-02
          95  1.2122937E-02
          96 -4.6329021E-02
          97  1.3483434E-03
          98 -0.2757194    
          99  6.3784420E-02
         100 -0.2321375    
         101 -3.4742971E-04
         102  7.0924111E-02
         103 -1.6365357E-02
         104  5.9636645E-02
         105 -1.6750701E-04
         106  3.7383013E-03
         107  5.6097383E-04
         108  2.8845028E-04
         109  1.7980266E-05
         110  3.9774011E-04
         111 -1.1864357E-03
         112  2.2786057E-03
         113  1.0782748E-03
         114  0.2627577    
         115 -6.7639679E-02
         116  0.2292275    
         117 -8.9147978E-04
         118 -6.9424681E-02
         119  1.7158173E-02
         120 -6.0544264E-02
         121  8.6767093E-04
         122 -0.2185363    
         123  5.8470845E-02
         124 -0.2018395    
         125 -1.1749795E-03
         126  4.9596246E-02
         127 -1.3746211E-02
         128  4.7092684E-02
         129 -7.5957819E-04
         130 -0.2241511    
         131  4.8737369E-02
         132 -0.2003645    
         133  1.0553753E-03
         134  5.1558837E-02
         135 -9.9302214E-03
         136  4.6721626E-02
         137 -1.2679434E-03
         138  0.2659600    
         139 -6.5691076E-02
         140  0.2312831    
         141  1.4339433E-03
         142 -7.0063382E-02
         143  1.7668765E-02
         144 -6.1348792E-02
         145 -3.2021085E-04
         146  5.8670569E-04
         147 -2.0514403E-03
         148  2.0488500E-04
         149  7.4409373E-04
         150  1.6871615E-03
         151  9.0471801E-04
         152  1.6217115E-03
         153 -8.8237313E-04
         154 -0.2721062    
         155  7.5067274E-02
         156 -0.2368171    
         157  7.1736146E-04
         158  7.0029698E-02
         159 -1.9321932E-02
         160  6.0305867E-02
         161 -5.1720858E-06
         162  0.2161856    
         163 -6.2178724E-02
         164  0.1846183    
         165  4.1618291E-04
         166 -5.8378473E-02
         167  1.7700667E-02
         168 -4.8480891E-02
         169 -3.4059880E-03
         170  0.1176979    
         171 -2.4709973E-02
         172  9.0159342E-02
         173  2.7417871E-03
         174 -4.9822681E-02
         175  9.0908874E-03
         176 -3.8301051E-02
         177 -7.7408035E-03
         178 -1.3540732E-02
         179  3.3661388E-02
         180  0.1070629    
         181  2.2147526E-03
         182  7.1448153E-03
         183 -1.1952973E-02
         184 -3.1150922E-02
         185  2.8682439E-04
         186  2.6210826E-03
         187 -1.0276783E-02
         188  8.9982338E-03
         189 -1.2228842E-03
         190 -1.2598132E-03
         191  5.2473121E-03
         192 -2.8364195E-03
         193 -2.8744462E-04
         194 -2.3022499E-03
         195  2.7870768E-04
         196 -1.6419158E-03
         197  1.1854667E-04
         198  1.3347522E-03
         199 -9.6315373E-04
         200 -7.7962806E-04
         201  6.6005904E-04
         202  2.8679235E-04
         203 -1.2033778E-02
         204  1.0222190E-02
         205 -4.9865793E-04
         206  1.1192902E-03
         207  2.9559145E-03
         208 -2.4883291E-03
         209 -3.3561076E-04
         210 -2.2762008E-03
         211  1.6416946E-02
         212 -1.8133849E-02
         213  3.1848616E-04
         214  1.1150650E-03
         215 -5.1919837E-03
         216  4.3122279E-03
         217  3.6765609E-04
         218 -7.8019116E-04
         219 -3.9402954E-03
         220 -1.7727092E-02
         221  2.7652617E-05
         222  7.2399166E-04
         223  2.3394821E-03
         224  4.5175450E-03
         225  1.5516897E-03
         226  2.0943526E-03
         227  4.8685679E-03
         228  1.2273015E-02
         229 -1.2368377E-03
         230 -1.0090130E-03
         231 -1.3757157E-03
         232 -3.3691810E-03
         233 -4.9907761E-04
         234 -6.9664704E-05
         235  1.5419669E-03
         236  6.6429423E-03
         237  1.5193694E-04
         238  2.4182722E-04
         239 -2.2038659E-04
         240 -1.5220589E-03
         241  3.2324079E-04
         242 -1.8295216E-03
         243 -4.0473794E-03
         244 -1.8125897E-02
         245 -4.7993712E-04
         246  4.9444661E-04
         247  9.4406598E-04
         248  4.7773514E-03
         249  5.1584915E-04
         250  1.2793014E-03
         251  2.2741891E-03
         252  8.3103254E-03
         253 -4.8160279E-04
         254 -2.1350394E-04
         255 -5.9160631E-04
         256 -2.3908827E-03
         257 -6.0130045E-04
         258  6.2949676E-04
         259  4.8907980E-04
         260 -3.5836227E-04
         261  4.2767690E-05
         262  1.2667819E-04
         263  1.9512794E-04
         264  4.2263896E-04
         265 -3.2685115E-04
         266  1.6493303E-03
         267  7.0831203E-04
         268 -3.7438490E-03
         269  3.9060126E-04
         270 -2.4412249E-04
         271 -5.3162343E-04
         272  1.1230449E-03
         273 -4.1454950E-06
         274 -1.9017827E-03
         275 -6.5957953E-04
         276  5.7519292E-03
         277  6.3176733E-05
         278  6.5452763E-04
         279  9.3067181E-05
         280 -1.8838316E-03
         281  2.2670587E-05
         282  2.5026064E-04
         283  2.1871585E-04
         284 -7.4318761E-04
         285  3.5584766E-05
         286 -2.5613454E-05
         287 -2.0419963E-04
         288  2.9831089E-04
         289 -9.3354254E-05
         290  3.7583073E-03
         291  1.2893196E-03
         292 -8.6482503E-03
         293  7.6480916E-05
         294 -8.7116280E-04
         295 -4.3086128E-04
         296  2.0739625E-03
         297  4.2172862E-05
         298 -3.1793125E-03
         299 -1.0416212E-03
         300  7.2927927E-03
         301 -9.9749384E-05
         302  7.1969698E-04
         303  2.2596886E-04
         304 -1.7497953E-03
         305 -1.6139846E-05
         306 -1.4084090E-03
         307 -5.8234838E-04
         308  3.2163239E-03
         309 -5.9357440E-05
         310  4.1164298E-04
         311  2.6670250E-04
         312 -7.4615888E-04
         313 -2.1082997E-05
         314  4.0590796E-03
         315  1.4466915E-03
         316 -9.2916451E-03
         317 -5.0659026E-05
         318 -1.0642752E-03
         319 -3.7495009E-04
         320  2.4399559E-03
         321 -1.1058834E-06
         322 -1.9581604E-03
         323 -6.5115694E-04
         324  4.6614925E-03
         325  2.9957204E-05
         326  4.1132132E-04
         327  6.2715160E-05
         328 -1.0281103E-03
         329  1.4608114E-05
         330 -3.6119351E-03
         331 -8.1152702E-04
         332  7.1853879E-03
         333  7.3851857E-05
         334  9.5442875E-04
         335  1.3262112E-04
         336 -1.6572659E-03
         337 -1.4966405E-05
         338  2.3336124E-03
         339  5.2651187E-04
         340 -4.5179259E-03
         341  7.8197278E-05
         342 -5.9017359E-04
         343 -8.2803468E-05
         344  1.2831729E-03
         345 -1.5418906E-05
         346  1.4472095E-03
         347  4.2521840E-04
         348 -2.6604615E-03
         349  5.5964862E-05
         350 -4.1953486E-04
         351 -1.0146367E-04
         352  7.1065500E-04
         353  1.3894841E-06
         354 -3.7137722E-03
         355 -1.1754857E-03
         356  7.0161433E-03
         357  8.6944121E-05
         358  9.7434805E-04
         359  2.6402072E-04
         360 -1.8475577E-03
         361 -2.3789218E-05
         362  1.6031953E-03
         363  5.1568187E-04
         364 -3.0091349E-03
         365  1.1445566E-04
         366 -3.7806248E-04
         367 -1.6337971E-04
         368  8.2509394E-04
         369  3.3145334E-05
         370  2.9573778E-03
         371  5.4173509E-04
         372 -5.1990370E-03
         373  1.0751855E-04
         374 -8.8179583E-04
         375 -2.0494025E-04
         376  1.9103638E-03
         377  5.8080088E-05
         378 -2.8496893E-04
         379 -1.5943671E-04
         380  6.4144796E-04
         381 -8.7912456E-05
         382  1.3026853E-04
         383  2.2742372E-04
         384 -8.6968699E-05
         385  5.8103737E-04
         386  1.1149348E-03
         387 -1.1156990E-04
         388 -2.0884017E-04
         389 -4.2943432E-04
         390 -3.4537818E-04
         391  1.4307692E-04
         392  1.1445166E-04
         393 -1.4770588E-04
         394  1.0235393E-03
         395 -1.2259602E-03
         396  1.4707438E-03
         397  1.4313702E-04
         398  5.5539283E-05
         399  1.9478936E-04
         400 -5.0821353E-04
         401  1.3285837E-04
         402 -1.7170865E-03
         403  2.0586529E-03
         404 -2.0137373E-03
         405 -2.7247454E-04
         406  6.7989912E-04
         407 -7.4901158E-04
         408  5.9928850E-04
         409 -6.8192661E-05
         410  3.8267986E-04
         411 -5.3115637E-04
         412  5.2338536E-04
         413 -2.2639353E-05
         414 -1.3744498E-04
         415  1.2493657E-04
         416 -5.1951862E-05
         417 -4.9227938E-06
         418  1.3591058E-03
         419 -1.4693205E-03
         420  1.6228704E-03
         421  5.6538927E-05
         422 -4.2656716E-04
         423  4.2519902E-04
         424 -3.7012078E-04
         425 -1.1566875E-04
         426 -1.8111592E-03
         427  1.8094108E-03
         428 -2.1081441E-03
         429  3.1591809E-04
         430  7.1421656E-04
         431 -5.2136747E-04
         432  7.7054970E-04
         433 -8.4703715E-05
         434  2.1705986E-04
         435 -1.9985733E-04
         436 -2.2369708E-05
         437  4.1745394E-04
         438  5.3627347E-05
         439 -1.3728465E-05
         440  6.0251879E-04
         441 -1.5529449E-03
         442 -8.9458120E-04
         443  4.8243362E-03
         444  1.1523291E-02
         445  1.3097601E-03
         446  1.4200999E-03
         447 -1.4291537E-03
         448 -3.2228373E-03
         449  1.3610871E-03
         450 -1.1340761E-05
         451  4.9862766E-04
         452  1.3273169E-03
         453 -1.6370963E-04
         454  1.0064559E-03
         455  9.6722244E-05
         456 -7.4855582E-04
         457 -5.5895123E-04
         458  3.9845268E-04
         459 -2.8990225E-03
         460  1.5166549E-03
         461  9.5700973E-04
         462  1.6906534E-03
         463 -3.0967148E-04
         464  8.6365506E-04
         465  1.0796197E-03
         466  4.5844349E-03
         467 -3.2434824E-03
         468  3.0664767E-03
         469 -8.2973932E-04
         470 -9.5190445E-04
         471 -4.2427762E-04
         472 -3.7106865E-03
         473 -1.7551700E-02
         474  7.1758153E-03
         475 -2.4799940E-03
         476  1.6077384E-03
         477  2.2690266E-03
         478  1.3464594E-02
         479 -1.0795254E-03
         480  4.1427785E-03
         481  7.6421811E-03
         482  5.0695119E-03
         483 -6.1769108E-03
         484  3.4086584E-04
         485  2.5711090E-03
         486  3.8376931E-02
         487 -1.4946762E-02
         488  3.3416666E-02
         489  1.0799266E-03
         490 -2.4744211E-04
         491 -5.9347499E-02
         492  1.3926189E-02
         493 -5.0415535E-02
         494  4.4603055E-04
         495 -1.9877496E-04
         496  2.2176781E-03
         497 -9.5390109E-04
         498  2.6584629E-03
         499 -3.0468942E-03
         500  9.8328304E-04
         501  5.6262173E-02
         502 -1.5547985E-02
         503  4.9581792E-02
         504  2.9725872E-03
         505 -5.6630664E-04
         506  5.7993844E-02
         507 -1.3364916E-02
         508  4.9693320E-02
         509  1.2055720E-04
         510  4.5807636E-04
         511  2.5305983E-03
         512 -5.1980176E-05
         513  2.1227424E-03
         514 -2.6841630E-04
         515  2.8753784E-04
         516 -5.8528028E-02
         517  1.5713181E-02
         518 -5.1823162E-02
         519  3.9385809E-04
         520 -1.5690890E-03
         521  4.2565450E-02
         522 -8.3920257E-03
         523  3.5547666E-02
         524  8.3953148E-04
         525 -4.7378889E-03
         526 -5.8864767E-04
         527 -6.2618456E-03
         528  1.2374756E-02
         529  2.0488663E-04
         530  6.5537606E-04
         531 -5.3458521E-04
         532 -1.4403366E-03
         533 -7.0491299E-04
         534 -2.0653447E-03
         535  2.3064956E-03
         536  3.0847832E-03
         537  3.1874008E-03
         538 -4.1905614E-03
         539  2.5303462E-03
         540 -2.6392587E-03
         541 -1.4962001E-03
         542 -3.1034288E-03
         543  2.5102221E-03
         544  4.1529979E-04
         545  3.3879656E-04
         546  8.7951293E-04
         547 -1.9635018E-03
         548  2.2237173E-03
         549 -4.3391009E-04
         550 -1.2005791E-04
         551 -5.9598224E-04
         552  7.7287457E-04
         553  2.2818772E-03
         554  4.6095226E-04
         555 -1.3542941E-04
         556  2.7839889E-04
         557  4.2308361E-04
         558  1.4748891E-03
         559 -2.3224352E-04
         560 -2.6898508E-04
         561  2.5292755E-05
         562 -8.8715245E-04
         563 -3.9689746E-03
         564  1.3634995E-04
         565 -6.8828413E-05
         566  7.4603228E-04
         567  8.6872577E-05
         568 -2.0464051E-03
         569  5.8362097E-05
         570 -2.2674965E-04
         571 -1.0407909E-03
         572 -3.5405895E-04
         573  1.6654491E-03
         574  1.3474403E-04
         575 -1.3787589E-04
         576 -2.7132622E-04
         577  3.9833108E-06
         578  6.7520834E-04
         579  9.5910269E-05
         580 -1.0811099E-04
         581  8.8359456E-04
         582  2.7135338E-04
         583 -2.0456512E-03
         584 -2.6825073E-05
         585  3.0914514E-05
         586  6.6400191E-04
         587  2.1299897E-04
         588 -1.1657112E-03
         589  4.4258013E-05
         590 -4.4523513E-06
         591  3.2342607E-04
         592  1.0400412E-04
         593 -6.6456961E-04
         594  1.5535269E-06
         595  6.0559003E-05
         596 -8.0510258E-04
         597 -2.8122490E-04
         598  1.4859791E-03
         599 -9.6012140E-05
         600  1.1311291E-04
         601  1.9213030E-04
         602  1.4817221E-04
         603 -4.9180258E-04
         604 -3.9158829E-05
         605 -3.0837551E-04
         606 -4.8381047E-04
         607  2.5730924E-04
         608 -3.9285622E-04
         609 -1.8505549E-05
         610 -8.7218541E-05
         611 -1.0423582E-04
         612 -1.0191880E-04
         613  5.7390240E-05
         614 -9.4163130E-05
         615 -7.5549870E-05
         616  1.3664570E-04
         617 -3.1602106E-04
         618  3.1694621E-04
         619 -6.9693742E-05
         620  2.9548151E-05
         621 -2.7272833E-04
         622  3.3301717E-04
         623 -6.5818540E-04
         624 -3.1666554E-04
         625  1.9333001E-04
         626 -4.2061188E-04
         627 -1.4015941E-04
         628  1.7580354E-04
         629  1.9875212E-04
         630  5.9946580E-04
         631  6.0149143E-04
         632  3.7873248E-04
         633  1.6195263E-03
 Sym= Hole
 Ene= -0.1353090    
 Spin= Alpha
 Occup= 0
           1  9.8801400E-05
           2  8.0156707E-07
           3 -4.0539060E-05
           4  1.4937752E-04
           5 -4.6657602E-05
           6 -2.0926855E-05
           7 -4.1979521E-05
           8  2.4321869E-06
           9 -2.1204569E-05
          10 -2.4467328E-04
          11 -3.7831601E-04
          12  4.8352836E-04
          13 -2.3174876E-05
          14 -8.1303981E-05
          15 -6.4434480E-06
          16 -3.8570310E-05
          17  1.8504553E-04
          18  2.3589909E-04
          19  1.1063504E-03
          20 -8.0812717E-04
          21 -1.6701930E-04
          22 -2.7268847E-05
          23 -1.2088570E-04
          24 -5.9849059E-05
          25 -6.6974579E-05
          26 -2.4219765E-04
          27  7.5884239E-04
          28 -1.2739660E-03
          29  4.6378500E-05
          30 -1.0953494E-04
          31 -1.4862930E-04
          32 -2.4870118E-05
          33 -3.3557840E-04
          34 -2.9437490E-05
          35 -2.7539057E-04
          36  2.9317797E-03
          37  1.7628013E-04
          38 -1.2843906E-05
          39  1.2526504E-04
          40  1.0218840E-04
          41  4.7147044E-04
          42  2.0456403E-04
          43  8.7894622E-04
          44  8.3639170E-04
          45 -2.2093274E-04
          46  4.5231205E-05
          47 -1.1137429E-04
          48  9.5115298E-05
          49 -3.6394835E-04
          50 -7.2774774E-04
          51 -9.6953614E-04
          52 -1.5060579E-03
          53  2.2135563E-04
          54 -2.7346150E-05
          55  1.5806494E-04
          56 -1.3159242E-04
          57  3.1818968E-04
          58  6.2491739E-04
          59 -7.6152974E-05
          60 -2.6797473E-03
          61 -1.2329513E-04
          62 -7.1278919E-04
          63  3.9173118E-04
          64  2.2716097E-04
          65  1.1574747E-03
          66  4.6948658E-04
          67  1.6779047E-04
          68 -8.0649921E-04
          69 -9.7444892E-04
          70  2.4390936E-06
          71 -9.8582488E-05
          72 -5.8487649E-06
          73  1.2919542E-03
          74 -5.1591865E-04
          75  1.7180399E-03
          76 -9.7146491E-04
          77 -7.1025942E-04
          78 -1.4997399E-04
          79 -6.7012483E-04
          80  3.1051037E-04
          81 -4.1403384E-03
          82  0.1801828    
          83 -4.2815410E-02
          84  0.1537130    
          85  1.3189317E-03
          86 -3.1203278E-03
          87  1.7958645E-04
          88 -1.4771250E-03
          89  6.7935931E-04
          90 -0.1252760    
          91  2.9087676E-02
          92 -0.1039875    
          93 -8.8343068E-06
          94 -3.1949024E-04
          95  3.5528096E-06
          96 -1.8076568E-04
          97 -5.4321520E-04
          98 -0.2805536    
          99  6.7408279E-02
         100 -0.2351762    
         101  2.1963051E-04
         102 -5.3242908E-04
         103 -1.7381384E-05
         104 -3.0593772E-04
         105 -4.0260272E-04
         106 -6.2927075E-02
         107  1.5864465E-02
         108 -5.3183768E-02
         109  1.2274006E-04
         110  1.2447294E-03
         111 -1.3007707E-04
         112  5.9564976E-04
         113  9.9091255E-04
         114  0.2433728    
         115 -6.3535333E-02
         116  0.2121400    
         117 -8.2423131E-04
         118  3.8048511E-03
         119 -5.6364335E-04
         120  3.2911280E-03
         121 -5.4767262E-04
         122  0.2448853    
         123 -6.3555688E-02
         124  0.2225845    
         125 -1.4750389E-04
         126  3.1737965E-03
         127 -1.3258930E-04
         128  2.0318592E-03
         129 -5.8134441E-04
         130 -0.2505029    
         131  5.7303332E-02
         132 -0.2230983    
         133 -1.7773555E-04
         134 -2.6682431E-03
         135  1.4059985E-03
         136 -2.3952343E-03
         137  9.1126631E-04
         138 -0.2473743    
         139  6.0869824E-02
         140 -0.2144250    
         141 -8.4240368E-04
         142 -3.4969999E-03
         143  1.2757198E-03
         144 -3.4144481E-03
         145 -3.9684886E-04
         146  6.1923739E-02
         147 -1.6327152E-02
         148  5.2877076E-02
         149  1.3563440E-04
         150 -9.7500428E-04
         151  4.9280492E-04
         152 -7.3771452E-04
         153 -4.8040174E-04
         154  0.2792244    
         155 -7.5845107E-02
         156  0.2409065    
         157  2.7940929E-04
         158  5.1052292E-04
         159 -2.8506122E-04
         160  5.7416403E-04
         161  6.9623446E-04
         162  0.1269231    
         163 -3.5203759E-02
         164  0.1100635    
         165  2.3343047E-05
         166  2.9256480E-04
         167 -1.3902543E-04
         168  3.4049407E-04
         169 -4.1480511E-03
         170 -0.1760706    
         171  4.7100551E-02
         172 -0.1551826    
         173  1.3415813E-03
         174  2.4355790E-03
         175 -1.5862933E-03
         176  1.8263980E-03
         177  5.0918767E-05
         178 -8.0587674E-04
         179  1.9405602E-03
         180  2.0844187E-03
         181  1.6680560E-05
         182  7.3519087E-04
         183 -2.9610694E-04
         184 -3.2681640E-04
         185 -5.5163069E-05
         186 -1.6110390E-04
         187  9.7035198E-04
         188 -3.4612211E-04
         189  1.7766516E-04
         190 -1.7704100E-04
         191 -2.1781652E-05
         192 -2.6458223E-05
         193 -4.6209339E-04
         194 -4.9784133E-04
         195 -1.0312191E-03
         196  5.7707279E-04
         197  5.3074770E-04
         198 -2.7419621E-04
         199 -5.8104272E-04
         200  2.6161777E-04
         201 -3.2506545E-05
         202  7.0994873E-05
         203 -3.2191278E-04
         204  3.6876666E-04
         205  5.8787307E-05
         206 -5.0687318E-05
         207  8.8263714E-06
         208 -4.9094226E-05
         209  6.1415376E-05
         210  2.7246965E-04
         211 -1.0709687E-03
         212  1.1369796E-03
         213 -3.3057167E-05
         214 -1.7855642E-05
         215 -7.2110532E-05
         216 -1.0658265E-04
         217 -9.1001675E-05
         218 -9.5827803E-05
         219  2.1473944E-04
         220  2.8586038E-04
         221 -2.3095085E-05
         222 -8.7128989E-05
         223  3.0552550E-05
         224  1.0238406E-05
         225 -9.9057441E-05
         226 -9.6199139E-05
         227  1.0024741E-04
         228  1.1868663E-03
         229  3.1687632E-05
         230 -5.5744695E-05
         231  2.8826526E-06
         232  7.0436268E-05
         233  2.9935918E-06
         234  2.2054529E-04
         235  1.6760148E-04
         236  9.2257198E-04
         237 -1.1502349E-05
         238  1.2432892E-05
         239 -1.4597314E-05
         240  2.1513462E-05
         241  7.7424986E-05
         242 -1.5777354E-04
         243 -9.2771279E-06
         244 -3.4179966E-04
         245 -3.8726557E-06
         246 -3.0922398E-05
         247  5.6994329E-05
         248 -6.5766151E-05
         249 -1.1777053E-04
         250 -1.7122293E-04
         251 -5.4621539E-04
         252 -1.5382738E-03
         253  4.0458828E-05
         254 -6.0422706E-05
         255 -7.0985875E-06
         256 -3.4216355E-05
         257  9.7525910E-05
         258 -3.4555679E-04
         259  3.1871579E-05
         260  2.6910627E-04
         261 -1.5398598E-05
         262 -1.2073696E-05
         263  6.5026215E-05
         264  5.7770081E-05
         265  3.1643102E-04
         266  5.9141046E-05
         267 -1.9572453E-04
         268  9.7680453E-04
         269 -8.5640415E-05
         270  3.3734475E-05
         271 -7.1645860E-05
         272  3.8873171E-05
         273 -6.4950254E-05
         274 -6.8779817E-05
         275  3.0016867E-04
         276 -1.5684398E-04
         277  4.2274562E-05
         278  4.3967902E-05
         279  5.8724061E-05
         280  6.5803186E-05
         281  1.6681419E-05
         282  6.2298420E-04
         283 -4.2621828E-05
         284 -1.2763557E-03
         285  2.7531280E-05
         286  4.8384820E-05
         287 -9.2214199E-05
         288 -3.1484782E-05
         289 -5.2037063E-05
         290  4.2807197E-04
         291  2.2551209E-04
         292 -1.1651680E-03
         293  1.6802502E-05
         294  4.5419638E-05
         295  5.5976769E-05
         296 -2.3626279E-05
         297  6.7554123E-05
         298 -4.0331804E-05
         299 -4.4444467E-05
         300  5.8191531E-06
         301  3.3358996E-05
         302 -9.2700639E-06
         303  9.4833022E-06
         304 -1.1806969E-05
         305 -3.7603328E-05
         306 -5.7693536E-04
         307 -3.8918288E-04
         308  1.1375396E-03
         309  1.6743501E-05
         310 -1.1583987E-05
         311 -4.3107408E-05
         312  2.0141993E-05
         313  5.6025667E-05
         314 -4.5188828E-04
         315 -8.0462771E-05
         316  1.1860932E-03
         317  5.9545969E-06
         318  1.4006892E-05
         319  5.7086985E-05
         320  4.6750301E-05
         321 -6.5616216E-05
         322 -1.7311295E-04
         323 -4.0624629E-05
         324 -1.2348160E-04
         325 -6.9204534E-06
         326 -6.5119690E-05
         327  3.2084683E-06
         328 -3.3776945E-05
         329  1.2036582E-05
         330  2.2799919E-05
         331  1.2224898E-04
         332  1.6930531E-04
         333  7.0674892E-06
         334  1.6944128E-05
         335  6.3822234E-05
         336  1.8383636E-05
         337 -2.9592660E-05
         338 -2.6730433E-04
         339 -2.0288929E-04
         340  3.8161443E-04
         341  5.2693786E-06
         342 -3.9541832E-05
         343 -1.8209885E-05
         344 -1.6526516E-05
         345  1.6926166E-05
         346 -1.6539305E-05
         347 -3.3307359E-05
         348  3.3456823E-04
         349  1.5471813E-05
         350  2.1568827E-05
         351  3.2961236E-06
         352  2.1673459E-05
         353 -7.8057492E-06
         354  1.8885640E-04
         355  2.7439553E-05
         356 -1.4793201E-04
         357  1.9394945E-06
         358 -1.6736828E-06
         359  2.6845912E-05
         360 -2.0080520E-06
         361 -1.9913046E-05
         362  2.2185770E-04
         363  1.5768036E-04
         364 -4.4034986E-04
         365  7.5346729E-06
         366 -4.3888216E-05
         367  1.9789035E-05
         368 -3.7606183E-05
         369 -5.2458145E-05
         370  1.9919628E-04
         371 -6.1985622E-05
         372 -2.7073926E-04
         373 -3.0890763E-07
         374  3.4670327E-05
         375 -1.8284783E-05
         376  1.1325676E-05
         377 -2.1000918E-05
         378 -1.0555632E-04
         379  1.0093849E-04
         380  4.8007896E-05
         381  2.7687734E-05
         382 -2.0063288E-05
         383 -3.4962672E-05
         384  1.5511469E-05
         385  1.7523063E-06
         386 -7.0323200E-05
         387  3.0484373E-06
         388  3.9870056E-04
         389  1.8140228E-05
         390  5.8338508E-05
         391  4.0401792E-05
         392  4.0987921E-05
         393 -1.3281859E-05
         394 -5.3846231E-04
         395  5.4745888E-04
         396 -7.3587539E-04
         397 -2.7448234E-06
         398 -3.0378671E-05
         399 -1.3606049E-06
         400 -2.3441122E-05
         401 -1.8866196E-05
         402 -3.1930074E-04
         403  2.4174730E-04
         404 -2.9199076E-04
         405  5.8410342E-06
         406 -2.0414167E-05
         407  7.7627974E-06
         408 -2.1305248E-05
         409  3.6274341E-06
         410  3.2524017E-04
         411 -2.9526325E-04
         412  3.5947427E-04
         413 -5.4665475E-06
         414  1.3053824E-05
         415  1.2481507E-05
         416  1.7588571E-05
         417  1.2412899E-05
         418  4.7864750E-04
         419 -6.2718458E-04
         420  6.4620830E-04
         421 -4.8880243E-06
         422  6.5062800E-06
         423 -1.9157489E-05
         424  1.6086102E-05
         425 -2.0985653E-05
         426  2.1446061E-04
         427 -2.4806109E-04
         428  1.8602243E-04
         429 -8.7166973E-06
         430  1.0036384E-05
         431 -9.4733186E-06
         432 -5.7540260E-06
         433  2.4664048E-05
         434 -3.7866124E-04
         435  4.4049980E-04
         436 -3.5495669E-04
         437 -1.2620431E-05
         438 -3.8624250E-05
         439  2.7889580E-05
         440 -2.0501946E-05
         441  1.8231569E-04
         442  1.0071817E-04
         443 -4.5674149E-04
         444 -1.4168198E-03
         445 -8.0643236E-05
         446 -1.2945680E-05
         447  9.5450550E-06
         448 -4.3798762E-05
         449 -5.3438082E-05
         450 -6.7250890E-05
         451 -4.3042081E-05
         452  1.3790949E-05
         453 -3.6082933E-05
         454 -7.3479468E-06
         455 -9.8401673E-05
         456 -1.7846989E-05
         457  1.4642782E-05
         458 -4.2849373E-05
         459  2.9090819E-05
         460  5.4633507E-05
         461 -9.8725168E-06
         462  1.3947055E-05
         463 -2.5184403E-05
         464  4.1498515E-05
         465 -1.5128437E-04
         466 -1.3470442E-04
         467 -1.0136011E-04
         468  4.1876418E-05
         469 -8.2148437E-04
         470 -2.1258784E-04
         471 -8.0267237E-05
         472 -1.7595328E-04
         473  1.0002595E-05
         474 -1.2944608E-04
         475 -8.7617562E-05
         476  2.4742141E-04
         477 -8.7863948E-05
         478 -1.4616524E-04
         479  7.6703186E-04
         480 -4.6968809E-04
         481 -3.8049379E-04
         482 -1.4776062E-03
         483  8.8426721E-04
         484  1.0241775E-04
         485 -3.8770976E-04
         486  2.2539450E-03
         487 -6.9483824E-04
         488  2.3254605E-03
         489  3.0820855E-05
         490  1.2601865E-04
         491 -2.4444882E-03
         492  4.7422075E-04
         493 -2.0222557E-03
         494  1.0044547E-03
         495  2.4064773E-04
         496 -3.6251461E-03
         497  7.2606123E-04
         498 -3.0862272E-03
         499  1.0264151E-03
         500 -7.4470721E-05
         501 -2.5123309E-03
         502  5.2762346E-04
         503 -2.0632267E-03
         504  1.3375054E-03
         505  4.0945280E-05
         506  2.5009657E-03
         507 -8.0097414E-04
         508  2.2892959E-03
         509  9.4240432E-04
         510  2.6135606E-04
         511  3.3873785E-03
         512 -9.7456097E-04
         513  3.0869364E-03
         514  1.9160254E-04
         515  9.2675524E-05
         516  2.0681825E-03
         517 -7.1826065E-04
         518  1.8834724E-03
         519  3.2982352E-05
         520 -3.7555196E-04
         521 -2.6490148E-03
         522  3.9065036E-04
         523 -2.4008858E-03
         524  1.3918102E-03
         525 -3.5838515E-04
         526 -7.6228875E-04
         527 -1.3681662E-03
         528 -2.5874015E-04
         529  6.7067333E-04
         530 -5.9119553E-05
         531  7.5377662E-05
         532  1.3114834E-04
         533 -6.0131559E-05
         534  1.1816130E-04
         535 -8.4952357E-05
         536  7.0010625E-05
         537  4.0379007E-04
         538 -2.2600078E-04
         539 -4.6304544E-04
         540 -2.7397253E-05
         541  1.8606907E-04
         542  3.7009057E-05
         543 -2.6199059E-04
         544 -1.1519454E-04
         545 -2.2058308E-05
         546 -8.8179215E-05
         547  6.2869265E-05
         548 -6.1764258E-05
         549  4.5520846E-05
         550 -1.9335283E-05
         551  1.8647403E-05
         552 -3.6972164E-05
         553 -2.3466871E-05
         554 -4.0525654E-05
         555 -2.1224541E-06
         556 -4.0185587E-05
         557  4.0382124E-06
         558 -1.7006820E-05
         559  1.1740905E-04
         560 -6.5763593E-06
         561 -8.6474365E-06
         562 -6.7839132E-06
         563  2.9073990E-05
         564 -1.2495514E-04
         565 -5.5630549E-05
         566 -7.3251715E-05
         567 -1.9664962E-05
         568  5.4641241E-05
         569  1.4908300E-05
         570 -5.3351538E-05
         571 -1.0501354E-04
         572  8.9253217E-06
         573 -2.9462868E-07
         574 -2.2253425E-04
         575 -5.8300197E-05
         576  3.1855128E-05
         577  3.1856809E-05
         578 -3.5608908E-05
         579  1.4675727E-05
         580  3.0926265E-05
         581  1.8638020E-05
         582 -1.7094368E-06
         583 -5.0230999E-05
         584 -1.7034834E-04
         585 -3.9184059E-05
         586 -5.0773342E-06
         587  8.3681325E-06
         588 -1.1942707E-05
         589 -7.7638608E-05
         590 -2.7126147E-05
         591 -9.1173251E-06
         592  6.2780686E-07
         593 -1.1476569E-05
         594 -4.6539299E-05
         595 -3.2617128E-05
         596 -2.5201380E-05
         597  1.7057720E-05
         598 -1.8788508E-06
         599 -2.9402483E-05
         600  1.9144018E-05
         601 -2.9026605E-05
         602  1.0842363E-05
         603  7.2792718E-06
         604  1.5427362E-05
         605 -1.1614850E-05
         606  1.2735811E-05
         607  4.7009644E-06
         608 -1.9121173E-06
         609 -4.6646106E-05
         610 -1.0042251E-05
         611 -1.4057997E-05
         612  6.0482716E-06
         613 -3.0428639E-06
         614  6.5324508E-05
         615  1.3578065E-05
         616 -1.8046070E-05
         617  1.9123017E-05
         618 -1.4437530E-05
         619  6.2130028E-05
         620  3.9613506E-06
         621  6.5237055E-06
         622  1.1631197E-05
         623  1.1793936E-06
         624 -3.1996424E-05
         625 -1.4316987E-05
         626 -6.9709299E-06
         627 -6.7294422E-06
         628 -9.2546343E-06
         629  5.5284981E-05
         630 -1.7941928E-05
         631 -9.3575982E-05
         632  1.2904045E-05
         633  2.2074602E-05
 Sym= Particle
 Ene= -0.1353090    
 Spin= Alpha
 Occup= 2
           1 -8.3880470E-05
           2 -2.5074504E-04
           3 -5.1972223E-04
           4  5.2930810E-04
           5  6.5899803E-05
           6  7.0403528E-04
           7  2.4017027E-04
           8 -5.4304834E-05
           9  6.2705233E-04
          10  4.2196244E-04
          11 -3.9224369E-03
          12  5.2835979E-03
          13 -6.7602564E-04
          14  2.7987498E-04
          15  1.3657943E-03
          16 -2.4364265E-03
          17 -5.5732229E-04
          18 -9.2921470E-04
          19  3.9675562E-03
          20 -4.7991392E-03
          21  5.4050068E-04
          22  1.2963155E-03
          23 -9.2539837E-04
          24  1.8529820E-03
          25  2.1311600E-04
          26  3.9943156E-04
          27 -2.8805889E-04
          28 -2.7137730E-04
          29  3.9571390E-04
          30  1.7992607E-03
          31  1.4366737E-03
          32  4.9042585E-04
          33  1.0409958E-03
          34  6.3410675E-04
          35  5.5963086E-04
          36 -4.1864612E-03
          37 -6.4386323E-04
          38 -1.0472398E-03
          39  2.0905581E-04
          40  3.5304439E-03
          41  4.5930050E-04
          42 -4.7702063E-04
          43 -6.0906727E-04
          44 -2.2676669E-03
          45  3.0341154E-05
          46  1.1532361E-03
          47 -3.6905596E-05
          48  6.8200956E-04
          49  1.1087584E-03
          50  1.1918064E-03
          51  1.9522212E-03
          52  5.1420555E-03
          53 -7.7778718E-04
          54  7.8392698E-04
          55 -2.4708598E-03
          56 -3.2983846E-03
          57  8.6566468E-04
          58  4.6062507E-04
          59 -7.9580024E-04
          60 -6.1189895E-03
          61 -5.0297246E-04
          62  7.0644254E-03
          63 -2.6659295E-03
          64  1.4454226E-03
          65 -2.1557233E-03
          66 -1.3366333E-03
          67 -2.1163453E-03
          68 -1.5963862E-03
          69  5.1369099E-03
          70  9.0681489E-05
          71 -8.2192360E-04
          72  1.3097196E-03
          73 -5.5676657E-03
          74 -3.5271877E-03
          75 -2.8726014E-03
          76 -4.0933947E-04
          77  4.8627914E-03
          78  2.3297411E-03
          79  2.4783711E-03
          80  3.2253156E-04
          81  8.5582091E-03
          82 -0.2963054    
          83  7.1077123E-02
          84 -0.2540090    
          85 -2.5251776E-03
          86  0.1188107    
          87 -2.9115455E-02
          88  0.1021424    
          89 -5.6927861E-03
          90  0.1881054    
          91 -4.1213211E-02
          92  0.1605224    
          93  6.2564998E-03
          94 -6.2990300E-02
          95  1.3962415E-02
          96 -5.3701513E-02
          97 -1.4976457E-03
          98  9.1337718E-02
          99 -2.4324752E-02
         100  7.5719304E-02
         101  3.2760696E-03
         102 -3.1365003E-02
         103  8.4939897E-03
         104 -2.4735011E-02
         105  1.3148870E-03
         106 -0.2847349    
         107  6.7522064E-02
         108 -0.2461641    
         109  1.7541047E-04
         110  8.1244290E-02
         111 -1.8626312E-02
         112  7.1081378E-02
         113 -2.3489611E-03
         114  0.1815083    
         115 -4.7593087E-02
         116  0.1589214    
         117  3.0435168E-03
         118 -5.0538782E-02
         119  1.4641793E-02
         120 -4.3065526E-02
         121 -3.0618450E-03
         122  0.1535609    
         123 -3.5557151E-02
         124  0.1327069    
         125  4.4050161E-03
         126 -7.2019458E-02
         127  1.6203342E-02
         128 -6.0540255E-02
         129 -2.4177374E-03
         130 -0.1530311    
         131  4.1319858E-02
         132 -0.1349687    
         133  4.0528947E-03
         134  6.9895409E-02
         135 -2.0005105E-02
         136  6.1339915E-02
         137 -2.0447802E-03
         138 -0.1836003    
         139  4.5510855E-02
         140 -0.1601906    
         141  2.8776270E-03
         142  5.1411197E-02
         143 -1.3118456E-02
         144  4.3620624E-02
         145  9.7295752E-04
         146  0.2852407    
         147 -7.4898459E-02
         148  0.2521918    
         149  5.7499396E-04
         150 -8.0643356E-02
         151  2.1501500E-02
         152 -7.2693609E-02
         153 -8.3638652E-04
         154 -9.4270386E-02
         155  2.4056928E-02
         156 -7.9575963E-02
         157  2.2102261E-03
         158  3.1666115E-02
         159 -7.3550576E-03
         160  2.6640162E-02
         161 -5.6733126E-03
         162 -0.1837309    
         163  5.0876725E-02
         164 -0.1644044    
         165  6.0749031E-03
         166  6.0397387E-02
         167 -1.6052023E-02
         168  5.4842424E-02
         169  8.1606433E-03
         170  0.2975365    
         171 -7.8445107E-02
         172  0.2609901    
         173 -2.1015827E-03
         174 -0.1203347    
         175  3.1519987E-02
         176 -0.1045436    
         177  4.7142431E-04
         178 -1.6801486E-06
         179  2.5212807E-03
         180  7.9732034E-03
         181 -2.6036950E-04
         182 -5.7589468E-03
         183  3.8899479E-03
         184 -1.0707040E-03
         185 -6.0891351E-05
         186  5.8610889E-04
         187 -6.9111469E-03
         188  6.1051999E-03
         189  5.4760970E-04
         190  1.9650669E-03
         191  3.6625958E-03
         192 -3.3604756E-03
         193  1.2272302E-03
         194  6.6600833E-04
         195  2.7807667E-03
         196 -5.8961719E-05
         197 -1.5022424E-03
         198 -1.4722489E-03
         199 -1.2227050E-03
         200 -1.9696762E-03
         201 -9.3932613E-05
         202 -1.5271448E-03
         203  5.6177755E-03
         204 -5.1386561E-03
         205 -6.0779796E-05
         206  1.4477377E-03
         207 -2.0099110E-03
         208  1.3578131E-03
         209 -1.3539802E-04
         210 -2.4205196E-04
         211  9.7121207E-05
         212 -2.8686383E-04
         213 -2.2810321E-04
         214  2.4373412E-04
         215 -9.8132543E-05
         216  7.9260761E-05
         217 -7.6411932E-05
         218  2.8938247E-04
         219  1.0803931E-03
         220  4.7173295E-03
         221  1.5351590E-04
         222 -3.3974695E-05
         223 -4.4434515E-04
         224 -1.7213768E-03
         225 -2.8196213E-04
         226  1.6378377E-05
         227  4.7991597E-04
         228  3.9367226E-04
         229  7.1000238E-04
         230  3.0988271E-04
         231 -6.5761845E-04
         232 -3.5394222E-04
         233  5.0340972E-05
         234 -5.4259622E-04
         235 -1.2249183E-03
         236 -4.4565480E-03
         237  3.7390983E-04
         238  6.7710347E-04
         239  5.6202163E-04
         240  1.2482646E-03
         241 -2.7029804E-04
         242  5.0512911E-04
         243  1.1193383E-03
         244  4.4171279E-03
         245  6.2032527E-04
         246 -1.5648935E-04
         247  5.7886085E-05
         248 -1.0469080E-03
         249 -7.4245750E-06
         250 -1.1166186E-05
         251 -3.1777330E-05
         252  6.8170419E-05
         253  5.7326892E-04
         254  1.9571789E-05
         255  1.0726220E-04
         256  3.3191501E-04
         257 -5.6345692E-05
         258  8.3547297E-05
         259  1.3080257E-04
         260 -2.7162989E-04
         261  6.7583780E-04
         262 -1.6941114E-05
         263 -3.3918179E-05
         264  2.3950232E-04
         265 -5.3350802E-04
         266 -3.8542837E-04
         267 -2.1157421E-04
         268  2.8250903E-05
         269  8.1199734E-04
         270  2.5248994E-05
         271  6.7495782E-04
         272  1.9583132E-04
         273  2.8097685E-04
         274 -1.2062603E-04
         275  1.2910878E-04
         276  1.1971911E-05
         277 -2.8217073E-05
         278  9.1797483E-05
         279  2.8213020E-04
         280  7.5264201E-05
         281  2.0958325E-05
         282  1.3157776E-04
         283  3.2074653E-04
         284 -3.6278047E-04
         285 -2.2308284E-05
         286 -1.5397422E-05
         287 -8.4506180E-05
         288  2.8715620E-04
         289 -2.8813171E-04
         290 -6.4015796E-04
         291  3.4619714E-04
         292 -3.8630213E-05
         293  4.5677210E-04
         294  5.7674188E-04
         295 -4.8927293E-04
         296  5.9690632E-05
         297  9.0210007E-05
         298 -2.9923979E-04
         299 -2.7752278E-04
         300  1.8789993E-04
         301 -9.2735863E-06
         302 -9.5064961E-06
         303  3.9010742E-04
         304 -3.1063621E-04
         305 -1.3210684E-04
         306  3.1996016E-05
         307 -3.5883661E-04
         308 -5.7347311E-04
         309  1.8025315E-04
         310  1.8718484E-04
         311  3.7185758E-04
         312  3.9877926E-04
         313 -1.1805942E-05
         314  2.4043089E-04
         315 -2.6446683E-04
         316  3.0389900E-04
         317 -1.0889085E-04
         318 -4.5751140E-04
         319  8.3597934E-06
         320  1.5404830E-05
         321  1.0054972E-04
         322 -7.1897310E-05
         323  7.3294141E-06
         324  3.3643704E-05
         325 -4.0284588E-04
         326 -2.5519833E-04
         327  9.6686701E-05
         328  2.1359102E-04
         329  3.3277477E-04
         330  5.4812783E-05
         331 -1.0021707E-04
         332  1.3726902E-04
         333 -7.6211477E-04
         334 -2.1355174E-04
         335  2.5048776E-04
         336  4.7681046E-05
         337 -9.3080860E-05
         338  3.9381906E-05
         339 -4.5844945E-04
         340 -7.0194750E-05
         341 -9.1693983E-05
         342  1.1811192E-04
         343  4.9744727E-04
         344  2.4648740E-05
         345  5.4249816E-05
         346  1.6905900E-04
         347 -5.8828547E-05
         348  1.6053848E-04
         349 -2.0774924E-04
         350  5.8154357E-05
         351  5.6442143E-05
         352 -4.5301841E-04
         353  8.9644120E-05
         354  1.9891017E-04
         355  2.9967410E-05
         356  5.0111550E-05
         357 -2.8418825E-04
         358 -2.6866462E-04
         359 -2.3806913E-05
         360  1.4801942E-04
         361  8.5787869E-05
         362  1.0361740E-04
         363  2.0856741E-04
         364  1.3337002E-04
         365 -4.2173310E-04
         366 -4.1354069E-04
         367 -3.4477322E-05
         368  1.2630691E-04
         369  9.9050761E-05
         370  1.3245488E-04
         371 -2.6858892E-05
         372 -2.7562093E-04
         373 -6.3933746E-04
         374 -2.5829958E-04
         375  2.6185453E-04
         376  8.9261543E-05
         377  4.3746077E-05
         378 -3.4826712E-04
         379 -6.6362925E-05
         380 -2.3848712E-05
         381 -2.8796232E-04
         382  1.7932137E-04
         383  3.5567753E-04
         384 -2.1173371E-04
         385  6.7050591E-05
         386 -1.9863274E-04
         387  2.8111035E-06
         388 -2.9138864E-05
         389 -8.8152694E-05
         390  4.5933062E-05
         391  3.4136392E-04
         392 -3.0735345E-04
         393 -5.9433056E-05
         394  1.8106062E-04
         395 -2.1510325E-04
         396  9.1301568E-05
         397  1.5274870E-04
         398 -1.4638877E-04
         399  3.9786191E-04
         400 -2.5841309E-04
         401  3.7649079E-05
         402 -4.9502228E-04
         403  6.7426777E-04
         404 -3.6420647E-04
         405  1.5291510E-04
         406  5.2834024E-05
         407 -3.6313818E-04
         408 -1.0573139E-04
         409  7.4153730E-05
         410 -1.3632208E-04
         411 -4.8165975E-04
         412  3.4635706E-04
         413  1.2022587E-04
         414  4.1502720E-04
         415  4.1726255E-04
         416 -3.5080717E-05
         417 -9.2332266E-05
         418 -1.0514866E-04
         419 -2.2914822E-04
         420  5.7031441E-05
         421  2.0304963E-04
         422  3.2385814E-04
         423 -4.1534819E-05
         424  2.0592175E-05
         425  1.1334082E-04
         426 -3.4898598E-04
         427  3.9014764E-04
         428 -5.3999154E-04
         429 -2.3938534E-05
         430 -4.7916310E-05
         431 -6.6846609E-05
         432  2.4976718E-04
         433 -2.2915895E-04
         434 -3.6208946E-06
         435 -4.1367684E-04
         436  6.5871701E-04
         437  3.1639464E-04
         438  1.2723364E-04
         439  5.7304616E-04
         440 -6.5601192E-04
         441 -1.7451466E-04
         442 -1.5492132E-04
         443 -1.0720493E-03
         444 -4.5146234E-03
         445  4.2325049E-04
         446  4.1950720E-05
         447  2.4848818E-04
         448  1.7678001E-03
         449  4.2949975E-04
         450 -7.6163524E-05
         451 -2.4132034E-05
         452 -3.8768505E-04
         453  2.7006384E-04
         454  1.2452350E-03
         455 -6.1464543E-04
         456  9.6565392E-04
         457  4.2198846E-04
         458 -2.1047438E-04
         459 -1.6124559E-03
         460  8.0090406E-04
         461 -4.3702225E-04
         462  1.0561945E-03
         463  1.9296058E-04
         464  6.9072278E-04
         465 -3.3331366E-04
         466 -1.4031831E-05
         467  6.4668548E-04
         468 -3.7923898E-04
         469  3.5029216E-04
         470  2.9685680E-04
         471  2.2164676E-03
         472  2.0234336E-03
         473 -1.1967567E-03
         474  2.1578895E-04
         475  5.1942357E-04
         476 -9.6493302E-04
         477  2.9413998E-03
         478 -5.0723954E-04
         479  2.1723555E-03
         480 -3.0675703E-03
         481  5.6145531E-05
         482  8.0087660E-03
         483  1.5863390E-03
         484  2.8315398E-03
         485 -4.4244505E-05
         486  3.6595214E-02
         487 -1.0347380E-02
         488  3.4695484E-02
         489  2.6875983E-03
         490 -4.6632584E-04
         491  1.8496228E-02
         492 -4.7567440E-03
         493  2.1035248E-02
         494  3.6341604E-04
         495 -5.4894452E-04
         496 -6.8178438E-02
         497  1.6677700E-02
         498 -5.8334492E-02
         499  2.6090287E-03
         500 -1.5419341E-03
         501  3.3164337E-02
         502 -4.2709797E-03
         503  2.6049212E-02
         504  1.2012129E-03
         505 -7.5159752E-04
         506 -3.0914413E-02
         507  1.0963921E-02
         508 -2.8109871E-02
         509 -1.9031274E-04
         510 -1.7626864E-04
         511  7.0324555E-02
         512 -1.7799327E-02
         513  6.0075179E-02
         514  1.1250544E-03
         515 -1.0183274E-03
         516 -2.0807888E-02
         517  4.6857204E-03
         518 -2.0224763E-02
         519  2.0459890E-03
         520 -3.7039633E-04
         521 -4.0378824E-02
         522  7.8990730E-03
         523 -3.4307074E-02
         524  2.5697805E-03
         525 -2.9925415E-03
         526  5.0566918E-03
         527  5.6244289E-03
         528 -2.0838997E-03
         529 -1.7982030E-03
         530  8.7307964E-04
         531  6.7716028E-04
         532 -1.2231794E-04
         533  3.4972597E-04
         534 -2.0063168E-03
         535  1.3934025E-03
         536 -1.2779911E-03
         537 -6.0341082E-04
         538 -1.3465363E-03
         539  1.9048293E-03
         540 -5.3187427E-03
         541 -5.2888826E-03
         542 -6.6243405E-03
         543 -2.5419585E-04
         544 -3.0938242E-04
         545  2.4666186E-04
         546 -1.4113999E-04
         547  3.9661583E-04
         548 -1.3381171E-03
         549  1.1036799E-04
         550  4.1169833E-04
         551  6.5679313E-05
         552 -7.6312153E-04
         553 -3.4072556E-04
         554 -3.1807757E-04
         555  3.5523539E-04
         556  6.1482203E-04
         557 -3.2526816E-04
         558 -1.5513903E-03
         559  9.5187934E-05
         560  1.3015996E-04
         561 -2.1213693E-04
         562  5.6953030E-04
         563  1.2550814E-03
         564  8.2874030E-04
         565  4.3650805E-05
         566  6.2601769E-04
         567 -7.8460755E-04
         568  2.3108045E-05
         569  3.7961575E-04
         570 -4.4049029E-05
         571 -3.6965954E-04
         572  4.1711473E-04
         573 -4.6947785E-04
         574  6.1456178E-04
         575 -1.1175177E-05
         576  5.7685113E-04
         577  3.3205654E-04
         578  1.8360630E-04
         579  5.3526013E-04
         580 -1.4581926E-04
         581 -5.2176963E-04
         582 -2.7365627E-04
         583  3.3372969E-05
         584  5.3915172E-04
         585 -6.4080319E-05
         586  2.5292905E-04
         587  4.4318161E-04
         588  1.5919433E-05
         589  4.5783335E-04
         590 -1.8488108E-04
         591  2.6228494E-04
         592  5.3581454E-05
         593 -6.0572376E-04
         594  3.1283931E-04
         595 -6.6651257E-05
         596 -8.1473605E-05
         597  5.4353630E-05
         598  2.9038393E-04
         599  2.8524396E-04
         600 -1.8038033E-04
         601 -4.3569715E-04
         602  3.3003133E-05
         603  3.3875476E-04
         604 -4.9820787E-04
         605  3.3929211E-04
         606 -2.2778279E-04
         607 -5.6018453E-04
         608 -3.6026532E-04
         609 -6.0234958E-04
         610  4.7889297E-04
         611  6.0220860E-04
         612  2.2026015E-04
         613  3.6651408E-04
         614 -2.2506774E-04
         615  2.3305138E-04
         616  4.7430172E-04
         617 -5.1036314E-04
         618  3.0335557E-05
         619 -2.3904165E-04
         620  9.9914083E-05
         621 -3.1794750E-04
         622  8.3112442E-05
         623  2.1439766E-04
         624  3.7068489E-04
         625 -9.2597576E-05
         626  7.1420008E-04
         627  4.9983681E-04
         628 -3.2627754E-04
         629 -1.6668352E-04
         630  4.5735878E-04
         631  1.2894011E-04
         632 -1.1858296E-04
         633 -7.5910048E-04
 Sym= Hole
 Ene= -0.1193810    
 Spin= Alpha
 Occup= 0
           1 -1.8720317E-03
           2  4.6898709E-03
           3  4.0792912E-04
           4  4.4909265E-04
           5  1.5173680E-03
           6 -6.2130240E-04
           7  8.0982095E-04
           8 -2.5484680E-05
           9  2.8627110E-04
          10 -3.0509650E-04
          11 -4.2732563E-03
          12  5.1109944E-03
          13  1.5613131E-04
          14 -3.1360445E-04
          15  6.6351087E-04
          16 -4.8808011E-04
          17 -6.4148370E-04
          18  8.2272140E-04
          19  2.7803390E-03
          20 -2.3551590E-03
          21  1.6601723E-04
          22  1.3754505E-04
          23  1.0483814E-04
          24  1.5595591E-05
          25 -2.8809818E-04
          26 -8.6833257E-04
          27  4.9295300E-03
          28 -6.6389111E-03
          29  3.8260241E-05
          30  1.2008769E-06
          31 -1.5630847E-04
          32  4.8869045E-04
          33  1.4699835E-04
          34  3.7383064E-04
          35 -3.0365470E-04
          36  1.5105281E-03
          37 -6.0651284E-05
          38  1.5489444E-04
          39  4.2410036E-05
          40 -4.9764712E-05
          41  5.5595307E-04
          42 -9.4843475E-04
          43  1.1287718E-03
          44  1.2108935E-03
          45 -4.0984605E-04
          46 -3.8417526E-05
          47 -1.2716869E-04
          48 -6.2576335E-05
          49 -2.2729217E-04
          50  5.3758995E-04
          51 -5.3420011E-04
          52 -1.5222594E-03
          53  6.5130633E-05
          54 -1.0369968E-05
          55  5.1847105E-06
          56  2.7665277E-05
          57  1.3199764E-04
          58 -1.7903153E-04
          59 -3.7966488E-04
          60 -2.6705454E-03
          61 -3.8809838E-05
          62  9.3136504E-07
          63 -7.1763345E-05
          64  1.1544549E-04
          65  2.2223464E-04
          66 -9.2046808E-05
          67  6.4037034E-05
          68  7.4159756E-04
          69 -6.7374298E-05
          70 -1.4191842E-05
          71  5.4419259E-05
          72 -2.5708900E-06
          73 -9.7106509E-05
          74 -9.9456822E-04
          75  6.0186186E-04
          76 -4.8373285E-04
          77  6.0389833E-05
          78  2.9894491E-05
          79  2.8426223E-06
          80  1.4849991E-04
          81 -1.2696904E-04
          82  5.1788060E-04
          83 -5.6213874E-04
          84  4.8634788E-04
          85 -3.8432513E-06
          86 -4.0891078E-05
          87 -1.8905147E-04
          88 -3.7333131E-05
          89 -2.0445284E-04
          90  1.6895372E-03
          91  1.6672524E-05
          92  1.2204454E-03
          93  8.8742072E-06
          94 -1.2250740E-05
          95  1.3165829E-04
          96  8.1908234E-05
          97  2.8716007E-04
          98  7.1999774E-04
          99 -2.5293013E-04
         100  3.2148941E-04
         101  6.5989087E-05
         102  9.0607558E-05
         103  2.0334195E-05
         104 -3.7777481E-05
         105 -2.4102451E-04
         106 -1.0817440E-03
         107 -1.8338884E-04
         108 -9.5018704E-04
         109 -2.2576603E-06
         110 -7.4849821E-05
         111 -5.5615292E-05
         112  7.5448355E-05
         113  2.5028177E-04
         114 -1.2679803E-03
         115  3.0418384E-04
         116 -1.3737855E-03
         117  6.0242430E-05
         118 -1.0190050E-05
         119 -1.4611251E-05
         120  4.6681183E-07
         121 -1.4083306E-04
         122 -2.2382448E-04
         123  3.9442049E-04
         124 -4.8118454E-04
         125 -2.0889383E-06
         126  6.7379580E-05
         127  1.0488654E-04
         128 -6.1023631E-05
         129  5.8509610E-05
         130 -1.7364479E-04
         131 -1.3389965E-04
         132 -7.8795929E-05
         133  2.0743415E-05
         134 -3.7982249E-05
         135 -7.4855132E-05
         136  7.8133899E-06
         137 -2.3008397E-04
         138  2.0059857E-04
         139 -2.7288863E-04
         140  6.2389125E-05
         141 -2.0714901E-05
         142  7.1044495E-05
         143  2.0577747E-05
         144 -2.4108434E-07
         145  1.6909919E-04
         146  3.5361812E-04
         147  9.7837808E-05
         148  1.5133206E-04
         149  4.2858301E-05
         150  5.0884497E-05
         151  4.6146604E-05
         152  2.6721378E-05
         153 -2.1274609E-04
         154  2.2523731E-04
         155 -4.7502876E-05
         156  4.1165610E-04
         157 -3.3016895E-05
         158  2.3252018E-05
         159 -7.4373696E-05
         160 -1.7224647E-05
         161  3.5437959E-05
         162  1.0694153E-04
         163  8.6511638E-05
         164  1.2155897E-04
         165  6.1867198E-05
         166 -6.7291010E-05
         167 -1.3080297E-05
         168  9.0500553E-06
         169  1.1863447E-04
         170 -4.4032861E-04
         171  3.1387387E-04
         172 -5.9859932E-04
         173 -1.3609250E-05
         174  4.1614094E-05
         175  6.6850123E-05
         176 -1.1717566E-04
         177 -6.7429669E-04
         178  5.0396944E-04
         179  1.6734456E-03
         180  3.6895396E-03
         181  3.3647270E-04
         182 -8.5438907E-05
         183 -9.8348559E-05
         184 -9.5329538E-05
         185  9.5241721E-06
         186  6.8892121E-05
         187  2.0583683E-04
         188  2.3656426E-04
         189 -8.3932238E-05
         190 -5.0675553E-05
         191  9.9160963E-05
         192  1.7940096E-05
         193  3.7102494E-04
         194 -7.3290034E-04
         195 -6.6326989E-04
         196 -6.3375669E-04
         197 -2.4486706E-04
         198  3.5090314E-05
         199  1.5712792E-05
         200  3.7753729E-05
         201 -1.5532068E-04
         202  1.0901804E-03
         203 -7.3834611E-03
         204  3.3255778E-03
         205 -4.8296433E-04
         206  5.9486553E-04
         207  6.0578418E-04
         208  2.1095494E-04
         209 -3.1698130E-03
         210  6.0159909E-03
         211 -1.8704563E-03
         212  2.2647246E-03
         213  9.7869612E-05
         214  6.0592865E-04
         215 -5.5083359E-04
         216 -1.8737026E-04
         217  5.4009897E-03
         218 -6.6423584E-03
         219  3.0796335E-03
         220 -1.3515756E-02
         221 -2.9291958E-03
         222  1.4682962E-03
         223 -1.0669531E-03
         224  3.8495017E-03
         225  1.1970705E-04
         226 -3.5912183E-03
         227 -2.7089523E-02
         228 -0.1153185    
         229 -6.3445274E-04
         230 -8.2418032E-04
         231  9.5732458E-04
         232  7.2825351E-03
         233 -4.1254633E-03
         234 -7.1435428E-04
         235 -8.9025674E-03
         236 -8.3261849E-03
         237  1.6143699E-03
         238 -1.2708119E-03
         239  2.6990585E-03
         240  2.8670600E-03
         241  1.3592998E-02
         242  2.0614905E-02
         243  5.3173270E-02
         244  0.1133070    
         245 -8.7210340E-03
         246 -1.9159106E-03
         247 -5.8381828E-03
         248 -3.2896297E-03
         249 -4.8729902E-04
         250 -8.8441633E-03
         251  4.1584121E-03
         252  4.9360219E-02
         253 -2.4520725E-04
         254  2.8847160E-03
         255 -9.9410850E-04
         256 -1.0836927E-02
         257  3.2192485E-03
         258  0.1260406    
         259  2.3717508E-02
         260 -0.3012230    
         261 -1.7788763E-03
         262 -8.4410412E-03
         263 -1.3897656E-03
         264  1.5103453E-02
         265 -3.2647601E-03
         266  1.1126975E-03
         267  5.0158165E-03
         268 -2.5349410E-02
         269  7.7810377E-04
         270 -1.9216376E-04
         271  6.3579192E-04
         272 -3.8576766E-03
         273 -1.6878129E-03
         274 -0.1484982    
         275 -3.7900358E-02
         276  0.3658251    
         277  1.4086904E-04
         278  1.8060182E-03
         279  1.1305177E-03
         280 -1.0691422E-02
         281 -1.1834580E-03
         282  5.6241680E-02
         283  1.5096859E-02
         284 -0.1280696    
         285  7.4996683E-04
         286 -2.2440094E-03
         287 -5.8636058E-04
         288  4.0073213E-03
         289 -7.2622841E-04
         290  0.1028415    
         291  3.3064641E-02
         292 -0.2326557    
         293  1.4539300E-04
         294 -1.6626013E-03
         295  1.4043247E-04
         296  3.7360603E-03
         297  3.8553867E-04
         298  7.0579158E-04
         299 -6.5527897E-04
         300 -1.9440311E-03
         301 -1.7490801E-04
         302 -2.9506683E-04
         303  1.6744036E-05
         304  4.1468686E-04
         305  9.9115205E-05
         306 -0.1096061    
         307 -3.7248749E-02
         308  0.2563343    
         309 -1.9092381E-04
         310  1.6193931E-03
         311  6.6286791E-04
         312 -4.2186067E-03
         313  3.2488813E-04
         314 -5.9076816E-02
         315 -2.1730104E-02
         316  0.1358755    
         317 -3.8778302E-04
         318  2.1501663E-03
         319  1.0573476E-03
         320 -4.9168169E-03
         321  3.2530588E-04
         322  8.8464119E-02
         323  3.0050337E-02
         324 -0.1990226    
         325  2.8706857E-04
         326 -1.4630911E-03
         327 -3.5657239E-04
         328  3.4772272E-03
         329 -4.1180556E-03
         330  7.1851350E-02
         331  2.2636747E-02
         332 -0.1430792    
         333  2.5710221E-03
         334 -2.3609335E-03
         335 -1.6155975E-03
         336  4.7679581E-03
         337  3.3949048E-04
         338 -8.8423744E-02
         339 -2.3421466E-02
         340  0.1715620    
         341 -8.8840134E-05
         342  1.6238195E-03
         343  8.4655243E-04
         344 -4.3545337E-03
         345  8.6002098E-04
         346 -0.1185801    
         347 -3.5232458E-02
         348  0.2286124    
         349 -2.2045174E-04
         350  1.8807402E-03
         351  5.0662510E-04
         352 -4.6810252E-03
         353 -4.8216738E-04
         354  2.9583542E-02
         355  9.9605648E-03
         356 -5.8084819E-02
         357 -7.3378440E-05
         358 -5.4189359E-04
         359 -5.3179592E-05
         360  3.8952142E-04
         361  1.3819220E-03
         362  0.1356475    
         363  4.2465668E-02
         364 -0.2416785    
         365 -4.4478857E-04
         366 -1.6659395E-03
         367 -1.0046759E-03
         368  4.6885842E-03
         369  3.4604070E-04
         370  3.8991641E-02
         371  8.5724657E-03
         372 -7.5016700E-02
         373 -1.5385816E-04
         374 -1.5715595E-03
         375 -1.5204160E-03
         376  3.6231729E-03
         377  8.2563488E-03
         378 -0.1683346    
         379 -2.6955724E-02
         380  0.3564293    
         381 -3.3911380E-03
         382  6.3472926E-03
         383 -5.5285927E-04
         384 -1.4674953E-02
         385 -2.7914299E-03
         386  4.6945911E-02
         387  4.5417100E-03
         388 -0.1098714    
         389  1.7195451E-03
         390 -5.7863509E-03
         391 -1.7350470E-04
         392  9.0934215E-03
         393 -1.8355531E-04
         394 -5.0836732E-04
         395 -3.7638035E-03
         396  8.8866614E-03
         397 -2.3407667E-04
         398  2.7568394E-03
         399  4.6774076E-04
         400 -6.9763958E-03
         401  1.0737082E-02
         402  2.7831992E-02
         403 -9.2488211E-03
         404  8.9298831E-03
         405 -9.0369610E-03
         406 -7.5957039E-03
         407 -2.8731404E-03
         408 -3.1161823E-04
         409 -2.6115470E-03
         410 -6.2429975E-03
         411  9.3370274E-04
         412 -2.6462881E-03
         413  7.1308966E-04
         414  1.5663520E-03
         415  9.2152570E-04
         416  1.1530736E-03
         417 -3.8562212E-04
         418 -1.1349016E-02
         419  1.3537956E-02
         420 -1.8944273E-02
         421  3.0463835E-04
         422  1.0797653E-03
         423 -5.8375578E-04
         424  1.7883194E-03
         425  3.9653271E-03
         426  2.9867494E-03
         427  3.5791148E-03
         428  4.2877635E-03
         429 -1.9147607E-03
         430 -8.5455395E-04
         431 -2.1984817E-03
         432  1.2683558E-05
         433 -1.0792282E-02
         434  1.5770920E-02
         435 -2.6956415E-02
         436  6.8281223E-03
         437  7.4588219E-03
         438  7.3508279E-05
         439  5.5075283E-03
         440  3.2272963E-03
         441 -1.5492954E-02
         442  3.3232223E-02
         443  2.3327604E-02
         444  0.1131149    
         445  8.6956201E-03
         446 -5.3918441E-03
         447 -3.6478700E-04
         448 -4.3533705E-03
         449 -1.1104106E-03
         450  6.5733428E-04
         451 -1.7534660E-03
         452 -1.7396975E-04
         453  2.0731217E-03
         454  3.4606692E-03
         455 -7.5198652E-04
         456  5.1859778E-04
         457  1.4279038E-04
         458 -9.1556046E-04
         459 -1.8069753E-03
         460  1.1394926E-03
         461 -1.0521219E-05
         462  8.2835194E-04
         463  1.4218460E-04
         464  3.4561253E-04
         465 -7.4303942E-05
         466  1.9130035E-04
         467 -1.8588449E-04
         468 -3.4848280E-04
         469 -1.9977646E-04
         470 -4.9644132E-05
         471  1.7034997E-04
         472  2.2144490E-05
         473  1.8337883E-04
         474  5.6853751E-04
         475  6.4994951E-05
         476 -1.1626552E-04
         477  1.9280809E-05
         478  3.4457564E-05
         479 -1.0959831E-04
         480  2.2946262E-05
         481 -2.7557302E-05
         482  7.2351722E-06
         483 -1.7389072E-04
         484 -3.7122113E-04
         485 -7.5636628E-05
         486 -4.6309349E-05
         487  9.3098479E-06
         488  1.1732025E-05
         489 -3.5267709E-05
         490 -2.3267396E-06
         491  1.6993432E-06
         492  3.5745881E-05
         493 -2.2180118E-06
         494 -4.5866161E-04
         495 -1.6817106E-04
         496  6.2663103E-06
         497  4.9309550E-05
         498  5.0230992E-06
         499  2.0718036E-04
         500  1.1356786E-04
         501  3.2213613E-06
         502  2.0260231E-05
         503  1.1601430E-04
         504 -3.0575585E-04
         505 -1.0381126E-04
         506 -3.5442412E-05
         507  3.6958088E-05
         508  2.5453526E-05
         509  2.5360720E-04
         510  9.2375798E-05
         511 -8.0501108E-05
         512 -2.3520901E-05
         513 -3.6253925E-05
         514 -2.2433822E-04
         515 -9.1479487E-05
         516 -1.9934027E-05
         517 -1.8397308E-05
         518 -2.1688691E-05
         519 -1.3494564E-05
         520  4.3799606E-05
         521  1.0700493E-05
         522  2.3031742E-05
         523  9.1737711E-05
         524  1.4336208E-04
         525  1.8552597E-05
         526 -1.7548563E-04
         527  8.2464307E-05
         528  2.3167593E-05
         529  8.5267420E-05
         530  2.1935688E-05
         531  3.2736294E-05
         532 -1.8065664E-04
         533 -4.4547411E-05
         534 -6.1439828E-04
         535  1.3372452E-05
         536 -9.6944903E-05
         537  6.6168956E-05
         538 -4.5300185E-05
         539 -1.6865904E-04
         540 -1.1037951E-04
         541  2.6125455E-04
         542 -2.5794795E-04
         543  8.7999586E-05
         544 -1.2917368E-04
         545  5.1414434E-05
         546 -1.1681475E-03
         547 -1.8858461E-04
         548  7.9567113E-04
         549  5.0294219E-04
         550 -2.6034791E-04
         551 -3.6848683E-04
         552 -2.2395814E-03
         553 -9.1568548E-03
         554  8.8529382E-03
         555 -3.6696476E-04
         556 -5.3092890E-04
         557  7.9158322E-05
         558 -2.2355488E-03
         559 -6.3900887E-03
         560 -1.9127437E-03
         561  3.0843210E-03
         562 -1.8823551E-03
         563  6.7917584E-03
         564 -2.0152758E-04
         565 -7.0111681E-04
         566  1.9180463E-03
         567  1.3075445E-03
         568 -3.6064025E-03
         569 -8.2626421E-04
         570 -2.2484328E-05
         571  6.3394551E-04
         572  3.0217468E-04
         573 -1.7454947E-03
         574  6.6300534E-04
         575  5.0873396E-06
         576 -3.3129910E-03
         577 -1.2016026E-03
         578  7.3903417E-03
         579  3.3180678E-04
         580 -2.1358978E-04
         581 -1.4427915E-03
         582 -3.4393027E-04
         583  3.3097116E-03
         584  2.5868171E-04
         585 -3.6691237E-04
         586 -1.9637118E-03
         587 -1.6448871E-04
         588  2.8189251E-03
         589 -8.9255109E-04
         590  3.1654350E-04
         591 -3.3349323E-03
         592 -1.4193973E-03
         593  7.4581839E-03
         594  2.5820574E-03
         595 -3.1396531E-04
         596  1.0745287E-03
         597  3.2005631E-04
         598 -2.0331529E-03
         599 -2.1335266E-04
         600  2.6663818E-04
         601  2.7154989E-03
         602  1.7165026E-03
         603 -3.9941962E-03
         604 -2.6793599E-03
         605 -1.6246606E-03
         606 -1.8529992E-03
         607 -2.9747027E-03
         608  1.1578940E-03
         609  6.0879136E-03
         610  7.2783203E-04
         611  7.5886247E-04
         612  4.2815440E-04
         613 -6.4605352E-04
         614  9.5605035E-04
         615  9.0659037E-04
         616 -6.7852408E-04
         617  1.8394551E-03
         618 -1.8224753E-03
         619 -5.1321671E-03
         620  6.5403769E-04
         621 -1.4232450E-04
         622  1.0908500E-05
         623 -3.7278887E-04
         624  2.5254358E-03
         625  2.8248059E-03
         626  2.6448339E-03
         627  4.7403718E-03
         628  4.8616831E-03
         629  3.8082837E-03
         630  1.2581061E-03
         631 -1.2334959E-03
         632  6.1358344E-03
         633  4.5014303E-03
 Sym= Particle
 Ene= -0.1193810    
 Spin= Alpha
 Occup= 2
           1 -2.0533479E-03
           2  2.6614214E-03
           3  4.2712921E-04
           4 -4.3682850E-04
           5  2.0967817E-03
           6 -2.1546113E-03
           7  9.4482832E-04
           8  9.2300266E-04
           9  3.5578909E-03
          10 -4.6806708E-03
          11  8.9954278E-03
          12 -2.6657162E-03
          13 -3.2659855E-03
          14  2.4445090E-03
          15 -2.3825273E-03
          16 -3.0246587E-04
          17 -1.2561751E-03
          18  1.3183694E-03
          19  3.2984745E-03
          20 -3.2814085E-03
          21  6.0469488E-04
          22 -7.3146995E-04
          23  4.6238223E-05
          24  2.9686181E-04
          25 -3.4094483E-04
          26  1.4501892E-03
          27 -7.1011763E-03
          28  8.3053522E-03
          29  3.5615437E-04
          30 -1.0411167E-03
          31  1.2638107E-03
          32 -1.3295705E-03
          33  2.0146107E-04
          34 -1.1276507E-04
          35  8.1638136E-04
          36  2.2721938E-03
          37  3.2175879E-04
          38 -6.5201335E-04
          39 -7.1551965E-04
          40  7.9752383E-05
          41 -9.5747807E-04
          42  9.4057532E-04
          43 -1.0731874E-03
          44 -1.0464720E-03
          45  9.9215808E-04
          46 -8.0652884E-04
          47  2.2812348E-05
          48  2.9220391E-04
          49  3.1645744E-04
          50 -5.1796180E-04
          51 -5.3769851E-04
          52 -2.4160042E-03
          53 -3.8715436E-05
          54  1.0423861E-04
          55  5.4398006E-05
          56  3.9819206E-04
          57 -1.0875210E-04
          58  2.1109177E-04
          59  4.7092204E-04
          60  3.2420489E-03
          61  1.7074084E-04
          62 -2.0390980E-05
          63 -3.0963431E-05
          64 -6.5574644E-04
          65 -1.7473190E-04
          66  2.5621464E-04
          67  2.7543440E-04
          68  7.6270610E-04
          69  2.1438570E-04
          70 -3.0279354E-05
          71 -2.6611536E-04
          72 -3.0115637E-04
          73 -2.2212320E-05
          74  9.6446095E-04
          75 -4.3909901E-04
          76  9.8168489E-04
          77  1.9243715E-04
          78 -1.7641498E-04
          79  1.6659598E-05
          80 -9.4218500E-05
          81 -3.0310839E-05
          82 -9.6495159E-04
          83  3.0601662E-04
          84 -8.8902493E-04
          85  1.1390061E-04
          86  2.6278279E-04
          87 -2.0909616E-04
          88  3.5833675E-04
          89  8.9114197E-05
          90 -3.5033580E-03
          91  6.1220827E-04
          92 -2.6432518E-03
          93  9.7692573E-05
          94  9.2831429E-04
          95 -1.2354982E-04
          96  5.9247680E-04
          97 -5.2472355E-05
          98  3.6251342E-03
          99 -8.2835107E-04
         100  3.2153707E-03
         101  1.6759431E-04
         102 -8.4855722E-04
         103  2.1269052E-04
         104 -8.4589014E-04
         105  8.3517203E-05
         106  4.1461448E-04
         107 -6.6836583E-05
         108  3.5460287E-04
         109 -2.9369807E-05
         110 -9.6698888E-05
         111 -7.0623340E-05
         112 -5.5455963E-05
         113 -1.1067250E-04
         114 -3.9944951E-03
         115  8.2400255E-04
         116 -3.4057754E-03
         117  6.0952942E-05
         118  1.0602664E-03
         119  1.6892753E-05
         120  7.7427010E-04
         121  4.9532653E-05
         122  2.9437824E-03
         123 -7.7256386E-04
         124  2.6690685E-03
         125 -1.3960108E-04
         126 -8.0162124E-04
         127  1.8307174E-04
         128 -6.9116091E-04
         129  7.8843019E-05
         130  3.0935025E-03
         131 -6.9604215E-04
         132  2.8149877E-03
         133 -2.1600239E-04
         134 -7.9124596E-04
         135  8.7549553E-05
         136 -7.8674458E-04
         137 -1.1839250E-05
         138 -3.8763031E-03
         139  8.5438666E-04
         140 -3.2960086E-03
         141 -1.0392042E-04
         142  1.1338409E-03
         143 -1.6671955E-04
         144  8.4642519E-04
         145  1.7154096E-05
         146  6.8296045E-05
         147  3.1329258E-05
         148  1.5483759E-04
         149  1.1562734E-06
         150  1.0928883E-04
         151 -1.0923922E-04
         152 -8.1536336E-06
         153  1.7203112E-05
         154  3.8601051E-03
         155 -1.0901177E-03
         156  3.2120121E-03
         157  4.2847052E-05
         158 -1.1102654E-03
         159  3.7883894E-04
         160 -8.3209504E-04
         161  6.9356262E-05
         162 -3.1883237E-03
         163  7.2978635E-04
         164 -2.6087456E-03
         165 -6.3365619E-06
         166  8.0735527E-04
         167 -1.3676510E-04
         168  6.0300925E-04
         169  3.2064851E-05
         170 -1.2754028E-03
         171  3.1700404E-04
         172 -9.9020125E-04
         173 -4.4708264E-05
         174  4.9116067E-04
         175 -1.6240962E-04
         176  3.2579547E-04
         177  5.9331197E-04
         178 -4.4697130E-04
         179 -2.3321530E-03
         180 -4.8839431E-03
         181 -2.0246154E-04
         182  1.2450624E-04
         183  6.8059238E-04
         184  1.5339050E-03
         185  1.5804066E-03
         186 -2.9475910E-03
         187  3.7878246E-05
         188 -2.8305390E-04
         189 -8.4378512E-04
         190  6.4793980E-04
         191 -1.9899609E-04
         192  1.7534032E-04
         193 -2.8239048E-04
         194  2.6923284E-05
         195  2.1159451E-04
         196  6.3191442E-04
         197  4.1913099E-04
         198 -2.5408392E-04
         199 -6.0665153E-04
         200 -2.8581539E-04
         201 -4.2529441E-03
         202  3.0333064E-03
         203  8.3323726E-03
         204 -7.3891496E-03
         205  2.7573968E-03
         206 -2.9743654E-03
         207 -4.5717441E-04
         208  2.0077217E-03
         209 -2.2199170E-03
         210  3.8334404E-03
         211 -4.6118987E-03
         212  4.0961420E-03
         213 -6.8542344E-04
         214  5.5355416E-04
         215  2.5889764E-03
         216  1.5397900E-03
         217  3.0725983E-03
         218  6.8754813E-04
         219  1.4401631E-02
         220  4.3157574E-02
         221 -3.5846755E-03
         222 -3.3344084E-04
         223 -2.4506142E-03
         224 -7.1599362E-03
         225  1.4062305E-03
         226 -6.7883478E-03
         227 -3.1921472E-02
         228 -0.1326190    
         229 -2.5462625E-03
         230  5.3491091E-05
         231  6.4062737E-03
         232  2.5693152E-02
         233 -3.0006024E-03
         234  3.4822102E-03
         235  3.7363868E-03
         236  2.8820120E-02
         237 -5.1152907E-05
         238 -2.0003010E-04
         239  9.0128137E-04
         240 -2.0371291E-03
         241  9.1600846E-03
         242  1.7856905E-02
         243  4.4473339E-02
         244  0.1202100    
         245 -8.1905397E-03
         246 -2.9843869E-03
         247 -1.2962755E-02
         248 -2.9854683E-02
         249  1.5095249E-03
         250 -9.9940496E-03
         251 -2.9049259E-02
         252 -0.1222352    
         253 -1.9616834E-03
         254  5.8359625E-03
         255  1.0531431E-02
         256  2.9131940E-02
         257 -3.8447772E-04
         258  9.0705693E-02
         259  1.7604334E-02
         260 -0.2130220    
         261 -9.9019679E-05
         262 -3.6133751E-02
         263 -1.0620445E-02
         264  6.8341814E-02
         265  4.2286422E-03
         266 -4.8667379E-02
         267 -1.6242348E-02
         268  9.8785333E-02
         269 -3.4062606E-03
         270  1.1116314E-02
         271  4.8180288E-03
         272 -2.4517866E-02
         273 -5.5724569E-03
         274 -4.6680029E-02
         275 -1.1389879E-02
         276  0.1189228    
         277  2.9073774E-03
         278  6.3556829E-03
         279  3.0897139E-03
         280 -2.6497021E-02
         281  4.8695216E-03
         282  9.4525166E-02
         283  2.5096074E-02
         284 -0.2233205    
         285 -2.9914482E-03
         286 -3.1660017E-02
         287 -9.1626588E-03
         288  7.2849318E-02
         289 -1.9161876E-04
         290  7.8485958E-02
         291  2.4832662E-02
         292 -0.1748097    
         293 -8.2892273E-04
         294 -1.6179333E-02
         295 -4.9724672E-03
         296  3.5896711E-02
         297  1.9504351E-04
         298 -0.1310422    
         299 -4.3593995E-02
         300  0.3057923    
         301 -5.6015165E-04
         302  3.1422447E-02
         303  1.0178728E-02
         304 -7.2547488E-02
         305  8.4020122E-04
         306  1.3314528E-02
         307  4.3678433E-03
         308 -3.0126369E-02
         309 -1.0760155E-03
         310 -1.7472922E-03
         311 -1.6865811E-04
         312  4.7128955E-03
         313  6.5030303E-04
         314  0.1154127    
         315  4.0690042E-02
         316 -0.2691607    
         317  1.8807963E-05
         318 -3.0399004E-02
         319 -1.0956353E-02
         320  6.8387546E-02
         321 -1.4485146E-03
         322 -0.1113409    
         323 -3.6049910E-02
         324  0.2515092    
         325  1.7283669E-03
         326  2.5062079E-02
         327  7.7828872E-03
         328 -6.1761610E-02
         329  1.6079179E-03
         330 -0.1658033    
         331 -4.3110572E-02
         332  0.3270941    
         333 -4.9318565E-04
         334  4.5517012E-02
         335  1.0923694E-02
         336 -8.3876625E-02
         337  1.4322649E-03
         338  0.1056416    
         339  2.5744345E-02
         340 -0.2026605    
         341 -1.6464522E-03
         342 -2.9184310E-02
         343 -6.2715397E-03
         344  5.6104887E-02
         345 -3.3064492E-04
         346  6.8130992E-02
         347  2.1362940E-02
         348 -0.1302165    
         349 -8.9376851E-04
         350 -1.4959660E-02
         351 -5.4527642E-03
         352  2.6314877E-02
         353  7.6599995E-04
         354 -0.1595762    
         355 -4.9839132E-02
         356  0.2968076    
         357 -1.2639991E-03
         358  3.7505545E-02
         359  1.1058870E-02
         360 -7.0295520E-02
         361  2.2271799E-03
         362  4.6140496E-02
         363  1.3681267E-02
         364 -8.1051707E-02
         365 -2.6190248E-03
         366 -9.8058619E-03
         367 -4.0192883E-03
         368  1.4823768E-02
         369 -3.5094533E-03
         370  0.1497953    
         371  3.6619697E-02
         372 -0.2764198    
         373  1.6425076E-03
         374 -4.8248120E-02
         375 -1.1649952E-02
         376  9.1953449E-02
         377  4.0559866E-03
         378 -4.5766816E-03
         379 -7.6115737E-03
         380  8.1373556E-03
         381 -2.5516476E-03
         382  3.2038160E-03
         383  3.4610198E-03
         384 -2.2685882E-03
         385 -5.9998101E-03
         386 -5.8728050E-02
         387 -5.7875998E-03
         388  0.1121212    
         389  4.7197826E-03
         390  2.1928579E-02
         391 -1.8020311E-03
         392 -3.7604313E-02
         393  1.6692453E-03
         394  1.9856939E-02
         395 -1.9178044E-02
         396  2.2502113E-02
         397 -2.9340398E-03
         398 -6.1432850E-03
         399  7.0066480E-03
         400 -9.6893134E-03
         401 -1.0183964E-02
         402 -2.6785105E-02
         403  9.4685061E-03
         404 -8.3067007E-03
         405  5.0790943E-03
         406  9.7218771E-03
         407 -4.4561094E-03
         408  3.1469931E-04
         409  4.9317386E-03
         410 -8.9089088E-03
         411  1.5719166E-02
         412 -1.1226667E-02
         413 -4.0377141E-03
         414  1.4419236E-03
         415 -4.0201899E-03
         416  8.2333304E-04
         417  6.1506970E-04
         418  1.7733250E-02
         419 -2.1704931E-02
         420  2.5917817E-02
         421 -1.6012791E-03
         422 -2.3262398E-03
         423  4.3627764E-03
         424 -5.3361901E-03
         425 -1.9353345E-03
         426 -8.7871373E-04
         427 -3.5342893E-03
         428 -1.4573347E-03
         429 -1.6280301E-03
         430 -1.9901649E-03
         431  3.5283298E-03
         432 -1.1455951E-03
         433  1.1857667E-02
         434 -2.4358289E-02
         435  3.3472143E-02
         436 -1.3448432E-02
         437 -1.0930652E-02
         438  6.1360160E-03
         439 -7.9478631E-03
         440 -1.0292137E-03
         441 -8.8116024E-03
         442  2.5593398E-02
         443  2.6978573E-02
         444  0.1082930    
         445  4.9252231E-03
         446 -1.0506590E-02
         447 -5.1027406E-03
         448 -2.6955618E-02
         449 -1.8914420E-03
         450  1.9429751E-03
         451 -2.6120662E-03
         452 -4.0410389E-03
         453  4.4339458E-03
         454  1.8191868E-03
         455 -9.2787348E-05
         456  1.4704923E-03
         457  1.9769142E-03
         458 -8.0859929E-04
         459  1.2320204E-03
         460  1.4346406E-03
         461 -2.7157147E-03
         462  1.2304495E-03
         463  8.4538962E-04
         464  1.7433633E-03
         465  3.9915578E-04
         466 -5.4239942E-04
         467  8.2000816E-04
         468 -1.2608196E-03
         469  4.2880952E-04
         470  3.0140975E-04
         471 -5.9635006E-04
         472 -9.3816612E-05
         473  2.1580631E-04
         474 -3.2711111E-04
         475  5.1158611E-05
         476 -2.3352954E-04
         477 -3.3093707E-05
         478 -9.1966108E-04
         479  1.1253569E-04
         480 -5.9549720E-06
         481 -1.9233432E-04
         482  3.9088543E-05
         483  6.9450872E-04
         484 -2.4739886E-04
         485  4.0278921E-04
         486 -8.1784261E-04
         487  2.6601428E-04
         488 -6.2464591E-04
         489 -2.1530598E-04
         490  3.5092919E-04
         491  8.9796458E-04
         492 -1.9134018E-04
         493  7.5195968E-04
         494 -1.5926530E-04
         495  1.4615156E-04
         496  1.7811058E-04
         497 -2.2456789E-04
         498  1.8776036E-04
         499  2.7579290E-04
         500 -1.4696686E-04
         501 -7.4608799E-04
         502  5.7100260E-04
         503 -1.0005926E-03
         504  1.4669752E-04
         505 -1.5019790E-04
         506 -7.1785104E-04
         507  4.1392233E-04
         508 -6.5558945E-04
         509 -1.2895628E-05
         510  5.6634464E-05
         511  2.8035708E-04
         512 -1.3028261E-04
         513  1.1753289E-04
         514 -1.6177693E-04
         515  2.1717102E-04
         516  6.5621192E-04
         517 -6.9616341E-05
         518  6.7277800E-04
         519 -1.0599428E-04
         520  1.8635344E-04
         521 -7.2305353E-04
         522  2.3407898E-04
         523 -7.1492174E-04
         524 -4.7042813E-05
         525  1.0972362E-04
         526  1.4392409E-04
         527  1.1958925E-04
         528 -2.5186446E-04
         529 -2.3828629E-04
         530  6.2489783E-04
         531  1.9554414E-04
         532 -1.5769419E-04
         533 -5.3886604E-04
         534  5.4085016E-04
         535  5.9255055E-04
         536 -8.4691111E-04
         537 -6.3880032E-04
         538 -4.6203142E-05
         539  1.1430813E-04
         540  4.0923193E-04
         541 -1.8178062E-04
         542 -3.9602545E-04
         543  1.6122717E-04
         544  1.4503762E-03
         545  2.4201197E-03
         546 -7.3477421E-03
         547  1.5376348E-03
         548 -1.5565656E-03
         549 -1.3792521E-03
         550 -8.8480429E-04
         551 -2.1349362E-03
         552 -5.1273941E-03
         553 -2.5134645E-02
         554  4.7162347E-03
         555 -2.1120089E-03
         556 -2.6985240E-04
         557  2.1545033E-04
         558  5.7359664E-03
         559 -3.0775014E-03
         560 -1.3852882E-03
         561  4.6901070E-03
         562  5.4378328E-03
         563  1.9140732E-02
         564 -1.5151580E-03
         565  1.5949672E-04
         566  1.0858168E-02
         567  4.8736683E-03
         568 -2.7229507E-02
         569 -1.0086279E-03
         570  1.6921462E-04
         571 -2.7439937E-02
         572 -9.1800150E-03
         573  6.3292652E-02
         574 -1.3996960E-03
         575  1.7095849E-04
         576  3.2264017E-03
         577  6.0797989E-04
         578 -7.3529398E-03
         579 -1.9523896E-03
         580  7.1527885E-04
         581  2.4013262E-02
         582  7.0119863E-03
         583 -5.3941276E-02
         584 -2.1757321E-03
         585  1.0135501E-03
         586  2.4455270E-02
         587  6.0399636E-03
         588 -4.5623902E-02
         589  3.8569642E-04
         590 -3.5418139E-04
         591  1.4987787E-02
         592  3.7810302E-03
         593 -2.8785752E-02
         594 -7.9796877E-04
         595  5.3277047E-04
         596 -3.2699600E-02
         597 -9.9638104E-03
         598  6.4063735E-02
         599 -2.4949994E-03
         600  1.9666997E-03
         601  6.2966156E-03
         602  2.8567601E-03
         603 -1.2071493E-02
         604  2.4526101E-03
         605 -3.7498603E-04
         606  2.3423750E-03
         607 -3.1063161E-03
         608  1.1769294E-04
         609 -5.2368045E-03
         610  2.3334646E-03
         611  1.6916804E-04
         612  4.1997619E-03
         613 -4.0052938E-03
         614  1.1505040E-04
         615  1.1301897E-03
         616  5.4294900E-03
         617 -3.8309991E-03
         618  6.0651000E-03
         619  4.5039766E-03
         620 -9.1403321E-04
         621 -1.4429553E-03
         622  5.8398553E-04
         623  4.2774231E-04
         624 -2.0740239E-03
         625  3.7150475E-04
         626 -3.4963819E-03
         627  5.2394453E-03
         628 -2.3433885E-03
         629  1.9930915E-03
         630 -6.8710244E-04
         631 -2.4951205E-05
         632  1.5602596E-03
         633  1.6799822E-02
