 [Molden Format]
 [Atoms] Angs
BR      1     35      6.61859159      0.43083990      0.00348475
C       2      6      4.72531850      0.67889358      0.00258897
C       3      6      4.22883316      1.99644101      0.00075998
C       4      6      2.88164286      2.21337024     -0.00006430
C       5      6      1.98769066      1.11951166      0.00074302
N       6      7      0.66471179      1.33492197     -0.00060967
C       7      6     -0.13675637      0.28587795     -0.00023747
C       8      6     -1.56721661      0.49643229     -0.00141764
C       9      6     -2.06804999      1.80252172     -0.00312094
C      10      6     -3.42130734      2.04482409     -0.00323153
C      11      6     -4.28320165      0.95464598     -0.00095663
BR     12     35     -6.17217200      1.26299353      0.00027321
C      13      6     -3.82012318     -0.34249580      0.00034793
C      14      6     -2.44566819     -0.60634442     -0.00047613
C      15      6     -1.91727811     -1.96419276     -0.00061592
C      16      6     -2.74310759     -3.09437078     -0.00309170
C      17      6     -2.21684961     -4.36879271     -0.00361603
C      18      6     -0.84017846     -4.56371997     -0.00138917
C      19      6     -0.00320127     -3.47149703      0.00085446
C      20      6     -0.52271069     -2.17317764      0.00095386
C      21      6      0.38370668     -1.04630838      0.00169796
N      22      7      1.68486102     -1.26899798      0.00334752
C      23      6      2.50705724     -0.20952176      0.00278525
C      24      6      3.90384024     -0.41147169      0.00381535
H      25      1      4.92327712      2.82240246     -0.00015666
H      26      1      2.47213527      3.21121850     -0.00149525
H      27      1     -1.36076619      2.61654169     -0.00429990
H      28      1     -3.80864546      3.05150178     -0.00478067
H      29      1     -4.53647358     -1.14674545      0.00220529
H      30      1     -3.81504307     -2.98515120     -0.00506201
H      31      1     -2.88157437     -5.21973629     -0.00583360
H      32      1     -0.43231971     -5.56302533     -0.00170300
H      33      1      1.06939553     -3.58547291      0.00229408
H      34      1      4.28367394     -1.42105184      0.00533860
 [GTO]
           1   0
s              4   1.000000
      0.85267575     -0.11206828
      0.43741266     -0.28454268
      0.13362875      0.89098737
      0.07440216      0.35178112
p              4   1.000000
     12.73893599     -0.00603522
      3.69348612     -0.06013311
      0.64463797      0.64515181
      0.31631860      0.41179238
s              7   1.000000
      0.08230620     -0.73497643
      0.03358786      0.82940511
      0.01989320      0.79374096
      0.85267575      0.05416424
      0.43741266      0.13752364
      0.13362875     -0.43062722
      0.07440216     -0.17002096
p              7   1.000000
      0.16210445     -0.13955149
      0.03603777      0.81114805
      0.01984789      0.27377717
     12.73893599      0.00056077
      3.69348612      0.00558732
      0.64463797     -0.05994480
      0.31631860     -0.03826202
 
           2   0
s              4   1.000000
     34.92812063     -0.01198412
      6.01491139     -0.05472052
      0.48332380      0.58055871
      0.18420666      0.47700799
p              4   1.000000
      5.62957912      0.05713170
      1.45966580      0.28574555
      0.51457736      0.55178731
      0.20486212      0.26323149
s              7   1.000000
      0.38350848     -0.19623768
      0.04707223      0.94814833
      0.02222627      0.24899814
     34.92812063      0.00551663
      6.01491139      0.02518943
      0.48332380     -0.26724789
      0.18420666     -0.21958051
p              7   1.000000
      1.83062075     -0.01161192
      0.10124670      0.57062731
      0.03901771      0.59593545
      5.62957912     -0.02527051
      1.45966580     -0.12639103
      0.51457736     -0.24406667
      0.20486212     -0.11643261
 
           3   0
s              4   1.000000
     35.16829402     -0.01198412
      6.05627124     -0.05472053
      0.48664724      0.58055871
      0.18547331      0.47700799
p              4   1.000000
      5.66828934      0.05713170
      1.46970278      0.28574555
      0.51811571      0.55178731
      0.20627079      0.26323149
s              7   1.000000
      0.38350848     -0.19601443
      0.04707223      0.94706968
      0.02222627      0.24871488
     35.16829402      0.00548064
      6.05627124      0.02502510
      0.48664724     -0.26550439
      0.18547331     -0.21814799
p              7   1.000000
      1.83062075     -0.01159951
      0.10124670      0.57001748
      0.03901771      0.59529859
      5.66828934     -0.02510501
      1.46970278     -0.12556328
      0.51811571     -0.24246826
      0.20627079     -0.11567008
 
           4   0
s              4   1.000000
     34.98953315     -0.01198412
      6.02548713     -0.05472052
      0.48417360      0.58055871
      0.18453054      0.47700799
p              4   1.000000
      5.63947736      0.05713170
      1.46223227      0.28574555
      0.51548212      0.55178731
      0.20522232      0.26323149
s              7   1.000000
      0.38350848     -0.19618020
      0.04707223      0.94787063
      0.02222627      0.24892521
     34.98953315      0.00550739
      6.02548713      0.02514721
      0.48417360     -0.26679995
      0.18453054     -0.21921246
p              7   1.000000
      1.83062075     -0.01160872
      0.10124670      0.57047031
      0.03901771      0.59577152
      5.63947736     -0.02522799
      1.46223227     -0.12617837
      0.51548212     -0.24365601
      0.20522232     -0.11623670
 
           5   0
s              4   1.000000
     35.27781787     -0.01198412
      6.07513215     -0.05472052
      0.48816279      0.58055871
      0.18605092      0.47700799
p              4   1.000000
      5.68594197      0.05713170
      1.47427985      0.28574555
      0.51972927      0.55178730
      0.20691318      0.26323149
s              7   1.000000
      0.38350848     -0.19591396
      0.04707223      0.94658428
      0.02222627      0.24858740
     35.27781787      0.00546438
      6.07513215      0.02495086
      0.48816279     -0.26471670
      0.18605092     -0.21750080
p              7   1.000000
      1.83062075     -0.01159392
      0.10124670      0.56974304
      0.03901771      0.59501200
      5.68594197     -0.02503023
      1.47427985     -0.12518930
      0.51972927     -0.24174608
      0.20691318     -0.11532556
 
           6   0
s              4   1.000000
     57.31812847     -0.01198412
      9.87065601     -0.05472052
      0.79314933      0.58055871
      0.30228884      0.47700799
p              4   1.000000
      6.75620106      0.05713170
      1.75178205      0.28574555
      0.61755738      0.55178731
      0.24586024      0.26323149
s              7   1.000000
      0.47894987     -0.18906182
      0.05878681      0.91347723
      0.02775758      0.23989299
     57.31812847      0.00423518
      9.87065601      0.01933822
      0.79314933     -0.20516931
      0.30228884     -0.16857451
p              7   1.000000
      2.28619608     -0.01168687
      0.12644335      0.57431071
      0.04872781      0.59978223
      6.75620106     -0.02625156
      1.75178205     -0.13129777
      0.61755738     -0.25354181
      0.24586024     -0.12095274
 
           7   0
s              4   1.000000
     35.31776673     -0.01198412
      6.08201167     -0.05472052
      0.48871559      0.58055871
      0.18626161      0.47700799
p              4   1.000000
      5.69238077      0.05713170
      1.47594933      0.28574555
      0.52031781      0.55178731
      0.20714749      0.26323149
s              7   1.000000
      0.38350848     -0.19587753
      0.04707223      0.94640823
      0.02222627      0.24854117
     35.31776673      0.00545848
      6.08201167      0.02492388
      0.48871559     -0.26443053
      0.18626161     -0.21726567
p              7   1.000000
      1.83062075     -0.01159190
      0.10124670      0.56964351
      0.03901771      0.59490803
      5.69238077     -0.02500307
      1.47594933     -0.12505343
      0.52031781     -0.24148370
      0.20714749     -0.11520039
 
           8   0
s              4   1.000000
     35.21837685     -0.01198412
      6.06489591     -0.05472052
      0.48734026      0.58055871
      0.18573744      0.47700799
p              4   1.000000
      5.67636150      0.05713170
      1.47179577      0.28574555
      0.51885355      0.55178731
      0.20656454      0.26323149
s              7   1.000000
      0.38350848     -0.19596838
      0.04707223      0.94684721
      0.02222627      0.24865646
     35.21837685      0.00547320
      6.06489591      0.02499110
      0.48734026     -0.26514363
      0.18573744     -0.21785158
p              7   1.000000
      1.83062075     -0.01159695
      0.10124670      0.56989170
      0.03901771      0.59516723
      5.67636150     -0.02507076
      1.47179577     -0.12539200
      0.51885355     -0.24213750
      0.20656454     -0.11551229
 
           9   0
s              4   1.000000
     35.03783060     -0.01198412
      6.03380436     -0.05472053
      0.48484193      0.58055871
      0.18478526      0.47700799
p              4   1.000000
      5.64726175      0.05713170
      1.46425064      0.28574555
      0.51619366      0.55178731
      0.20550559      0.26323149
s              7   1.000000
      0.38350848     -0.19613519
      0.04707223      0.94765317
      0.02222627      0.24886810
     35.03783060      0.00550014
      6.03380436      0.02511410
      0.48484193     -0.26644869
      0.18478526     -0.21892387
p              7   1.000000
      1.83062075     -0.01160622
      0.10124670      0.57034736
      0.03901771      0.59564311
      5.64726175     -0.02519464
      1.46425064     -0.12601161
      0.51619366     -0.24333399
      0.20550559     -0.11608308
 
          10   0
s              4   1.000000
     35.16321651     -0.01198412
      6.05539685     -0.05472052
      0.48657697      0.58055871
      0.18544653      0.47700799
p              4   1.000000
      5.66747097      0.05713170
      1.46949059      0.28574555
      0.51804091      0.55178731
      0.20624101      0.26323149
s              7   1.000000
      0.38350848     -0.19601911
      0.04707223      0.94709228
      0.02222627      0.24872081
     35.16321651      0.00548140
      6.05539685      0.02502855
      0.48657697     -0.26554102
      0.18544653     -0.21817809
p              7   1.000000
      1.83062075     -0.01159977
      0.10124670      0.57003025
      0.03901771      0.59531194
      5.66747097     -0.02510848
      1.46949059     -0.12558067
      0.51804091     -0.24250184
      0.20624101     -0.11568610
 
          11   0
s              4   1.000000
     34.93756971     -0.01198412
      6.01653860     -0.05472052
      0.48345455      0.58055871
      0.18425649      0.47700799
p              4   1.000000
      5.63110209      0.05713170
      1.46006069      0.28574555
      0.51471657      0.55178731
      0.20491754      0.26323149
s              7   1.000000
      0.38350848     -0.19622881
      0.04707223      0.94810552
      0.02222627      0.24898691
     34.93756971      0.00551521
      6.01653860      0.02518293
      0.48345455     -0.26717887
      0.18425649     -0.21952381
p              7   1.000000
      1.83062075     -0.01161142
      0.10124670      0.57060311
      0.03901771      0.59591021
      5.63110209     -0.02526395
      1.46006069     -0.12635826
      0.51471657     -0.24400340
      0.20491754     -0.11640242
 
          12   0
s              4   1.000000
      0.85243562     -0.11206828
      0.43728948     -0.28454268
      0.13359112      0.89098737
      0.07438121      0.35178112
p              4   1.000000
     12.73534844     -0.00603522
      3.69244596     -0.06013311
      0.64445643      0.64515182
      0.31622952      0.41179238
s              7   1.000000
      0.08230620     -0.73502464
      0.03358786      0.82945951
      0.01989320      0.79379301
      0.85243562      0.05418300
      0.43728948      0.13757127
      0.13359112     -0.43077638
      0.07438121     -0.17007984
p              7   1.000000
      0.16210445     -0.13955203
      0.03603777      0.81115118
      0.01984789      0.27377820
     12.73534844      0.00056102
      3.69244596      0.00558983
      0.64445643     -0.05997182
      0.31622952     -0.03827927
 
          13   0
s              4   1.000000
     35.28047214     -0.01198412
      6.07558924     -0.05472052
      0.48819952      0.58055871
      0.18606492      0.47700800
p              4   1.000000
      5.68636978      0.05713170
      1.47439077      0.28574555
      0.51976837      0.55178731
      0.20692874      0.26323149
s              7   1.000000
      0.38350848     -0.19591154
      0.04707223      0.94657256
      0.02222627      0.24858433
     35.28047214      0.00546399
      6.07558924      0.02494906
      0.48819952     -0.26469767
      0.18606492     -0.21748516
p              7   1.000000
      1.83062075     -0.01159379
      0.10124670      0.56973642
      0.03901771      0.59500508
      5.68636978     -0.02502843
      1.47439077     -0.12518026
      0.51976837     -0.24172863
      0.20692874     -0.11531723
 
          14   0
s              4   1.000000
     35.17396158     -0.01198412
      6.05724724     -0.05472052
      0.48672566      0.58055871
      0.18550320      0.47700799
p              4   1.000000
      5.66920282      0.05713170
      1.46993964      0.28574555
      0.51819921      0.55178730
      0.20630403      0.26323149
s              7   1.000000
      0.38350848     -0.19600921
      0.04707223      0.94704446
      0.02222627      0.24870825
     35.17396158      0.00547980
      6.05724724      0.02502125
      0.48672566     -0.26546352
      0.18550320     -0.21811441
p              7   1.000000
      1.83062075     -0.01159922
      0.10124670      0.57000322
      0.03901771      0.59528370
      5.66920282     -0.02510113
      1.46993964     -0.12554388
      0.51819921     -0.24243078
      0.20630403     -0.11565220
 
          15   0
s              4   1.000000
     35.16363753     -0.01198412
      6.05546935     -0.05472052
      0.48658280      0.58055871
      0.18544875      0.47700799
p              4   1.000000
      5.66753883      0.05713170
      1.46950819      0.28574555
      0.51804711      0.55178731
      0.20624348      0.26323149
s              7   1.000000
      0.38350848     -0.19601872
      0.04707223      0.94709041
      0.02222627      0.24872032
     35.16363753      0.00548134
      6.05546935      0.02502827
      0.48658280     -0.26553799
      0.18544875     -0.21817559
p              7   1.000000
      1.83062075     -0.01159974
      0.10124670      0.57002920
      0.03901771      0.59531081
      5.66753883     -0.02510820
      1.46950819     -0.12557923
      0.51804711     -0.24249905
      0.20624348     -0.11568477
 
          16   0
s              4   1.000000
     35.00393025     -0.01198412
      6.02796643     -0.05472052
      0.48437282      0.58055871
      0.18460647      0.47700799
p              4   1.000000
      5.64179782      0.05713170
      1.46283393      0.28574555
      0.51569423      0.55178731
      0.20530676      0.26323149
s              7   1.000000
      0.38350848     -0.19616677
      0.04707223      0.94780573
      0.02222627      0.24890818
     35.00393025      0.00550522
      6.02796643      0.02513733
      0.48437282     -0.26669514
      0.18460647     -0.21912636
p              7   1.000000
      1.83062075     -0.01160797
      0.10124670      0.57043362
      0.03901771      0.59573317
      5.64179782     -0.02521804
      1.46283393     -0.12612861
      0.51569423     -0.24355993
      0.20530676     -0.11619087
 
          17   0
s              4   1.000000
     34.91506211     -0.01198412
      6.01266261     -0.05472052
      0.48314310      0.58055871
      0.18413779      0.47700799
p              4   1.000000
      5.62747440      0.05713170
      1.45912008      0.28574555
      0.51438498      0.55178731
      0.20478552      0.26323149
s              7   1.000000
      0.38350848     -0.19624993
      0.04707223      0.94820754
      0.02222627      0.24901369
     34.91506211      0.00551860
      6.01266261      0.02519843
      0.48314310     -0.26734333
      0.18413779     -0.21965893
p              7   1.000000
      1.83062075     -0.01161260
      0.10124670      0.57066079
      0.03901771      0.59597044
      5.62747440     -0.02527957
      1.45912008     -0.12643634
      0.51438498     -0.24415417
      0.20478552     -0.11647435
 
          18   0
s              4   1.000000
     34.90610441     -0.01198412
      6.01112002     -0.05472052
      0.48301914      0.58055871
      0.18409055      0.47700799
p              4   1.000000
      5.62603064      0.05713170
      1.45874573      0.28574555
      0.51425301      0.55178731
      0.20473299      0.26323149
s              7   1.000000
      0.38350848     -0.19625835
      0.04707223      0.94824820
      0.02222627      0.24902437
     34.90610441      0.00551996
      6.01112002      0.02520460
      0.48301914     -0.26740884
      0.18409055     -0.21971275
p              7   1.000000
      1.83062075     -0.01161306
      0.10124670      0.57068378
      0.03901771      0.59599443
      5.62603064     -0.02528578
      1.45874573     -0.12646744
      0.51425301     -0.24421422
      0.20473299     -0.11650299
 
          19   0
s              4   1.000000
     35.02186020     -0.01198412
      6.03105412     -0.05472052
      0.48462093      0.58055871
      0.18470103      0.47700799
p              4   1.000000
      5.64468770      0.05713170
      1.46358323      0.28574555
      0.51595838      0.55178731
      0.20541192      0.26323149
s              7   1.000000
      0.38350848     -0.19615006
      0.04707223      0.94772499
      0.02222627      0.24888697
     35.02186020      0.00550253
      6.03105412      0.02512504
      0.48462093     -0.26656474
      0.18470103     -0.21901921
p              7   1.000000
      1.83062075     -0.01160704
      0.10124670      0.57038797
      0.03901771      0.59568551
      5.64468770     -0.02520566
      1.46358323     -0.12606670
      0.51595838     -0.24344038
      0.20541192     -0.11613383
 
          20   0
s              4   1.000000
     35.21877891     -0.01198412
      6.06496515     -0.05472053
      0.48734583      0.58055871
      0.18573956      0.47700799
p              4   1.000000
      5.67642630      0.05713170
      1.47181258      0.28574555
      0.51885948      0.55178731
      0.20656690      0.26323149
s              7   1.000000
      0.38350848     -0.19596802
      0.04707223      0.94684544
      0.02222627      0.24865599
     35.21877891      0.00547314
      6.06496515      0.02499082
      0.48734583     -0.26514074
      0.18573956     -0.21784920
p              7   1.000000
      1.83062075     -0.01159693
      0.10124670      0.56989070
      0.03901771      0.59516618
      5.67642630     -0.02507049
      1.47181258     -0.12539063
      0.51885948     -0.24213485
      0.20656690     -0.11551102
 
          21   0
s              4   1.000000
     35.31543961     -0.01198412
      6.08161092     -0.05472052
      0.48868339      0.58055871
      0.18624933      0.47700800
p              4   1.000000
      5.69200570      0.05713170
      1.47585208      0.28574555
      0.52028353      0.55178731
      0.20713384      0.26323149
s              7   1.000000
      0.38350848     -0.19587965
      0.04707223      0.94641846
      0.02222627      0.24854385
     35.31543961      0.00545882
      6.08161092      0.02492545
      0.48868339     -0.26444719
      0.18624933     -0.21727936
p              7   1.000000
      1.83062075     -0.01159201
      0.10124670      0.56964931
      0.03901771      0.59491410
      5.69200570     -0.02500465
      1.47585208     -0.12506133
      0.52028353     -0.24149897
      0.20713384     -0.11520768
 
          22   0
s              4   1.000000
     57.32198566     -0.01198412
      9.87132025     -0.05472053
      0.79320270      0.58055871
      0.30230918      0.47700799
p              4   1.000000
      6.75665572      0.05713170
      1.75189993      0.28574555
      0.61759894      0.55178731
      0.24587678      0.26323149
s              7   1.000000
      0.47894987     -0.18906043
      0.05878681      0.91347052
      0.02775758      0.23989123
     57.32198566      0.00423490
      9.87132025      0.01933694
      0.79320270     -0.20515573
      0.30230918     -0.16856336
p              7   1.000000
      2.28619608     -0.01168674
      0.12644335      0.57430429
      0.04872781      0.59977552
      6.75665572     -0.02624987
      1.75189993     -0.13128933
      0.61759894     -0.25352552
      0.24587678     -0.12094497
 
          23   0
s              4   1.000000
     35.29330127     -0.01198412
      6.07779852     -0.05472052
      0.48837704      0.58055871
      0.18613258      0.47700799
p              4   1.000000
      5.68843753      0.05713170
      1.47492691      0.28574555
      0.51995738      0.55178731
      0.20700399      0.26323149
s              7   1.000000
      0.38350848     -0.19589983
      0.04707223      0.94651598
      0.02222627      0.24856946
     35.29330127      0.00546209
      6.07779852      0.02494040
      0.48837704     -0.26460572
      0.18613258     -0.21740961
p              7   1.000000
      1.83062075     -0.01159314
      0.10124670      0.56970444
      0.03901771      0.59497167
      5.68843753     -0.02501970
      1.47492691     -0.12513660
      0.51995738     -0.24164432
      0.20700399     -0.11527702
 
          24   0
s              4   1.000000
     35.26022346     -0.01198412
      6.07210225     -0.05472052
      0.48791932      0.58055871
      0.18595813      0.47700800
p              4   1.000000
      5.68310617      0.05713170
      1.47354457      0.28574555
      0.51947006      0.55178730
      0.20680998      0.26323149
s              7   1.000000
      0.38350848     -0.19593005
      0.04707223      0.94666199
      0.02222627      0.24860781
     35.26022346      0.00546699
      6.07210225      0.02496275
      0.48791932     -0.26484293
      0.18595813     -0.21760452
p              7   1.000000
      1.83062075     -0.01159482
      0.10124670      0.56978698
      0.03901771      0.59505788
      5.68310617     -0.02504222
      1.47354457     -0.12524923
      0.51947006     -0.24186181
      0.20680998     -0.11538077
 
          25   0
s              4   1.000000
      8.31136081      0.05675242
      1.52087663      0.26014135
      0.42251618      0.53284611
      0.14022932      0.29162544
s              7   1.000000
      0.92936822     -0.06732532
      0.05643440      0.66942453
      0.02166600      0.51459092
      8.31136081     -0.02901626
      1.52087663     -0.13300452
      0.42251618     -0.27243243
      0.14022932     -0.14910164
p              4   1.000000
      0.64737396      0.05713170
      0.16785440      0.28574555
      0.05917387      0.55178731
      0.02355814      0.26323150
 
          26   0
s              4   1.000000
      8.30920157      0.05675242
      1.52048151      0.26014135
      0.42240641      0.53284611
      0.14019289      0.29162544
s              7   1.000000
      0.92936822     -0.06732810
      0.05643440      0.66945215
      0.02166600      0.51461214
      8.30920157     -0.02902203
      1.52048151     -0.13303099
      0.42240641     -0.27248665
      0.14019289     -0.14913131
p              4   1.000000
      0.64737396      0.05713170
      0.16785440      0.28574555
      0.05917387      0.55178731
      0.02355814      0.26323150
 
          27   0
s              4   1.000000
      8.31012242      0.05675242
      1.52065002      0.26014135
      0.42245323      0.53284611
      0.14020843      0.29162544
s              7   1.000000
      0.92936822     -0.06732691
      0.05643440      0.66944037
      0.02166600      0.51460309
      8.31012242     -0.02901957
      1.52065002     -0.13301970
      0.42245323     -0.27246352
      0.14020843     -0.14911866
p              4   1.000000
      0.64737396      0.05713170
      0.16785440      0.28574555
      0.05917387      0.55178731
      0.02355814      0.26323150
 
          28   0
s              4   1.000000
      8.31099692      0.05675242
      1.52081004      0.26014135
      0.42249768      0.53284611
      0.14022318      0.29162544
s              7   1.000000
      0.92936822     -0.06732579
      0.05643440      0.66942918
      0.02166600      0.51459449
      8.31099692     -0.02901723
      1.52081004     -0.13300898
      0.42249768     -0.27244156
      0.14022318     -0.14910664
p              4   1.000000
      0.64737396      0.05713170
      0.16785440      0.28574555
      0.05917387      0.55178731
      0.02355814      0.26323150
 
          29   0
s              4   1.000000
      8.31248025      0.05675242
      1.52108147      0.26014135
      0.42257309      0.53284611
      0.14024821      0.29162544
s              7   1.000000
      0.92936822     -0.06732388
      0.05643440      0.66941022
      0.02166600      0.51457991
      8.31248025     -0.02901326
      1.52108147     -0.13299080
      0.42257309     -0.27240433
      0.14024821     -0.14908626
p              4   1.000000
      0.64737396      0.05713170
      0.16785440      0.28574555
      0.05917387      0.55178731
      0.02355814      0.26323150
 
          30   0
s              4   1.000000
      8.30988587      0.05675242
      1.52060673      0.26014135
      0.42244120      0.53284611
      0.14020444      0.29162544
s              7   1.000000
      0.92936822     -0.06732722
      0.05643440      0.66944339
      0.02166600      0.51460540
      8.30988587     -0.02902020
      1.52060673     -0.13302260
      0.42244120     -0.27246946
      0.14020444     -0.14912191
p              4   1.000000
      0.64737396      0.05713170
      0.16785440      0.28574555
      0.05917387      0.55178731
      0.02355814      0.26323150
 
          31   0
s              4   1.000000
      8.30892683      0.05675242
      1.52043124      0.26014135
      0.42239245      0.53284611
      0.14018826      0.29162544
s              7   1.000000
      0.92936822     -0.06732845
      0.05643440      0.66945566
      0.02166600      0.51461484
      8.30892683     -0.02902277
      1.52043124     -0.13303436
      0.42239245     -0.27249355
      0.14018826     -0.14913509
p              4   1.000000
      0.64737396      0.05713170
      0.16785440      0.28574555
      0.05917387      0.55178731
      0.02355814      0.26323150
 
          32   0
s              4   1.000000
      8.30884077      0.05675242
      1.52041549      0.26014135
      0.42238807      0.53284611
      0.14018680      0.29162544
s              7   1.000000
      0.92936822     -0.06732856
      0.05643440      0.66945676
      0.02166600      0.51461569
      8.30884077     -0.02902300
      1.52041549     -0.13303541
      0.42238807     -0.27249571
      0.14018680     -0.14913627
p              4   1.000000
      0.64737396      0.05713170
      0.16785440      0.28574555
      0.05917387      0.55178731
      0.02355814      0.26323150
 
          33   0
s              4   1.000000
      8.31001625      0.05675242
      1.52063059      0.26014135
      0.42244783      0.53284611
      0.14020664      0.29162544
s              7   1.000000
      0.92936822     -0.06732705
      0.05643440      0.66944173
      0.02166600      0.51460414
      8.31001625     -0.02901985
      1.52063059     -0.13302100
      0.42244783     -0.27246619
      0.14020664     -0.14912011
p              4   1.000000
      0.64737396      0.05713170
      0.16785440      0.28574555
      0.05917387      0.55178731
      0.02355814      0.26323150
 
          34   0
s              4   1.000000
      8.31111403      0.05675242
      1.52083147      0.26014135
      0.42250364      0.53284611
      0.14022516      0.29162544
s              7   1.000000
      0.92936822     -0.06732564
      0.05643440      0.66942768
      0.02166600      0.51459333
      8.31111403     -0.02901692
      1.52083147     -0.13300754
      0.42250364     -0.27243863
      0.14022516     -0.14910503
p              4   1.000000
      0.64737396      0.05713170
      0.16785440      0.28574555
      0.05917387      0.55178731
      0.02355814      0.26323150
 
 [MO]
 Sym= Hole
 Ene= -0.7566036    
 Spin= Alpha
 Occup= 0
           1  7.3712463E-06
           2 -3.9040071E-05
           3  1.2061870E-04
           4  9.8423809E-02
           5 -8.6274795E-06
           6  4.5297820E-06
           7 -3.6186082E-06
           8 -5.6127179E-03
           9  1.3419390E-05
          10  6.2403495E-05
          11 -3.7110515E-04
          12 -0.2536544    
          13 -5.7736647E-06
          14 -1.0776103E-05
          15  9.2255978E-06
          16  7.2246087E-03
          17 -4.3394107E-06
          18  4.8354956E-05
          19 -2.6130481E-04
          20 -0.2244153    
          21  2.3737432E-06
          22 -7.7611658E-06
          23 -1.1739268E-05
          24 -1.2391399E-03
          25  5.4341741E-05
          26 -7.9807352E-05
          27  4.6485980E-06
          28  8.2423352E-02
          29 -3.0362851E-05
          30  1.5964180E-05
          31 -2.5091797E-06
          32 -1.1283585E-03
          33 -1.1302082E-05
          34 -3.5665123E-04
          35  6.0008769E-04
          36  0.3224067    
          37 -2.2279371E-05
          38  3.8554339E-05
          39  6.9039083E-06
          40 -1.4380036E-03
          41 -2.0566749E-04
          42  2.3261637E-04
          43 -4.7777005E-04
          44 -8.8431269E-02
          45  8.1312959E-05
          46 -1.7165200E-06
          47 -6.5466406E-06
          48 -3.5231477E-03
          49 -4.0314872E-06
          50  3.5263016E-04
          51 -1.7365512E-04
          52 -0.3039505    
          53 -2.9991330E-05
          54 -2.9768848E-05
          55 -2.4252091E-05
          56 -3.7144972E-03
          57  9.2263253E-05
          58 -1.2520544E-04
          59  1.0204024E-04
          60  0.1840996    
          61 -5.9876897E-05
          62 -2.0759740E-05
          63 -1.5641632E-05
          64 -1.7886986E-03
          65  1.8723051E-05
          66  3.2688640E-05
          67  4.0201560E-04
          68  0.2612258    
          69 -2.3173992E-05
          70 -2.7531084E-06
          71 -5.1029724E-06
          72  2.1196804E-03
          73 -9.6104186E-06
          74 -1.2774261E-05
          75  4.2670992E-05
          76  2.8156150E-02
          77  5.0089589E-06
          78  2.2770319E-05
          79 -8.1568493E-07
          80  4.6237436E-04
          81  1.1968666E-06
          82 -2.1332168E-04
          83 -3.2486339E-04
          84 -0.2252775    
          85  5.4337797E-06
          86  1.4873330E-05
          87  8.8108982E-06
          88  5.9531480E-03
          89 -1.0086844E-05
          90  2.6318066E-05
          91  1.0667326E-04
          92  7.3158301E-02
          93  2.5119700E-06
          94 -3.4153873E-06
          95 -8.3929008E-06
          96 -5.3427657E-03
          97 -3.6302168E-05
          98 -2.7621834E-04
          99 -2.1134426E-04
         100 -0.1577334    
         101  1.7398394E-05
         102  1.3947636E-05
         103 -2.5188683E-06
         104 -2.4099370E-04
         105  2.1551372E-05
         106  2.0206788E-04
         107  1.4466161E-04
         108  0.1401082    
         109 -7.0937904E-06
         110  2.4719851E-05
         111  1.2123148E-05
         112  1.0701355E-03
         113  1.5962214E-05
         114 -2.0090838E-04
         115 -1.3257421E-04
         116  8.8526338E-02
         117 -4.0825234E-06
         118 -6.5305821E-06
         119  1.1740700E-05
         120  2.3256140E-03
         121  2.3283119E-05
         122  4.4998314E-04
         123  3.0652649E-04
         124 -0.1982384    
         125 -5.9218382E-06
         126  5.7333091E-06
         127 -2.6815605E-06
         128 -3.8369300E-04
         129  4.4845679E-06
         130  3.8213807E-04
         131  2.3082091E-04
         132 -0.2103282    
         133 -5.0634171E-06
         134 -1.9739914E-06
         135  1.2961638E-06
         136 -1.0601004E-03
         137  3.6224988E-05
         138 -7.4709351E-05
         139 -1.2204328E-05
         140  7.3983602E-02
         141 -1.2593692E-05
         142 -1.0195048E-05
         143 -3.5423313E-06
         144  1.0796976E-03
         145 -3.5707486E-05
         146 -3.9061846E-04
         147 -3.2315304E-04
         148  0.2745522    
         149  3.8446537E-06
         150 -1.5398595E-05
         151 -1.4546783E-05
         152  3.8839753E-03
         153  5.0911990E-06
         154  1.4492409E-05
         155  7.8654863E-05
         156  0.1433328    
         157 -6.2092236E-06
         158 -1.5454216E-05
         159  1.3617035E-05
         160 -1.3861408E-04
         161 -1.6585496E-05
         162  4.6626336E-04
         163 -4.3764440E-04
         164 -0.2972134    
         165 -2.4681780E-05
         166 -3.2036023E-05
         167  5.0893805E-06
         168 -3.2061350E-03
         169 -1.6362034E-04
         170 -7.7425575E-05
         171  2.3995749E-04
         172 -5.3604145E-02
         173  6.2302235E-05
         174  3.3761223E-06
         175 -1.0390216E-05
         176 -4.3681897E-03
         177 -1.4602661E-05
         178 -1.5781849E-04
         179  1.6941434E-04
         180  0.3155056    
         181 -2.2850656E-05
         182  3.6654990E-05
         183  8.5873990E-06
         184 -1.0033087E-03
         185  5.3189066E-05
         186 -1.0439842E-04
         187  7.8049205E-05
         188  2.8128859E-02
         189 -2.9269771E-05
         190  8.2123197E-06
         191  1.0101550E-05
         192  7.6308008E-04
         193  3.3987562E-05
         194  5.8672845E-06
         195 -3.5271337E-06
         196 -1.9724096E-06
         197  1.5847716E-03
         198 -1.0014795E-04
         199  3.7490558E-06
         200  1.5395466E-05
         201  9.6820240E-06
         202 -8.7955035E-04
         203  5.0011389E-05
         204 -5.5631881E-06
         205 -2.6621823E-05
         206  4.7098702E-06
         207 -2.8091655E-03
         208 -1.9320227E-05
         209  8.1740818E-06
         210  3.4262573E-06
         211 -5.0535537E-06
         212 -2.4017768E-03
         213  3.3672728E-05
         214  3.6274146E-06
         215 -8.4434860E-06
         216 -1.6586802E-05
         217 -1.3771865E-03
         218 -3.7607155E-05
         219  4.1303324E-06
         220  1.6617225E-05
         221 -2.6395361E-07
         222 -1.3627700E-03
         223  4.3539218E-05
         224 -4.8097309E-07
         225  7.2961802E-06
         226  9.4180441E-06
         227 -2.1668302E-03
         228 -3.7700804E-05
         229  3.5483281E-06
         230 -5.4220432E-06
         231  9.0089816E-06
         232 -2.5012570E-03
         233 -5.7196568E-05
         234 -8.6528991E-07
         235  6.5392087E-06
         236 -2.7325295E-05
         237 -2.5441588E-03
         238 -8.9094909E-05
         239  5.4664392E-06
         240  2.0002015E-05
         241  9.4484240E-06
         242  7.7066965E-05
 Sym= Particle
 Ene= -0.7566036    
 Spin= Alpha
 Occup= 2
           1 -1.1471776E-05
           2 -6.0018328E-07
           3  5.1523359E-05
           4  4.1109674E-02
           5  1.4192231E-05
           6 -2.0003574E-05
           7 -4.3250957E-06
           8 -1.1702014E-02
           9  9.2345563E-06
          10  5.9918584E-05
          11 -2.9770905E-04
          12 -0.2173874    
          13  1.4295114E-05
          14 -3.2384745E-05
          15  7.1580631E-05
          16  4.8034206E-02
          17 -9.6145568E-06
          18  6.1812359E-05
          19 -2.7288622E-04
          20 -0.2215157    
          21  1.5064559E-05
          22 -2.6209704E-05
          23  3.7436672E-05
          24  4.2786613E-02
          25 -1.5920668E-05
          26 -1.1390121E-04
          27  3.7013044E-04
          28  0.2871296    
          29  3.4076624E-05
          30 -2.7664271E-06
          31 -8.1084101E-05
          32 -4.9241699E-02
          33  5.7984967E-06
          34 -1.3720802E-04
          35  1.6724618E-04
          36  0.1369205    
          37  7.3786682E-06
          38  5.4516215E-05
          39 -3.5937654E-05
          40 -3.8728409E-02
          41 -2.3113484E-05
          42  3.7387700E-04
          43 -3.8617762E-04
          44 -0.3930848    
          45 -9.7958923E-07
          46 -8.2682353E-05
          47  7.2874005E-05
          48  7.9185352E-02
          49  5.8260444E-05
          50 -2.3325084E-04
          51  2.1159629E-04
          52  0.2138523    
          53 -5.4156935E-05
          54  5.4205211E-05
          55 -5.4973840E-05
          56 -5.3181216E-02
          57 -8.8163353E-05
          58 -3.2052227E-05
          59  3.0529161E-04
          60  0.2002415    
          61  6.4706830E-05
          62 -3.0431362E-05
          63 -9.3411589E-05
          64 -4.1444421E-02
          65 -2.8263450E-05
          66  1.8977849E-05
          67 -9.2453651E-05
          68 -6.3389458E-02
          69  2.0640560E-05
          70 -2.2873257E-05
          71  1.5444763E-06
          72  5.3735832E-03
          73  5.9508288E-06
          74 -6.2125502E-05
          75 -2.9917166E-04
          76 -0.1540875    
          77  1.2172543E-05
          78  1.3989647E-05
          79  8.4587693E-05
          80  3.2990694E-02
          81 -8.5820102E-05
          82  2.0264243E-04
          83  2.1997337E-04
          84  0.1404626    
          85  8.5164014E-05
          86 -2.7198164E-05
          87 -3.8242793E-05
          88 -2.0409215E-02
          89  2.6725329E-05
          90  9.6952877E-05
          91 -5.6663332E-05
          92 -2.7296877E-02
          93  1.8374378E-05
          94  8.0817681E-06
          95 -1.4716126E-05
          96  6.0042981E-03
          97  6.5496506E-06
          98  1.3563721E-04
          99  1.2960024E-04
         100  0.1018680    
         101  7.0577912E-06
         102 -1.4711656E-05
         103  6.3646557E-06
         104 -2.3450645E-02
         105 -1.0606806E-05
         106 -1.4814349E-04
         107 -8.4414867E-05
         108 -0.2200735    
         109  5.9868808E-06
         110  5.4411103E-05
         111  5.0907587E-05
         112  5.4429434E-02
         113 -2.0847054E-05
         114  2.8980497E-04
         115  2.7338471E-04
         116 -0.2228290    
         117  9.4134557E-06
         118 -8.7689463E-05
         119 -7.3931260E-05
         120  5.3833626E-02
         121 -2.2670754E-06
         122 -2.2654879E-04
         123 -1.4449673E-04
         124  9.6861005E-02
         125 -8.8898196E-06
         126  3.9814942E-05
         127  2.0809208E-05
         128 -2.5299232E-02
         129  1.4575012E-05
         130 -2.8682369E-04
         131 -1.5131049E-04
         132  0.1495313    
         133 -7.3984888E-06
         134  2.5919642E-05
         135  2.0475720E-05
         136 -2.1764241E-02
         137  7.4039082E-07
         138  2.6645037E-04
         139  1.4292440E-04
         140 -0.1537077    
         141 -2.4097324E-06
         142 -4.9689796E-05
         143 -2.4919993E-05
         144  2.8866671E-02
         145 -8.6117120E-07
         146  7.8820980E-05
         147  7.7837831E-05
         148 -7.7916674E-02
         149  4.3798977E-06
         150  2.4776196E-05
         151 -5.6652520E-06
         152  7.8678820E-03
         153  7.0723130E-05
         154 -3.1174079E-04
         155 -7.6225180E-05
         156  0.2066668    
         157 -6.1051862E-05
         158  9.9212775E-05
         159  2.6323598E-06
         160 -4.3454595E-02
         161  2.0747307E-06
         162 -2.4859371E-04
         163  2.5233542E-04
         164  0.2295787    
         165 -1.5056909E-05
         166  2.7549075E-05
         167 -9.8972188E-05
         168 -5.6815229E-02
         169 -1.6893076E-05
         170  4.1349145E-04
         171 -4.7339176E-04
         172 -0.3937751    
         173 -9.4945462E-06
         174 -1.1404174E-04
         175  1.0280179E-04
         176  8.0181904E-02
         177  1.1244284E-05
         178 -1.1659959E-04
         179  1.4423735E-04
         180  0.1248468    
         181 -1.0220271E-05
         182  5.9440987E-05
         183 -1.0568480E-05
         184 -3.7507575E-02
         185 -1.2542351E-05
         186 -9.3523005E-05
         187  3.9367081E-04
         188  0.2837728    
         189  1.5962467E-05
         190  5.5047672E-06
         191 -6.9319271E-05
         192 -5.3245310E-02
         193 -6.8983927E-06
         194 -6.4295018E-06
         195  2.5851345E-05
         196 -6.5234060E-05
         197 -4.0972985E-02
         198 -1.8627174E-05
         199  9.0944184E-07
         200 -4.4246877E-05
         201  3.2470380E-05
         202  3.1978644E-02
         203  6.7437060E-05
         204 -3.1324984E-05
         205  3.8054499E-05
         206 -1.4662135E-05
         207 -3.2368649E-02
         208  2.9492745E-05
         209 -1.2317091E-05
         210 -8.1279768E-06
         211 -4.1006028E-06
         212 -2.1368630E-02
         213  7.5698066E-05
         214 -1.5043847E-05
         215 -4.0245337E-05
         216  2.3370765E-05
         217  1.7045250E-02
         218 -5.6190136E-05
         219  1.8924709E-05
         220  3.5447254E-06
         221 -2.1604386E-05
         222  1.4573548E-02
         223 -3.3603232E-05
         224  9.6864133E-06
         225 -4.6844245E-05
         226 -1.1717727E-05
         227  2.5533244E-02
         228 -2.2773779E-06
         229  1.0064738E-06
         230  4.4207129E-05
         231  3.2533135E-05
         232 -2.3390464E-02
         233 -3.7182534E-05
         234  1.9428291E-05
         235  5.0383755E-05
         236  5.1454292E-05
         237 -3.1776130E-02
         238 -1.1921887E-05
         239 -1.7140908E-05
         240 -8.6725404E-06
         241  3.4468401E-05
         242  2.6901331E-02
 Sym= Hole
 Ene= -0.1856152    
 Spin= Alpha
 Occup= 0
           1  2.8450324E-06
           2 -1.9563040E-06
           3 -6.4183740E-05
           4 -5.1523138E-02
           5 -9.8757084E-07
           6  1.7118346E-07
           7  4.0875098E-06
           8  4.7409311E-03
           9  1.3767989E-06
          10 -5.1380193E-05
          11  2.3446615E-04
          12  0.1818322    
          13  8.1610386E-07
          14  5.0196049E-06
          15 -8.5074953E-06
          16 -3.1298583E-03
          17 -2.0527776E-05
          18  6.1453364E-05
          19 -2.9169954E-04
          20 -0.2256024    
          21  7.4565896E-06
          22 -1.2830587E-06
          23 -4.4907381E-07
          24 -1.8157859E-03
          25 -6.0358357E-06
          26  1.5679804E-04
          27 -3.6809442E-04
          28 -0.3052835    
          29  4.0222926E-06
          30 -2.5198528E-07
          31  4.4592266E-06
          32  2.4566366E-03
          33  9.2777318E-06
          34  4.5954960E-07
          35  1.8855424E-05
          36  3.9739568E-02
          37  6.2120739E-06
          38 -2.3257224E-05
          39  1.8605890E-05
          40  1.1764582E-02
          41  1.2015261E-05
          42 -2.8420280E-04
          43  3.5247629E-04
          44  0.2972587    
          45 -7.0141650E-06
          46 -1.3238928E-06
          47 -1.6576801E-05
          48 -5.1492546E-03
          49  6.3620573E-05
          50 -4.3730066E-05
          51 -2.1213262E-05
          52  5.5729587E-02
          53 -2.4427831E-05
          54 -1.3230815E-05
          55  9.2296141E-06
          56  9.8095918E-03
          57  8.8854125E-05
          58  1.4106578E-05
          59 -3.9401150E-04
          60 -0.2081332    
          61 -3.7444021E-05
          62  1.1113706E-05
          63 -4.9136597E-06
          64  3.2949878E-03
          65 -5.6013167E-05
          66 -2.8118373E-05
          67  1.9014253E-04
          68  6.2767752E-02
          69  2.6916665E-05
          70  1.0504162E-05
          71 -1.0964889E-05
          72 -2.5019783E-04
          73 -9.8712226E-06
          74  8.6049680E-05
          75  4.0898789E-04
          76  0.2394208    
          77  3.9399883E-06
          78  7.2832295E-06
          79 -1.8966900E-06
          80 -6.7534373E-04
          81 -4.1967151E-06
          82  6.2751504E-05
          83  1.5111700E-04
          84  8.2344763E-02
          85 -3.5861171E-06
          86 -1.7792413E-06
          87 -1.2770684E-05
          88 -2.7212244E-03
          89 -1.8444176E-05
          90 -4.8512236E-05
          91 -4.1280760E-05
          92 -2.0919301E-02
          93  8.3143650E-06
          94  7.7756304E-06
          95 -1.3113429E-06
          96  2.7025524E-03
          97  2.5173110E-06
          98 -2.0224131E-04
          99 -2.5802746E-04
         100 -0.1969602    
         101 -6.7262744E-07
         102  2.3177249E-06
         103  1.5240262E-06
         104 -2.7326958E-03
         105 -3.3286829E-05
         106 -1.4212664E-04
         107  5.1868225E-05
         108 -0.2348570    
         109  1.9067857E-05
         110  1.7635228E-05
         111  7.1188606E-06
         112 -1.8589312E-03
         113 -1.5520083E-05
         114 -3.0131952E-04
         115 -3.3317646E-04
         116  0.2762589    
         117  2.1169875E-05
         118  8.4477342E-06
         119  1.4974381E-05
         120  2.7335430E-03
         121 -2.0947658E-05
         122 -3.0366014E-04
         123 -2.3059183E-04
         124  0.1681355    
         125  1.3084457E-05
         126 -2.7305230E-06
         127 -1.6244048E-05
         128  3.8364362E-03
         129  4.9291207E-06
         130  2.3977307E-04
         131  1.6901246E-04
         132 -0.1309178    
         133 -5.1375532E-06
         134 -5.6895724E-06
         135 -5.9281037E-06
         136  2.9846875E-04
         137  7.4056411E-06
         138  4.3614450E-04
         139  2.5851774E-04
         140 -0.2458978    
         141 -1.8013616E-06
         142 -3.8073881E-07
         143 -4.3484315E-06
         144  1.9117753E-04
         145 -7.3057083E-05
         146  3.2594693E-05
         147 -6.7806206E-05
         148 -3.1085189E-02
         149  3.3212265E-05
         150  1.6836292E-06
         151  4.2344018E-06
         152  1.3185606E-03
         153  5.5443143E-05
         154 -3.6083930E-04
         155 -4.4049517E-05
         156  0.2388503    
         157 -1.1614833E-05
         158  8.6575092E-06
         159  1.2131187E-05
         160 -3.2289317E-03
         161 -2.3615015E-05
         162  1.1100798E-04
         163 -6.1911065E-05
         164 -0.1091857    
         165  1.0135926E-05
         166  1.4630966E-05
         167  6.7338487E-07
         168 -1.1804392E-02
         169  6.8417954E-05
         170  3.7539256E-04
         171 -4.9986929E-04
         172 -0.3137561    
         173 -2.3290919E-05
         174 -1.0935506E-05
         175  1.3456000E-05
         176  4.5711161E-03
         177 -1.3551633E-05
         178 -1.1091177E-05
         179  5.7982990E-05
         180  1.7642912E-02
         181  5.4589573E-06
         182  9.6841231E-06
         183 -2.0610983E-05
         184 -9.9942880E-03
         185 -6.6379739E-06
         186 -1.0726853E-04
         187  4.5957405E-04
         188  0.3215294    
         189  8.7983390E-06
         190 -3.6495746E-06
         191 -4.9116738E-06
         192 -1.8357065E-03
         193 -8.0125956E-06
         194 -4.2484834E-07
         195  5.4949819E-06
         196 -3.8001207E-07
         197 -2.2872200E-03
         198  1.6711829E-05
         199 -6.8052695E-06
         200 -5.3164263E-06
         201  3.6730087E-06
         202  6.1589689E-04
         203  2.0619938E-05
         204  7.2735756E-06
         205  1.3887125E-05
         206 -5.6286813E-06
         207  1.8525067E-03
         208 -2.8608190E-06
         209 -7.5146468E-06
         210 -3.8292915E-06
         211  1.9052917E-05
         212  2.4940632E-03
         213  6.7474211E-05
         214 -1.2235985E-05
         215 -4.1827084E-06
         216 -7.3271499E-06
         217  1.0470256E-03
         218  2.1093096E-05
         219 -2.6465671E-06
         220 -4.3628670E-06
         221  6.9129615E-06
         222 -2.2159538E-03
         223 -1.6914217E-05
         224 -1.9681129E-06
         225  6.4947717E-06
         226  6.2088347E-06
         227 -3.2526786E-03
         228 -2.1721085E-06
         229 -4.7343315E-06
         230  1.3881286E-06
         231 -6.7047399E-06
         232 -1.1742712E-03
         233 -1.7534483E-05
         234  6.2375680E-06
         235  2.1206137E-05
         236  2.7151264E-05
         237 -1.8170227E-03
         238 -1.4497919E-05
         239 -1.9686222E-06
         240 -6.2116378E-06
         241  1.1882340E-06
         242 -1.0762651E-03
 Sym= Particle
 Ene= -0.1856152    
 Spin= Alpha
 Occup= 2
           1 -9.9540212E-06
           2  3.6391584E-06
           3  4.3408447E-05
           4  3.7467349E-02
           5  7.9815209E-06
           6 -1.4480962E-05
           7  1.3858543E-06
           8 -8.7301359E-03
           9  4.6730825E-06
          10  8.0931852E-05
          11 -3.5828122E-04
          12 -0.2586878    
          13  1.2784834E-05
          14 -2.4901727E-05
          15  1.1109297E-04
          16  6.7689225E-02
          17  1.0293904E-05
          18 -6.2542327E-05
          19  3.2623741E-04
          20  0.2418301    
          21  1.5877015E-06
          22  7.1677086E-06
          23 -1.0506543E-04
          24 -6.6935785E-02
          25 -2.1207921E-05
          26 -3.0305640E-05
          27  6.3072650E-05
          28  5.5305615E-02
          29  3.6425237E-05
          30  9.1857482E-06
          31 -3.1927928E-05
          32 -2.8164439E-02
          33 -2.5520503E-05
          34  2.5252940E-04
          35 -4.0145658E-04
          36 -0.3257789    
          37  4.4050154E-05
          38 -7.7932738E-05
          39  1.1161561E-04
          40  9.9943370E-02
          41  1.2795749E-05
          42  6.6912624E-05
          43 -5.4102613E-05
          44 -6.7149624E-02
          45 -9.5300911E-06
          46 -2.3796842E-05
          47  5.7496567E-07
          48  1.4616291E-02
          49 -1.8784738E-05
          50 -3.6264674E-04
          51  3.9767154E-04
          52  0.3790682    
          53 -1.2953631E-05
          54  1.3860158E-04
          55 -1.0307795E-04
          56 -0.1195699    
          57  6.1805607E-05
          58 -5.0992996E-05
          59  8.7933084E-05
          60  0.1384101    
          61 -6.4765984E-05
          62 -2.8545139E-05
          63  2.7344346E-05
          64 -2.6908558E-02
          65 -3.6057780E-05
          66 -1.9976502E-05
          67 -2.7695930E-04
          68 -0.2426821    
          69  1.5915824E-05
          70 -2.1347099E-05
          71  3.1109230E-05
          72  5.9145726E-02
          73 -2.3786719E-05
          74 -4.5858587E-06
          75  2.3971435E-05
          76  1.6481474E-02
          77  2.2264587E-05
          78  1.2380932E-05
          79 -8.6970722E-06
          80 -4.0942435E-03
          81  3.5699479E-05
          82  1.9658948E-04
          83  3.5081620E-04
          84  0.2347233    
          85 -2.0265810E-05
          86 -3.6833309E-05
          87 -7.0120135E-05
          88 -5.4169778E-02
          89 -1.4339375E-05
          90 -7.0752780E-05
          91 -5.2364023E-05
          92 -3.8027942E-02
          93 -3.7759801E-06
          94  2.9914503E-05
          95  6.6907887E-06
          96  9.9469591E-03
          97 -4.5338056E-05
          98 -1.6547697E-04
          99 -1.8121139E-04
         100 -0.1482863    
         101  4.6391913E-05
         102  6.3517597E-05
         103  5.1763720E-05
         104  3.3810284E-02
         105 -3.6881294E-05
         106 -1.2320442E-04
         107 -6.7409776E-05
         108 -0.1616174    
         109  1.9643483E-05
         110  3.5245541E-06
         111  3.5536559E-05
         112  4.4200987E-02
         113  3.4272023E-05
         114 -1.6420978E-04
         115 -9.8119141E-05
         116  0.1419247    
         117 -2.8261893E-05
         118  3.8362673E-06
         119 -2.4318679E-05
         120 -3.8896713E-02
         121 -5.0463619E-05
         122 -3.2443996E-04
         123 -2.5951999E-04
         124  0.1682533    
         125  5.1739931E-05
         126  8.8070214E-05
         127  8.6978915E-05
         128 -3.5314389E-02
         129  1.6479369E-05
         130  4.1984741E-04
         131  2.8567202E-04
         132 -0.2300905    
         133 -1.0210596E-06
         134 -8.0664053E-05
         135 -5.9274749E-05
         136  5.0867587E-02
         137 -2.1670805E-06
         138  5.1862691E-05
         139  3.6401918E-05
         140 -3.6908481E-02
         141  1.0925900E-05
         142 -4.2062279E-06
         143  3.4988859E-06
         144  1.3672165E-02
         145 -4.0232055E-05
         146 -3.4145432E-04
         147 -2.6181483E-04
         148  0.2543900    
         149  2.6716469E-05
         150  6.7368295E-05
         151  6.7627174E-05
         152 -6.0632452E-02
         153  4.2374286E-05
         154  1.1041568E-04
         155  1.1957924E-04
         156 -0.1282002    
         157 -6.3635860E-05
         158 -2.1802134E-05
         159 -1.1608470E-04
         160  2.4013564E-02
         161 -4.6563611E-05
         162  4.7961876E-04
         163 -3.2625970E-04
         164 -0.3784168    
         165 -6.9070593E-06
         166 -1.2669688E-04
         167  1.3606119E-04
         168  0.1204820    
         169  3.1217089E-05
         170 -9.9302008E-05
         171  3.8833648E-05
         172  5.9536316E-02
         173 -2.6585181E-05
         174  4.0555802E-05
         175  9.9282533E-06
         176 -1.2692475E-02
         177  7.7691320E-06
         178 -2.0160840E-04
         179  4.2327863E-04
         180  0.3267467    
         181  2.2084307E-05
         182  5.0447317E-05
         183 -1.3427941E-04
         184 -9.7960025E-02
         185 -1.9043362E-05
         186  2.7457681E-05
         187 -6.0740382E-05
         188 -4.0473446E-02
         189  3.3350920E-05
         190 -3.9518909E-05
         191  2.5151407E-05
         192  1.6994368E-02
         193 -2.1929054E-05
         194 -1.4503451E-06
         195 -1.5059672E-05
         196  2.0851638E-05
         197  4.4175375E-02
         198  1.5271529E-05
         199 -1.3875029E-05
         200 -2.3721374E-05
         201  1.3435596E-05
         202 -1.3320176E-03
         203  3.5502839E-05
         204 -2.0509162E-05
         205  3.6727798E-07
         206 -6.1160492E-05
         207 -3.8517792E-02
         208  1.9354709E-05
         209 -2.3518980E-05
         210 -9.8257997E-06
         211  3.4540994E-05
         212  5.7286699E-03
         213  2.6958642E-05
         214  1.4721576E-05
         215 -5.9256431E-06
         216 -8.4197221E-05
         217 -1.7075293E-02
         218 -3.3680863E-06
         219  2.7399245E-05
         220 -5.1265772E-05
         221  2.7229726E-05
         222  2.5075482E-02
         223 -1.9907273E-05
         224 -1.1850922E-05
         225  7.9533631E-05
         226  3.2854128E-05
         227 -4.2549990E-02
         228  1.3660118E-06
         229 -6.8656441E-06
         230  1.3969177E-05
         231 -3.7016764E-06
         232 -5.9824027E-03
         233  1.8700073E-05
         234 -1.4519102E-05
         235 -6.9508496E-05
         236 -3.4475648E-05
         237  4.0713143E-02
         238  4.8395618E-06
         239 -9.4512634E-06
         240 -1.4257738E-05
         241 -1.1182181E-05
         242 -1.4096966E-04
