 [Molden Format]
 [Atoms] Angs
BR      1     35      6.61859159      0.43083990      0.00348475
C       2      6      4.72531850      0.67889358      0.00258897
C       3      6      4.22883316      1.99644101      0.00075998
C       4      6      2.88164286      2.21337024     -0.00006430
C       5      6      1.98769066      1.11951166      0.00074302
N       6      7      0.66471179      1.33492197     -0.00060967
C       7      6     -0.13675637      0.28587795     -0.00023747
C       8      6     -1.56721661      0.49643229     -0.00141764
C       9      6     -2.06804999      1.80252172     -0.00312094
C      10      6     -3.42130734      2.04482409     -0.00323153
C      11      6     -4.28320165      0.95464598     -0.00095663
BR     12     35     -6.17217200      1.26299353      0.00027321
C      13      6     -3.82012318     -0.34249580      0.00034793
C      14      6     -2.44566819     -0.60634442     -0.00047613
C      15      6     -1.91727811     -1.96419276     -0.00061592
C      16      6     -2.74310759     -3.09437078     -0.00309170
C      17      6     -2.21684961     -4.36879271     -0.00361603
C      18      6     -0.84017846     -4.56371997     -0.00138917
C      19      6     -0.00320127     -3.47149703      0.00085446
C      20      6     -0.52271069     -2.17317764      0.00095386
C      21      6      0.38370668     -1.04630838      0.00169796
N      22      7      1.68486102     -1.26899798      0.00334752
C      23      6      2.50705724     -0.20952176      0.00278525
C      24      6      3.90384024     -0.41147169      0.00381535
H      25      1      4.92327712      2.82240246     -0.00015666
H      26      1      2.47213527      3.21121850     -0.00149525
H      27      1     -1.36076619      2.61654169     -0.00429990
H      28      1     -3.80864546      3.05150178     -0.00478067
H      29      1     -4.53647358     -1.14674545      0.00220529
H      30      1     -3.81504307     -2.98515120     -0.00506201
H      31      1     -2.88157437     -5.21973629     -0.00583360
H      32      1     -0.43231971     -5.56302533     -0.00170300
H      33      1      1.06939553     -3.58547291      0.00229408
H      34      1      4.28367394     -1.42105184      0.00533860
 [GTO]
           1   0
s              4   1.000000
      0.85267575     -0.11206828
      0.43741266     -0.28454268
      0.13362875      0.89098737
      0.07440216      0.35178112
p              4   1.000000
     12.73893599     -0.00603522
      3.69348612     -0.06013311
      0.64463797      0.64515181
      0.31631860      0.41179238
s              7   1.000000
      0.08230620     -0.73497643
      0.03358786      0.82940511
      0.01989320      0.79374096
      0.85267575      0.05416424
      0.43741266      0.13752364
      0.13362875     -0.43062722
      0.07440216     -0.17002096
p              7   1.000000
      0.16210445     -0.13955149
      0.03603777      0.81114805
      0.01984789      0.27377717
     12.73893599      0.00056077
      3.69348612      0.00558732
      0.64463797     -0.05994480
      0.31631860     -0.03826202
 
           2   0
s              4   1.000000
     34.92812063     -0.01198412
      6.01491139     -0.05472052
      0.48332380      0.58055871
      0.18420666      0.47700799
p              4   1.000000
      5.62957912      0.05713170
      1.45966580      0.28574555
      0.51457736      0.55178731
      0.20486212      0.26323149
s              7   1.000000
      0.38350848     -0.19623768
      0.04707223      0.94814833
      0.02222627      0.24899814
     34.92812063      0.00551663
      6.01491139      0.02518943
      0.48332380     -0.26724789
      0.18420666     -0.21958051
p              7   1.000000
      1.83062075     -0.01161192
      0.10124670      0.57062731
      0.03901771      0.59593545
      5.62957912     -0.02527051
      1.45966580     -0.12639103
      0.51457736     -0.24406667
      0.20486212     -0.11643261
 
           3   0
s              4   1.000000
     35.16829402     -0.01198412
      6.05627124     -0.05472053
      0.48664724      0.58055871
      0.18547331      0.47700799
p              4   1.000000
      5.66828934      0.05713170
      1.46970278      0.28574555
      0.51811571      0.55178731
      0.20627079      0.26323149
s              7   1.000000
      0.38350848     -0.19601443
      0.04707223      0.94706968
      0.02222627      0.24871488
     35.16829402      0.00548064
      6.05627124      0.02502510
      0.48664724     -0.26550439
      0.18547331     -0.21814799
p              7   1.000000
      1.83062075     -0.01159951
      0.10124670      0.57001748
      0.03901771      0.59529859
      5.66828934     -0.02510501
      1.46970278     -0.12556328
      0.51811571     -0.24246826
      0.20627079     -0.11567008
 
           4   0
s              4   1.000000
     34.98953315     -0.01198412
      6.02548713     -0.05472052
      0.48417360      0.58055871
      0.18453054      0.47700799
p              4   1.000000
      5.63947736      0.05713170
      1.46223227      0.28574555
      0.51548212      0.55178731
      0.20522232      0.26323149
s              7   1.000000
      0.38350848     -0.19618020
      0.04707223      0.94787063
      0.02222627      0.24892521
     34.98953315      0.00550739
      6.02548713      0.02514721
      0.48417360     -0.26679995
      0.18453054     -0.21921246
p              7   1.000000
      1.83062075     -0.01160872
      0.10124670      0.57047031
      0.03901771      0.59577152
      5.63947736     -0.02522799
      1.46223227     -0.12617837
      0.51548212     -0.24365601
      0.20522232     -0.11623670
 
           5   0
s              4   1.000000
     35.27781787     -0.01198412
      6.07513215     -0.05472052
      0.48816279      0.58055871
      0.18605092      0.47700799
p              4   1.000000
      5.68594197      0.05713170
      1.47427985      0.28574555
      0.51972927      0.55178730
      0.20691318      0.26323149
s              7   1.000000
      0.38350848     -0.19591396
      0.04707223      0.94658428
      0.02222627      0.24858740
     35.27781787      0.00546438
      6.07513215      0.02495086
      0.48816279     -0.26471670
      0.18605092     -0.21750080
p              7   1.000000
      1.83062075     -0.01159392
      0.10124670      0.56974304
      0.03901771      0.59501200
      5.68594197     -0.02503023
      1.47427985     -0.12518930
      0.51972927     -0.24174608
      0.20691318     -0.11532556
 
           6   0
s              4   1.000000
     57.31812847     -0.01198412
      9.87065601     -0.05472052
      0.79314933      0.58055871
      0.30228884      0.47700799
p              4   1.000000
      6.75620106      0.05713170
      1.75178205      0.28574555
      0.61755738      0.55178731
      0.24586024      0.26323149
s              7   1.000000
      0.47894987     -0.18906182
      0.05878681      0.91347723
      0.02775758      0.23989299
     57.31812847      0.00423518
      9.87065601      0.01933822
      0.79314933     -0.20516931
      0.30228884     -0.16857451
p              7   1.000000
      2.28619608     -0.01168687
      0.12644335      0.57431071
      0.04872781      0.59978223
      6.75620106     -0.02625156
      1.75178205     -0.13129777
      0.61755738     -0.25354181
      0.24586024     -0.12095274
 
           7   0
s              4   1.000000
     35.31776673     -0.01198412
      6.08201167     -0.05472052
      0.48871559      0.58055871
      0.18626161      0.47700799
p              4   1.000000
      5.69238077      0.05713170
      1.47594933      0.28574555
      0.52031781      0.55178731
      0.20714749      0.26323149
s              7   1.000000
      0.38350848     -0.19587753
      0.04707223      0.94640823
      0.02222627      0.24854117
     35.31776673      0.00545848
      6.08201167      0.02492388
      0.48871559     -0.26443053
      0.18626161     -0.21726567
p              7   1.000000
      1.83062075     -0.01159190
      0.10124670      0.56964351
      0.03901771      0.59490803
      5.69238077     -0.02500307
      1.47594933     -0.12505343
      0.52031781     -0.24148370
      0.20714749     -0.11520039
 
           8   0
s              4   1.000000
     35.21837685     -0.01198412
      6.06489591     -0.05472052
      0.48734026      0.58055871
      0.18573744      0.47700799
p              4   1.000000
      5.67636150      0.05713170
      1.47179577      0.28574555
      0.51885355      0.55178731
      0.20656454      0.26323149
s              7   1.000000
      0.38350848     -0.19596838
      0.04707223      0.94684721
      0.02222627      0.24865646
     35.21837685      0.00547320
      6.06489591      0.02499110
      0.48734026     -0.26514363
      0.18573744     -0.21785158
p              7   1.000000
      1.83062075     -0.01159695
      0.10124670      0.56989170
      0.03901771      0.59516723
      5.67636150     -0.02507076
      1.47179577     -0.12539200
      0.51885355     -0.24213750
      0.20656454     -0.11551229
 
           9   0
s              4   1.000000
     35.03783060     -0.01198412
      6.03380436     -0.05472053
      0.48484193      0.58055871
      0.18478526      0.47700799
p              4   1.000000
      5.64726175      0.05713170
      1.46425064      0.28574555
      0.51619366      0.55178731
      0.20550559      0.26323149
s              7   1.000000
      0.38350848     -0.19613519
      0.04707223      0.94765317
      0.02222627      0.24886810
     35.03783060      0.00550014
      6.03380436      0.02511410
      0.48484193     -0.26644869
      0.18478526     -0.21892387
p              7   1.000000
      1.83062075     -0.01160622
      0.10124670      0.57034736
      0.03901771      0.59564311
      5.64726175     -0.02519464
      1.46425064     -0.12601161
      0.51619366     -0.24333399
      0.20550559     -0.11608308
 
          10   0
s              4   1.000000
     35.16321651     -0.01198412
      6.05539685     -0.05472052
      0.48657697      0.58055871
      0.18544653      0.47700799
p              4   1.000000
      5.66747097      0.05713170
      1.46949059      0.28574555
      0.51804091      0.55178731
      0.20624101      0.26323149
s              7   1.000000
      0.38350848     -0.19601911
      0.04707223      0.94709228
      0.02222627      0.24872081
     35.16321651      0.00548140
      6.05539685      0.02502855
      0.48657697     -0.26554102
      0.18544653     -0.21817809
p              7   1.000000
      1.83062075     -0.01159977
      0.10124670      0.57003025
      0.03901771      0.59531194
      5.66747097     -0.02510848
      1.46949059     -0.12558067
      0.51804091     -0.24250184
      0.20624101     -0.11568610
 
          11   0
s              4   1.000000
     34.93756971     -0.01198412
      6.01653860     -0.05472052
      0.48345455      0.58055871
      0.18425649      0.47700799
p              4   1.000000
      5.63110209      0.05713170
      1.46006069      0.28574555
      0.51471657      0.55178731
      0.20491754      0.26323149
s              7   1.000000
      0.38350848     -0.19622881
      0.04707223      0.94810552
      0.02222627      0.24898691
     34.93756971      0.00551521
      6.01653860      0.02518293
      0.48345455     -0.26717887
      0.18425649     -0.21952381
p              7   1.000000
      1.83062075     -0.01161142
      0.10124670      0.57060311
      0.03901771      0.59591021
      5.63110209     -0.02526395
      1.46006069     -0.12635826
      0.51471657     -0.24400340
      0.20491754     -0.11640242
 
          12   0
s              4   1.000000
      0.85243562     -0.11206828
      0.43728948     -0.28454268
      0.13359112      0.89098737
      0.07438121      0.35178112
p              4   1.000000
     12.73534844     -0.00603522
      3.69244596     -0.06013311
      0.64445643      0.64515182
      0.31622952      0.41179238
s              7   1.000000
      0.08230620     -0.73502464
      0.03358786      0.82945951
      0.01989320      0.79379301
      0.85243562      0.05418300
      0.43728948      0.13757127
      0.13359112     -0.43077638
      0.07438121     -0.17007984
p              7   1.000000
      0.16210445     -0.13955203
      0.03603777      0.81115118
      0.01984789      0.27377820
     12.73534844      0.00056102
      3.69244596      0.00558983
      0.64445643     -0.05997182
      0.31622952     -0.03827927
 
          13   0
s              4   1.000000
     35.28047214     -0.01198412
      6.07558924     -0.05472052
      0.48819952      0.58055871
      0.18606492      0.47700800
p              4   1.000000
      5.68636978      0.05713170
      1.47439077      0.28574555
      0.51976837      0.55178731
      0.20692874      0.26323149
s              7   1.000000
      0.38350848     -0.19591154
      0.04707223      0.94657256
      0.02222627      0.24858433
     35.28047214      0.00546399
      6.07558924      0.02494906
      0.48819952     -0.26469767
      0.18606492     -0.21748516
p              7   1.000000
      1.83062075     -0.01159379
      0.10124670      0.56973642
      0.03901771      0.59500508
      5.68636978     -0.02502843
      1.47439077     -0.12518026
      0.51976837     -0.24172863
      0.20692874     -0.11531723
 
          14   0
s              4   1.000000
     35.17396158     -0.01198412
      6.05724724     -0.05472052
      0.48672566      0.58055871
      0.18550320      0.47700799
p              4   1.000000
      5.66920282      0.05713170
      1.46993964      0.28574555
      0.51819921      0.55178730
      0.20630403      0.26323149
s              7   1.000000
      0.38350848     -0.19600921
      0.04707223      0.94704446
      0.02222627      0.24870825
     35.17396158      0.00547980
      6.05724724      0.02502125
      0.48672566     -0.26546352
      0.18550320     -0.21811441
p              7   1.000000
      1.83062075     -0.01159922
      0.10124670      0.57000322
      0.03901771      0.59528370
      5.66920282     -0.02510113
      1.46993964     -0.12554388
      0.51819921     -0.24243078
      0.20630403     -0.11565220
 
          15   0
s              4   1.000000
     35.16363753     -0.01198412
      6.05546935     -0.05472052
      0.48658280      0.58055871
      0.18544875      0.47700799
p              4   1.000000
      5.66753883      0.05713170
      1.46950819      0.28574555
      0.51804711      0.55178731
      0.20624348      0.26323149
s              7   1.000000
      0.38350848     -0.19601872
      0.04707223      0.94709041
      0.02222627      0.24872032
     35.16363753      0.00548134
      6.05546935      0.02502827
      0.48658280     -0.26553799
      0.18544875     -0.21817559
p              7   1.000000
      1.83062075     -0.01159974
      0.10124670      0.57002920
      0.03901771      0.59531081
      5.66753883     -0.02510820
      1.46950819     -0.12557923
      0.51804711     -0.24249905
      0.20624348     -0.11568477
 
          16   0
s              4   1.000000
     35.00393025     -0.01198412
      6.02796643     -0.05472052
      0.48437282      0.58055871
      0.18460647      0.47700799
p              4   1.000000
      5.64179782      0.05713170
      1.46283393      0.28574555
      0.51569423      0.55178731
      0.20530676      0.26323149
s              7   1.000000
      0.38350848     -0.19616677
      0.04707223      0.94780573
      0.02222627      0.24890818
     35.00393025      0.00550522
      6.02796643      0.02513733
      0.48437282     -0.26669514
      0.18460647     -0.21912636
p              7   1.000000
      1.83062075     -0.01160797
      0.10124670      0.57043362
      0.03901771      0.59573317
      5.64179782     -0.02521804
      1.46283393     -0.12612861
      0.51569423     -0.24355993
      0.20530676     -0.11619087
 
          17   0
s              4   1.000000
     34.91506211     -0.01198412
      6.01266261     -0.05472052
      0.48314310      0.58055871
      0.18413779      0.47700799
p              4   1.000000
      5.62747440      0.05713170
      1.45912008      0.28574555
      0.51438498      0.55178731
      0.20478552      0.26323149
s              7   1.000000
      0.38350848     -0.19624993
      0.04707223      0.94820754
      0.02222627      0.24901369
     34.91506211      0.00551860
      6.01266261      0.02519843
      0.48314310     -0.26734333
      0.18413779     -0.21965893
p              7   1.000000
      1.83062075     -0.01161260
      0.10124670      0.57066079
      0.03901771      0.59597044
      5.62747440     -0.02527957
      1.45912008     -0.12643634
      0.51438498     -0.24415417
      0.20478552     -0.11647435
 
          18   0
s              4   1.000000
     34.90610441     -0.01198412
      6.01112002     -0.05472052
      0.48301914      0.58055871
      0.18409055      0.47700799
p              4   1.000000
      5.62603064      0.05713170
      1.45874573      0.28574555
      0.51425301      0.55178731
      0.20473299      0.26323149
s              7   1.000000
      0.38350848     -0.19625835
      0.04707223      0.94824820
      0.02222627      0.24902437
     34.90610441      0.00551996
      6.01112002      0.02520460
      0.48301914     -0.26740884
      0.18409055     -0.21971275
p              7   1.000000
      1.83062075     -0.01161306
      0.10124670      0.57068378
      0.03901771      0.59599443
      5.62603064     -0.02528578
      1.45874573     -0.12646744
      0.51425301     -0.24421422
      0.20473299     -0.11650299
 
          19   0
s              4   1.000000
     35.02186020     -0.01198412
      6.03105412     -0.05472052
      0.48462093      0.58055871
      0.18470103      0.47700799
p              4   1.000000
      5.64468770      0.05713170
      1.46358323      0.28574555
      0.51595838      0.55178731
      0.20541192      0.26323149
s              7   1.000000
      0.38350848     -0.19615006
      0.04707223      0.94772499
      0.02222627      0.24888697
     35.02186020      0.00550253
      6.03105412      0.02512504
      0.48462093     -0.26656474
      0.18470103     -0.21901921
p              7   1.000000
      1.83062075     -0.01160704
      0.10124670      0.57038797
      0.03901771      0.59568551
      5.64468770     -0.02520566
      1.46358323     -0.12606670
      0.51595838     -0.24344038
      0.20541192     -0.11613383
 
          20   0
s              4   1.000000
     35.21877891     -0.01198412
      6.06496515     -0.05472053
      0.48734583      0.58055871
      0.18573956      0.47700799
p              4   1.000000
      5.67642630      0.05713170
      1.47181258      0.28574555
      0.51885948      0.55178731
      0.20656690      0.26323149
s              7   1.000000
      0.38350848     -0.19596802
      0.04707223      0.94684544
      0.02222627      0.24865599
     35.21877891      0.00547314
      6.06496515      0.02499082
      0.48734583     -0.26514074
      0.18573956     -0.21784920
p              7   1.000000
      1.83062075     -0.01159693
      0.10124670      0.56989070
      0.03901771      0.59516618
      5.67642630     -0.02507049
      1.47181258     -0.12539063
      0.51885948     -0.24213485
      0.20656690     -0.11551102
 
          21   0
s              4   1.000000
     35.31543961     -0.01198412
      6.08161092     -0.05472052
      0.48868339      0.58055871
      0.18624933      0.47700800
p              4   1.000000
      5.69200570      0.05713170
      1.47585208      0.28574555
      0.52028353      0.55178731
      0.20713384      0.26323149
s              7   1.000000
      0.38350848     -0.19587965
      0.04707223      0.94641846
      0.02222627      0.24854385
     35.31543961      0.00545882
      6.08161092      0.02492545
      0.48868339     -0.26444719
      0.18624933     -0.21727936
p              7   1.000000
      1.83062075     -0.01159201
      0.10124670      0.56964931
      0.03901771      0.59491410
      5.69200570     -0.02500465
      1.47585208     -0.12506133
      0.52028353     -0.24149897
      0.20713384     -0.11520768
 
          22   0
s              4   1.000000
     57.32198566     -0.01198412
      9.87132025     -0.05472053
      0.79320270      0.58055871
      0.30230918      0.47700799
p              4   1.000000
      6.75665572      0.05713170
      1.75189993      0.28574555
      0.61759894      0.55178731
      0.24587678      0.26323149
s              7   1.000000
      0.47894987     -0.18906043
      0.05878681      0.91347052
      0.02775758      0.23989123
     57.32198566      0.00423490
      9.87132025      0.01933694
      0.79320270     -0.20515573
      0.30230918     -0.16856336
p              7   1.000000
      2.28619608     -0.01168674
      0.12644335      0.57430429
      0.04872781      0.59977552
      6.75665572     -0.02624987
      1.75189993     -0.13128933
      0.61759894     -0.25352552
      0.24587678     -0.12094497
 
          23   0
s              4   1.000000
     35.29330127     -0.01198412
      6.07779852     -0.05472052
      0.48837704      0.58055871
      0.18613258      0.47700799
p              4   1.000000
      5.68843753      0.05713170
      1.47492691      0.28574555
      0.51995738      0.55178731
      0.20700399      0.26323149
s              7   1.000000
      0.38350848     -0.19589983
      0.04707223      0.94651598
      0.02222627      0.24856946
     35.29330127      0.00546209
      6.07779852      0.02494040
      0.48837704     -0.26460572
      0.18613258     -0.21740961
p              7   1.000000
      1.83062075     -0.01159314
      0.10124670      0.56970444
      0.03901771      0.59497167
      5.68843753     -0.02501970
      1.47492691     -0.12513660
      0.51995738     -0.24164432
      0.20700399     -0.11527702
 
          24   0
s              4   1.000000
     35.26022346     -0.01198412
      6.07210225     -0.05472052
      0.48791932      0.58055871
      0.18595813      0.47700800
p              4   1.000000
      5.68310617      0.05713170
      1.47354457      0.28574555
      0.51947006      0.55178730
      0.20680998      0.26323149
s              7   1.000000
      0.38350848     -0.19593005
      0.04707223      0.94666199
      0.02222627      0.24860781
     35.26022346      0.00546699
      6.07210225      0.02496275
      0.48791932     -0.26484293
      0.18595813     -0.21760452
p              7   1.000000
      1.83062075     -0.01159482
      0.10124670      0.56978698
      0.03901771      0.59505788
      5.68310617     -0.02504222
      1.47354457     -0.12524923
      0.51947006     -0.24186181
      0.20680998     -0.11538077
 
          25   0
s              4   1.000000
      8.31136081      0.05675242
      1.52087663      0.26014135
      0.42251618      0.53284611
      0.14022932      0.29162544
s              7   1.000000
      0.92936822     -0.06732532
      0.05643440      0.66942453
      0.02166600      0.51459092
      8.31136081     -0.02901626
      1.52087663     -0.13300452
      0.42251618     -0.27243243
      0.14022932     -0.14910164
p              4   1.000000
      0.64737396      0.05713170
      0.16785440      0.28574555
      0.05917387      0.55178731
      0.02355814      0.26323150
 
          26   0
s              4   1.000000
      8.30920157      0.05675242
      1.52048151      0.26014135
      0.42240641      0.53284611
      0.14019289      0.29162544
s              7   1.000000
      0.92936822     -0.06732810
      0.05643440      0.66945215
      0.02166600      0.51461214
      8.30920157     -0.02902203
      1.52048151     -0.13303099
      0.42240641     -0.27248665
      0.14019289     -0.14913131
p              4   1.000000
      0.64737396      0.05713170
      0.16785440      0.28574555
      0.05917387      0.55178731
      0.02355814      0.26323150
 
          27   0
s              4   1.000000
      8.31012242      0.05675242
      1.52065002      0.26014135
      0.42245323      0.53284611
      0.14020843      0.29162544
s              7   1.000000
      0.92936822     -0.06732691
      0.05643440      0.66944037
      0.02166600      0.51460309
      8.31012242     -0.02901957
      1.52065002     -0.13301970
      0.42245323     -0.27246352
      0.14020843     -0.14911866
p              4   1.000000
      0.64737396      0.05713170
      0.16785440      0.28574555
      0.05917387      0.55178731
      0.02355814      0.26323150
 
          28   0
s              4   1.000000
      8.31099692      0.05675242
      1.52081004      0.26014135
      0.42249768      0.53284611
      0.14022318      0.29162544
s              7   1.000000
      0.92936822     -0.06732579
      0.05643440      0.66942918
      0.02166600      0.51459449
      8.31099692     -0.02901723
      1.52081004     -0.13300898
      0.42249768     -0.27244156
      0.14022318     -0.14910664
p              4   1.000000
      0.64737396      0.05713170
      0.16785440      0.28574555
      0.05917387      0.55178731
      0.02355814      0.26323150
 
          29   0
s              4   1.000000
      8.31248025      0.05675242
      1.52108147      0.26014135
      0.42257309      0.53284611
      0.14024821      0.29162544
s              7   1.000000
      0.92936822     -0.06732388
      0.05643440      0.66941022
      0.02166600      0.51457991
      8.31248025     -0.02901326
      1.52108147     -0.13299080
      0.42257309     -0.27240433
      0.14024821     -0.14908626
p              4   1.000000
      0.64737396      0.05713170
      0.16785440      0.28574555
      0.05917387      0.55178731
      0.02355814      0.26323150
 
          30   0
s              4   1.000000
      8.30988587      0.05675242
      1.52060673      0.26014135
      0.42244120      0.53284611
      0.14020444      0.29162544
s              7   1.000000
      0.92936822     -0.06732722
      0.05643440      0.66944339
      0.02166600      0.51460540
      8.30988587     -0.02902020
      1.52060673     -0.13302260
      0.42244120     -0.27246946
      0.14020444     -0.14912191
p              4   1.000000
      0.64737396      0.05713170
      0.16785440      0.28574555
      0.05917387      0.55178731
      0.02355814      0.26323150
 
          31   0
s              4   1.000000
      8.30892683      0.05675242
      1.52043124      0.26014135
      0.42239245      0.53284611
      0.14018826      0.29162544
s              7   1.000000
      0.92936822     -0.06732845
      0.05643440      0.66945566
      0.02166600      0.51461484
      8.30892683     -0.02902277
      1.52043124     -0.13303436
      0.42239245     -0.27249355
      0.14018826     -0.14913509
p              4   1.000000
      0.64737396      0.05713170
      0.16785440      0.28574555
      0.05917387      0.55178731
      0.02355814      0.26323150
 
          32   0
s              4   1.000000
      8.30884077      0.05675242
      1.52041549      0.26014135
      0.42238807      0.53284611
      0.14018680      0.29162544
s              7   1.000000
      0.92936822     -0.06732856
      0.05643440      0.66945676
      0.02166600      0.51461569
      8.30884077     -0.02902300
      1.52041549     -0.13303541
      0.42238807     -0.27249571
      0.14018680     -0.14913627
p              4   1.000000
      0.64737396      0.05713170
      0.16785440      0.28574555
      0.05917387      0.55178731
      0.02355814      0.26323150
 
          33   0
s              4   1.000000
      8.31001625      0.05675242
      1.52063059      0.26014135
      0.42244783      0.53284611
      0.14020664      0.29162544
s              7   1.000000
      0.92936822     -0.06732705
      0.05643440      0.66944173
      0.02166600      0.51460414
      8.31001625     -0.02901985
      1.52063059     -0.13302100
      0.42244783     -0.27246619
      0.14020664     -0.14912011
p              4   1.000000
      0.64737396      0.05713170
      0.16785440      0.28574555
      0.05917387      0.55178731
      0.02355814      0.26323150
 
          34   0
s              4   1.000000
      8.31111403      0.05675242
      1.52083147      0.26014135
      0.42250364      0.53284611
      0.14022516      0.29162544
s              7   1.000000
      0.92936822     -0.06732564
      0.05643440      0.66942768
      0.02166600      0.51459333
      8.31111403     -0.02901692
      1.52083147     -0.13300754
      0.42250364     -0.27243863
      0.14022516     -0.14910503
p              4   1.000000
      0.64737396      0.05713170
      0.16785440      0.28574555
      0.05917387      0.55178731
      0.02355814      0.26323150
 
 [MO]
 Sym= Hole
 Ene= -0.9933273    
 Spin= Alpha
 Occup= 0
           1 -1.4455789E-02
           2  2.2214023E-02
           3 -7.4531399E-03
           4  8.5450105E-05
           5  1.0002166E-02
           6 -6.1892383E-03
           7 -4.2503336E-03
           8  1.6139821E-06
           9  9.8094288E-03
          10  4.8785387E-03
          11  3.1735413E-02
          12 -1.8858246E-04
          13 -6.1445814E-03
          14  9.4643580E-03
          15  9.0922008E-04
          16  1.5262622E-05
          17  3.2491548E-04
          18  1.1969193E-02
          19 -2.9937424E-02
          20 -1.0654187E-04
          21 -2.3412434E-03
          22  1.0986041E-02
          23  1.0648827E-02
          24  6.7389522E-07
          25 -6.3318573E-02
          26  6.3201770E-02
          27  0.1062469    
          28 -5.3983476E-05
          29  4.0923093E-02
          30 -1.5179630E-02
          31  1.2176422E-03
          32 -7.8374933E-06
          33  1.0041883E-02
          34  0.1384162    
          35 -0.2147723    
          36  5.8062875E-04
          37  3.6091648E-02
          38 -4.3037634E-02
          39 -5.5302312E-03
          40 -3.0655901E-05
          41  0.2331455    
          42 -0.1747589    
          43  0.4423264    
          44 -6.8868080E-04
          45 -9.1287248E-02
          46 -9.5616025E-04
          47 -7.4277809E-03
          48  4.2957404E-06
          49  1.5653469E-02
          50  4.1266352E-02
          51 -0.2452677    
          52  4.7152454E-05
          53  3.3631563E-02
          54  3.3074230E-02
          55  3.0992011E-02
          56 -1.1026885E-07
          57 -6.3366197E-02
          58 -0.1251214    
          59  4.8059557E-02
          60  1.1207389E-05
          61  4.2582154E-02
          62  1.3164463E-02
          63  1.6702192E-02
          64 -1.5851392E-05
          65  1.6691977E-02
          66  9.5445719E-03
          67 -8.2969248E-02
          68  4.0865983E-04
          69  1.1784478E-02
          70  1.0790344E-02
          71  2.8706030E-03
          72  3.1931745E-07
          73 -1.1680881E-02
          74 -2.0272324E-02
          75  1.1387507E-02
          76  1.2180459E-04
          77  1.6959606E-03
          78 -7.4329856E-03
          79  7.3354361E-03
          80 -2.4981216E-05
          81 -1.9547206E-03
          82 -5.3977752E-03
          83 -1.5091584E-02
          84 -1.2083696E-04
          85 -8.8882627E-04
          86 -6.9764355E-04
          87  4.7948118E-03
          88 -7.0478736E-06
          89 -3.8684222E-03
          90 -3.3110254E-03
          91  3.3267217E-03
          92  5.4310116E-05
          93  2.5518332E-03
          94  1.3228593E-03
          95  2.5613983E-03
          96 -5.2607270E-06
          97 -9.9219289E-03
          98 -2.0430228E-02
          99  9.3899751E-03
         100 -2.0201709E-04
         101 -7.0873596E-04
         102 -2.3489406E-03
         103 -4.9523432E-03
         104  2.0915074E-06
         105  4.7641397E-03
         106  1.0099377E-02
         107 -3.6995579E-02
         108  2.4962399E-05
         109 -5.0005475E-03
         110 -1.3734748E-02
         111 -1.3433418E-03
         112 -1.4970814E-05
         113  4.2867023E-03
         114 -1.7246617E-02
         115  3.4048848E-02
         116  2.7033369E-04
         117 -4.8880521E-03
         118 -1.0845908E-02
         119 -8.5857157E-03
         120 -9.4519220E-07
         121 -9.5999753E-03
         122 -8.2082562E-03
         123 -2.1591820E-02
         124 -6.3140265E-05
         125 -1.5189378E-04
         126 -5.3327461E-03
         127  1.2285204E-03
         128 -7.1426543E-06
         129 -3.3852749E-03
         130 -1.2983186E-02
         131  9.9699497E-03
         132 -2.3020874E-04
         133  3.5736011E-04
         134  6.8329787E-04
         135 -4.4261394E-03
         136 -2.9869659E-06
         137 -1.2041303E-02
         138 -6.9805770E-03
         139 -2.2981759E-02
         140 -1.2047373E-04
         141  1.9540826E-03
         142 -7.8416039E-04
         143 -1.0746269E-02
         144 -4.0213486E-06
         145  1.6553013E-02
         146 -4.8208002E-02
         147  6.8951949E-02
         148  1.4258368E-04
         149  1.1836100E-02
         150  9.2329970E-03
         151  4.9136383E-03
         152  2.0476889E-05
         153 -6.3020244E-02
         154 -5.8666762E-02
         155 -0.1215507    
         156  1.6311411E-05
         157  4.1925386E-02
         158  2.0556672E-02
         159 -4.1356739E-03
         160  3.4025074E-05
         161  1.6863994E-02
         162 -0.1343433    
         163  0.2088881    
         164 -5.2867120E-04
         165  3.2862738E-02
         166  4.4581860E-02
         167 -1.6943841E-04
         168  4.4707180E-05
         169  0.2280205    
         170  0.1697531    
         171 -0.4374245    
         172  5.3234445E-04
         173 -8.9655958E-02
         174 -6.8598902E-03
         175  4.4994592E-03
         176 -6.0215561E-06
         177  1.5017993E-02
         178 -4.1010574E-02
         179  0.2519495    
         180 -2.2723690E-04
         181  3.4615424E-02
         182 -3.6130726E-02
         183 -2.3763642E-02
         184 -7.6296792E-06
         185 -6.4929932E-02
         186  0.1140988    
         187 -3.7255738E-02
         188  9.3640672E-05
         189  3.9577276E-02
         190 -1.3942154E-02
         191 -1.1469549E-02
         192  6.4623027E-06
         193 -3.1204326E-02
         194 -6.5732049E-03
         195  2.2994177E-03
         196  3.6084580E-03
         197 -3.6034846E-06
         198  9.7334146E-02
         199 -4.1942443E-03
         200 -2.2324339E-02
         201 -1.0897696E-02
         202 -8.4547710E-06
         203 -1.0521651E-02
         204  3.3635080E-03
         205  3.2555219E-02
         206 -2.1611476E-02
         207  7.3905008E-05
         208  3.2713939E-02
         209 -8.0729341E-03
         210  1.9285865E-03
         211  6.8164198E-03
         212 -2.3678067E-05
         213 -2.2039325E-03
         214 -2.6734986E-03
         215  1.4556615E-03
         216 -6.3736405E-04
         217  2.3256154E-05
         218 -2.0779686E-03
         219 -2.1380305E-03
         220  6.4678059E-04
         221  2.9649891E-04
         222 -2.3163617E-05
         223 -6.0189767E-03
         224 -1.6980241E-03
         225  1.1359632E-03
         226 -2.8259098E-03
         227 -8.5769143E-06
         228  3.3945207E-02
         229 -7.6442929E-03
         230  5.6066602E-03
         231 -4.1112443E-03
         232  9.1901647E-06
         233 -9.9411188E-03
         234  2.7715252E-03
         235  8.3208382E-03
         236  3.6137775E-02
         237  2.4499406E-05
         238  9.4453491E-02
         239 -6.0651414E-03
         240 -2.5807684E-02
         241 -6.9937678E-03
         242 -1.3260870E-06
 Sym= Particle
 Ene= -0.9933273    
 Spin= Alpha
 Occup= 2
           1  6.1868609E-06
           2 -1.1049428E-05
           3 -5.3327796E-05
           4 -4.0823217E-02
           5  7.4007824E-07
           6 -4.4597941E-06
           7  1.4021455E-05
           8  1.0167759E-02
           9 -2.8206496E-05
          10 -6.4813190E-05
          11  2.9475274E-04
          12  0.2147915    
          13  1.7200045E-05
          14  1.9936764E-05
          15 -6.0513386E-05
          16 -4.8532967E-02
          17  1.1931480E-05
          18 -5.4072105E-05
          19  2.6443365E-04
          20  0.2104480    
          21 -5.8949099E-06
          22  1.8679100E-05
          23 -5.3410648E-05
          24 -4.2256929E-02
          25  5.0497642E-06
          26  1.0421034E-04
          27 -3.4207368E-04
          28 -0.2683715    
          29 -1.1914981E-05
          30 -1.7491066E-06
          31  5.8951817E-05
          32  3.9952204E-02
          33 -8.7924755E-06
          34  1.5308568E-04
          35 -2.0401264E-04
          36 -0.1693727    
          37  1.0138700E-05
          38 -6.8981746E-05
          39  5.8436530E-05
          40  5.9487604E-02
          41  7.5248868E-06
          42 -4.1392303E-04
          43  4.7137626E-04
          44  0.4556126    
          45  3.6536512E-06
          46  9.6367992E-05
          47 -1.1603683E-04
          48 -0.1039202    
          49 -2.2033702E-05
          50  2.8491416E-04
          51 -2.9774662E-04
          52 -0.2870027    
          53  1.9398583E-05
          54 -7.7771045E-05
          55  9.6316398E-05
          56  8.5213043E-02
          57  5.1949137E-05
          58  3.0843195E-05
          59 -1.9722058E-04
          60 -0.1314382    
          61 -4.6099136E-05
          62  1.8500372E-05
          63  4.2923130E-05
          64  1.3267902E-02
          65  1.4941163E-05
          66  3.7397624E-06
          67  1.6777084E-04
          68  0.1168834    
          69 -1.3123535E-05
          70  7.3414581E-06
          71 -2.8302309E-05
          72 -1.5243235E-02
          73 -1.0972173E-06
          74  2.7395206E-05
          75  1.0769597E-04
          76  6.1299406E-02
          77 -4.2043307E-06
          78 -6.9785091E-07
          79 -1.4749622E-05
          80 -9.5482226E-03
          81  1.9901971E-05
          82 -1.1975491E-04
          83 -1.9578278E-04
          84 -0.1189891    
          85 -1.6018046E-05
          86  5.9271511E-06
          87  2.1862443E-05
          88  1.3902912E-02
          89 -7.0197525E-06
          90 -5.2508112E-06
          91  4.3724798E-05
          92  2.4874317E-02
          93 -3.2245330E-07
          94 -4.3214395E-06
          95 -1.3347325E-05
          96 -4.9771704E-03
          97 -1.0967308E-05
          98 -6.5038825E-05
          99 -3.3617394E-05
         100 -3.6960337E-02
         101  6.0406946E-06
         102  3.3838000E-06
         103 -1.0932420E-05
         104  8.4265685E-03
         105  1.4893069E-05
         106  1.0830961E-04
         107  7.7625773E-05
         108  0.1456061    
         109 -1.7924720E-05
         110 -2.9925954E-05
         111 -3.7954687E-05
         112 -3.5563204E-02
         113  7.8694293E-06
         114 -1.8536956E-04
         115 -1.6667915E-04
         116  0.1423422    
         117 -4.0202449E-06
         118  5.1948657E-05
         119  3.4574667E-05
         120 -3.3251267E-02
         121  2.3746192E-05
         122  9.1104674E-05
         123  8.5255866E-05
         124 -4.0383257E-02
         125 -1.4368115E-05
         126  1.7857149E-06
         127 -1.3742878E-05
         128  1.1514372E-02
         129 -7.0463116E-06
         130  2.3122597E-04
         131  1.0992345E-04
         132 -0.1164843    
         133 -8.6822672E-07
         134 -2.2979371E-05
         135 -4.7870299E-06
         136  1.2509821E-02
         137  6.0258441E-07
         138 -1.0270515E-04
         139 -6.3718973E-05
         140  6.0802929E-02
         141 -4.5326456E-06
         142  9.2833798E-06
         143  1.1007653E-05
         144 -6.4556580E-03
         145  3.5693747E-06
         146 -1.1936548E-04
         147 -1.2085355E-04
         148  0.1177716    
         149 -1.0507388E-05
         150 -2.3569432E-05
         151  1.7920827E-05
         152 -1.4862093E-02
         153 -2.4139777E-05
         154  2.2464679E-04
         155  8.0118603E-05
         156 -0.1287923    
         157  1.7822689E-05
         158 -6.4418586E-05
         159 -1.3124126E-05
         160  1.2801628E-02
         161 -4.4053679E-05
         162  3.4275360E-04
         163 -2.7110378E-04
         164 -0.2868371    
         165  3.5899120E-05
         166 -7.3096962E-05
         167  9.7988966E-05
         168  8.3972029E-02
         169  4.4635100E-05
         170 -4.7546986E-04
         171  5.3472054E-04
         172  0.4518023    
         173 -1.8247329E-05
         174  1.2717854E-04
         175 -1.3057637E-04
         176 -0.1037465    
         177 -2.5567810E-05
         178  1.5848572E-04
         179 -1.8057865E-04
         180 -0.1679163    
         181  2.0283400E-05
         182 -8.8359207E-05
         183  3.8283262E-05
         184  6.0066856E-02
         185  1.0580668E-05
         186  7.8624609E-05
         187 -3.6040740E-04
         188 -0.2636308    
         189 -3.8579401E-06
         190 -5.7933589E-06
         191  5.9570226E-05
         192  4.3053146E-02
         193 -1.0148725E-05
         194  1.1862399E-05
         195 -1.8298202E-05
         196  3.1621250E-05
         197  3.3795051E-02
         198  1.7714141E-05
         199 -2.9516411E-06
         200  1.4638901E-05
         201 -2.1100184E-05
         202 -2.2438413E-02
         203 -4.3037053E-05
         204  1.1433297E-05
         205 -4.7697587E-05
         206  4.2677311E-05
         207  4.3018315E-02
         208 -9.3861254E-06
         209  4.3441668E-07
         210  1.9573390E-07
         211 -1.8143649E-06
         212  1.0190107E-04
         213 -4.1100120E-05
         214  1.2780133E-05
         215  1.0955120E-05
         216 -3.7972259E-06
         217 -3.6813191E-03
         218  1.1890076E-05
         219 -6.0732677E-06
         220  4.0896102E-06
         221 -5.0023132E-06
         222 -2.6484437E-03
         223  7.8173543E-06
         224 -4.5151310E-06
         225  2.2868926E-05
         226  8.2225706E-06
         227 -1.6224211E-02
         228 -1.6808177E-05
         229  2.8470984E-06
         230  5.6010922E-06
         231 -2.5430575E-06
         232  1.4990912E-03
         233  7.2576131E-06
         234 -1.0890959E-05
         235 -8.0430873E-05
         236 -6.7060915E-05
         237  4.0562708E-02
         238  1.8502731E-05
         239 -9.7928876E-07
         240  1.6534779E-05
         241 -3.0592986E-05
         242 -1.8339643E-02
