 [Molden Format]
 [Atoms] Angs
C       1      6      7.37468246     -3.06043694     -1.67731324
C       2      6      6.10808417     -3.41031745     -1.21199012
C       3      6      5.27159133     -2.47895811     -0.62751587
C       4      6      5.72829994     -1.17204241     -0.52315347
C       5      6      7.02053987     -0.81181238     -0.97317878
C       6      6      7.84288392     -1.76698214     -1.55783015
C       7      6      7.17991260      0.58414610     -0.67611104
C       8      6      8.20628828      1.49714198     -0.88403063
C       9      6      8.02103831      2.80507427     -0.48213410
C      10      6      6.82641016      3.21068850      0.11083466
C      11      6      5.79133036      2.32194472      0.32885469
C      12      6      5.97866778      1.00115558     -0.05561651
N      13      7      5.11196017     -0.06828201      0.02814287
C      14      6      3.82141647     -0.03760866      0.58475160
C      15      6      3.62373980      0.44187478      1.87680858
C      16      6      2.35538138      0.48502993      2.41491211
C      17      6      1.24865185      0.04412123      1.68261754
N      18      7      0.00240058      0.08204195      2.27994850
C      19      6     -1.24795778      0.08416504      1.68962483
C      20      6     -2.34530781     -0.34588621      2.44198089
C      21      6     -3.61626664     -0.33921087      1.90820527
C      22      6     -3.82579135      0.09193865      0.60108856
N      23      7     -5.11739728      0.07755944      0.04661118
C      24      6     -5.75307358      1.14472491     -0.55262009
C      25      6     -5.32385557      2.45604021     -0.70658911
C      26      6     -6.17532831      3.34440070     -1.33477299
C      27      6     -7.43013834      2.94833843     -1.79497048
C      28      6     -7.87142391      1.65099227     -1.62602431
C      29      6     -7.03337100      0.73840128     -0.99742429
C      30      6     -7.16448560     -0.64807019     -0.64706573
C      31      6     -8.16789816     -1.59167861     -0.82886782
C      32      6     -7.95694932     -2.87881153     -0.37580445
C      33      6     -6.75893278     -3.23406238      0.24203689
C      34      6     -5.74627860     -2.31418445      0.43457604
C      35      6     -5.95952829     -1.01364299     -0.00191870
C      36      6     -2.74246483      0.54701390     -0.14441170
C      37      6     -1.47215367      0.55710677      0.39484200
C      38      6      1.45999826     -0.47308307      0.40267289
C      39      6      2.72801572     -0.49955303     -0.14147627
H      40      1      7.99797138     -3.81735248     -2.13095618
H      41      1      5.77497844     -4.43374059     -1.30766486
H      42      1      4.29796175     -2.76173685     -0.25644618
H      43      1      8.82960299     -1.49997079     -1.90657576
H      44      1      9.12761257      1.18677350     -1.35455551
H      45      1      8.80808452      3.52962334     -0.63318386
H      46      1      6.70667478      4.24395358      0.40334254
H      47      1      4.86416039      2.64706464      0.77660278
H      48      1      4.47121618      0.77442752      2.45750018
H      49      1      2.21209480      0.85779807      3.41918916
H      50      1      0.00569008      0.09717863      3.29012092
H      51      1     -2.19289043     -0.68137418      3.45801851
H      52      1     -4.45673829     -0.66361726      2.50345000
H      53      1     -4.35956797      2.77489496     -0.34020348
H      54      1     -5.86359515      4.37015275     -1.46932745
H      55      1     -8.06592911      3.67254642     -2.28333237
H      56      1     -8.84939097      1.34851384     -1.97044098
H      57      1     -9.09150362     -1.32067925     -1.31882311
H      58      1     -8.72564528     -3.62666502     -0.50617663
H      59      1     -6.61822706     -4.25277733      0.57369467
H      60      1     -4.81588446     -2.60117015      0.90115905
H      61      1     -2.90067123      0.89638643     -1.15383641
H      62      1     -0.65238897      0.95217230     -0.18373638
H      63      1      0.63232813     -0.87488364     -0.15975392
H      64      1      2.87684434     -0.88429827     -1.13941810
 [GTO]
           1   0
s              4   1.000000
     34.92041625     -0.01198412
      6.01358463     -0.05472052
      0.48321718      0.58055871
      0.18416603      0.47700799
p              4   1.000000
      5.62833736      0.05713170
      1.45934383      0.28574555
      0.51446386      0.55178731
      0.20481693      0.26323149
s              7   1.000000
      0.38350848     -0.19624490
      0.04707223      0.94818326
      0.02222627      0.24900731
     34.92041625      0.00551780
      6.01358463      0.02519474
      0.48321718     -0.26730419
      0.18416603     -0.21962677
p              7   1.000000
      1.83062075     -0.01161232
      0.10124670      0.57064706
      0.03901771      0.59595608
      5.62833736     -0.02527585
      1.45934383     -0.12641776
      0.51446386     -0.24411829
      0.20481693     -0.11645723
 
           2   0
s              4   1.000000
     34.93316723     -0.01198412
      6.01578046     -0.05472053
      0.48339363      0.58055871
      0.18423328      0.47700799
p              4   1.000000
      5.63039251      0.05713170
      1.45987670      0.28574555
      0.51465171      0.55178731
      0.20489172      0.26323149
s              7   1.000000
      0.38350848     -0.19623294
      0.04707223      0.94812546
      0.02222627      0.24899215
     34.93316723      0.00551587
      6.01578046      0.02518596
      0.48339363     -0.26721103
      0.18423328     -0.21955022
p              7   1.000000
      1.83062075     -0.01161165
      0.10124670      0.57061439
      0.03901771      0.59592198
      5.63039251     -0.02526701
      1.45987670     -0.12637353
      0.51465171     -0.24403288
      0.20489172     -0.11641648
 
           3   0
s              4   1.000000
     34.94044913     -0.01198412
      6.01703446     -0.05472053
      0.48349439      0.58055871
      0.18427168      0.47700799
p              4   1.000000
      5.63156618      0.05713170
      1.46018102      0.28574555
      0.51475899      0.55178731
      0.20493443      0.26323149
s              7   1.000000
      0.38350848     -0.19622612
      0.04707223      0.94809247
      0.02222627      0.24898347
     34.94044913      0.00551478
      6.01703446      0.02518095
      0.48349439     -0.26715785
      0.18427168     -0.21950653
p              7   1.000000
      1.83062075     -0.01161127
      0.10124670      0.57059574
      0.03901771      0.59590248
      5.63156618     -0.02526196
      1.46018102     -0.12634828
      0.51475899     -0.24398413
      0.20493443     -0.11639323
 
           4   0
s              4   1.000000
     35.62813711     -0.01198412
      6.13546002     -0.05472052
      0.49301039      0.58055871
      0.18789846      0.47700799
p              4   1.000000
      5.74240507      0.05713170
      1.48891989      0.28574555
      0.52489033      0.55178731
      0.20896789      0.26323149
s              7   1.000000
      0.38350848     -0.19559813
      0.04707223      0.94505831
      0.02222627      0.24818666
     35.62813711      0.00541301
      6.13546002      0.02471625
      0.49301039     -0.26222768
      0.18789846     -0.21545573
p              7   1.000000
      1.83062075     -0.01157637
      0.10124670      0.56888034
      0.03901771      0.59411101
      5.74240507     -0.02479394
      1.48891989     -0.12400747
      0.52489033     -0.23946391
      0.20896789     -0.11423685
 
           5   0
s              4   1.000000
     35.41528692     -0.01198412
      6.09880546     -0.05472052
      0.49006504      0.58055871
      0.18677592      0.47700799
p              4   1.000000
      5.70809870      0.05713170
      1.48002476      0.28574555
      0.52175453      0.55178731
      0.20771947      0.26323149
s              7   1.000000
      0.38350848     -0.19578904
      0.04707223      0.94598067
      0.02222627      0.24842890
     35.41528692      0.00544411
      6.09880546      0.02485828
      0.49006504     -0.26373449
      0.18677592     -0.21669378
p              7   1.000000
      1.83062075     -0.01158698
      0.10124670      0.56940180
      0.03901771      0.59465558
      5.70809870     -0.02493699
      1.48002476     -0.12472294
      0.52175453     -0.24084552
      0.20771947     -0.11489595
 
           6   0
s              4   1.000000
     34.93526811     -0.01198412
      6.01614225     -0.05472053
      0.48342270      0.58055871
      0.18424436      0.47700799
p              4   1.000000
      5.63073113      0.05713170
      1.45996450      0.28574555
      0.51468267      0.55178731
      0.20490404      0.26323149
s              7   1.000000
      0.38350848     -0.19623097
      0.04707223      0.94811594
      0.02222627      0.24898964
     34.93526811      0.00551556
      6.01614225      0.02518451
      0.48342270     -0.26719568
      0.18424436     -0.21953762
p              7   1.000000
      1.83062075     -0.01161154
      0.10124670      0.57060900
      0.03901771      0.59591635
      5.63073113     -0.02526555
      1.45996450     -0.12636624
      0.51468267     -0.24401881
      0.20490404     -0.11640977
 
           7   0
s              4   1.000000
     35.41510330     -0.01198412
      6.09877384     -0.05472052
      0.49006250      0.58055871
      0.18677495      0.47700800
p              4   1.000000
      5.70806910      0.05713170
      1.48001708      0.28574555
      0.52175182      0.55178731
      0.20771839      0.26323149
s              7   1.000000
      0.38350848     -0.19578920
      0.04707223      0.94598147
      0.02222627      0.24842909
     35.41510330      0.00544414
      6.09877384      0.02485840
      0.49006250     -0.26373580
      0.18677495     -0.21669485
p              7   1.000000
      1.83062075     -0.01158699
      0.10124670      0.56940225
      0.03901771      0.59465607
      5.70806910     -0.02493711
      1.48001708     -0.12472356
      0.52175182     -0.24084672
      0.20771839     -0.11489652
 
           8   0
s              4   1.000000
     34.93538585     -0.01198412
      6.01616252     -0.05472052
      0.48342433      0.58055871
      0.18424498      0.47700799
p              4   1.000000
      5.63075010      0.05713170
      1.45996942      0.28574555
      0.51468440      0.55178731
      0.20490473      0.26323149
s              7   1.000000
      0.38350848     -0.19623086
      0.04707223      0.94811541
      0.02222627      0.24898949
     34.93538585      0.00551554
      6.01616252      0.02518443
      0.48342433     -0.26719482
      0.18424498     -0.21953691
p              7   1.000000
      1.83062075     -0.01161154
      0.10124670      0.57060870
      0.03901771      0.59591603
      5.63075010     -0.02526547
      1.45996942     -0.12636583
      0.51468440     -0.24401802
      0.20490473     -0.11640940
 
           9   0
s              4   1.000000
     34.92047548     -0.01198412
      6.01359483     -0.05472053
      0.48321800      0.58055871
      0.18416634      0.47700799
p              4   1.000000
      5.62834691      0.05713170
      1.45934631      0.28574555
      0.51446473      0.55178731
      0.20481727      0.26323149
s              7   1.000000
      0.38350848     -0.19624485
      0.04707223      0.94818298
      0.02222627      0.24900726
     34.92047548      0.00551779
      6.01359483      0.02519470
      0.48321800     -0.26730376
      0.18416634     -0.21962642
p              7   1.000000
      1.83062075     -0.01161231
      0.10124670      0.57064690
      0.03901771      0.59595592
      5.62834691     -0.02527581
      1.45934631     -0.12641755
      0.51446473     -0.24411789
      0.20481727     -0.11645704
 
          10   0
s              4   1.000000
     34.93310075     -0.01198412
      6.01576901     -0.05472052
      0.48339271      0.58055871
      0.18423293      0.47700799
p              4   1.000000
      5.63038180      0.05713170
      1.45987392      0.28574555
      0.51465073      0.55178731
      0.20489133      0.26323149
s              7   1.000000
      0.38350848     -0.19623300
      0.04707223      0.94812577
      0.02222627      0.24899222
     34.93310075      0.00551588
      6.01576901      0.02518600
      0.48339271     -0.26721151
      0.18423293     -0.21955062
p              7   1.000000
      1.83062075     -0.01161166
      0.10124670      0.57061454
      0.03901771      0.59592214
      5.63038180     -0.02526705
      1.45987392     -0.12637376
      0.51465073     -0.24403332
      0.20489133     -0.11641670
 
          11   0
s              4   1.000000
     34.94056617     -0.01198412
      6.01705462     -0.05472052
      0.48349601      0.58055871
      0.18427230      0.47700799
p              4   1.000000
      5.63158505      0.05713170
      1.46018591      0.28574555
      0.51476072      0.55178731
      0.20493511      0.26323149
s              7   1.000000
      0.38350848     -0.19622601
      0.04707223      0.94809195
      0.02222627      0.24898335
     34.94056617      0.00551476
      6.01705462      0.02518087
      0.48349601     -0.26715699
      0.18427230     -0.21950583
p              7   1.000000
      1.83062075     -0.01161127
      0.10124670      0.57059543
      0.03901771      0.59590215
      5.63158505     -0.02526188
      1.46018591     -0.12634788
      0.51476072     -0.24398334
      0.20493511     -0.11639285
 
          12   0
s              4   1.000000
     35.62928479     -0.01198412
      6.13565766     -0.05472052
      0.49302627      0.58055871
      0.18790452      0.47700799
p              4   1.000000
      5.74259005      0.05713170
      1.48896785      0.28574555
      0.52490724      0.55178731
      0.20897462      0.26323149
s              7   1.000000
      0.38350848     -0.19559711
      0.04707223      0.94505336
      0.02222627      0.24818537
     35.62928479      0.00541284
      6.13565766      0.02471549
      0.49302627     -0.26221960
      0.18790452     -0.21544909
p              7   1.000000
      1.83062075     -0.01157631
      0.10124670      0.56887755
      0.03901771      0.59410809
      5.74259005     -0.02479317
      1.48896785     -0.12400363
      0.52490724     -0.23945650
      0.20897462     -0.11423331
 
          13   0
s              4   1.000000
     61.41568945     -0.01198412
     10.57628992     -0.05472052
      0.84985002      0.58055871
      0.32389888      0.47700799
p              4   1.000000
      7.23918867      0.05713170
      1.87701352      0.28574555
      0.66170535      0.55178731
      0.26343630      0.26323149
s              7   1.000000
      0.47894987     -0.18771880
      0.05878681      0.90698826
      0.02775758      0.23818888
     61.41568945      0.00395597
     10.57628992      0.01806330
      0.84985002     -0.19164297
      0.32389888     -0.15746078
p              7   1.000000
      2.28619608     -0.01155994
      0.12644335      0.56807303
      0.04872781      0.59326790
      7.23918867     -0.02457109
      1.87701352     -0.12289287
      0.66170535     -0.23731157
      0.26343630     -0.11321007
 
          14   0
s              4   1.000000
     35.12609027     -0.01198412
      6.04900340     -0.05472052
      0.48606323      0.58055871
      0.18525073      0.47700799
p              4   1.000000
      5.66148710      0.05713170
      1.46793907      0.28574555
      0.51749395      0.55178731
      0.20602326      0.26323149
s              7   1.000000
      0.38350848     -0.19605336
      0.04707223      0.94725781
      0.02222627      0.24876427
     35.12609027      0.00548694
      6.04900340      0.02505382
      0.48606323     -0.26580915
      0.18525073     -0.21839839
p              7   1.000000
      1.83062075     -0.01160167
      0.10124670      0.57012383
      0.03901771      0.59540964
      5.66148710     -0.02513394
      1.46793907     -0.12570797
      0.51749395     -0.24274766
      0.20602326     -0.11580337
 
          15   0
s              4   1.000000
     35.00254307     -0.01198412
      6.02772755     -0.05472052
      0.48435363      0.58055871
      0.18459916      0.47700800
p              4   1.000000
      5.64157425      0.05713170
      1.46277596      0.28574555
      0.51567379      0.55178731
      0.20529862      0.26323149
s              7   1.000000
      0.38350848     -0.19616806
      0.04707223      0.94781197
      0.02222627      0.24890981
     35.00254307      0.00550543
      6.02772755      0.02513829
      0.48435363     -0.26670524
      0.18459916     -0.21913465
p              7   1.000000
      1.83062075     -0.01160805
      0.10124670      0.57043714
      0.03901771      0.59573685
      5.64157425     -0.02521900
      1.46277596     -0.12613340
      0.51567379     -0.24356919
      0.20529862     -0.11619528
 
          16   0
s              4   1.000000
     35.01763542     -0.01198412
      6.03032658     -0.05472052
      0.48456247      0.58055871
      0.18467875      0.47700799
p              4   1.000000
      5.64400677      0.05713170
      1.46340668      0.28574555
      0.51589614      0.55178731
      0.20538714      0.26323149
s              7   1.000000
      0.38350848     -0.19615399
      0.04707223      0.94774400
      0.02222627      0.24889197
     35.01763542      0.00550317
      6.03032658      0.02512794
      0.48456247     -0.26659546
      0.18467875     -0.21904445
p              7   1.000000
      1.83062075     -0.01160726
      0.10124670      0.57039872
      0.03901771      0.59569672
      5.64400677     -0.02520858
      1.46340668     -0.12608128
      0.51589614     -0.24346854
      0.20538714     -0.11614727
 
          17   0
s              4   1.000000
     35.02236023     -0.01198412
      6.03114023     -0.05472052
      0.48462785      0.58055871
      0.18470367      0.47700799
p              4   1.000000
      5.64476830      0.05713170
      1.46360413      0.28574555
      0.51596575      0.55178731
      0.20541486      0.26323149
s              7   1.000000
      0.38350848     -0.19614959
      0.04707223      0.94772274
      0.02222627      0.24888638
     35.02236023      0.00550246
      6.03114023      0.02512470
      0.48462785     -0.26656111
      0.18470367     -0.21901623
p              7   1.000000
      1.83062075     -0.01160702
      0.10124670      0.57038669
      0.03901771      0.59568418
      5.64476830     -0.02520532
      1.46360413     -0.12606498
      0.51596575     -0.24343705
      0.20541486     -0.11613224
 
          18   0
s              4   1.000000
     60.88205290     -0.01198412
     10.48439329     -0.05472052
      0.84246574      0.58055871
      0.32108454      0.47700799
p              4   1.000000
      7.17628788      0.05713170
      1.86070429      0.28574555
      0.65595584      0.55178731
      0.26114732      0.26323149
s              7   1.000000
      0.47894987     -0.18787976
      0.05878681      0.90776593
      0.02775758      0.23839312
     60.88205290      0.00399035
     10.48439329      0.01822030
      0.84246574     -0.19330875
      0.32108454     -0.15882944
p              7   1.000000
      2.28619608     -0.01157519
      0.12644335      0.56882236
      0.04872781      0.59405048
      7.17628788     -0.02477799
      1.86070429     -0.12392771
      0.65595584     -0.23930989
      0.26114732     -0.11416337
 
          19   0
s              4   1.000000
     35.02260837     -0.01198412
      6.03118296     -0.05472053
      0.48463129      0.58055871
      0.18470498      0.47700799
p              4   1.000000
      5.64480829      0.05713170
      1.46361450      0.28574555
      0.51596940      0.55178731
      0.20541631      0.26323149
s              7   1.000000
      0.38350848     -0.19614936
      0.04707223      0.94772162
      0.02222627      0.24888609
     35.02260837      0.00550242
      6.03118296      0.02512453
      0.48463129     -0.26655930
      0.18470498     -0.21901474
p              7   1.000000
      1.83062075     -0.01160701
      0.10124670      0.57038607
      0.03901771      0.59568353
      5.64480829     -0.02520514
      1.46361450     -0.12606412
      0.51596940     -0.24343540
      0.20541631     -0.11613145
 
          20   0
s              4   1.000000
     35.01712672     -0.01198412
      6.03023897     -0.05472052
      0.48455543      0.58055871
      0.18467607      0.47700799
p              4   1.000000
      5.64392478      0.05713170
      1.46338542      0.28574555
      0.51588864      0.55178731
      0.20538416      0.26323149
s              7   1.000000
      0.38350848     -0.19615447
      0.04707223      0.94774629
      0.02222627      0.24889258
     35.01712672      0.00550324
      6.03023897      0.02512829
      0.48455543     -0.26659915
      0.18467607     -0.21904749
p              7   1.000000
      1.83062075     -0.01160729
      0.10124670      0.57040001
      0.03901771      0.59569809
      5.64392478     -0.02520893
      1.46338542     -0.12608304
      0.51588864     -0.24347193
      0.20538416     -0.11614889
 
          21   0
s              4   1.000000
     35.00272701     -0.01198412
      6.02775923     -0.05472052
      0.48435617      0.58055871
      0.18460013      0.47700799
p              4   1.000000
      5.64160389      0.05713170
      1.46278365      0.28574555
      0.51567650      0.55178731
      0.20529970      0.26323149
s              7   1.000000
      0.38350848     -0.19616789
      0.04707223      0.94781115
      0.02222627      0.24890959
     35.00272701      0.00550540
      6.02775923      0.02513816
      0.48435617     -0.26670390
      0.18460013     -0.21913355
p              7   1.000000
      1.83062075     -0.01160804
      0.10124670      0.57043668
      0.03901771      0.59573637
      5.64160389     -0.02521887
      1.46278365     -0.12613277
      0.51567650     -0.24356796
      0.20529970     -0.11619470
 
          22   0
s              4   1.000000
     35.12619557     -0.01198412
      6.04902153     -0.05472052
      0.48606469      0.58055871
      0.18525128      0.47700799
p              4   1.000000
      5.66150408      0.05713170
      1.46794347      0.28574555
      0.51749550      0.55178731
      0.20602387      0.26323149
s              7   1.000000
      0.38350848     -0.19605327
      0.04707223      0.94725733
      0.02222627      0.24876415
     35.12619557      0.00548692
      6.04902153      0.02505375
      0.48606469     -0.26580839
      0.18525128     -0.21839776
p              7   1.000000
      1.83062075     -0.01160166
      0.10124670      0.57012356
      0.03901771      0.59540936
      5.66150408     -0.02513386
      1.46794347     -0.12570761
      0.51749550     -0.24274696
      0.20602387     -0.11580304
 
          23   0
s              4   1.000000
     61.41574892     -0.01198412
     10.57630016     -0.05472052
      0.84985084      0.58055871
      0.32389919      0.47700799
p              4   1.000000
      7.23919568      0.05713170
      1.87701534      0.28574555
      0.66170599      0.55178731
      0.26343656      0.26323149
s              7   1.000000
      0.47894987     -0.18771878
      0.05878681      0.90698817
      0.02775758      0.23818886
     61.41574892      0.00395596
     10.57630016      0.01806328
      0.84985084     -0.19164278
      0.32389919     -0.15746063
p              7   1.000000
      2.28619608     -0.01155994
      0.12644335      0.56807295
      0.04872781      0.59326781
      7.23919568     -0.02457106
      1.87701534     -0.12289276
      0.66170599     -0.23731135
      0.26343656     -0.11320996
 
          24   0
s              4   1.000000
     35.62759820     -0.01198412
      6.13536722     -0.05472052
      0.49300293      0.58055871
      0.18789562      0.47700800
p              4   1.000000
      5.74231821      0.05713170
      1.48889736      0.28574555
      0.52488240      0.55178731
      0.20896473      0.26323149
s              7   1.000000
      0.38350848     -0.19559861
      0.04707223      0.94506061
      0.02222627      0.24818727
     35.62759820      0.00541308
      6.13536722      0.02471661
      0.49300293     -0.26223148
      0.18789562     -0.21545884
p              7   1.000000
      1.83062075     -0.01157639
      0.10124670      0.56888165
      0.03901771      0.59411238
      5.74231821     -0.02479430
      1.48889736     -0.12400927
      0.52488240     -0.23946739
      0.20896473     -0.11423851
 
          25   0
s              4   1.000000
     34.94039310     -0.01198412
      6.01702481     -0.05472052
      0.48349362      0.58055871
      0.18427139      0.47700799
p              4   1.000000
      5.63155715      0.05713170
      1.46017868      0.28574555
      0.51475817      0.55178730
      0.20493410      0.26323149
s              7   1.000000
      0.38350848     -0.19622617
      0.04707223      0.94809274
      0.02222627      0.24898354
     34.94039310      0.00551478
      6.01702481      0.02518098
      0.48349362     -0.26715826
      0.18427139     -0.21950687
p              7   1.000000
      1.83062075     -0.01161128
      0.10124670      0.57059587
      0.03901771      0.59590264
      5.63155715     -0.02526200
      1.46017868     -0.12634848
      0.51475817     -0.24398450
      0.20493410     -0.11639340
 
          26   0
s              4   1.000000
     34.93324311     -0.01198412
      6.01579352     -0.05472053
      0.48339468      0.58055871
      0.18423368      0.47700799
p              4   1.000000
      5.63040474      0.05713170
      1.45987987      0.28574555
      0.51465283      0.55178731
      0.20489216      0.26323149
s              7   1.000000
      0.38350848     -0.19623287
      0.04707223      0.94812511
      0.02222627      0.24899205
     34.93324311      0.00551586
      6.01579352      0.02518591
      0.48339468     -0.26721047
      0.18423368     -0.21954977
p              7   1.000000
      1.83062075     -0.01161165
      0.10124670      0.57061419
      0.03901771      0.59592178
      5.63040474     -0.02526695
      1.45987987     -0.12637326
      0.51465283     -0.24403237
      0.20489216     -0.11641624
 
          27   0
s              4   1.000000
     34.92042210     -0.01198412
      6.01358564     -0.05472052
      0.48321727      0.58055871
      0.18416606      0.47700800
p              4   1.000000
      5.62833830      0.05713170
      1.45934408      0.28574555
      0.51446395      0.55178731
      0.20481696      0.26323149
s              7   1.000000
      0.38350848     -0.19624490
      0.04707223      0.94818323
      0.02222627      0.24900731
     34.92042210      0.00551780
      6.01358564      0.02519474
      0.48321727     -0.26730415
      0.18416606     -0.21962674
p              7   1.000000
      1.83062075     -0.01161232
      0.10124670      0.57064705
      0.03901771      0.59595608
      5.62833830     -0.02527585
      1.45934408     -0.12641774
      0.51446395     -0.24411825
      0.20481696     -0.11645721
 
          28   0
s              4   1.000000
     34.93540138     -0.01198412
      6.01616520     -0.05472052
      0.48342454      0.58055871
      0.18424506      0.47700799
p              4   1.000000
      5.63075261      0.05713170
      1.45997007      0.28574555
      0.51468463      0.55178731
      0.20490482      0.26323149
s              7   1.000000
      0.38350848     -0.19623085
      0.04707223      0.94811534
      0.02222627      0.24898949
     34.93540138      0.00551554
      6.01616520      0.02518442
      0.48342454     -0.26719471
      0.18424506     -0.21953682
p              7   1.000000
      1.83062075     -0.01161154
      0.10124670      0.57060866
      0.03901771      0.59591599
      5.63075261     -0.02526546
      1.45997007     -0.12636578
      0.51468463     -0.24401792
      0.20490482     -0.11640935
 
          29   0
s              4   1.000000
     35.41565615     -0.01198412
      6.09886904     -0.05472052
      0.49007015      0.58055871
      0.18677786      0.47700799
p              4   1.000000
      5.70815821      0.05713170
      1.48004019      0.28574555
      0.52175997      0.55178730
      0.20772163      0.26323149
s              7   1.000000
      0.38350848     -0.19578870
      0.04707223      0.94597906
      0.02222627      0.24842846
     35.41565615      0.00544406
      6.09886904      0.02485803
      0.49007015     -0.26373186
      0.18677786     -0.21669162
p              7   1.000000
      1.83062075     -0.01158696
      0.10124670      0.56940089
      0.03901771      0.59465465
      5.70815821     -0.02493674
      1.48004019     -0.12472169
      0.52175997     -0.24084311
      0.20772163     -0.11489480
 
          30   0
s              4   1.000000
     35.41508476     -0.01198412
      6.09877064     -0.05472052
      0.49006224      0.58055871
      0.18677485      0.47700800
p              4   1.000000
      5.70806611      0.05713170
      1.48001631      0.28574555
      0.52175155      0.55178730
      0.20771828      0.26323149
s              7   1.000000
      0.38350848     -0.19578922
      0.04707223      0.94598156
      0.02222627      0.24842911
     35.41508476      0.00544414
      6.09877064      0.02485841
      0.49006224     -0.26373593
      0.18677485     -0.21669496
p              7   1.000000
      1.83062075     -0.01158699
      0.10124670      0.56940230
      0.03901771      0.59465611
      5.70806611     -0.02493713
      1.48001631     -0.12472362
      0.52175155     -0.24084684
      0.20771828     -0.11489658
 
          31   0
s              4   1.000000
     34.93546523     -0.01198412
      6.01617619     -0.05472053
      0.48342543      0.58055871
      0.18424540      0.47700799
p              4   1.000000
      5.63076290      0.05713170
      1.45997274      0.28574555
      0.51468557      0.55178731
      0.20490519      0.26323149
s              7   1.000000
      0.38350848     -0.19623079
      0.04707223      0.94811505
      0.02222627      0.24898942
     34.93546523      0.00551553
      6.01617619      0.02518438
      0.48342543     -0.26719424
      0.18424540     -0.21953643
p              7   1.000000
      1.83062075     -0.01161153
      0.10124670      0.57060849
      0.03901771      0.59591583
      5.63076290     -0.02526541
      1.45997274     -0.12636556
      0.51468557     -0.24401749
      0.20490519     -0.11640914
 
          32   0
s              4   1.000000
     34.92046538     -0.01198412
      6.01359309     -0.05472052
      0.48321786      0.58055871
      0.18416629      0.47700800
p              4   1.000000
      5.62834528      0.05713170
      1.45934589      0.28574555
      0.51446458      0.55178731
      0.20481722      0.26323149
s              7   1.000000
      0.38350848     -0.19624486
      0.04707223      0.94818304
      0.02222627      0.24900726
     34.92046538      0.00551779
      6.01359309      0.02519471
      0.48321786     -0.26730383
      0.18416629     -0.21962648
p              7   1.000000
      1.83062075     -0.01161231
      0.10124670      0.57064694
      0.03901771      0.59595596
      5.62834528     -0.02527582
      1.45934589     -0.12641759
      0.51446458     -0.24411796
      0.20481722     -0.11645707
 
          33   0
s              4   1.000000
     34.93313968     -0.01198412
      6.01577571     -0.05472052
      0.48339325      0.58055871
      0.18423313      0.47700800
p              4   1.000000
      5.63038807      0.05713170
      1.45987555      0.28574555
      0.51465131      0.55178731
      0.20489155      0.26323149
s              7   1.000000
      0.38350848     -0.19623297
      0.04707223      0.94812559
      0.02222627      0.24899217
     34.93313968      0.00551588
      6.01577571      0.02518598
      0.48339325     -0.26721123
      0.18423313     -0.21955039
p              7   1.000000
      1.83062075     -0.01161165
      0.10124670      0.57061445
      0.03901771      0.59592202
      5.63038807     -0.02526703
      1.45987555     -0.12637362
      0.51465131     -0.24403306
      0.20489155     -0.11641657
 
          34   0
s              4   1.000000
     34.94072257     -0.01198412
      6.01708155     -0.05472052
      0.48349818      0.58055871
      0.18427312      0.47700799
p              4   1.000000
      5.63161026      0.05713170
      1.46019245      0.28574555
      0.51476302      0.55178731
      0.20493603      0.26323149
s              7   1.000000
      0.38350848     -0.19622586
      0.04707223      0.94809124
      0.02222627      0.24898315
     34.94072257      0.00551473
      6.01708155      0.02518076
      0.48349818     -0.26715585
      0.18427312     -0.21950489
p              7   1.000000
      1.83062075     -0.01161126
      0.10124670      0.57059504
      0.03901771      0.59590175
      5.63161026     -0.02526177
      1.46019245     -0.12634733
      0.51476302     -0.24398230
      0.20493603     -0.11639235
 
          35   0
s              4   1.000000
     35.62952389     -0.01198412
      6.13569884     -0.05472053
      0.49302958      0.58055871
      0.18790578      0.47700800
p              4   1.000000
      5.74262858      0.05713170
      1.48897784      0.28574555
      0.52491077      0.55178731
      0.20897602      0.26323149
s              7   1.000000
      0.38350848     -0.19559690
      0.04707223      0.94505234
      0.02222627      0.24818510
     35.62952389      0.00541280
      6.13569884      0.02471533
      0.49302958     -0.26221792
      0.18790578     -0.21544771
p              7   1.000000
      1.83062075     -0.01157630
      0.10124670      0.56887697
      0.03901771      0.59410749
      5.74262858     -0.02479301
      1.48897784     -0.12400283
      0.52491077     -0.23945496
      0.20897602     -0.11423258
 
          36   0
s              4   1.000000
     35.00726283     -0.01198412
      6.02854033     -0.05472052
      0.48441894      0.58055871
      0.18462405      0.47700799
p              4   1.000000
      5.64233496      0.05713170
      1.46297320      0.28574555
      0.51574332      0.55178731
      0.20532630      0.26323149
s              7   1.000000
      0.38350848     -0.19616366
      0.04707223      0.94779072
      0.02222627      0.24890423
     35.00726283      0.00550472
      6.02854033      0.02513505
      0.48441894     -0.26667090
      0.18462405     -0.21910644
p              7   1.000000
      1.83062075     -0.01160780
      0.10124670      0.57042513
      0.03901771      0.59572431
      5.64233496     -0.02521574
      1.46297320     -0.12611710
      0.51574332     -0.24353771
      0.20532630     -0.11618026
 
          37   0
s              4   1.000000
     35.00476402     -0.01198412
      6.02811002     -0.05472052
      0.48438436      0.58055871
      0.18461087      0.47700800
p              4   1.000000
      5.64193221      0.05713170
      1.46286877      0.28574555
      0.51570651      0.55178731
      0.20531165      0.26323149
s              7   1.000000
      0.38350848     -0.19616599
      0.04707223      0.94780198
      0.02222627      0.24890718
     35.00476402      0.00550510
      6.02811002      0.02513676
      0.48438436     -0.26668908
      0.18461087     -0.21912137
p              7   1.000000
      1.83062075     -0.01160793
      0.10124670      0.57043149
      0.03901771      0.59573094
      5.64193221     -0.02521746
      1.46286877     -0.12612573
      0.51570651     -0.24355437
      0.20531165     -0.11618821
 
          38   0
s              4   1.000000
     35.00443379     -0.01198412
      6.02805315     -0.05472052
      0.48437979      0.58055871
      0.18460913      0.47700799
p              4   1.000000
      5.64187898      0.05713170
      1.46285497      0.28574555
      0.51570165      0.55178731
      0.20530971      0.26323149
s              7   1.000000
      0.38350848     -0.19616630
      0.04707223      0.94780346
      0.02222627      0.24890757
     35.00443379      0.00550515
      6.02805315      0.02513699
      0.48437979     -0.26669148
      0.18460913     -0.21912335
p              7   1.000000
      1.83062075     -0.01160795
      0.10124670      0.57043233
      0.03901771      0.59573183
      5.64187898     -0.02521769
      1.46285497     -0.12612687
      0.51570165     -0.24355657
      0.20530971     -0.11618926
 
          39   0
s              4   1.000000
     35.00717714     -0.01198412
      6.02852558     -0.05472053
      0.48441775      0.58055871
      0.18462360      0.47700799
p              4   1.000000
      5.64232115      0.05713170
      1.46296962      0.28574555
      0.51574206      0.55178731
      0.20532580      0.26323149
s              7   1.000000
      0.38350848     -0.19616374
      0.04707223      0.94779111
      0.02222627      0.24890432
     35.00717714      0.00550474
      6.02852558      0.02513511
      0.48441775     -0.26667152
      0.18462360     -0.21910695
p              7   1.000000
      1.83062075     -0.01160781
      0.10124670      0.57042534
      0.03901771      0.59572455
      5.64232115     -0.02521580
      1.46296962     -0.12611740
      0.51574206     -0.24353828
      0.20532580     -0.11618053
 
          40   0
s              4   1.000000
      8.30887247      0.05675242
      1.52042129      0.26014135
      0.42238968      0.53284611
      0.14018734      0.29162544
s              7   1.000000
      0.92936822     -0.06732852
      0.05643440      0.66945635
      0.02166600      0.51461537
      8.30887247     -0.02902291
      1.52042129     -0.13303503
      0.42238968     -0.27249492
      0.14018734     -0.14913584
p              4   1.000000
      0.64737396      0.05713170
      0.16785440      0.28574555
      0.05917387      0.55178731
      0.02355814      0.26323150
 
          41   0
s              4   1.000000
      8.30893916      0.05675242
      1.52043350      0.26014135
      0.42239307      0.53284611
      0.14018846      0.29162544
s              7   1.000000
      0.92936822     -0.06732844
      0.05643440      0.66945550
      0.02166600      0.51461472
      8.30893916     -0.02902273
      1.52043350     -0.13303421
      0.42239307     -0.27249324
      0.14018846     -0.14913492
p              4   1.000000
      0.64737396      0.05713170
      0.16785440      0.28574555
      0.05917387      0.55178731
      0.02355814      0.26323150
 
          42   0
s              4   1.000000
      8.30920745      0.05675242
      1.52048259      0.26014135
      0.42240671      0.53284611
      0.14019299      0.29162544
s              7   1.000000
      0.92936822     -0.06732809
      0.05643440      0.66945206
      0.02166600      0.51461209
      8.30920745     -0.02902202
      1.52048259     -0.13303092
      0.42240671     -0.27248650
      0.14019299     -0.14913123
p              4   1.000000
      0.64737396      0.05713170
      0.16785440      0.28574555
      0.05917387      0.55178731
      0.02355814      0.26323150
 
          43   0
s              4   1.000000
      8.30886461      0.05675242
      1.52041986      0.26014135
      0.42238928      0.53284611
      0.14018721      0.29162544
s              7   1.000000
      0.92936822     -0.06732853
      0.05643440      0.66945645
      0.02166600      0.51461546
      8.30886461     -0.02902293
      1.52041986     -0.13303512
      0.42238928     -0.27249511
      0.14018721     -0.14913594
p              4   1.000000
      0.64737396      0.05713170
      0.16785440      0.28574555
      0.05917387      0.55178731
      0.02355814      0.26323150
 
          44   0
s              4   1.000000
      8.30886488      0.05675242
      1.52041990      0.26014135
      0.42238930      0.53284611
      0.14018721      0.29162544
s              7   1.000000
      0.92936822     -0.06732853
      0.05643440      0.66945645
      0.02166600      0.51461544
      8.30886488     -0.02902293
      1.52041990     -0.13303512
      0.42238930     -0.27249511
      0.14018721     -0.14913594
p              4   1.000000
      0.64737396      0.05713170
      0.16785440      0.28574555
      0.05917387      0.55178731
      0.02355814      0.26323150
 
          45   0
s              4   1.000000
      8.30887149      0.05675242
      1.52042111      0.26014135
      0.42238963      0.53284611
      0.14018732      0.29162544
s              7   1.000000
      0.92936822     -0.06732852
      0.05643440      0.66945636
      0.02166600      0.51461539
      8.30887149     -0.02902292
      1.52042111     -0.13303504
      0.42238963     -0.27249494
      0.14018732     -0.14913585
p              4   1.000000
      0.64737396      0.05713170
      0.16785440      0.28574555
      0.05917387      0.55178731
      0.02355814      0.26323150
 
          46   0
s              4   1.000000
      8.30893551      0.05675242
      1.52043283      0.26014135
      0.42239289      0.53284611
      0.14018840      0.29162544
s              7   1.000000
      0.92936822     -0.06732844
      0.05643440      0.66945555
      0.02166600      0.51461474
      8.30893551     -0.02902274
      1.52043283     -0.13303425
      0.42239289     -0.27249333
      0.14018840     -0.14913497
p              4   1.000000
      0.64737396      0.05713170
      0.16785440      0.28574555
      0.05917387      0.55178731
      0.02355814      0.26323150
 
          47   0
s              4   1.000000
      8.30919771      0.05675242
      1.52048081      0.26014135
      0.42240622      0.53284611
      0.14019283      0.29162544
s              7   1.000000
      0.92936822     -0.06732810
      0.05643440      0.66945220
      0.02166600      0.51461219
      8.30919771     -0.02902204
      1.52048081     -0.13303104
      0.42240622     -0.27248675
      0.14019283     -0.14913137
p              4   1.000000
      0.64737396      0.05713170
      0.16785440      0.28574555
      0.05917387      0.55178731
      0.02355814      0.26323150
 
          48   0
s              4   1.000000
      8.30948507      0.05675242
      1.52053339      0.26014135
      0.42242083      0.53284611
      0.14019767      0.29162544
s              7   1.000000
      0.92936822     -0.06732773
      0.05643440      0.66944851
      0.02166600      0.51460935
      8.30948507     -0.02902127
      1.52053339     -0.13302751
      0.42242083     -0.27247953
      0.14019767     -0.14912741
p              4   1.000000
      0.64737396      0.05713170
      0.16785440      0.28574555
      0.05917387      0.55178731
      0.02355814      0.26323150
 
          49   0
s              4   1.000000
      8.30915649      0.05675242
      1.52047327      0.26014135
      0.42240412      0.53284611
      0.14019213      0.29162544
s              7   1.000000
      0.92936822     -0.06732816
      0.05643440      0.66945272
      0.02166600      0.51461258
      8.30915649     -0.02902215
      1.52047327     -0.13303154
      0.42240412     -0.27248778
      0.14019213     -0.14913193
p              4   1.000000
      0.64737396      0.05713170
      0.16785440      0.28574555
      0.05917387      0.55178731
      0.02355814      0.26323150
 
          50   0
s              4   1.000000
      8.31535421      0.05675242
      1.52160737      0.26014135
      0.42271919      0.53284611
      0.14029670      0.29162544
s              7   1.000000
      0.92936822     -0.06732019
      0.05643440      0.66937350
      0.02166600      0.51455169
      8.31535421     -0.02900558
      1.52160737     -0.13295559
      0.42271919     -0.27233221
      0.14029670     -0.14904679
p              4   1.000000
      0.64737396      0.05713170
      0.16785440      0.28574555
      0.05917387      0.55178731
      0.02355814      0.26323150
 
          51   0
s              4   1.000000
      8.30915215      0.05675242
      1.52047247      0.26014135
      0.42240390      0.53284611
      0.14019206      0.29162544
s              7   1.000000
      0.92936822     -0.06732816
      0.05643440      0.66945278
      0.02166600      0.51461263
      8.30915215     -0.02902216
      1.52047247     -0.13303160
      0.42240390     -0.27248789
      0.14019206     -0.14913199
p              4   1.000000
      0.64737396      0.05713170
      0.16785440      0.28574555
      0.05917387      0.55178731
      0.02355814      0.26323150
 
          52   0
s              4   1.000000
      8.30948635      0.05675242
      1.52053363      0.26014135
      0.42242089      0.53284611
      0.14019770      0.29162544
s              7   1.000000
      0.92936822     -0.06732773
      0.05643440      0.66944850
      0.02166600      0.51460933
      8.30948635     -0.02902127
      1.52053363     -0.13302750
      0.42242089     -0.27247950
      0.14019770     -0.14912740
p              4   1.000000
      0.64737396      0.05713170
      0.16785440      0.28574555
      0.05917387      0.55178731
      0.02355814      0.26323150
 
          53   0
s              4   1.000000
      8.30919666      0.05675242
      1.52048062      0.26014135
      0.42240617      0.53284611
      0.14019281      0.29162544
s              7   1.000000
      0.92936822     -0.06732810
      0.05643440      0.66945221
      0.02166600      0.51461219
      8.30919666     -0.02902205
      1.52048062     -0.13303105
      0.42240617     -0.27248677
      0.14019281     -0.14913138
p              4   1.000000
      0.64737396      0.05713170
      0.16785440      0.28574555
      0.05917387      0.55178731
      0.02355814      0.26323150
 
          54   0
s              4   1.000000
      8.30894159      0.05675242
      1.52043394      0.26014135
      0.42239320      0.53284611
      0.14018850      0.29162544
s              7   1.000000
      0.92936822     -0.06732843
      0.05643440      0.66945547
      0.02166600      0.51461469
      8.30894159     -0.02902273
      1.52043394     -0.13303418
      0.42239320     -0.27249318
      0.14018850     -0.14913489
p              4   1.000000
      0.64737396      0.05713170
      0.16785440      0.28574555
      0.05917387      0.55178731
      0.02355814      0.26323150
 
          55   0
s              4   1.000000
      8.30887239      0.05675242
      1.52042128      0.26014135
      0.42238968      0.53284611
      0.14018734      0.29162544
s              7   1.000000
      0.92936822     -0.06732852
      0.05643440      0.66945635
      0.02166600      0.51461537
      8.30887239     -0.02902291
      1.52042128     -0.13303503
      0.42238968     -0.27249492
      0.14018734     -0.14913584
p              4   1.000000
      0.64737396      0.05713170
      0.16785440      0.28574555
      0.05917387      0.55178731
      0.02355814      0.26323150
 
          56   0
s              4   1.000000
      8.30886624      0.05675242
      1.52042015      0.26014135
      0.42238937      0.53284611
      0.14018723      0.29162544
s              7   1.000000
      0.92936822     -0.06732853
      0.05643440      0.66945644
      0.02166600      0.51461544
      8.30886624     -0.02902293
      1.52042015     -0.13303510
      0.42238937     -0.27249507
      0.14018723     -0.14913592
p              4   1.000000
      0.64737396      0.05713170
      0.16785440      0.28574555
      0.05917387      0.55178731
      0.02355814      0.26323150
 
          57   0
s              4   1.000000
      8.30886605      0.05675242
      1.52042012      0.26014135
      0.42238936      0.53284611
      0.14018723      0.29162544
s              7   1.000000
      0.92936822     -0.06732853
      0.05643440      0.66945644
      0.02166600      0.51461544
      8.30886605     -0.02902293
      1.52042012     -0.13303510
      0.42238936     -0.27249508
      0.14018723     -0.14913592
p              4   1.000000
      0.64737396      0.05713170
      0.16785440      0.28574555
      0.05917387      0.55178731
      0.02355814      0.26323150
 
          58   0
s              4   1.000000
      8.30887334      0.05675242
      1.52042145      0.26014135
      0.42238973      0.53284611
      0.14018735      0.29162544
s              7   1.000000
      0.92936822     -0.06732852
      0.05643440      0.66945634
      0.02166600      0.51461537
      8.30887334     -0.02902291
      1.52042145     -0.13303502
      0.42238973     -0.27249489
      0.14018735     -0.14913582
p              4   1.000000
      0.64737396      0.05713170
      0.16785440      0.28574555
      0.05917387      0.55178731
      0.02355814      0.26323150
 
          59   0
s              4   1.000000
      8.30893510      0.05675242
      1.52043275      0.26014135
      0.42239287      0.53284611
      0.14018840      0.29162544
s              7   1.000000
      0.92936822     -0.06732844
      0.05643440      0.66945555
      0.02166600      0.51461477
      8.30893510     -0.02902274
      1.52043275     -0.13303426
      0.42239287     -0.27249334
      0.14018840     -0.14913497
p              4   1.000000
      0.64737396      0.05713170
      0.16785440      0.28574555
      0.05917387      0.55178731
      0.02355814      0.26323150
 
          60   0
s              4   1.000000
      8.30921171      0.05675242
      1.52048337      0.26014135
      0.42240693      0.53284611
      0.14019306      0.29162544
s              7   1.000000
      0.92936822     -0.06732808
      0.05643440      0.66945201
      0.02166600      0.51461204
      8.30921171     -0.02902200
      1.52048337     -0.13303087
      0.42240693     -0.27248639
      0.14019306     -0.14913117
p              4   1.000000
      0.64737396      0.05713170
      0.16785440      0.28574555
      0.05917387      0.55178731
      0.02355814      0.26323150
 
          61   0
s              4   1.000000
      8.30956163      0.05675242
      1.52054740      0.26014135
      0.42242472      0.53284611
      0.14019897      0.29162544
s              7   1.000000
      0.92936822     -0.06732763
      0.05643440      0.66944754
      0.02166600      0.51460861
      8.30956163     -0.02902107
      1.52054740     -0.13302658
      0.42242472     -0.27247761
      0.14019897     -0.14912636
p              4   1.000000
      0.64737396      0.05713170
      0.16785440      0.28574555
      0.05917387      0.55178731
      0.02355814      0.26323150
 
          62   0
s              4   1.000000
      8.30987027      0.05675242
      1.52060388      0.26014135
      0.42244041      0.53284611
      0.14020417      0.29162544
s              7   1.000000
      0.92936822     -0.06732724
      0.05643440      0.66944359
      0.02166600      0.51460558
      8.30987027     -0.02902024
      1.52060388     -0.13302279
      0.42244041     -0.27246986
      0.14020417     -0.14912212
p              4   1.000000
      0.64737396      0.05713170
      0.16785440      0.28574555
      0.05917387      0.55178731
      0.02355814      0.26323150
 
          63   0
s              4   1.000000
      8.30988969      0.05675242
      1.52060743      0.26014135
      0.42244139      0.53284611
      0.14020450      0.29162544
s              7   1.000000
      0.92936822     -0.06732721
      0.05643440      0.66944334
      0.02166600      0.51460538
      8.30988969     -0.02902019
      1.52060743     -0.13302255
      0.42244139     -0.27246937
      0.14020450     -0.14912185
p              4   1.000000
      0.64737396      0.05713170
      0.16785440      0.28574555
      0.05917387      0.55178731
      0.02355814      0.26323150
 
          64   0
s              4   1.000000
      8.30955648      0.05675242
      1.52054646      0.26014135
      0.42242446      0.53284611
      0.14019888      0.29162544
s              7   1.000000
      0.92936822     -0.06732764
      0.05643440      0.66944760
      0.02166600      0.51460866
      8.30955648     -0.02902108
      1.52054646     -0.13302664
      0.42242446     -0.27247774
      0.14019888     -0.14912643
p              4   1.000000
      0.64737396      0.05713170
      0.16785440      0.28574555
      0.05917387      0.55178731
      0.02355814      0.26323150
 
 [MO]
 Sym= Hole
 Ene= -0.5118979    
 Spin= Alpha
 Occup= 0
           1  8.1425474E-04
           2  0.1228268    
           3 -7.0794687E-02
           4  0.2879675    
           5 -1.9825785E-04
           6 -4.3743430E-03
           7  2.2084885E-03
           8 -9.0306383E-03
           9 -4.2676464E-05
          10 -1.1625415E-02
          11  7.3715495E-03
          12 -2.8837174E-02
          13  4.3658377E-04
          14 -1.8225120E-03
          15  1.5072426E-03
          16 -1.7538551E-03
          17  1.9445504E-03
          18 -0.1289473    
          19  6.0838923E-02
          20 -0.2782679    
          21 -1.5224335E-03
          22  4.6592453E-03
          23 -1.2269210E-03
          24  1.0818449E-02
          25  3.2315052E-03
          26 -3.9255794E-02
          27  2.5767541E-02
          28 -8.2456358E-02
          29 -3.1589575E-03
          30  7.6805796E-03
          31 -7.0691169E-03
          32  1.5082333E-02
          33  2.0034008E-03
          34 -9.7242363E-02
          35  6.1329495E-02
          36 -0.2347268    
          37 -8.1063743E-04
          38  3.4703719E-03
          39 -4.1380995E-03
          40  1.0725915E-02
          41  1.3584561E-04
          42  6.5573096E-02
          43 -3.8400523E-02
          44  0.1573219    
          45  1.7515791E-05
          46 -4.7128717E-03
          47  2.5375269E-03
          48 -9.8154023E-03
          49 -2.1650840E-03
          50 -0.1001572    
          51  6.2028646E-02
          52 -0.2331774    
          53  7.0501398E-04
          54  5.5053695E-03
          55 -3.9927932E-03
          56  9.9204658E-03
          57 -3.1902244E-05
          58  6.7145064E-02
          59 -3.9390482E-02
          60  0.1564499    
          61 -9.4789302E-06
          62 -3.9049636E-03
          63  2.3233872E-03
          64 -1.0206963E-02
          65 -8.5386314E-04
          66  0.1214941    
          67 -7.0758447E-02
          68  0.2889217    
          69  1.9312774E-04
          70 -3.6176494E-03
          71  2.4047734E-03
          72 -9.3586165E-03
          73  1.2316606E-04
          74 -1.2435085E-02
          75  7.0046443E-03
          76 -2.8342308E-02
          77 -3.5994579E-04
          78  4.7532623E-05
          79  1.3290709E-03
          80 -2.5613010E-03
          81 -1.8740554E-03
          82 -0.1108613    
          83  6.1325889E-02
          84 -0.2856489    
          85  1.4538255E-03
          86  4.5347670E-03
          87 -1.1656951E-03
          88  1.0961510E-02
          89 -2.9271741E-03
          90 -3.2141894E-02
          91  2.5094094E-02
          92 -8.5031047E-02
          93  2.9644514E-03
          94  5.3982507E-03
          95 -6.7250524E-03
          96  1.6091643E-02
          97 -7.1136834E-04
          98  0.1912444    
          99 -0.1193151    
         100  0.4496809    
         101  3.1642610E-04
         102 -1.4961641E-02
         103  5.0006057E-03
         104 -3.5292163E-02
         105  2.2103872E-04
         106 -2.2780448E-02
         107  5.1443655E-02
         108 -5.5131536E-02
         109 -1.6319829E-04
         110  8.9464700E-03
         111 -1.3970492E-02
         112  2.2656184E-02
         113 -3.7826616E-02
         114 -3.2462370E-02
         115  0.1435985    
         116  1.7379992E-02
         117  2.1803411E-02
         118  1.3157821E-02
         119 -1.4247329E-02
         120 -9.0184081E-03
         121  8.9283157E-03
         122  2.1302462E-02
         123 -3.6675170E-02
         124  6.1672707E-03
         125 -2.0432984E-03
         126 -4.6406556E-03
         127  7.6450845E-03
         128 -9.2259154E-04
         129 -9.2156051E-04
         130  1.8545048E-02
         131 -0.1077241    
         132  5.5180628E-02
         133 -1.6930328E-05
         134 -3.3523540E-03
         135  1.1257187E-02
         136 -8.9227948E-03
         137  1.8603650E-03
         138  1.5766540E-03
         139  7.3519230E-02
         140 -4.5450325E-03
         141 -7.7392685E-04
         142  5.0270039E-05
         143 -1.4573679E-02
         144  4.4270949E-03
         145  3.5913000E-03
         146  1.6685151E-03
         147  2.3526905E-02
         148  1.4473834E-02
         149 -3.1264750E-03
         150 -1.3874481E-03
         151  6.8484253E-04
         152 -1.2206910E-03
         153  4.5200698E-03
         154  7.2563407E-03
         155 -2.7200207E-02
         156 -1.1094447E-02
         157 -3.3171836E-03
         158 -1.6252749E-03
         159  4.5039533E-03
         160  1.7412513E-03
         161 -3.5941852E-03
         162  2.0075815E-03
         163 -1.7050274E-02
         164 -5.2243931E-04
         165  1.9567292E-03
         166 -1.0562294E-05
         167 -8.8869878E-05
         168 -9.3541190E-04
         169  4.3571580E-04
         170 -1.8115247E-03
         171  2.4274519E-02
         172  5.0931131E-03
         173 -1.5920177E-04
         174  6.4363790E-05
         175 -4.7797170E-03
         176  3.2412491E-04
         177 -9.7150842E-05
         178 -1.6021585E-02
         179  9.8044453E-03
         180  3.4889348E-02
         181 -4.0424857E-05
         182  4.2594419E-04
         183  1.0622916E-03
         184 -1.8439030E-03
         185 -1.6424458E-03
         186  3.1732391E-03
         187 -1.1740449E-03
         188 -1.2197907E-02
         189  1.3530311E-03
         190  3.3291391E-04
         191  2.7043102E-04
         192  2.8119870E-03
         193  2.7288482E-04
         194  1.0278080E-02
         195 -6.1160605E-03
         196 -2.1880072E-02
         197  2.1487092E-04
         198  3.9995613E-04
         199  1.2731775E-04
         200  6.7878142E-04
         201 -1.9430419E-04
         202 -1.6163893E-04
         203 -2.6581858E-04
         204 -1.0446393E-03
         205  2.3104715E-04
         206  3.3877592E-04
         207 -1.0085519E-04
         208 -4.6770167E-04
         209 -8.0967693E-05
         210 -9.5328782E-03
         211  6.4309365E-03
         212  2.1883130E-02
         213  8.0350997E-05
         214  2.9370168E-04
         215  8.6445631E-05
         216 -3.0310618E-04
         217 -2.0753534E-04
         218 -5.9493822E-03
         219  3.5914441E-03
         220  1.3032555E-02
         221  6.7374953E-05
         222  2.2761765E-04
         223 -1.8792614E-04
         224 -6.7324901E-04
         225  2.8274499E-04
         226  7.7026747E-03
         227 -4.1818107E-03
         228 -1.6486641E-02
         229  7.1001882E-06
         230 -2.8956553E-04
         231 -2.5411686E-05
         232  3.1907541E-05
         233 -4.1034448E-04
         234  6.5021240E-03
         235 -4.3353816E-03
         236 -1.6878139E-02
         237 -3.3357057E-06
         238  1.1475319E-04
         239 -7.7877216E-05
         240  2.2430165E-04
         241  2.2169185E-04
         242 -5.5357479E-03
         243  4.1101514E-03
         244  1.3027090E-02
         245 -1.1607159E-04
         246  3.8235646E-04
         247 -4.9916678E-05
         248 -6.3553016E-04
         249  1.0358589E-04
         250 -9.6202297E-03
         251  5.9871976E-03
         252  2.1911962E-02
         253 -1.2375104E-04
         254  1.5254226E-04
         255 -9.8090713E-05
         256 -3.1265483E-04
         257  2.1534119E-04
         258  6.7034998E-04
         259  2.2100637E-04
         260 -7.2808698E-04
         261 -2.5966272E-04
         262  1.2638095E-06
         263 -2.1619328E-05
         264 -6.2349532E-04
         265 -1.6119627E-04
         266  9.2101637E-03
         267 -6.0760425E-03
         268 -2.2191565E-02
         269 -4.1946862E-04
         270 -1.0496604E-03
         271  8.2703236E-06
         272  3.7932696E-05
         273  1.7293089E-03
         274  7.2184703E-03
         275 -8.1478915E-04
         276 -1.0244333E-02
         277 -1.6172237E-03
         278 -2.3562028E-03
         279  2.5811457E-04
         280  1.5426262E-03
         281  4.4026850E-03
         282 -1.0435992E-03
         283 -1.6572295E-02
         284 -2.2547697E-03
         285 -1.9508373E-03
         286  9.7116904E-04
         287 -7.3241332E-05
         288  2.3819041E-04
         289 -3.5348251E-03
         290  6.4279889E-03
         291 -2.5551394E-02
         292 -1.8238261E-02
         293  1.4491505E-03
         294 -1.8766809E-03
         295  3.5203455E-03
         296  5.1348284E-03
         297 -9.2200805E-03
         298 -1.1743520E-02
         299 -3.3563104E-02
         300  2.2228688E-02
         301  1.9142309E-03
         302  2.1954381E-03
         303  7.7417511E-03
         304 -4.2503946E-03
         305  3.8450837E-02
         306  4.0106978E-02
         307  0.1446432    
         308 -1.8969698E-02
         309 -2.2235455E-02
         310 -1.5429326E-02
         311 -1.3147837E-02
         312  3.8972700E-03
         313 -4.7407777E-04
         314 -1.2909683E-05
         315  5.6445803E-03
         316 -3.2885103E-03
         317  1.2688347E-02
         318 -3.8925251E-03
         319  9.0776558E-04
         320 -1.9836060E-03
         321  1.1076109E-03
         322 -3.9338004E-03
         323  3.5321186E-04
         324 -7.8491977E-04
         325 -3.0718241E-03
         326  3.1654963E-03
         327 -1.5039363E-02
         328 -1.9496479E-03
         329  4.1727535E-04
         330  1.1345313E-03
         331 -9.3957590E-04
         332  3.1653603E-03
         333  1.9755522E-03
         334 -3.6250739E-04
         335  1.5010036E-03
         336 -7.5100025E-04
         337  2.9969341E-03
         338  7.5023825E-04
         339  2.0466994E-05
         340  5.2499999E-03
         341 -3.3516188E-03
         342  1.2869637E-02
         343  3.3008587E-03
         344 -9.1201090E-04
         345 -1.5627661E-03
         346  1.0852946E-03
         347 -4.1592736E-03
         348 -4.7966736E-04
         349  8.5425534E-04
         350 -8.8480702E-03
         351  3.2978465E-03
         352 -1.2711976E-02
         353  1.3574105E-02
         354  4.0755752E-03
         355  1.0173860E-02
         356  3.0816584E-03
         357 -1.2918821E-02
         358 -1.9076727E-02
         359  2.7214638E-03
         360 -2.0486077E-03
         361 -4.5957239E-03
         362  3.5632900E-03
         363 -1.6899852E-02
         364  4.2076362E-03
         365  2.0833099E-03
         366  1.6713275E-02
         367 -4.2026797E-03
         368 -3.1629200E-03
         369 -3.8107007E-04
         370 -1.6749168E-03
         371 -3.8651072E-03
         372 -1.7208142E-03
         373  1.9082318E-03
         374  3.2617000E-04
         375 -5.4468855E-04
         376 -8.3466596E-04
         377 -1.0004339E-03
         378  6.9668796E-04
         379 -3.1877580E-04
         380 -2.0231497E-04
         381 -6.6216075E-04
         382 -6.0886744E-04
         383 -9.1164075E-05
         384  5.2649881E-05
         385  1.3731116E-04
         386  1.7676861E-05
         387 -2.8268190E-05
         388  7.6628356E-05
         389  1.2207156E-04
         390 -2.3447826E-04
         391  7.3237308E-05
         392  6.4704393E-04
         393  5.0125795E-04
         394 -3.2903932E-05
         395 -1.7800192E-04
         396  3.2595816E-04
         397  2.1056664E-04
         398 -4.5085969E-04
         399  1.0557629E-05
         400 -1.6790241E-04
         401  1.5971159E-04
         402  2.5451762E-04
         403  7.8259785E-05
         404 -1.5005491E-04
         405 -3.8846425E-04
         406  1.2033276E-04
         407  5.5221672E-04
         408 -4.5797855E-04
         409 -2.3129005E-04
         410 -4.8622471E-05
         411 -8.1560815E-05
         412 -6.8002948E-05
         413 -7.6591241E-04
         414 -2.8919967E-05
         415  2.3164725E-04
         416 -9.9449104E-04
         417 -3.6344072E-04
         418 -3.7137505E-03
         419  1.6510089E-04
         420  7.9314469E-04
         421 -4.5302432E-04
         422 -9.0819616E-05
         423  1.2579338E-03
         424 -2.6460795E-04
         425 -1.8582620E-03
         426 -3.5009431E-03
         427 -1.3728144E-03
         428  1.9299710E-02
         429 -1.6311801E-03
         430  3.1962367E-03
         431 -3.6116512E-03
         432  4.4032981E-04
         433 -1.2700590E-02
         434 -3.8367438E-03
         435 -1.5950441E-02
         436  3.9124140E-03
         437 -1.4860716E-03
 Sym= Particle
 Ene= -0.5118979    
 Spin= Alpha
 Occup= 2
           1  3.8096593E-06
           2 -2.6330482E-03
           3 -5.3822697E-04
           4 -2.6502428E-03
           5  2.6586140E-05
           6  5.6639279E-04
           7  9.0867112E-04
           8 -7.5827853E-04
           9 -8.4234297E-04
          10  0.1435900    
          11 -7.8313768E-02
          12  0.3259689    
          13 -1.5363705E-04
          14 -3.6002159E-02
          15  1.9548237E-02
          16 -8.2581826E-02
          17  5.1266659E-04
          18 -0.1135468    
          19  5.6363761E-02
          20 -0.2514054    
          21 -1.0534419E-03
          22  3.0099057E-02
          23 -1.3215101E-02
          24  6.3543141E-02
          25 -2.7505190E-03
          26 -5.7417911E-02
          27  3.0075844E-02
          28 -0.1511842    
          29  2.0042951E-03
          30  2.2929246E-02
          31 -1.2460596E-02
          32  6.2794365E-02
          33 -7.2262803E-04
          34  0.1117154    
          35 -7.3786393E-02
          36  0.2764992    
          37  9.6371683E-04
          38 -2.6894009E-02
          39  1.8513255E-02
          40 -6.8117395E-02
          41 -8.7907148E-04
          42 -0.1342266    
          43  7.8426942E-02
          44 -0.3195396    
          45  8.9328678E-04
          46  3.5840064E-02
          47 -2.1140970E-02
          48  8.4622033E-02
          49  7.3124369E-04
          50  0.1206138    
          51 -7.4266091E-02
          52  0.2732488    
          53 -7.8502647E-04
          54 -3.0212654E-02
          55  1.8741123E-02
          56 -6.6691592E-02
          57  6.9479737E-04
          58 -0.1369657    
          59  7.9244688E-02
          60 -0.3197080    
          61 -3.0789990E-04
          62  3.6238264E-02
          63 -2.1410948E-02
          64  8.5032769E-02
          65 -2.0651880E-05
          66 -3.1566760E-05
          67 -7.7833387E-04
          68 -2.8943534E-03
          69  4.4240797E-04
          70 -9.9243887E-04
          71  9.8978775E-04
          72 -3.1465100E-04
          73  6.3099229E-04
          74  0.1349452    
          75 -7.8828447E-02
          76  0.3301202    
          77  6.0198485E-04
          78 -3.4609098E-02
          79  1.9612569E-02
          80 -8.3309859E-02
          81 -1.6037402E-04
          82 -0.1035096    
          83  5.7390362E-02
          84 -0.2574546    
          85  7.4374996E-04
          86  2.5405413E-02
          87 -1.3655277E-02
          88  6.6328682E-02
          89  2.8053469E-03
          90 -6.8477519E-02
          91  3.0074505E-02
          92 -0.1445221    
          93 -1.9976320E-03
          94  2.8968425E-02
          95 -1.2623755E-02
          96  5.9810959E-02
          97 -1.2063190E-04
          98  5.7091944E-02
          99 -3.4365036E-02
         100  0.1348036    
         101  1.2050525E-04
         102 -1.9589035E-02
         103  9.8007163E-03
         104 -4.5331787E-02
         105 -3.6385152E-04
         106  1.1862461E-02
         107 -7.1184114E-02
         108  3.0454325E-02
         109  2.0419393E-04
         110 -5.3452267E-03
         111  2.8728997E-02
         112 -1.2690125E-02
         113 -8.2631204E-03
         114 -7.0228670E-03
         115  6.7170575E-02
         116 -4.3516043E-03
         117  2.8906073E-03
         118  1.0526458E-03
         119 -2.3035096E-02
         120 -1.0966727E-03
         121  2.1693783E-03
         122  1.5352633E-03
         123  2.1206683E-02
         124 -7.6378109E-03
         125 -2.3428360E-03
         126 -1.8750706E-03
         127 -3.1515453E-03
         128  2.3973244E-03
         129 -1.4248834E-03
         130  1.2745025E-02
         131 -7.6141156E-02
         132  3.5812531E-02
         133 -1.0346014E-04
         134 -3.6934654E-03
         135  2.2856325E-02
         136 -1.0653291E-02
         137  2.6998629E-03
         138  1.5141120E-03
         139  3.2641340E-02
         140  8.4899995E-04
         141 -1.7460897E-03
         142  2.5904301E-04
         143 -1.4449921E-02
         144  3.7588198E-03
         145  2.3408828E-03
         146  1.2922899E-03
         147  1.5341304E-02
         148  7.3131155E-03
         149 -3.2404191E-03
         150 -1.3061850E-03
         151 -2.1637133E-03
         152 -7.7591761E-04
         153  1.8999437E-03
         154  3.4022334E-03
         155 -1.5470603E-02
         156 -4.4375993E-03
         157 -2.6196570E-03
         158 -8.7696034E-04
         159  4.0510157E-03
         160  9.1246294E-04
         161 -5.1562442E-04
         162  2.2203625E-04
         163 -8.6881127E-03
         164 -1.8429951E-03
         165 -3.4381860E-04
         166  8.6664176E-04
         167  1.5639851E-03
         168  1.4331911E-04
         169  3.1631198E-04
         170 -3.1618113E-03
         171  1.9255223E-02
         172  6.8104421E-03
         173 -5.0252798E-04
         174  7.0461025E-04
         175 -4.7683069E-03
         176 -1.7797684E-03
         177 -1.6703120E-04
         178 -2.9625443E-03
         179  1.3334325E-03
         180  5.9389859E-03
         181 -6.6666580E-05
         182  8.3289878E-04
         183 -1.8695617E-04
         184 -2.2180656E-03
         185 -1.0333590E-03
         186  3.6209635E-03
         187 -1.6176325E-03
         188 -1.2623607E-02
         189  7.0785958E-04
         190 -1.1955873E-03
         191  7.2233507E-04
         192  4.7464478E-03
         193 -8.4821557E-05
         194  7.1353749E-03
         195 -4.5223772E-03
         196 -1.6145384E-02
         197  1.9089918E-04
         198 -1.5775978E-03
         199  1.1135685E-03
         200  4.2823474E-03
         201 -1.5405455E-04
         202 -1.0769228E-02
         203  6.3963993E-03
         204  2.3249488E-02
         205  1.2454309E-04
         206  2.4534992E-03
         207 -1.3859478E-03
         208 -5.6847958E-03
         209 -1.3606516E-05
         210  6.7096419E-04
         211 -3.0847860E-04
         212 -1.5259238E-03
         213  1.3953894E-04
         214  7.3411611E-06
         215 -1.3875398E-05
         216  1.5325172E-04
         217 -2.3578646E-04
         218  9.8789278E-03
         219 -6.2854616E-03
         220 -2.2870941E-02
         221  2.6168878E-04
         222 -2.6861548E-03
         223  1.7620180E-03
         224  5.9760888E-03
         225  4.7585254E-06
         226 -8.6375289E-03
         227  6.6374470E-03
         228  2.1093724E-02
         229  1.0400241E-04
         230  2.0191639E-03
         231 -1.6874091E-03
         232 -4.9982173E-03
         233 -2.8377874E-05
         234 -1.0084773E-02
         235  6.5690563E-03
         236  2.0401310E-02
         237 -8.4819461E-05
         238  2.5495880E-03
         239 -1.5983538E-03
         240 -4.6575516E-03
         241  1.0329620E-04
         242  1.0429773E-02
         243 -6.2144808E-03
         244 -2.2595890E-02
         245  1.0146707E-04
         246 -2.7167473E-03
         247  1.8389488E-03
         248  6.0992744E-03
         249  2.8240504E-05
         250  5.6419976E-04
         251 -1.7275398E-04
         252 -1.6263920E-03
         253  9.2695416E-05
         254  7.5473152E-05
         255 -1.5156198E-04
         256  2.2748094E-04
         257  2.4136019E-04
         258 -9.9246949E-03
         259  6.3858456E-03
         260  2.3554232E-02
         261 -3.1866341E-05
         262  2.4810797E-03
         263 -1.3074358E-03
         264 -5.7432465E-03
         265 -1.4865836E-04
         266  6.9459314E-03
         267 -4.3466990E-03
         268 -1.6189672E-02
         269 -5.8268961E-05
         270 -1.8997502E-03
         271  9.2829857E-04
         272  4.2387918E-03
         273  1.2809143E-03
         274  6.9650053E-03
         275 -1.4975858E-03
         276 -1.1223103E-02
         277 -1.2442233E-03
         278 -2.9753631E-03
         279  6.2366645E-04
         280  4.0993844E-03
         281  9.2260103E-04
         282  6.2084419E-04
         283 -4.0237056E-03
         284 -3.5495491E-04
         285 -4.6181731E-04
         286 -4.0520134E-04
         287  3.3098686E-04
         288 -1.0119017E-04
         289 -1.2163580E-03
         290  3.2168734E-03
         291 -1.7798385E-02
         292 -9.7059393E-03
         293  5.3583382E-04
         294 -2.0009128E-03
         295  2.7317458E-03
         296  3.9314958E-03
         297 -9.8880567E-04
         298 -4.3166545E-03
         299  1.1643393E-02
         300 -1.4422694E-04
         301  5.8848213E-04
         302  2.1043152E-03
         303 -5.8013090E-04
         304 -7.5602368E-04
         305  8.8650845E-03
         306  2.9932265E-03
         307  7.8617193E-02
         308 -1.5398759E-02
         309 -3.9541544E-03
         310 -2.5927853E-03
         311 -2.6090713E-02
         312  2.2396587E-03
         313 -3.4584742E-04
         314  2.6603765E-04
         315  2.6984580E-04
         316  4.0736664E-04
         317  1.3385862E-04
         318 -6.3867064E-04
         319 -1.4131417E-04
         320  3.1573448E-02
         321 -1.7425649E-02
         322  7.1250200E-02
         323  3.9627517E-04
         324 -2.6807757E-03
         325 -1.7124837E-02
         326  1.0524236E-02
         327 -4.8858881E-02
         328  2.3776349E-03
         329 -4.7773513E-04
         330 -2.7818613E-02
         331  1.6720232E-02
         332 -6.8198934E-02
         333 -2.2082259E-03
         334  7.5297285E-04
         335 -2.9255616E-02
         336  1.6742643E-02
         337 -6.7916133E-02
         338  1.9631123E-04
         339  1.2987094E-04
         340  3.9066766E-05
         341  6.0028915E-04
         342  2.8202898E-04
         343  3.6821168E-04
         344  5.9805048E-04
         345  2.9433792E-02
         346 -1.7332016E-02
         347  7.2328895E-02
         348 -7.0271542E-04
         349  2.8224608E-03
         350 -2.3010181E-02
         351  1.1047084E-02
         352 -4.6935357E-02
         353  1.5912071E-03
         354 -5.0022770E-03
         355 -9.2677344E-03
         356  8.2159252E-04
         357  5.6594552E-04
         358 -5.9263879E-03
         359  2.5669055E-03
         360 -5.7789567E-04
         361  5.9583643E-03
         362 -2.9483312E-03
         363 -1.0865731E-02
         364  3.1272662E-03
         365  1.3850576E-03
         366  1.0613452E-02
         367 -5.2881525E-03
         368 -1.4540463E-03
         369 -5.8181240E-04
         370 -1.8410179E-03
         371 -9.7433745E-04
         372 -1.3118752E-03
         373 -4.1816523E-04
         374 -3.7088327E-04
         375  8.6227828E-04
         376 -8.4464019E-04
         377 -5.1976796E-05
         378  6.3875143E-04
         379 -5.4707564E-04
         380  1.4900983E-03
         381 -1.0117721E-03
         382 -3.0610778E-03
         383  2.0270508E-04
         384  6.8643494E-05
         385 -2.6046482E-03
         386  1.5663415E-03
         387  5.1113535E-03
         388 -1.9287715E-04
         389  4.4817739E-04
         390  1.9814931E-04
         391 -1.2025923E-04
         392 -5.8104866E-05
         393  3.7839822E-04
         394  1.8763093E-04
         395  1.9832754E-03
         396 -1.4060707E-03
         397 -5.1198932E-03
         398 -2.7267169E-04
         399  9.0180467E-05
         400  1.9934305E-03
         401 -1.1733017E-03
         402 -5.0099865E-03
         403  5.5091230E-05
         404  6.8034587E-06
         405  2.1386834E-06
         406 -2.5375548E-04
         407 -2.0658852E-04
         408 -3.7128467E-04
         409  2.3641638E-04
         410 -2.2611571E-03
         411  1.5854854E-03
         412  5.0153984E-03
         413 -2.2183744E-04
         414  3.2027954E-05
         415  1.5096376E-03
         416 -1.3231526E-03
         417 -2.8783069E-03
         418 -1.3650589E-03
         419  3.8851175E-04
         420 -1.1278341E-03
         421  4.6431494E-04
         422 -1.5389106E-04
         423 -7.5638242E-04
         424  2.6980112E-04
         425 -4.5653366E-04
         426 -3.8895048E-03
         427 -2.5259345E-03
         428  5.7010595E-03
         429 -2.5691569E-03
         430 -1.0718680E-03
         431  3.3084785E-03
         432 -1.2415048E-03
         433 -2.0773183E-03
         434  5.3671869E-03
         435  6.9709104E-03
         436  3.2680151E-03
         437 -7.0869438E-03
 Sym= Hole
 Ene= -0.4524364    
 Spin= Alpha
 Occup= 0
           1 -2.1789956E-04
           2 -8.9403167E-03
           3  4.7437996E-03
           4 -2.0234535E-02
           5  1.1401177E-04
           6  3.4260185E-04
           7 -4.1569219E-04
           8  1.0538329E-03
           9 -1.7354645E-04
          10  1.9670560E-03
          11 -9.6481747E-04
          12  3.2098044E-03
          13  1.7365663E-04
          14 -4.7046065E-05
          15 -1.4290071E-04
          16 -2.3679773E-04
          17 -2.0392332E-05
          18  8.9912675E-03
          19 -3.4440134E-03
          20  1.8872678E-02
          21  4.3088052E-04
          22 -1.1362865E-03
          23  1.0759155E-04
          24 -9.1881270E-04
          25 -2.1736061E-03
          26  2.7294566E-03
          27 -3.1108430E-03
          28 -3.1496023E-04
          29  1.8636429E-03
          30 -1.5075536E-03
          31  8.9576055E-04
          32  6.2961277E-04
          33 -3.4418965E-05
          34  6.8766433E-03
          35 -5.4171467E-03
          36  1.8021056E-02
          37  1.3473803E-04
          38 -2.2615369E-04
          39  6.4184342E-04
          40 -1.5789303E-03
          41 -2.0724909E-04
          42 -3.8488158E-03
          43  2.4514601E-03
          44 -9.9385036E-03
          45  7.5059543E-05
          46  4.7443857E-04
          47 -2.1331030E-04
          48  7.7646982E-04
          49 -1.2370849E-04
          50  8.6123431E-03
          51 -5.3767147E-03
          52  1.7383806E-02
          53 -1.0721946E-04
          54 -9.6139556E-04
          55  7.0494460E-04
          56 -1.2595649E-03
          57  2.7485855E-04
          58 -4.6014828E-03
          59  2.0790196E-03
          60 -9.8183677E-03
          61 -1.1618796E-04
          62  1.9150994E-04
          63 -3.0237529E-04
          64  8.8175730E-04
          65  2.2240006E-04
          66 -8.7168794E-03
          67  5.0258273E-03
          68 -2.0460473E-02
          69 -1.4915362E-04
          70  3.8128468E-04
          71 -2.9036458E-04
          72  1.0817031E-03
          73  2.2229832E-04
          74  1.2162728E-03
          75 -1.2273955E-03
          76  3.4999079E-03
          77 -2.1119278E-04
          78  9.7393349E-06
          79 -2.0306326E-04
          80 -2.6129192E-04
          81  1.2808874E-04
          82  7.3766992E-03
          83 -3.6265226E-03
          84  1.9715821E-02
          85 -6.8647956E-04
          86  3.7966843E-04
          87  1.2907910E-04
          88 -1.6037464E-03
          89  2.2918140E-03
          90 -2.6421284E-03
          91 -3.2536797E-03
          92  2.1227614E-03
          93 -2.1643918E-03
          94  1.6384803E-03
          95  7.8218628E-04
          96 -8.1380160E-04
          97 -1.7925586E-04
          98 -1.2444304E-02
          99  8.8880481E-03
         100 -3.1052645E-02
         101 -3.8866976E-05
         102  1.8145517E-03
         103 -1.8975793E-03
         104  3.4272850E-03
         105  4.5405753E-04
         106  5.0067222E-03
         107 -3.3135362E-02
         108  1.4584407E-02
         109 -1.9053370E-04
         110 -1.4177370E-03
         111  7.0393439E-03
         112 -3.1733566E-03
         113  2.0514387E-03
         114  3.0532801E-03
         115 -4.1704802E-03
         116 -3.5849581E-03
         117 -1.3088220E-03
         118 -1.9926776E-03
         119  2.2037320E-03
         120  3.5122188E-04
         121  3.2143935E-03
         122 -1.0359998E-02
         123  3.3820562E-02
         124 -1.3425809E-02
         125 -3.1009358E-03
         126  2.2401810E-03
         127 -5.7479446E-03
         128  2.0328907E-03
         129  4.2947112E-03
         130 -5.4881088E-03
         131 -6.8829483E-03
         132  7.5789616E-03
         133 -3.6266979E-03
         134  2.3699717E-03
         135 -2.5342952E-03
         136  6.1868527E-06
         137  5.9227261E-04
         138 -1.8516901E-03
         139 -8.8017263E-02
         140 -1.2029439E-03
         141 -2.2994667E-04
         142  8.0194586E-06
         143  1.7259290E-02
         144  3.1253891E-03
         145 -1.4364207E-03
         146 -1.9966671E-02
         147  0.1086072    
         148  5.0842300E-02
         149  3.4643139E-04
         150  3.5178172E-03
         151 -1.1868345E-02
         152 -8.5779708E-03
         153  7.9672001E-03
         154 -2.3242967E-02
         155  4.2580388E-02
         156  7.5108791E-03
         157 -1.4438888E-03
         158  5.2115386E-03
         159 -8.3888592E-03
         160 -9.0304279E-04
         161 -3.7421364E-02
         162  3.4837075E-02
         163 -0.1422625    
         164  2.1769360E-02
         165  2.1768106E-02
         166 -1.3546241E-02
         167  1.3899318E-02
         168 -9.3868086E-03
         169 -4.1643766E-04
         170  2.5679290E-02
         171 -5.8920115E-02
         172 -5.4755557E-02
         173  4.6293170E-04
         174 -9.7969603E-03
         175  1.5566570E-02
         176  2.2121923E-02
         177  1.3921738E-03
         178 -0.1945945    
         179  0.1327524    
         180  0.4441369    
         181 -5.4193306E-04
         182  1.5091449E-02
         183 -6.2558353E-03
         184 -3.5280321E-02
         185  3.1354458E-03
         186  3.9799765E-02
         187 -2.7750390E-02
         188 -7.9980083E-02
         189 -2.9360121E-03
         190 -7.8070089E-03
         191  7.1666846E-03
         192  1.4731484E-02
         193  1.7865922E-03
         194  0.1323832    
         195 -6.8889193E-02
         196 -0.2740847    
         197 -1.3654112E-03
         198 -4.9151992E-03
         199  1.4704880E-03
         200  1.0794171E-02
         201 -2.9998891E-05
         202  1.1987610E-02
         203 -8.4211146E-03
         204 -2.8748995E-02
         205  3.9965211E-04
         206  1.7627500E-03
         207 -1.4349050E-03
         208 -1.7049388E-03
         209  7.0362765E-04
         210 -0.1262308    
         211  7.9582348E-02
         212  0.2834568    
         213 -1.7441576E-04
         214  4.5114080E-03
         215 -2.4772419E-03
         216 -8.9909788E-03
         217  7.8264049E-05
         218 -6.7564070E-02
         219  4.3292172E-02
         220  0.1543846    
         221 -3.3197600E-06
         222  4.7433833E-03
         223 -2.8042826E-03
         224 -9.7543588E-03
         225  2.2510455E-03
         226  0.1008798    
         227 -6.8566315E-02
         228 -0.2310150    
         229 -8.4628130E-04
         230 -3.6177433E-03
         231  4.4842334E-03
         232  1.0675621E-02
         233 -1.9643237E-03
         234  0.1043105    
         235 -6.8549931E-02
         236 -0.2291277    
         237  7.3163741E-04
         238 -5.7499390E-03
         239  4.3962784E-03
         240  9.7663673E-03
         241 -2.9114433E-04
         242 -6.9730222E-02
         243  4.3313526E-02
         244  0.1536059    
         245  5.6096127E-05
         246  3.8956234E-03
         247 -2.7072581E-03
         248 -1.0141860E-02
         249 -8.4094651E-04
         250 -0.1252943    
         251  7.8615427E-02
         252  0.2843125    
         253  1.7657496E-04
         254  3.7496462E-03
         255 -2.7648315E-03
         256 -9.2780963E-03
         257  5.3875236E-05
         258  1.2824889E-02
         259 -7.8556202E-03
         260 -2.8510584E-02
         261 -3.2988386E-04
         262 -1.2473436E-04
         263 -1.5719287E-03
         264 -2.4609996E-03
         265 -2.1792962E-03
         266  0.1143089    
         267 -6.9423892E-02
         268 -0.2816942    
         269  1.8249704E-03
         270 -4.5601800E-03
         271  1.5571595E-03
         272  1.0966789E-02
         273 -3.6600784E-03
         274  3.1421967E-02
         275 -2.8387919E-02
         276 -8.2746960E-02
         277  3.7579064E-03
         278 -4.9552321E-03
         279  7.6973150E-03
         280  1.5782338E-02
         281  3.8280230E-02
         282 -3.8293935E-02
         283 -0.1459885    
         284 -1.4032822E-02
         285 -2.2035094E-02
         286  1.5249653E-02
         287  1.3752822E-02
         288  3.4475890E-03
         289 -8.7947007E-03
         290  1.0641200E-02
         291  3.9570592E-02
         292  2.4783215E-02
         293  1.5802643E-03
         294 -1.7041331E-03
         295 -8.5270954E-03
         296 -4.8721498E-03
         297 -2.2254314E-03
         298 -4.7659609E-03
         299  3.1332012E-02
         300 -2.3354927E-02
         301  1.0517238E-03
         302  1.6275953E-03
         303 -4.6115299E-03
         304  5.9528709E-03
         305 -1.1631382E-03
         306 -4.7038822E-03
         307 -4.9480675E-03
         308 -7.5672830E-07
         309  1.2984740E-03
         310  1.2323298E-03
         311  2.1165856E-03
         312 -2.9052590E-04
         313  4.9985840E-05
         314  1.0847091E-04
         315 -5.9789961E-04
         316  4.4050204E-04
         317 -1.2403172E-03
         318  5.7378504E-04
         319 -5.7147263E-05
         320  1.5605896E-04
         321 -1.6880335E-04
         322  5.6644739E-04
         323  7.0142053E-04
         324 -2.0758409E-04
         325  7.0831977E-04
         326  1.7988366E-04
         327  1.5853280E-03
         328  8.3567220E-04
         329 -8.4397143E-05
         330  2.6062119E-06
         331 -1.9040554E-04
         332 -2.4525961E-04
         333 -7.8016042E-04
         334  7.2621369E-05
         335 -6.0885239E-05
         336 -4.6331490E-05
         337 -1.7679203E-04
         338 -1.2407152E-04
         339 -1.7716002E-04
         340 -3.8192488E-04
         341  3.9720154E-04
         342 -1.3624175E-03
         343 -9.1553928E-04
         344 -7.3247444E-05
         345  2.8527720E-04
         346 -9.5830379E-05
         347  5.5218406E-04
         348 -7.0388726E-04
         349 -1.5168797E-04
         350  1.1619949E-03
         351  5.3041347E-04
         352  1.4807017E-03
         353 -8.6538457E-05
         354 -2.3837446E-04
         355 -9.8923862E-04
         356  3.2971488E-04
         357  8.9976826E-04
         358 -4.9283745E-04
         359 -7.3572143E-04
         360  2.0586748E-03
         361  4.5994613E-03
         362 -2.4730205E-03
         363 -1.4264443E-02
         364  3.4082795E-03
         365 -2.5010388E-03
         366 -1.9938232E-02
         367 -2.5286453E-03
         368 -1.8612536E-02
         369  2.8150233E-03
         370  2.3051233E-03
         371  5.4887985E-03
         372  3.7197329E-03
         373  1.3608500E-02
         374  4.0076496E-03
         375 -1.0240310E-02
         376 -3.6773894E-03
         377 -1.2778498E-02
         378  4.9392134E-04
         379 -8.1107731E-04
         380  3.3251822E-03
         381 -3.5843586E-03
         382 -1.4965006E-02
         383 -4.0112045E-03
         384  8.1880786E-04
         385  2.0674649E-03
         386 -1.1817506E-03
         387 -3.9005454E-03
         388 -5.8656011E-04
         389 -8.5096166E-05
         390 -5.8660400E-03
         391  3.7262002E-03
         392  1.2559361E-02
         393 -1.6752301E-03
         394  3.8635422E-04
         395 -1.1643253E-03
         396  1.0006514E-03
         397  3.1174924E-03
         398  2.5040372E-03
         399 -4.0292993E-04
         400 -1.5624980E-03
         401  8.1729190E-04
         402  2.9428261E-03
         403  5.1033095E-04
         404 -1.3115425E-05
         405 -5.4238043E-03
         406  3.7495368E-03
         407  1.2765434E-02
         408  3.3430250E-03
         409 -9.9094841E-04
         410  1.6447011E-03
         411 -1.2575872E-03
         412 -4.1148304E-03
         413 -4.7915422E-05
         414  7.9697365E-04
         415  9.1595743E-03
         416 -3.5214701E-03
         417 -1.2580811E-02
         418 -1.1944741E-02
         419 -3.9250874E-03
         420  1.5977081E-02
         421 -3.6533547E-03
         422 -1.4514562E-03
         423  1.9376369E-02
         424 -1.6411849E-03
         425 -3.0276233E-03
         426  4.0996121E-03
         427  5.2389893E-04
         428 -1.6267772E-03
         429  3.6338737E-05
         430  1.4126219E-03
         431  4.1293600E-03
         432 -1.6600785E-03
         433 -1.9466094E-03
         434  7.9294370E-04
         435  1.5772617E-03
         436 -1.3773385E-04
         437  1.4651367E-04
 Sym= Particle
 Ene= -0.4524364    
 Spin= Alpha
 Occup= 2
           1 -3.2428605E-05
           2 -3.4896255E-04
           3  3.9485886E-04
           4 -1.3792275E-03
           5  1.6482476E-04
           6 -8.8364664E-05
           7 -1.3466470E-04
           8  3.5005837E-04
           9 -3.1643485E-05
          10 -1.0800347E-02
          11  5.8945064E-03
          12 -2.4699343E-02
          13  1.6047386E-04
          14  2.9469368E-03
          15 -1.6669948E-03
          16  6.4923004E-03
          17 -1.6311248E-04
          18  1.0070112E-02
          19 -4.3397523E-03
          20  2.1152973E-02
          21  3.9572848E-04
          22 -3.0783578E-03
          23  1.0107139E-03
          24 -5.1500765E-03
          25 -7.7411445E-04
          26  5.0634430E-03
          27 -3.3930808E-03
          28  9.3254773E-03
          29  5.2975846E-04
          30 -2.3446835E-03
          31  1.3068413E-03
          32 -4.4232816E-03
          33  1.2470923E-04
          34 -8.2149282E-03
          35  4.8602712E-03
          36 -1.9366618E-02
          37 -3.5482350E-05
          38  2.0230061E-03
          39 -1.1980899E-03
          40  4.9767932E-03
          41 -1.2105308E-04
          42  1.0336601E-02
          43 -6.0968203E-03
          44  2.4220563E-02
          45  1.4452619E-04
          46 -2.7248708E-03
          47  1.5664649E-03
          48 -6.5246080E-03
          49 -1.5750308E-04
          50 -7.9890704E-03
          51  4.8970613E-03
          52 -1.9621326E-02
          53  2.0274603E-05
          54  1.9774879E-03
          55 -1.2903396E-03
          56  5.1662712E-03
          57  3.3832628E-05
          58  1.0223708E-02
          59 -6.2129828E-03
          60  2.4551203E-02
          61  1.3098506E-04
          62 -2.7733503E-03
          63  1.4947557E-03
          64 -6.4175241E-03
          65  4.1778367E-05
          66 -6.5308408E-04
          67  3.0135285E-04
          68 -1.4569206E-03
          69  2.5530255E-05
          70  1.0572759E-04
          71 -1.4629821E-05
          72  3.3613609E-04
          73  1.6549052E-04
          74 -1.0435110E-02
          75  5.9492025E-03
          76 -2.5036193E-02
          77 -1.3326491E-04
          78  2.7211991E-03
          79 -1.7962279E-03
          80  6.5554660E-03
          81 -9.1473907E-05
          82  8.7078875E-03
          83 -4.6614907E-03
          84  2.2109594E-02
          85 -2.5270172E-04
          86 -1.8866298E-03
          87  1.2180476E-03
          88 -5.6364723E-03
          89  1.0419757E-03
          90  2.9500271E-03
          91 -3.4014101E-03
          92  9.8621426E-03
          93 -1.1484436E-03
          94 -1.1631584E-03
          95  1.3936557E-03
          96 -4.6581328E-03
          97 -2.0157524E-04
          98 -5.6918184E-03
          99  4.0708408E-03
         100 -1.4396107E-02
         101 -6.2959814E-05
         102  2.1756580E-03
         103 -1.4931199E-03
         104  4.6775215E-03
         105  4.0757784E-04
         106  1.5037154E-03
         107 -1.0854206E-02
         108  3.8688353E-03
         109 -6.2052225E-04
         110 -1.7631859E-05
         111  1.0532022E-03
         112 -2.8329415E-04
         113  8.1887440E-04
         114  8.3827897E-04
         115 -2.3141854E-04
         116 -1.9085873E-03
         117 -9.1111555E-04
         118 -1.2186070E-03
         119  1.6666909E-03
         120  4.9195677E-04
         121  1.6278402E-03
         122 -3.6311515E-03
         123  1.3947792E-02
         124 -4.2196559E-03
         125 -2.5549910E-03
         126  1.1411036E-03
         127 -4.1481191E-03
         128  8.0801378E-04
         129  3.0612806E-03
         130 -3.7749656E-03
         131 -6.2989211E-03
         132  3.8417876E-03
         133 -3.9804070E-03
         134  2.3027721E-03
         135 -5.0499622E-04
         136  3.6996798E-04
         137  2.1359304E-03
         138 -1.8201002E-03
         139 -3.9544839E-02
         140  2.3307004E-03
         141 -1.5102146E-03
         142 -3.8697734E-04
         143  1.7792385E-02
         144  2.8582499E-03
         145 -1.8701700E-03
         146 -1.4678708E-02
         147  8.2549408E-02
         148  3.5381492E-02
         149  1.1137192E-04
         150  4.3827072E-03
         151 -2.5569124E-02
         152 -1.0817634E-02
         153  1.9046564E-03
         154 -1.4892542E-03
         155 -2.1713857E-02
         156 -6.9353068E-03
         157 -2.1477074E-03
         158  2.0899063E-03
         159  3.4719543E-03
         160  2.4230080E-03
         161 -8.1585115E-03
         162  8.7311063E-03
         163 -7.0681207E-02
         164 -3.3981048E-03
         165  2.9804320E-03
         166 -1.7743752E-03
         167  2.4411405E-02
         168 -1.3664068E-03
         169 -8.4919838E-04
         170 -1.3175768E-02
         171  7.7162094E-02
         172  3.0269662E-02
         173  8.2925963E-04
         174  5.7714763E-03
         175 -3.1196324E-02
         176 -1.2804979E-02
         177  7.4654596E-04
         178 -5.8284175E-02
         179  3.8519755E-02
         180  0.1335424    
         181 -3.5062397E-04
         182  2.0135097E-02
         183 -1.0818302E-02
         184 -4.4972971E-02
         185 -3.2636728E-03
         186  5.9349831E-02
         187 -3.4642842E-02
         188 -0.1514106    
         189  2.6071703E-03
         190 -2.3415076E-02
         191  1.4187507E-02
         192  6.3013248E-02
         193  5.0761044E-04
         194  0.1160856    
         195 -6.3598089E-02
         196 -0.2464887    
         197 -9.9224586E-04
         198 -3.0598186E-02
         199  1.5050487E-02
         200  6.2375553E-02
         201 -9.1234775E-04
         202 -0.1480084    
         203  8.8257268E-02
         204  0.3210948    
         205 -1.7581554E-04
         206  3.7133884E-02
         207 -2.1952702E-02
         208 -8.1411302E-02
         209  5.8904596E-05
         210  3.2508634E-03
         211  5.8902886E-05
         212 -3.9877961E-03
         213 -5.4810138E-05
         214 -7.0994702E-04
         215 -7.4369943E-04
         216 -4.3386468E-04
         217 -1.0751931E-03
         218  0.1376437    
         219 -8.7815493E-02
         220 -0.3137143    
         221  1.0159246E-03
         222 -3.6828581E-02
         223  2.3656243E-02
         224  8.3016120E-02
         225 -5.8293942E-04
         226 -0.1153743    
         227  8.2410552E-02
         228  0.2724457    
         229  1.0058640E-03
         230  2.7743801E-02
         231 -2.0792309E-02
         232 -6.7175344E-02
         233  9.0971484E-04
         234 -0.1246793    
         235  8.1875458E-02
         236  0.2690666    
         237 -8.2805823E-04
         238  3.1252936E-02
         239 -2.0480547E-02
         240 -6.5761380E-02
         241  6.6662399E-04
         242  0.1409663    
         243 -8.7785438E-02
         244 -0.3136026    
         245 -2.5989936E-04
         246 -3.7272599E-02
         247  2.3713728E-02
         248  8.3346657E-02
         249 -7.5225558E-05
         250  6.3410011E-04
         251  2.5897592E-04
         252 -4.4082087E-03
         253  4.4675515E-04
         254  8.4224256E-04
         255 -9.3375915E-04
         256  1.2180544E-04
         257  8.1430381E-04
         258 -0.1394797    
         259  8.7923147E-02
         260  0.3255884    
         261  4.5821295E-04
         262  3.5635740E-02
         263 -2.2037590E-02
         264 -8.2237914E-02
         265 -5.3073320E-04
         266  0.1061436    
         267 -6.4393774E-02
         268 -0.2525980    
         269  1.0347029E-03
         270 -2.6134947E-02
         271  1.5430134E-02
         272  6.5049566E-02
         273  2.9617187E-03
         274  7.1409121E-02
         275 -3.4565043E-02
         276 -0.1443932    
         277 -2.0009195E-03
         278 -3.0231209E-02
         279  1.4673348E-02
         280  5.9568316E-02
         281  8.8197496E-03
         282 -1.4126960E-03
         283 -8.2748339E-02
         284 -1.3946313E-02
         285 -3.8276585E-03
         286  2.0405513E-03
         287  2.7633607E-02
         288  1.7073788E-03
         289 -5.7830330E-04
         290  4.8069330E-03
         291 -1.2360093E-02
         292  5.7012046E-04
         293  1.6023939E-04
         294 -2.0344369E-03
         295  1.1035070E-03
         296 -1.0574851E-03
         297 -1.1040424E-03
         298 -2.7650916E-03
         299  1.8162953E-02
         300 -1.1399246E-02
         301  3.0459676E-04
         302  1.9138302E-03
         303 -3.0368315E-03
         304  4.5429869E-03
         305 -3.0193984E-04
         306 -1.1469383E-03
         307 -7.4978569E-03
         308  1.6820567E-03
         309  6.4560159E-06
         310  8.1351877E-04
         311  3.6377062E-03
         312 -3.1058726E-04
         313 -1.2912309E-04
         314  4.2663619E-04
         315 -2.3901883E-04
         316  5.5567609E-05
         317 -3.0713538E-05
         318  3.1406616E-04
         319  1.0472078E-04
         320 -2.1270872E-03
         321  1.2162031E-03
         322 -5.3628692E-03
         323  6.5960950E-04
         324 -1.7473625E-04
         325  1.1017136E-03
         326 -5.6850846E-04
         327  4.1571627E-03
         328  8.2934697E-05
         329  2.5076175E-04
         330  2.1845012E-03
         331 -1.2230815E-03
         332  4.8633418E-03
         333  8.9627183E-06
         334  3.3521083E-06
         335  2.3857106E-03
         336 -1.4583804E-03
         337  4.9679629E-03
         338  2.9825485E-05
         339 -5.1071297E-06
         340  1.2524875E-05
         341  1.7978696E-04
         342 -2.8726598E-04
         343 -4.6651962E-04
         344  1.8321797E-04
         345 -2.2064995E-03
         346  1.1289965E-03
         347 -5.6730248E-03
         348 -2.0142682E-04
         349 -3.3771468E-04
         350  2.0195169E-03
         351 -3.5881778E-04
         352  4.0688105E-03
         353 -8.0690806E-04
         354  4.1173192E-04
         355  4.2437439E-04
         356  9.4538339E-04
         357 -2.4878516E-04
         358 -7.1203458E-04
         359 -1.0506840E-03
         360  2.1323841E-03
         361  1.7797817E-04
         362 -1.1639971E-03
         363 -1.0122036E-02
         364  2.7221218E-03
         365 -1.7930482E-03
         366 -1.3250762E-02
         367 -4.5746188E-03
         368 -5.8738901E-03
         369  2.6831154E-03
         370  1.0677788E-03
         371 -6.5285331E-03
         372 -2.9594502E-03
         373  1.6151116E-03
         374 -5.0187488E-03
         375  9.3786065E-03
         376 -1.5233548E-03
         377  1.6418975E-04
         378  6.1757478E-04
         379 -2.8106049E-03
         380  1.7459888E-02
         381 -1.1968984E-02
         382 -4.7651663E-02
         383 -5.4031721E-04
         384 -1.5740619E-04
         385 -3.2487452E-02
         386  1.9563103E-02
         387  7.0137389E-02
         388 -4.0380409E-04
         389  2.6377491E-04
         390 -2.9491424E-05
         391 -5.3605513E-04
         392 -1.6691723E-04
         393  2.5247394E-03
         394 -5.5995065E-04
         395  2.8478377E-02
         396 -1.8721085E-02
         397 -6.6873223E-02
         398 -2.2870749E-03
         399  7.6803530E-04
         400  3.0090831E-02
         401 -1.8449299E-02
         402 -6.6542350E-02
         403  1.7251367E-04
         404  8.0190344E-05
         405  1.1440423E-04
         406 -7.1178016E-04
         407 -6.5952736E-05
         408  2.2488793E-04
         409  5.3310499E-04
         410 -3.0455908E-02
         411  1.9322861E-02
         412  7.1285777E-02
         413 -5.9514341E-04
         414  2.7906823E-03
         415  2.3744322E-02
         416 -1.2240341E-02
         417 -4.5506950E-02
         418 -1.8652781E-03
         419  5.4479437E-03
         420 -6.9093038E-03
         421 -4.6146978E-03
         422 -7.3912460E-03
         423  5.7599596E-03
         424 -2.6551266E-03
         425  1.2510665E-03
         426 -3.7169419E-03
         427 -1.0820692E-03
         428 -1.7477896E-03
         429  7.1340351E-04
         430  4.9450126E-04
         431  4.0202742E-03
         432 -2.9412608E-03
         433 -1.2006753E-03
         434 -3.7302019E-04
         435  1.4718839E-04
         436 -9.6329977E-04
         437  1.0129843E-03
