 [Molden Format]
 [Atoms] Angs
C       1      6     -6.26225814     -0.16800796      0.57877921
C       2      6     -5.18511701      0.64723961     -0.15947434
C       3      6     -5.82759165      1.80528736     -0.94443298
C       4      6     -4.23105336      1.21746514      0.87244610
C       5      6     -4.70756322      2.12996384      1.80434427
C       6      6     -3.90708715      2.64885595      2.80434618
C       7      6     -2.59327432      2.23023252      2.90000431
C       8      6     -2.09526352      1.32185671      1.98964157
C       9      6     -2.89267003      0.82063949      0.95768716
N      10      7     -2.36332392     -0.08138950      0.03961091
C      11      6     -1.11133674     -0.68153414      0.28964635
C      12      6      0.05358430      0.04219192      0.15046921
C      13      6      1.31285541     -0.51416164      0.42502357
N      14      7      2.44929547      0.23652691      0.36579229
C      15      6      2.54464665      1.51168671     -0.24007839
C      16      6      1.76998010      2.58358691      0.18126686
C      17      6      1.91775238      3.81809085     -0.42499201
C      18      6      2.85744301      3.98393516     -1.42546463
C      19      6      3.67427469      2.92905030     -1.79796170
C      20      6      3.53929601      1.68116571     -1.21007932
C      21      6      4.42454304      0.48538313     -1.52339019
C      22      6      5.67427143      0.87500211     -2.31202029
C      23      6      3.63148534     -0.53524282     -2.36353546
C      24      6      4.76482722     -0.13204499     -0.17721577
C      25      6      6.02559033     -0.55701408      0.20944419
C      26      6      6.23917580     -1.07681699      1.47519488
C      27      6      5.20181216     -1.15868788      2.38643958
C      28      6      3.93675121     -0.74042808      2.02220347
C      29      6      3.71974971     -0.26044596      0.73806014
C      30      6      1.35723303     -1.90732327      0.69488068
C      31      6      2.54359671     -2.67342731      0.70052563
N      32      7      3.41780043     -3.41575523      0.63824477
C      33      6      0.17976355     -2.63618732      0.84448494
C      34      6     -1.05981434     -2.03382828      0.68786788
C      35      6     -2.25400018     -2.75464400      0.89182159
N      36      7     -3.23236940     -3.32367318      1.07781568
C      37      6     -3.12703559     -0.58850352     -1.00881070
C      38      6     -2.51151357     -1.38796899     -1.97509304
C      39      6     -3.23609215     -1.92394179     -3.01822502
C      40      6     -4.58898018     -1.65764812     -3.12133784
C      41      6     -5.18881892     -0.82990170     -2.19145595
C      42      6     -4.48003657     -0.27159721     -1.13621153
H      43      1     -6.99100345     -0.56554557     -0.12241619
H      44      1     -5.79801798     -1.00288057      1.10038699
H      45      1     -6.78409247      0.44757283      1.30681512
H      46      1     -5.05593220      2.38124604     -1.45226679
H      47      1     -6.52249571      1.43144597     -1.69055277
H      48      1     -6.37362682      2.47104314     -0.28250146
H      49      1     -5.73986751      2.44146761      1.75965697
H      50      1     -4.31053232      3.35897642      3.50973797
H      51      1     -1.95386794      2.60306631      3.68650322
H      52      1     -1.07527470      0.98533840      2.09388526
H      53      1     -0.02175659      1.05919314     -0.19818786
H      54      1      1.07580016      2.46572798      0.99948603
H      55      1      1.30790658      4.64840520     -0.10337795
H      56      1      2.97432007      4.94438278     -1.90397032
H      57      1      4.42274909      3.09497189     -2.55519334
H      58      1      5.39613017      1.30165963     -3.27251103
H      59      1      6.27453830      1.59662033     -1.76240864
H      60      1      6.27582934     -0.00765393     -2.51287022
H      61      1      2.70737606     -0.83489796     -1.87763498
H      62      1      3.38243961     -0.10322104     -3.33069390
H      63      1      4.23334115     -1.42747028     -2.52058671
H      64      1      6.85752666     -0.48815661     -0.47208474
H      65      1      7.22744785     -1.40944681      1.75340042
H      66      1      5.37545370     -1.54260058      3.37950439
H      67      1      3.11690714     -0.78636757      2.72454698
H      68      1      0.24136002     -3.68980100      1.07555060
H      69      1     -1.45202907     -1.58908973     -1.91133078
H      70      1     -2.74122721     -2.54746366     -3.74757280
H      71      1     -5.17145731     -2.08247722     -3.92434436
H      72      1     -6.24303445     -0.62149255     -2.29139010
 [GTO]
           1   0
s              4   1.000000
     37.03219327     -0.01198412
      6.37725011     -0.05472052
      0.51243926      0.58055871
      0.19530328      0.47700800
p              4   1.000000
      5.96870540      0.05713170
      1.54759618      0.28574555
      0.54557555      0.55178731
      0.21720302      0.26323149
s              7   1.000000
      0.38350848     -0.19441152
      0.04707223      0.93932500
      0.02222627      0.24668101
     37.03219327      0.00521622
      6.37725011      0.02381770
      0.51243926     -0.25269445
      0.19530328     -0.20762288
p              7   1.000000
      1.83062075     -0.01151041
      0.10124670      0.56563935
      0.03901771      0.59072626
      5.96870540     -0.02388869
      1.54759618     -0.11947983
      0.54557555     -0.23072084
      0.21720302     -0.11006594
 
           2   0
s              4   1.000000
     37.10778156     -0.01198412
      6.39026704     -0.05472052
      0.51348522      0.58055871
      0.19570193      0.47700799
p              4   1.000000
      5.98088843      0.05713170
      1.55075506      0.28574555
      0.54668915      0.55178731
      0.21764637      0.26323149
s              7   1.000000
      0.38350848     -0.19435102
      0.04707223      0.93903270
      0.02222627      0.24660425
     37.10778156      0.00520602
      6.39026704      0.02377113
      0.51348522     -0.25220035
      0.19570193     -0.20721691
p              7   1.000000
      1.83062075     -0.01150705
      0.10124670      0.56547412
      0.03901771      0.59055371
      5.98088843     -0.02384176
      1.55075506     -0.11924512
      0.54668915     -0.23026760
      0.21764637     -0.10984972
 
           3   0
s              4   1.000000
     37.02566115     -0.01198412
      6.37612522     -0.05472052
      0.51234887      0.58055871
      0.19526884      0.47700799
p              4   1.000000
      5.96765258      0.05713170
      1.54732320      0.28574555
      0.54547931      0.55178731
      0.21716471      0.26323149
s              7   1.000000
      0.38350848     -0.19441676
      0.04707223      0.93935034
      0.02222627      0.24668766
     37.02566115      0.00521710
      6.37612522      0.02382173
      0.51234887     -0.25273724
      0.19526884     -0.20765804
p              7   1.000000
      1.83062075     -0.01151070
      0.10124670      0.56565367
      0.03901771      0.59074123
      5.96765258     -0.02389275
      1.54732320     -0.11950015
      0.54547931     -0.23076009
      0.21716471     -0.11008467
 
           4   0
s              4   1.000000
     35.26204273     -0.01198412
      6.07241554     -0.05472053
      0.48794450      0.58055871
      0.18596773      0.47700799
p              4   1.000000
      5.68339939      0.05713170
      1.47362060      0.28574555
      0.51949686      0.55178731
      0.20682065      0.26323149
s              7   1.000000
      0.38350848     -0.19592838
      0.04707223      0.94665395
      0.02222627      0.24860569
     35.26204273      0.00546672
      6.07241554      0.02496152
      0.48794450     -0.26482988
      0.18596773     -0.21759379
p              7   1.000000
      1.83062075     -0.01159472
      0.10124670      0.56978244
      0.03901771      0.59505310
      5.68339939     -0.02504098
      1.47362060     -0.12524303
      0.51949686     -0.24184984
      0.20682065     -0.11537506
 
           5   0
s              4   1.000000
     35.03883055     -0.01198412
      6.03397655     -0.05472052
      0.48485576      0.58055871
      0.18479053      0.47700799
p              4   1.000000
      5.64742292      0.05713170
      1.46429243      0.28574555
      0.51620840      0.55178731
      0.20551146      0.26323149
s              7   1.000000
      0.38350848     -0.19613426
      0.04707223      0.94764867
      0.02222627      0.24886693
     35.03883055      0.00549999
      6.03397655      0.02511342
      0.48485576     -0.26644143
      0.18479053     -0.21891790
p              7   1.000000
      1.83062075     -0.01160617
      0.10124670      0.57034482
      0.03901771      0.59564044
      5.64742292     -0.02519396
      1.46429243     -0.12600816
      0.51620840     -0.24332734
      0.20551146     -0.11607991
 
           6   0
s              4   1.000000
     34.91230232     -0.01198412
      6.01218735     -0.05472052
      0.48310491      0.58055871
      0.18412324      0.47700799
p              4   1.000000
      5.62702959      0.05713170
      1.45900475      0.28574555
      0.51434432      0.55178731
      0.20476934      0.26323149
s              7   1.000000
      0.38350848     -0.19625252
      0.04707223      0.94822007
      0.02222627      0.24901698
     34.91230232      0.00551902
      6.01218735      0.02520033
      0.48310491     -0.26736351
      0.18412324     -0.21967551
p              7   1.000000
      1.83062075     -0.01161274
      0.10124670      0.57066787
      0.03901771      0.59597781
      5.62702959     -0.02528148
      1.45900475     -0.12644592
      0.51434432     -0.24417267
      0.20476934     -0.11648317
 
           7   0
s              4   1.000000
     34.92128663     -0.01198412
      6.01373452     -0.05472052
      0.48322923      0.58055871
      0.18417062      0.47700799
p              4   1.000000
      5.62847765      0.05713170
      1.45938021      0.28574555
      0.51447668      0.55178731
      0.20482203      0.26323149
s              7   1.000000
      0.38350848     -0.19624409
      0.04707223      0.94817930
      0.02222627      0.24900628
     34.92128663      0.00551767
      6.01373452      0.02519414
      0.48322923     -0.26729783
      0.18417062     -0.21962154
p              7   1.000000
      1.83062075     -0.01161227
      0.10124670      0.57064482
      0.03901771      0.59595378
      5.62847765     -0.02527525
      1.45938021     -0.12641474
      0.51447668     -0.24411246
      0.20482203     -0.11645445
 
           8   0
s              4   1.000000
     35.04058852     -0.01198412
      6.03427929     -0.05472052
      0.48488009      0.58055871
      0.18479980      0.47700799
p              4   1.000000
      5.64770626      0.05713170
      1.46436590      0.28574555
      0.51623429      0.55178731
      0.20552177      0.26323149
s              7   1.000000
      0.38350848     -0.19613263
      0.04707223      0.94764077
      0.02222627      0.24886486
     35.04058852      0.00549972
      6.03427929      0.02511222
      0.48488009     -0.26642866
      0.18479980     -0.21890741
p              7   1.000000
      1.83062075     -0.01160608
      0.10124670      0.57034035
      0.03901771      0.59563579
      5.64770626     -0.02519274
      1.46436590     -0.12600210
      0.51623429     -0.24331563
      0.20552177     -0.11607432
 
           9   0
s              4   1.000000
     35.25436366     -0.01198412
      6.07109314     -0.05472053
      0.48783824      0.58055871
      0.18592723      0.47700799
p              4   1.000000
      5.68216171      0.05713170
      1.47329968      0.28574555
      0.51938373      0.55178731
      0.20677561      0.26323149
s              7   1.000000
      0.38350848     -0.19593541
      0.04707223      0.94668788
      0.02222627      0.24861461
     35.25436366      0.00546786
      6.07109314      0.02496672
      0.48783824     -0.26488500
      0.18592723     -0.21763907
p              7   1.000000
      1.83062075     -0.01159511
      0.10124670      0.56980163
      0.03901771      0.59507317
      5.68216171     -0.02504621
      1.47329968     -0.12526920
      0.51938373     -0.24190038
      0.20677561     -0.11539917
 
          10   0
s              4   1.000000
     61.22591874     -0.01198412
     10.54360983     -0.05472052
      0.84722404      0.58055871
      0.32289805      0.47700799
p              4   1.000000
      7.21682002      0.05713170
      1.87121367      0.28574555
      0.65966072      0.55178731
      0.26262230      0.26323149
s              7   1.000000
      0.47894987     -0.18777560
      0.05878681      0.90726268
      0.02775758      0.23826095
     61.22591874      0.00396813
     10.54360983      0.01811884
      0.84722404     -0.19223226
      0.32289805     -0.15794496
p              7   1.000000
      2.28619608     -0.01156532
      0.12644335      0.56833751
      0.04872781      0.59354409
      7.21682002     -0.02464428
      1.87121367     -0.12325896
      0.65966072     -0.23801850
      0.26262230     -0.11354731
 
          11   0
s              4   1.000000
     35.33153932     -0.01198412
      6.08438343     -0.05472052
      0.48890617      0.58055871
      0.18633424      0.47700799
p              4   1.000000
      5.69460058      0.05713170
      1.47652490      0.28574555
      0.52052072      0.55178731
      0.20722827      0.26323149
s              7   1.000000
      0.38350848     -0.19586499
      0.04707223      0.94634765
      0.02222627      0.24852525
     35.33153932      0.00545644
      6.08438343      0.02491460
      0.48890617     -0.26433202
      0.18633424     -0.21718473
p              7   1.000000
      1.83062075     -0.01159120
      0.10124670      0.56960927
      0.03901771      0.59487227
      5.69460058     -0.02499371
      1.47652490     -0.12500665
      0.52052072     -0.24139337
      0.20722827     -0.11515730
 
          12   0
s              4   1.000000
     35.11773371     -0.01198412
      6.04756433     -0.05472052
      0.48594760      0.58055871
      0.18520666      0.47700799
p              4   1.000000
      5.66014023      0.05713170
      1.46758984      0.28574555
      0.51737083      0.55178731
      0.20597424      0.26323149
s              7   1.000000
      0.38350848     -0.19606109
      0.04707223      0.94729513
      0.02222627      0.24877409
     35.11773371      0.00548818
      6.04756433      0.02505952
      0.48594760     -0.26586957
      0.18520666     -0.21844804
p              7   1.000000
      1.83062075     -0.01160210
      0.10124670      0.57014493
      0.03901771      0.59543169
      5.66014023     -0.02513967
      1.46758984     -0.12573666
      0.51737083     -0.24280306
      0.20597424     -0.11582980
 
          13   0
s              4   1.000000
     35.19225343     -0.01198412
      6.06039724     -0.05472052
      0.48697878      0.58055871
      0.18559967      0.47700799
p              4   1.000000
      5.67215102      0.05713170
      1.47070406      0.28574555
      0.51846869      0.55178731
      0.20641132      0.26323149
s              7   1.000000
      0.38350848     -0.19599238
      0.04707223      0.94696314
      0.02222627      0.24868690
     35.19225343      0.00547708
      6.06039724      0.02500882
      0.48697878     -0.26533169
      0.18559967     -0.21800609
p              7   1.000000
      1.83062075     -0.01159828
      0.10124670      0.56995725
      0.03901771      0.59523568
      5.67215102     -0.02508861
      1.47070406     -0.12548128
      0.51846869     -0.24230992
      0.20641132     -0.11559454
 
          14   0
s              4   1.000000
     61.24822399     -0.01198412
     10.54745098     -0.05472052
      0.84753269      0.58055871
      0.32301569      0.47700799
p              4   1.000000
      7.21944919      0.05713170
      1.87189537      0.28574555
      0.65990104      0.55178731
      0.26271798      0.26323149
s              7   1.000000
      0.47894987     -0.18776890
      0.05878681      0.90723030
      0.02775758      0.23825245
     61.24822399      0.00396670
     10.54745098      0.01811229
      0.84753269     -0.19216282
      0.32301569     -0.15788791
p              7   1.000000
      2.28619608     -0.01156468
      0.12644335      0.56830631
      0.04872781      0.59351152
      7.21944919     -0.02463566
      1.87189537     -0.12321582
      0.65990104     -0.23793520
      0.26271798     -0.11350757
 
          15   0
s              4   1.000000
     35.36393164     -0.01198412
      6.08996165     -0.05472052
      0.48935440      0.58055871
      0.18650508      0.47700799
p              4   1.000000
      5.69982145      0.05713170
      1.47787859      0.28574555
      0.52099794      0.55178731
      0.20741826      0.26323149
s              7   1.000000
      0.38350848     -0.19583556
      0.04707223      0.94620544
      0.02222627      0.24848791
     35.36393164      0.00545167
      6.08996165      0.02489278
      0.48935440     -0.26410059
      0.18650508     -0.21699458
p              7   1.000000
      1.83062075     -0.01158956
      0.10124670      0.56952886
      0.03901771      0.59478832
      5.69982145     -0.02497174
      1.47787859     -0.12489677
      0.52099794     -0.24118118
      0.20741826     -0.11505608
 
          16   0
s              4   1.000000
     35.00084580     -0.01198412
      6.02743527     -0.05472053
      0.48433014      0.58055871
      0.18459021      0.47700800
p              4   1.000000
      5.64130069      0.05713170
      1.46270503      0.28574555
      0.51564879      0.55178731
      0.20528867      0.26323149
s              7   1.000000
      0.38350848     -0.19616965
      0.04707223      0.94781962
      0.02222627      0.24891183
     35.00084580      0.00550569
      6.02743527      0.02513945
      0.48433014     -0.26671759
      0.18459021     -0.21914480
p              7   1.000000
      1.83062075     -0.01160813
      0.10124670      0.57044148
      0.03901771      0.59574138
      5.64130069     -0.02522017
      1.46270503     -0.12613927
      0.51564879     -0.24358051
      0.20528867     -0.11620068
 
          17   0
s              4   1.000000
     34.92291429     -0.01198412
      6.01401482     -0.05472052
      0.48325175      0.58055871
      0.18417920      0.47700799
p              4   1.000000
      5.62873999      0.05713170
      1.45944823      0.28574555
      0.51450066      0.55178731
      0.20483158      0.26323149
s              7   1.000000
      0.38350848     -0.19624256
      0.04707223      0.94817193
      0.02222627      0.24900433
     34.92291429      0.00551742
      6.01401482      0.02519302
      0.48325175     -0.26728594
      0.18417920     -0.21961177
p              7   1.000000
      1.83062075     -0.01161219
      0.10124670      0.57064065
      0.03901771      0.59594941
      5.62873999     -0.02527412
      1.45944823     -0.12640909
      0.51450066     -0.24410155
      0.20483158     -0.11644924
 
          18   0
s              4   1.000000
     34.92168174     -0.01198412
      6.01380256     -0.05472053
      0.48323470      0.58055871
      0.18417270      0.47700799
p              4   1.000000
      5.62854133      0.05713170
      1.45939672      0.28574555
      0.51448250      0.55178731
      0.20482435      0.26323149
s              7   1.000000
      0.38350848     -0.19624372
      0.04707223      0.94817751
      0.02222627      0.24900582
     34.92168174      0.00551761
      6.01380256      0.02519387
      0.48323470     -0.26729494
      0.18417270     -0.21961917
p              7   1.000000
      1.83062075     -0.01161225
      0.10124670      0.57064382
      0.03901771      0.59595268
      5.62854133     -0.02527497
      1.45939672     -0.12641337
      0.51448250     -0.24410981
      0.20482435     -0.11645318
 
          19   0
s              4   1.000000
     34.99999237     -0.01198412
      6.02728830     -0.05472052
      0.48431833      0.58055871
      0.18458570      0.47700800
p              4   1.000000
      5.64116313      0.05713170
      1.46266936      0.28574555
      0.51563621      0.55178731
      0.20528366      0.26323149
s              7   1.000000
      0.38350848     -0.19617044
      0.04707223      0.94782347
      0.02222627      0.24891283
     34.99999237      0.00550582
      6.02728830      0.02514004
      0.48431833     -0.26672380
      0.18458570     -0.21914990
p              7   1.000000
      1.83062075     -0.01160818
      0.10124670      0.57044365
      0.03901771      0.59574365
      5.64116313     -0.02522076
      1.46266936     -0.12614222
      0.51563621     -0.24358621
      0.20528366     -0.11620340
 
          20   0
s              4   1.000000
     35.30092873     -0.01198412
      6.07911203     -0.05472053
      0.48848259      0.58055871
      0.18617281      0.47700799
p              4   1.000000
      5.68966689      0.05713170
      1.47524566      0.28574555
      0.52006975      0.55178731
      0.20704873      0.26323149
s              7   1.000000
      0.38350848     -0.19589287
      0.04707223      0.94648237
      0.02222627      0.24856064
     35.30092873      0.00546097
      6.07911203      0.02493525
      0.48848259     -0.26455108
      0.18617281     -0.21736472
p              7   1.000000
      1.83062075     -0.01159275
      0.10124670      0.56968543
      0.03901771      0.59495180
      5.68966689     -0.02501451
      1.47524566     -0.12511066
      0.52006975     -0.24159422
      0.20704873     -0.11525312
 
          21   0
s              4   1.000000
     37.12266798     -0.01198412
      6.39283060     -0.05472052
      0.51369122      0.58055871
      0.19578044      0.47700800
p              4   1.000000
      5.98328776      0.05713170
      1.55137717      0.28574555
      0.54690846      0.55178731
      0.21773368      0.26323149
s              7   1.000000
      0.38350848     -0.19433914
      0.04707223      0.93897531
      0.02222627      0.24658916
     37.12266798      0.00520401
      6.39283060      0.02376198
      0.51369122     -0.25210326
      0.19578044     -0.20713714
p              7   1.000000
      1.83062075     -0.01150639
      0.10124670      0.56544169
      0.03901771      0.59051985
      5.98328776     -0.02383254
      1.55137717     -0.11919900
      0.54690846     -0.23017854
      0.21773368     -0.10980724
 
          22   0
s              4   1.000000
     37.01752127     -0.01198412
      6.37472347     -0.05472052
      0.51223623      0.58055871
      0.19522591      0.47700800
p              4   1.000000
      5.96634062      0.05713170
      1.54698303      0.28574555
      0.54535939      0.55178731
      0.21711697      0.26323149
s              7   1.000000
      0.38350848     -0.19442330
      0.04707223      0.93938192
      0.02222627      0.24669595
     37.01752127      0.00521820
      6.37472347      0.02382676
      0.51223623     -0.25279058
      0.19522591     -0.20770186
p              7   1.000000
      1.83062075     -0.01151107
      0.10124670      0.56567152
      0.03901771      0.59075988
      5.96634062     -0.02389782
      1.54698303     -0.11952549
      0.54535939     -0.23080901
      0.21711697     -0.11010801
 
          23   0
s              4   1.000000
     37.03520529     -0.01198412
      6.37776880     -0.05472052
      0.51248094      0.58055871
      0.19531917      0.47700799
p              4   1.000000
      5.96919086      0.05713170
      1.54772206      0.28574555
      0.54561992      0.55178731
      0.21722069      0.26323149
s              7   1.000000
      0.38350848     -0.19440910
      0.04707223      0.93931332
      0.02222627      0.24667794
     37.03520529      0.00521581
      6.37776880      0.02381584
      0.51248094     -0.25267473
      0.19531917     -0.20760667
p              7   1.000000
      1.83062075     -0.01151028
      0.10124670      0.56563274
      0.03901771      0.59071938
      5.96919086     -0.02388681
      1.54772206     -0.11947046
      0.54561992     -0.23070275
      0.21722069     -0.11005731
 
          24   0
s              4   1.000000
     35.30483988     -0.01198412
      6.07978556     -0.05472052
      0.48853671      0.58055871
      0.18619343      0.47700799
p              4   1.000000
      5.69029727      0.05713170
      1.47540911      0.28574555
      0.52012737      0.55178730
      0.20707167      0.26323149
s              7   1.000000
      0.38350848     -0.19588930
      0.04707223      0.94646514
      0.02222627      0.24855611
     35.30483988      0.00546039
      6.07978556      0.02493261
      0.48853671     -0.26452307
      0.18619343     -0.21734170
p              7   1.000000
      1.83062075     -0.01159255
      0.10124670      0.56967569
      0.03901771      0.59494165
      5.69029727     -0.02501185
      1.47540911     -0.12509736
      0.52012737     -0.24156854
      0.20707167     -0.11524086
 
          25   0
s              4   1.000000
     34.99977283     -0.01198412
      6.02725049     -0.05472052
      0.48431529      0.58055871
      0.18458455      0.47700799
p              4   1.000000
      5.64112775      0.05713170
      1.46266019      0.28574555
      0.51563298      0.55178730
      0.20528237      0.26323149
s              7   1.000000
      0.38350848     -0.19617065
      0.04707223      0.94782447
      0.02222627      0.24891310
     34.99977283      0.00550585
      6.02725049      0.02514019
      0.48431529     -0.26672540
      0.18458455     -0.21915121
p              7   1.000000
      1.83062075     -0.01160819
      0.10124670      0.57044421
      0.03901771      0.59574425
      5.64112775     -0.02522091
      1.46266019     -0.12614298
      0.51563298     -0.24358767
      0.20528237     -0.11620410
 
          26   0
s              4   1.000000
     34.92852547     -0.01198412
      6.01498111     -0.05472052
      0.48332940      0.58055871
      0.18420880      0.47700799
p              4   1.000000
      5.62964437      0.05713170
      1.45968272      0.28574555
      0.51458333      0.55178731
      0.20486449      0.26323149
s              7   1.000000
      0.38350848     -0.19623730
      0.04707223      0.94814650
      0.02222627      0.24899766
     34.92852547      0.00551657
      6.01498111      0.02518915
      0.48332940     -0.26724493
      0.18420880     -0.21957808
p              7   1.000000
      1.83062075     -0.01161189
      0.10124670      0.57062628
      0.03901771      0.59593440
      5.62964437     -0.02527023
      1.45968272     -0.12638963
      0.51458333     -0.24406396
      0.20486449     -0.11643131
 
          27   0
s              4   1.000000
     34.92818427     -0.01198412
      6.01492235     -0.05472052
      0.48332468      0.58055871
      0.18420700      0.47700800
p              4   1.000000
      5.62958938      0.05713170
      1.45966846      0.28574555
      0.51457830      0.55178731
      0.20486249      0.26323149
s              7   1.000000
      0.38350848     -0.19623762
      0.04707223      0.94814804
      0.02222627      0.24899807
     34.92818427      0.00551662
      6.01492235      0.02518939
      0.48332468     -0.26724743
      0.18420700     -0.21958013
p              7   1.000000
      1.83062075     -0.01161191
      0.10124670      0.57062715
      0.03901771      0.59593529
      5.62958938     -0.02527046
      1.45966846     -0.12639081
      0.51457830     -0.24406625
      0.20486249     -0.11643240
 
          28   0
s              4   1.000000
     35.04074247     -0.01198412
      6.03430580     -0.05472053
      0.48488222      0.58055871
      0.18480062      0.47700800
p              4   1.000000
      5.64773108      0.05713170
      1.46437233      0.28574555
      0.51623656      0.55178731
      0.20552267      0.26323149
s              7   1.000000
      0.38350848     -0.19613248
      0.04707223      0.94764008
      0.02222627      0.24886467
     35.04074247      0.00549970
      6.03430580      0.02511211
      0.48488222     -0.26642755
      0.18480062     -0.21890649
p              7   1.000000
      1.83062075     -0.01160607
      0.10124670      0.57033996
      0.03901771      0.59563539
      5.64773108     -0.02519264
      1.46437233     -0.12600157
      0.51623656     -0.24331460
      0.20552267     -0.11607383
 
          29   0
s              4   1.000000
     35.43431180     -0.01198412
      6.10208170     -0.05472052
      0.49032830      0.58055871
      0.18687625      0.47700800
p              4   1.000000
      5.71116506      0.05713170
      1.48081982      0.28574555
      0.52203481      0.55178731
      0.20783105      0.26323149
s              7   1.000000
      0.38350848     -0.19577185
      0.04707223      0.94589763
      0.02222627      0.24840708
     35.43431180      0.00544131
      6.10208170      0.02484552
      0.49032830     -0.26359912
      0.18687625     -0.21658255
p              7   1.000000
      1.83062075     -0.01158602
      0.10124670      0.56935485
      0.03901771      0.59460655
      5.71116506     -0.02492414
      1.48081982     -0.12465866
      0.52203481     -0.24072140
      0.20783105     -0.11483673
 
          30   0
s              4   1.000000
     35.06132504     -0.01198412
      6.03785029     -0.05472052
      0.48516703      0.58055871
      0.18490916      0.47700799
p              4   1.000000
      5.65104849      0.05713170
      1.46523249      0.28574555
      0.51653979      0.55178731
      0.20564339      0.26323149
s              7   1.000000
      0.38350848     -0.19611336
      0.04707223      0.94754766
      0.02222627      0.24884039
     35.06132504      0.00549662
      6.03785029      0.02509803
      0.48516703     -0.26627815
      0.18490916     -0.21878374
p              7   1.000000
      1.83062075     -0.01160500
      0.10124670      0.57028771
      0.03901771      0.59558081
      5.65104849     -0.02517846
      1.46523249     -0.12593064
      0.51653979     -0.24317764
      0.20564339     -0.11600849
 
          31   0
s              4   1.000000
     32.81702177     -0.01198412
      5.65136270     -0.05472052
      0.45411111      0.58055871
      0.17307298      0.47700799
p              4   1.000000
      5.28932039      0.05713170
      1.37144179      0.28574555
      0.48347567      0.55178731
      0.19248000      0.26323149
s              7   1.000000
      0.38350848     -0.19838966
      0.04707223      0.95854592
      0.02222627      0.25172870
     32.81702177      0.00585419
      5.65136270      0.02673075
      0.45411111     -0.28360057
      0.17307298     -0.23301646
p              7   1.000000
      1.83062075     -0.01173155
      0.10124670      0.57650642
      0.03901771      0.60207533
      5.28932039     -0.02682218
      1.37144179     -0.13415178
      0.48347567     -0.25905303
      0.19248000     -0.12358188
 
          32   0
s              4   1.000000
     53.09319685     -0.01198412
      9.14308783     -0.05472052
      0.73468612      0.58055871
      0.28000706      0.47700799
p              4   1.000000
      6.25820002      0.05713170
      1.62265782      0.28574555
      0.57203709      0.55178731
      0.22773782      0.26323149
s              7   1.000000
      0.47894987     -0.19075100
      0.05878681      0.92163875
      0.02775758      0.24203632
     53.09319685      0.00456471
      9.14308783      0.02084285
      0.73468612     -0.22113268
      0.28000706     -0.18169059
p              7   1.000000
      2.28619608     -0.01184570
      0.12644335      0.58211592
      0.04872781      0.60793362
      6.25820002     -0.02823696
      1.62265782     -0.14122784
      0.57203709     -0.27271722
      0.22773782     -0.13010042
 
          33   0
s              4   1.000000
     35.15794973     -0.01198412
      6.05448986     -0.05472052
      0.48650409      0.58055871
      0.18541875      0.47700799
p              4   1.000000
      5.66662209      0.05713170
      1.46927049      0.28574555
      0.51796332      0.55178731
      0.20621012      0.26323149
s              7   1.000000
      0.38350848     -0.19602396
      0.04707223      0.94711573
      0.02222627      0.24872697
     35.15794973      0.00548218
      6.05448986      0.02503213
      0.48650409     -0.26557903
      0.18541875     -0.21820931
p              7   1.000000
      1.83062075     -0.01160004
      0.10124670      0.57004351
      0.03901771      0.59532578
      5.66662209     -0.02511209
      1.46927049     -0.12559872
      0.51796332     -0.24253668
      0.20621012     -0.11570272
 
          34   0
s              4   1.000000
     35.04395891     -0.01198412
      6.03485970     -0.05472053
      0.48492673      0.58055871
      0.18481758      0.47700799
p              4   1.000000
      5.64824949      0.05713170
      1.46450675      0.28574555
      0.51628395      0.55178730
      0.20554154      0.26323149
s              7   1.000000
      0.38350848     -0.19612949
      0.04707223      0.94762562
      0.02222627      0.24886086
     35.04395891      0.00549922
      6.03485970      0.02510991
      0.48492673     -0.26640419
      0.18481758     -0.21888730
p              7   1.000000
      1.83062075     -0.01160590
      0.10124670      0.57033178
      0.03901771      0.59562685
      5.64824949     -0.02519042
      1.46450675     -0.12599048
      0.51628395     -0.24329319
      0.20554154     -0.11606361
 
          35   0
s              4   1.000000
     32.74879871     -0.01198412
      5.63961412     -0.05472052
      0.45316706      0.58055871
      0.17271318      0.47700799
p              4   1.000000
      5.27832446      0.05713170
      1.36859072      0.28574555
      0.48247058      0.55178731
      0.19207985      0.26323149
s              7   1.000000
      0.38350848     -0.19846539
      0.04707223      0.95891182
      0.02222627      0.25182481
     32.74879871      0.00586578
      5.63961412      0.02678368
      0.45316706     -0.28416205
      0.17271318     -0.23347780
p              7   1.000000
      1.83062075     -0.01173576
      0.10124670      0.57671333
      0.03901771      0.60229141
      5.27832446     -0.02687544
      1.36859072     -0.13441816
      0.48247058     -0.25956741
      0.19207985     -0.12382727
 
          36   0
s              4   1.000000
     53.07363979     -0.01198412
      9.13971994     -0.05472053
      0.73441550      0.58055871
      0.27990392      0.47700799
p              4   1.000000
      6.25589479      0.05713170
      1.62206011      0.28574555
      0.57182638      0.55178731
      0.22765394      0.26323149
s              7   1.000000
      0.47894987     -0.19075968
      0.05878681      0.92168066
      0.02775758      0.24204734
     53.07363979      0.00456634
      9.13971994      0.02085033
      0.73441550     -0.22121204
      0.27990392     -0.18175580
p              7   1.000000
      2.28619608     -0.01184652
      0.12644335      0.58215592
      0.04872781      0.60797539
      6.25589479     -0.02824684
      1.62206011     -0.14127726
      0.57182638     -0.27281264
      0.22765394     -0.13014594
 
          37   0
s              4   1.000000
     35.29323369     -0.01198412
      6.07778688     -0.05472052
      0.48837611      0.58055871
      0.18613222      0.47700799
p              4   1.000000
      5.68842663      0.05713170
      1.47492408      0.28574555
      0.51995638      0.55178731
      0.20700360      0.26323149
s              7   1.000000
      0.38350848     -0.19589989
      0.04707223      0.94651627
      0.02222627      0.24856954
     35.29323369      0.00546210
      6.07778688      0.02494044
      0.48837611     -0.26460620
      0.18613222     -0.21741001
p              7   1.000000
      1.83062075     -0.01159314
      0.10124670      0.56970461
      0.03901771      0.59497183
      5.68842663     -0.02501974
      1.47492408     -0.12513683
      0.51995638     -0.24164476
      0.20700360     -0.11527723
 
          38   0
s              4   1.000000
     35.05657467     -0.01198412
      6.03703224     -0.05472052
      0.48510130      0.58055871
      0.18488411      0.47700800
p              4   1.000000
      5.65028285      0.05713170
      1.46503397      0.28574555
      0.51646981      0.55178731
      0.20561553      0.26323149
s              7   1.000000
      0.38350848     -0.19611777
      0.04707223      0.94756897
      0.02222627      0.24884600
     35.05657467      0.00549733
      6.03703224      0.02510128
      0.48510130     -0.26631262
      0.18488411     -0.21881206
p              7   1.000000
      1.83062075     -0.01160525
      0.10124670      0.57029976
      0.03901771      0.59559339
      5.65028285     -0.02518173
      1.46503397     -0.12594700
      0.51646981     -0.24320924
      0.20561553     -0.11602357
 
          39   0
s              4   1.000000
     34.92189974     -0.01198412
      6.01384010     -0.05472052
      0.48323771      0.58055871
      0.18417385      0.47700799
p              4   1.000000
      5.62857647      0.05713170
      1.45940583      0.28574555
      0.51448572      0.55178731
      0.20482563      0.26323149
s              7   1.000000
      0.38350848     -0.19624351
      0.04707223      0.94817653
      0.02222627      0.24900555
     34.92189974      0.00551757
      6.01384010      0.02519372
      0.48323771     -0.26729335
      0.18417385     -0.21961786
p              7   1.000000
      1.83062075     -0.01161224
      0.10124670      0.57064325
      0.03901771      0.59595212
      5.62857647     -0.02527482
      1.45940583     -0.12641261
      0.51448572     -0.24410835
      0.20482563     -0.11645249
 
          40   0
s              4   1.000000
     34.91549261     -0.01198412
      6.01273674     -0.05472053
      0.48314905      0.58055871
      0.18414006      0.47700799
p              4   1.000000
      5.62754379      0.05713170
      1.45913807      0.28574555
      0.51439132      0.55178731
      0.20478805      0.26323149
s              7   1.000000
      0.38350848     -0.19624953
      0.04707223      0.94820559
      0.02222627      0.24901318
     34.91549261      0.00551854
      6.01273674      0.02519813
      0.48314905     -0.26734018
      0.18414006     -0.21965634
p              7   1.000000
      1.83062075     -0.01161257
      0.10124670      0.57065969
      0.03901771      0.59596927
      5.62754379     -0.02527927
      1.45913807     -0.12643485
      0.51439132     -0.24415128
      0.20478805     -0.11647297
 
          41   0
s              4   1.000000
     35.03692357     -0.01198412
      6.03364816     -0.05472052
      0.48482937      0.58055871
      0.18478047      0.47700799
p              4   1.000000
      5.64711556      0.05713170
      1.46421274      0.28574555
      0.51618030      0.55178731
      0.20550027      0.26323149
s              7   1.000000
      0.38350848     -0.19613604
      0.04707223      0.94765724
      0.02222627      0.24886918
     35.03692357      0.00550027
      6.03364816      0.02511473
      0.48482937     -0.26645528
      0.18478047     -0.21892928
p              7   1.000000
      1.83062075     -0.01160627
      0.10124670      0.57034967
      0.03901771      0.59564550
      5.64711556     -0.02519527
      1.46421274     -0.12601474
      0.51618030     -0.24334003
      0.20550027     -0.11608596
 
          42   0
s              4   1.000000
     35.26370338     -0.01198412
      6.07270152     -0.05472052
      0.48796748      0.58055871
      0.18597648      0.47700800
p              4   1.000000
      5.68366705      0.05713170
      1.47368999      0.28574555
      0.51952133      0.55178730
      0.20683039      0.26323149
s              7   1.000000
      0.38350848     -0.19592686
      0.04707223      0.94664660
      0.02222627      0.24860376
     35.26370338      0.00546647
      6.07270152      0.02496040
      0.48796748     -0.26481796
      0.18597648     -0.21758399
p              7   1.000000
      1.83062075     -0.01159464
      0.10124670      0.56977829
      0.03901771      0.59504878
      5.68366705     -0.02503985
      1.47368999     -0.12523737
      0.51952133     -0.24183891
      0.20683039     -0.11536985
 
          43   0
s              4   1.000000
      8.30637636      0.05675242
      1.51996453      0.26014135
      0.42226279      0.53284611
      0.14014522      0.29162544
s              7   1.000000
      0.92936822     -0.06733173
      0.05643440      0.66948830
      0.02166600      0.51463994
      8.30637636     -0.02902959
      1.51996453     -0.13306564
      0.42226279     -0.27255763
      0.14014522     -0.14917016
p              4   1.000000
      0.64737396      0.05713170
      0.16785440      0.28574555
      0.05917387      0.55178731
      0.02355814      0.26323150
 
          44   0
s              4   1.000000
      8.30638649      0.05675242
      1.51996639      0.26014135
      0.42226331      0.53284611
      0.14014540      0.29162544
s              7   1.000000
      0.92936822     -0.06733172
      0.05643440      0.66948817
      0.02166600      0.51463984
      8.30638649     -0.02902957
      1.51996639     -0.13306552
      0.42226331     -0.27255738
      0.14014540     -0.14917002
p              4   1.000000
      0.64737396      0.05713170
      0.16785440      0.28574555
      0.05917387      0.55178731
      0.02355814      0.26323150
 
          45   0
s              4   1.000000
      8.30635511      0.05675242
      1.51996065      0.26014135
      0.42226171      0.53284611
      0.14014487      0.29162544
s              7   1.000000
      0.92936822     -0.06733176
      0.05643440      0.66948857
      0.02166600      0.51464014
      8.30635511     -0.02902965
      1.51996065     -0.13306590
      0.42226171     -0.27255817
      0.14014487     -0.14917045
p              4   1.000000
      0.64737396      0.05713170
      0.16785440      0.28574555
      0.05917387      0.55178731
      0.02355814      0.26323150
 
          46   0
s              4   1.000000
      8.30624887      0.05675242
      1.51994121      0.26014135
      0.42225631      0.53284611
      0.14014307      0.29162544
s              7   1.000000
      0.92936822     -0.06733190
      0.05643440      0.66948993
      0.02166600      0.51464118
      8.30624887     -0.02902993
      1.51994121     -0.13306721
      0.42225631     -0.27256084
      0.14014307     -0.14917191
p              4   1.000000
      0.64737396      0.05713170
      0.16785440      0.28574555
      0.05917387      0.55178731
      0.02355814      0.26323150
 
          47   0
s              4   1.000000
      8.30645892      0.05675242
      1.51997964      0.26014135
      0.42226699      0.53284611
      0.14014662      0.29162544
s              7   1.000000
      0.92936822     -0.06733163
      0.05643440      0.66948724
      0.02166600      0.51463912
      8.30645892     -0.02902937
      1.51997964     -0.13306463
      0.42226699     -0.27255556
      0.14014662     -0.14916902
p              4   1.000000
      0.64737396      0.05713170
      0.16785440      0.28574555
      0.05917387      0.55178731
      0.02355814      0.26323150
 
          48   0
s              4   1.000000
      8.30640721      0.05675242
      1.51997018      0.26014135
      0.42226436      0.53284611
      0.14014574      0.29162544
s              7   1.000000
      0.92936822     -0.06733169
      0.05643440      0.66948791
      0.02166600      0.51463964
      8.30640721     -0.02902951
      1.51997018     -0.13306527
      0.42226436     -0.27255686
      0.14014574     -0.14916974
p              4   1.000000
      0.64737396      0.05713170
      0.16785440      0.28574555
      0.05917387      0.55178731
      0.02355814      0.26323150
 
          49   0
s              4   1.000000
      8.30999811      0.05675242
      1.52062727      0.26014135
      0.42244691      0.53284611
      0.14020633      0.29162544
s              7   1.000000
      0.92936822     -0.06732707
      0.05643440      0.66944196
      0.02166600      0.51460431
      8.30999811     -0.02901990
      1.52062727     -0.13302122
      0.42244691     -0.27246664
      0.14020633     -0.14912036
p              4   1.000000
      0.64737396      0.05713170
      0.16785440      0.28574555
      0.05917387      0.55178731
      0.02355814      0.26323150
 
          50   0
s              4   1.000000
      8.30887007      0.05675242
      1.52042086      0.26014135
      0.42238956      0.53284611
      0.14018730      0.29162544
s              7   1.000000
      0.92936822     -0.06732852
      0.05643440      0.66945639
      0.02166600      0.51461539
      8.30887007     -0.02902292
      1.52042086     -0.13303506
      0.42238956     -0.27249498
      0.14018730     -0.14913587
p              4   1.000000
      0.64737396      0.05713170
      0.16785440      0.28574555
      0.05917387      0.55178731
      0.02355814      0.26323150
 
          51   0
s              4   1.000000
      8.30895724      0.05675242
      1.52043681      0.26014135
      0.42239399      0.53284611
      0.14018877      0.29162544
s              7   1.000000
      0.92936822     -0.06732841
      0.05643440      0.66945527
      0.02166600      0.51461455
      8.30895724     -0.02902269
      1.52043681     -0.13303399
      0.42239399     -0.27249279
      0.14018877     -0.14913467
p              4   1.000000
      0.64737396      0.05713170
      0.16785440      0.28574555
      0.05917387      0.55178731
      0.02355814      0.26323150
 
          52   0
s              4   1.000000
      8.31095873      0.05675242
      1.52080305      0.26014135
      0.42249574      0.53284611
      0.14022254      0.29162544
s              7   1.000000
      0.92936822     -0.06732584
      0.05643440      0.66942967
      0.02166600      0.51459487
      8.31095873     -0.02901733
      1.52080305     -0.13300945
      0.42249574     -0.27244252
      0.14022254     -0.14910716
p              4   1.000000
      0.64737396      0.05713170
      0.16785440      0.28574555
      0.05917387      0.55178731
      0.02355814      0.26323150
 
          53   0
s              4   1.000000
      8.31151009      0.05675242
      1.52090395      0.26014135
      0.42252377      0.53284611
      0.14023184      0.29162544
s              7   1.000000
      0.92936822     -0.06732513
      0.05643440      0.66942263
      0.02166600      0.51458945
      8.31151009     -0.02901586
      1.52090395     -0.13300269
      0.42252377     -0.27242868
      0.14023184     -0.14909959
p              4   1.000000
      0.64737396      0.05713170
      0.16785440      0.28574555
      0.05917387      0.55178731
      0.02355814      0.26323150
 
          54   0
s              4   1.000000
      8.30962184      0.05675242
      1.52055842      0.26014135
      0.42242778      0.53284611
      0.14019998      0.29162544
s              7   1.000000
      0.92936822     -0.06732756
      0.05643440      0.66944677
      0.02166600      0.51460801
      8.30962184     -0.02902091
      1.52055842     -0.13302584
      0.42242778     -0.27247610
      0.14019998     -0.14912553
p              4   1.000000
      0.64737396      0.05713170
      0.16785440      0.28574555
      0.05917387      0.55178731
      0.02355814      0.26323150
 
          55   0
s              4   1.000000
      8.30896238      0.05675242
      1.52043774      0.26014135
      0.42239425      0.53284611
      0.14018886      0.29162544
s              7   1.000000
      0.92936822     -0.06732841
      0.05643440      0.66945520
      0.02166600      0.51461450
      8.30896238     -0.02902267
      1.52043774     -0.13303392
      0.42239425     -0.27249266
      0.14018886     -0.14913460
p              4   1.000000
      0.64737396      0.05713170
      0.16785440      0.28574555
      0.05917387      0.55178731
      0.02355814      0.26323150
 
          56   0
s              4   1.000000
      8.30897099      0.05675242
      1.52043932      0.26014135
      0.42239469      0.53284611
      0.14018900      0.29162544
s              7   1.000000
      0.92936822     -0.06732839
      0.05643440      0.66945509
      0.02166600      0.51461440
      8.30897099     -0.02902265
      1.52043932     -0.13303382
      0.42239469     -0.27249244
      0.14018900     -0.14913448
p              4   1.000000
      0.64737396      0.05713170
      0.16785440      0.28574555
      0.05917387      0.55178731
      0.02355814      0.26323150
 
          57   0
s              4   1.000000
      8.30993733      0.05675242
      1.52061615      0.26014135
      0.42244382      0.53284611
      0.14020531      0.29162544
s              7   1.000000
      0.92936822     -0.06732715
      0.05643440      0.66944273
      0.02166600      0.51460491
      8.30993733     -0.02902006
      1.52061615     -0.13302197
      0.42244382     -0.27246817
      0.14020531     -0.14912120
p              4   1.000000
      0.64737396      0.05713170
      0.16785440      0.28574555
      0.05917387      0.55178731
      0.02355814      0.26323150
 
          58   0
s              4   1.000000
      8.30647062      0.05675242
      1.51998178      0.26014135
      0.42226758      0.53284611
      0.14014682      0.29162544
s              7   1.000000
      0.92936822     -0.06733161
      0.05643440      0.66948710
      0.02166600      0.51463899
      8.30647062     -0.02902934
      1.51998178     -0.13306449
      0.42226758     -0.27255526
      0.14014682     -0.14916886
p              4   1.000000
      0.64737396      0.05713170
      0.16785440      0.28574555
      0.05917387      0.55178731
      0.02355814      0.26323150
 
          59   0
s              4   1.000000
      8.30631053      0.05675242
      1.51995249      0.26014135
      0.42225945      0.53284611
      0.14014411      0.29162544
s              7   1.000000
      0.92936822     -0.06733182
      0.05643440      0.66948914
      0.02166600      0.51464058
      8.30631053     -0.02902977
      1.51995249     -0.13306645
      0.42225945     -0.27255929
      0.14014411     -0.14917106
p              4   1.000000
      0.64737396      0.05713170
      0.16785440      0.28574555
      0.05917387      0.55178731
      0.02355814      0.26323150
 
          60   0
s              4   1.000000
      8.30656364      0.05675242
      1.51999880      0.26014135
      0.42227231      0.53284611
      0.14014838      0.29162544
s              7   1.000000
      0.92936822     -0.06733149
      0.05643440      0.66948590
      0.02166600      0.51463810
      8.30656364     -0.02902909
      1.51999880     -0.13306335
      0.42227231     -0.27255292
      0.14014838     -0.14916758
p              4   1.000000
      0.64737396      0.05713170
      0.16785440      0.28574555
      0.05917387      0.55178731
      0.02355814      0.26323150
 
          61   0
s              4   1.000000
      8.30727683      0.05675242
      1.52012931      0.26014135
      0.42230857      0.53284611
      0.14016042      0.29162544
s              7   1.000000
      0.92936822     -0.06733057
      0.05643440      0.66947677
      0.02166600      0.51463107
      8.30727683     -0.02902718
      1.52012931     -0.13305460
      0.42230857     -0.27253500
      0.14016042     -0.14915777
p              4   1.000000
      0.64737396      0.05713170
      0.16785440      0.28574555
      0.05917387      0.55178731
      0.02355814      0.26323150
 
          62   0
s              4   1.000000
      8.30621862      0.05675242
      1.51993567      0.26014135
      0.42225477      0.53284611
      0.14014256      0.29162544
s              7   1.000000
      0.92936822     -0.06733194
      0.05643440      0.66949032
      0.02166600      0.51464148
      8.30621862     -0.02903001
      1.51993567     -0.13306758
      0.42225477     -0.27256160
      0.14014256     -0.14917233
p              4   1.000000
      0.64737396      0.05713170
      0.16785440      0.28574555
      0.05917387      0.55178731
      0.02355814      0.26323150
 
          63   0
s              4   1.000000
      8.30632865      0.05675242
      1.51995580      0.26014135
      0.42226037      0.53284611
      0.14014442      0.29162544
s              7   1.000000
      0.92936822     -0.06733180
      0.05643440      0.66948891
      0.02166600      0.51464041
      8.30632865     -0.02902972
      1.51995580     -0.13306623
      0.42226037     -0.27255883
      0.14014442     -0.14917081
p              4   1.000000
      0.64737396      0.05713170
      0.16785440      0.28574555
      0.05917387      0.55178731
      0.02355814      0.26323150
 
          64   0
s              4   1.000000
      8.30987035      0.05675242
      1.52060389      0.26014135
      0.42244041      0.53284611
      0.14020417      0.29162544
s              7   1.000000
      0.92936822     -0.06732724
      0.05643440      0.66944359
      0.02166600      0.51460558
      8.30987035     -0.02902024
      1.52060389     -0.13302279
      0.42244041     -0.27246985
      0.14020417     -0.14912212
p              4   1.000000
      0.64737396      0.05713170
      0.16785440      0.28574555
      0.05917387      0.55178731
      0.02355814      0.26323150
 
          65   0
s              4   1.000000
      8.30902964      0.05675242
      1.52045005      0.26014135
      0.42239767      0.53284611
      0.14018999      0.29162544
s              7   1.000000
      0.92936822     -0.06732832
      0.05643440      0.66945434
      0.02166600      0.51461383
      8.30902964     -0.02902249
      1.52045005     -0.13303310
      0.42239767     -0.27249097
      0.14018999     -0.14913367
p              4   1.000000
      0.64737396      0.05713170
      0.16785440      0.28574555
      0.05917387      0.55178731
      0.02355814      0.26323150
 
          66   0
s              4   1.000000
      8.30901208      0.05675242
      1.52044684      0.26014135
      0.42239678      0.53284611
      0.14018970      0.29162544
s              7   1.000000
      0.92936822     -0.06732834
      0.05643440      0.66945457
      0.02166600      0.51461400
      8.30901208     -0.02902254
      1.52044684     -0.13303331
      0.42239678     -0.27249141
      0.14018970     -0.14913391
p              4   1.000000
      0.64737396      0.05713170
      0.16785440      0.28574555
      0.05917387      0.55178731
      0.02355814      0.26323150
 
          67   0
s              4   1.000000
      8.30960318      0.05675242
      1.52055501      0.26014135
      0.42242683      0.53284611
      0.14019967      0.29162544
s              7   1.000000
      0.92936822     -0.06732758
      0.05643440      0.66944701
      0.02166600      0.51460818
      8.30960318     -0.02902096
      1.52055501     -0.13302607
      0.42242683     -0.27247656
      0.14019967     -0.14912579
p              4   1.000000
      0.64737396      0.05713170
      0.16785440      0.28574555
      0.05917387      0.55178731
      0.02355814      0.26323150
 
          68   0
s              4   1.000000
      8.30974935      0.05675242
      1.52058175      0.26014135
      0.42243426      0.53284611
      0.14020213      0.29162544
s              7   1.000000
      0.92936822     -0.06732739
      0.05643440      0.66944513
      0.02166600      0.51460674
      8.30974935     -0.02902057
      1.52058175     -0.13302427
      0.42243426     -0.27247289
      0.14020213     -0.14912378
p              4   1.000000
      0.64737396      0.05713170
      0.16785440      0.28574555
      0.05917387      0.55178731
      0.02355814      0.26323150
 
          69   0
s              4   1.000000
      8.31067673      0.05675242
      1.52075145      0.26014135
      0.42248140      0.53284611
      0.14021778      0.29162544
s              7   1.000000
      0.92936822     -0.06732620
      0.05643440      0.66943328
      0.02166600      0.51459763
      8.31067673     -0.02901809
      1.52075145     -0.13301290
      0.42248140     -0.27244960
      0.14021778     -0.14911104
p              4   1.000000
      0.64737396      0.05713170
      0.16785440      0.28574555
      0.05917387      0.55178731
      0.02355814      0.26323150
 
          70   0
s              4   1.000000
      8.30897730      0.05675242
      1.52044048      0.26014135
      0.42239501      0.53284611
      0.14018911      0.29162544
s              7   1.000000
      0.92936822     -0.06732839
      0.05643440      0.66945501
      0.02166600      0.51461435
      8.30897730     -0.02902263
      1.52044048     -0.13303374
      0.42239501     -0.27249228
      0.14018911     -0.14913439
p              4   1.000000
      0.64737396      0.05713170
      0.16785440      0.28574555
      0.05917387      0.55178731
      0.02355814      0.26323150
 
          71   0
s              4   1.000000
      8.30889509      0.05675242
      1.52042543      0.26014135
      0.42239083      0.53284611
      0.14018772      0.29162543
s              7   1.000000
      0.92936822     -0.06732849
      0.05643440      0.66945606
      0.02166600      0.51461514
      8.30889509     -0.02902285
      1.52042543     -0.13303475
      0.42239083     -0.27249435
      0.14018772     -0.14913552
p              4   1.000000
      0.64737396      0.05713170
      0.16785440      0.28574555
      0.05917387      0.55178731
      0.02355814      0.26323150
 
          72   0
s              4   1.000000
      8.30994151      0.05675242
      1.52061691      0.26014135
      0.42244403      0.53284611
      0.14020538      0.29162544
s              7   1.000000
      0.92936822     -0.06732715
      0.05643440      0.66944268
      0.02166600      0.51460486
      8.30994151     -0.02902005
      1.52061691     -0.13302192
      0.42244403     -0.27246807
      0.14020538     -0.14912114
p              4   1.000000
      0.64737396      0.05713170
      0.16785440      0.28574555
      0.05917387      0.55178731
      0.02355814      0.26323150
 
 [MO]
 Sym= Hole
 Ene= -0.9881947    
 Spin= Alpha
 Occup= 0
           1 -4.6223648E-02
           2 -6.8806678E-02
           3 -4.4961173E-02
           4  4.0641285E-02
           5  2.5189456E-02
           6  9.0764761E-03
           7  5.5280789E-03
           8 -5.3810733E-03
           9 -5.3965539E-04
          10  1.1413904E-02
          11  3.3945441E-02
          12 -2.1577509E-02
          13 -1.0403191E-03
          14 -4.3117600E-03
          15 -5.2938215E-03
          16  2.8698433E-03
          17  4.3951970E-02
          18  4.2339291E-02
          19 -6.3618228E-02
          20  4.1768871E-02
          21 -2.4921058E-02
          22 -6.9154832E-03
          23  8.9856023E-03
          24 -6.1746556E-03
          25  5.3824554E-03
          26 -5.5523414E-02
          27 -0.2117616    
          28  0.1673407    
          29 -1.6774436E-03
          30  3.1382404E-03
          31  1.8562762E-02
          32 -1.5072108E-02
          33 -4.4483030E-03
          34 -1.7467503E-04
          35  1.4205051E-02
          36 -4.6939729E-03
          37  2.6353434E-04
          38 -3.1237402E-03
          39 -2.7475683E-03
          40  3.2953862E-03
          41 -6.0423033E-04
          42  7.1835093E-02
          43  0.1963229    
          44 -0.1563285    
          45 -6.7254330E-04
          46 -6.8639996E-03
          47 -1.2952067E-02
          48  1.1875398E-02
          49  1.5481368E-03
          50  7.1913004E-03
          51  1.4287255E-02
          52 -1.4411757E-02
          53 -1.1220388E-03
          54 -4.1736681E-03
          55 -5.8619254E-03
          56  9.3055554E-03
          57 -1.3073139E-02
          58 -9.2858836E-02
          59 -0.2130687    
          60  0.1799505    
          61  9.5031159E-03
          62  2.9106252E-03
          63  1.1394979E-02
          64 -1.0988243E-02
          65 -9.1235386E-03
          66 -4.5593660E-02
          67 -7.3307835E-02
          68  7.9629555E-02
          69  7.4638999E-03
          70  1.1380231E-02
          71  1.7166169E-02
          72 -2.2509417E-02
          73  3.9572839E-02
          74  0.2344439    
          75  0.4350281    
          76 -0.3392690    
          77 -1.7515512E-02
          78 -2.8850185E-02
          79 -4.5466244E-02
          80  2.7847791E-02
          81 -1.2375196E-02
          82 -6.7205168E-03
          83 -3.5084736E-02
          84  7.2107740E-02
          85  1.5196661E-02
          86 -1.5314912E-03
          87  1.9061858E-02
          88 -1.0601557E-02
          89 -5.2664798E-02
          90  6.2088806E-02
          91  0.1005190    
          92  0.1538127    
          93  3.2833166E-02
          94 -2.1732364E-02
          95 -1.1035383E-04
          96 -1.1418836E-02
          97  1.8634837E-02
          98 -1.5821707E-02
          99  4.7681141E-03
         100  1.4269690E-02
         101 -6.3426420E-03
         102  4.2268210E-03
         103  1.1819083E-04
         104  1.0067504E-04
         105 -1.5563904E-02
         106  2.2148164E-02
         107 -1.2968026E-02
         108 -5.0387911E-02
         109  4.6261949E-03
         110  8.8970968E-04
         111  6.8124983E-04
         112  5.1816790E-03
         113  9.3059335E-04
         114  2.2713612E-03
         115 -1.4689494E-03
         116  1.0274081E-02
         117 -1.9401108E-03
         118  2.1650065E-03
         119  5.9903756E-04
         120 -2.7568587E-03
         121  1.3498069E-03
         122  1.5110164E-02
         123 -8.9388178E-04
         124  3.5933123E-03
         125 -3.1142402E-03
         126  1.9142012E-03
         127  2.8614239E-03
         128  2.3879093E-04
         129  3.4733006E-04
         130  1.2834603E-03
         131 -6.3092026E-05
         132  3.4854393E-03
         133 -5.7048723E-04
         134  1.5500919E-03
         135  2.2371993E-05
         136  3.0268315E-04
         137 -5.6022219E-04
         138 -6.0826624E-03
         139 -3.0364445E-03
         140 -9.1274958E-03
         141  3.1066799E-04
         142  1.3022884E-04
         143  3.1809959E-05
         144  7.3508418E-04
         145  1.9849944E-03
         146 -3.4540633E-03
         147 -4.0147966E-03
         148 -1.4805897E-03
         149 -5.1684154E-04
         150  4.1441101E-05
         151  1.2201371E-04
         152  1.4114111E-04
         153 -4.8616156E-03
         154  1.3066138E-02
         155  5.6437114E-03
         156  2.0384898E-03
         157  2.4569191E-03
         158 -2.3306089E-03
         159 -1.5277745E-03
         160 -3.3343113E-05
         161  1.7309372E-04
         162 -1.6942788E-03
         163 -1.0262880E-03
         164 -7.9848297E-04
         165  7.8850647E-04
         166 -1.6942436E-03
         167 -5.5242534E-04
         168 -3.0841435E-05
         169 -1.6354576E-03
         170  2.9693577E-03
         171  8.4059429E-04
         172 -1.9727021E-03
         173  5.0320133E-04
         174  6.0762519E-05
         175 -1.4716355E-04
         176 -3.0070698E-04
         177  8.6017122E-04
         178  4.9339822E-03
         179  3.5367813E-03
         180  9.4192388E-04
         181 -1.2080713E-04
         182 -2.2745111E-03
         183 -3.5603184E-04
         184  6.0216256E-04
         185 -6.0242857E-03
         186  1.1077923E-02
         187  9.0246908E-03
         188 -1.9471941E-03
         189  2.8395208E-03
         190 -2.0099680E-03
         191 -2.5611371E-04
         192 -2.3427779E-04
         193  2.6665144E-03
         194 -3.8980930E-03
         195  8.1912655E-04
         196 -5.8320677E-04
         197 -1.2122151E-03
         198  1.0275502E-03
         199  6.7114638E-04
         200  1.3303415E-04
         201  1.9612236E-04
         202 -1.5910614E-03
         203 -7.8286128E-03
         204 -4.1186665E-03
         205 -7.0381531E-05
         206  1.0130707E-04
         207  7.6256541E-04
         208  5.2971416E-04
         209 -1.1944140E-03
         210  7.9001853E-04
         211 -1.3599695E-03
         212  7.2893698E-04
         213  8.7293610E-04
         214 -4.4134542E-04
         215 -9.1482754E-05
         216 -4.6246598E-04
         217  4.6005840E-03
         218 -5.3642446E-04
         219  1.2432211E-02
         220 -1.5383230E-03
         221 -2.8855442E-03
         222  1.1837367E-03
         223 -1.8921937E-03
         224  8.1670523E-04
         225  3.7504162E-03
         226 -9.4098253E-03
         227  4.6843765E-03
         228  2.8208415E-03
         229 -1.7192529E-03
         230  6.1245268E-04
         231 -1.0845705E-03
         232 -2.0332369E-03
         233 -4.3708337E-03
         234  2.4405045E-03
         235 -1.7208414E-03
         236 -0.1037537    
         237  2.3486270E-03
         238 -2.0231444E-03
         239 -2.7345065E-03
         240  7.7459551E-03
         241 -2.3971221E-03
         242  1.0287499E-03
         243 -1.4580655E-03
         244 -1.0727031E-02
         245  1.8296610E-03
         246  1.3031623E-03
         247  2.1676617E-03
         248  4.6362236E-04
         249 -8.2818017E-04
         250  5.6363088E-03
         251  2.9359409E-03
         252  5.1025428E-02
         253 -6.3319219E-04
         254  1.6260290E-03
         255 -2.3308776E-04
         256 -1.5302410E-03
         257 -1.5944473E-02
         258  2.4591025E-02
         259 -2.8958708E-02
         260 -3.3639275E-02
         261  6.1804554E-03
         262 -2.4181516E-03
         263  1.6417843E-03
         264  2.2541555E-03
         265  5.6673914E-02
         266 -1.6599981E-02
         267  0.1227895    
         268  4.5471758E-02
         269 -2.7354622E-02
         270  1.4100385E-02
         271 -1.7497327E-02
         272 -3.1954788E-03
         273 -1.1078887E-02
         274 -1.4182069E-02
         275  1.6641037E-03
         276  8.5658766E-03
         277  1.0375292E-03
         278  7.0199817E-03
         279 -1.7370153E-02
         280 -8.7732193E-04
         281  2.6020329E-04
         282  1.8378953E-02
         283 -2.1072501E-02
         284 -2.1014597E-02
         285 -3.0122453E-03
         286 -4.3634749E-03
         287 -2.0467455E-03
         288  2.5931734E-03
         289 -2.8400784E-03
         290 -4.4696134E-02
         291 -0.1067343    
         292  6.7879602E-02
         293  4.0231175E-03
         294  1.4169105E-02
         295  2.5396777E-02
         296 -1.2502645E-02
         297 -6.3412790E-03
         298 -4.5217007E-02
         299 -0.2519773    
         300  0.1514279    
         301  6.0705976E-03
         302  2.8530913E-03
         303  1.6181855E-02
         304 -3.2138207E-03
         305  4.4424867E-04
         306  2.2092494E-03
         307  2.1458937E-02
         308 -1.3107426E-02
         309 -6.4988842E-04
         310 -3.3396550E-03
         311 -9.6578002E-03
         312  3.6280567E-03
         313  1.3147736E-03
         314  5.8549434E-02
         315  0.2118527    
         316 -0.1527864    
         317 -7.1136962E-04
         318 -5.1939371E-03
         319 -1.3779874E-02
         320  9.8463167E-03
         321 -4.5537855E-03
         322  9.1500324E-04
         323  1.5099248E-02
         324 -1.7557107E-02
         325  1.1792113E-03
         326 -1.7714823E-03
         327 -3.8713766E-03
         328  2.7210393E-03
         329  1.2201625E-02
         330 -4.6283919E-02
         331 -0.2202122    
         332  0.1632404    
         333 -5.2663200E-03
         334  2.9007671E-03
         335  1.7754419E-02
         336 -1.5391297E-02
         337  2.3752863E-02
         338  5.7351706E-04
         339 -5.9886635E-03
         340 -6.6110501E-03
         341 -5.5259233E-03
         342  8.6676842E-03
         343  2.3166405E-03
         344  5.5781789E-03
         345 -8.6084176E-03
         346  6.3269730E-03
         347  2.1226937E-02
         348  8.6486421E-04
         349 -3.8875234E-03
         350  3.3083500E-03
         351  9.2610819E-03
         352 -1.0889786E-02
         353 -6.3627786E-03
         354 -1.5147064E-02
         355 -4.7985530E-03
         356  5.2300557E-03
         357 -1.9541502E-02
         358 -1.5212445E-03
         359  5.4713087E-03
         360  1.2915276E-04
         361  8.1412029E-03
         362 -2.1840720E-02
         363 -1.3880945E-03
         364  4.0155812E-03
         365 -8.0013024E-03
         366 -3.5042390E-03
         367  7.3551247E-03
         368 -2.1796648E-03
         369 -3.3729846E-04
         370  2.5240695E-03
         371 -2.6063919E-03
         372 -5.6752133E-06
         373 -6.2606530E-04
         374  6.7502731E-03
         375  1.7945291E-02
         376 -1.4654088E-02
         377  1.8136567E-03
         378 -1.7722771E-03
         379  2.3251658E-03
         380  5.3851223E-03
         381 -2.4862569E-03
         382  3.1286755E-03
         383  2.2603124E-03
         384 -3.6376170E-04
         385 -1.4156611E-02
         386  1.1430764E-02
         387  3.0070335E-02
         388  6.0189352E-03
         389 -2.6056390E-02
         390  5.0414153E-03
         391 -1.2987460E-03
         392 -6.0208500E-03
         393 -2.8080109E-03
         394  5.9023900E-03
         395  1.0294036E-03
         396  8.1589847E-04
         397  2.2746616E-03
         398 -1.4824544E-03
         399  1.3912028E-03
         400  6.3954369E-04
         401  1.4437897E-04
         402  1.2366504E-03
         403 -2.6637569E-04
         404 -8.2632952E-04
         405 -1.6969813E-04
         406 -1.2055758E-03
         407 -2.9109330E-03
         408  2.5939840E-04
         409 -1.7050287E-04
         410  3.3988756E-05
         411 -4.5772543E-04
         412  7.6568272E-04
         413  1.2113033E-05
         414  2.3916858E-04
         415  8.1720409E-06
         416 -4.3759684E-04
         417  1.1257016E-03
         418 -2.7969974E-04
         419  7.6134840E-04
         420  5.4704014E-04
         421  1.0272978E-04
         422  7.7850674E-04
         423 -1.1447899E-04
         424  3.9474430E-04
         425 -3.2668767E-04
         426 -3.8887694E-04
         427 -1.6705521E-03
         428 -7.0548640E-04
         429  5.8163184E-04
         430  8.9596881E-04
         431  3.2538048E-03
         432 -3.1108575E-04
         433  2.0867390E-04
         434  5.2222639E-04
         435 -1.1021427E-03
         436  3.2178545E-04
         437 -2.2202263E-04
         438  4.5423758E-06
         439 -8.1480958E-04
         440  1.1293867E-03
         441 -1.6185737E-03
         442 -3.5249249E-03
         443  1.6040516E-04
         444  9.3528841E-05
         445  3.0585044E-05
         446 -3.3165503E-05
         447  1.4196230E-04
         448 -1.7935991E-04
         449 -1.0649965E-04
         450 -5.2710332E-04
         451 -5.2450737E-04
         452  1.3087246E-03
         453  2.3243407E-04
         454 -1.5037197E-04
         455 -4.2577452E-04
         456 -6.1856926E-04
         457 -2.8221307E-03
         458 -8.1061420E-04
         459  2.7706814E-03
         460  1.0574299E-03
         461  6.4988952E-04
         462  3.7048422E-02
         463 -3.3656806E-03
         464 -3.5121015E-03
         465  2.6623982E-03
         466  3.3059667E-04
         467  7.9476777E-03
         468 -5.8375328E-04
         469 -5.4068076E-03
         470 -1.0539030E-02
         471  1.2335708E-02
         472 -7.2979978E-03
         473 -2.3813838E-04
         474  9.7587530E-04
         475  4.0359134E-03
         476 -4.6623251E-03
         477 -1.5686826E-03
         478 -6.3576859E-05
         479  5.0813463E-03
         480  1.8195376E-02
         481 -1.2454064E-02
         482  4.0004719E-03
         483 -5.7422969E-04
         484  1.2280132E-03
         485  3.0336045E-03
         486 -1.2872124E-03
 Sym= Particle
 Ene= -0.9881947    
 Spin= Alpha
 Occup= 2
           1 -1.1409653E-02
           2 -1.0983190E-02
           3 -8.2533136E-03
           4  4.9214531E-03
           5  1.1029333E-02
           6  4.4696988E-03
           7  1.1160169E-03
           8 -1.1841160E-03
           9  6.8788948E-05
          10  9.0200559E-04
          11  8.0168545E-03
          12  1.4015603E-02
          13  3.7043419E-04
          14 -2.2533133E-03
          15 -5.2593062E-03
          16 -2.0702460E-03
          17  9.0857176E-03
          18  6.6953506E-03
          19 -1.1975198E-02
          20  6.1283037E-03
          21 -7.6424773E-03
          22 -3.7368028E-03
          23  5.8557792E-03
          24  1.7574514E-03
          25  1.6955126E-02
          26  1.9588308E-02
          27 -1.8057965E-02
          28  5.8060037E-03
          29 -7.9600969E-03
          30 -7.6798624E-03
          31  9.7539620E-03
          32 -1.0675616E-03
          33 -1.0269854E-02
          34 -9.8100463E-03
          35 -1.5482085E-02
          36  2.8619459E-02
          37  6.5039368E-03
          38  2.0121904E-03
          39  6.2678456E-03
          40 -5.3407219E-03
          41 -1.7360819E-03
          42  8.5555334E-03
          43  2.4749231E-02
          44 -2.0607064E-02
          45  4.4403742E-03
          46  1.5229253E-03
          47 -4.1771149E-03
          48  4.5278855E-03
          49 -1.2517452E-03
          50  1.0606376E-03
          51  1.0353532E-02
          52 -5.9080380E-03
          53  2.2948575E-03
          54  5.3683915E-03
          55  4.9500282E-05
          56  2.5650035E-03
          57  1.5500899E-03
          58 -1.6881961E-02
          59 -3.1261966E-02
          60  1.7957134E-02
          61  4.0093060E-03
          62  1.0037689E-02
          63  2.4188054E-04
          64 -4.1813683E-03
          65 -4.9958907E-02
          66 -2.1899635E-02
          67  8.3401032E-02
          68  2.4988549E-02
          69  4.4720087E-02
          70  2.4808997E-02
          71 -3.5336234E-02
          72 -7.9620713E-03
          73  1.7311693E-03
          74  1.5219869E-02
          75  2.8171510E-02
          76 -2.1918984E-02
          77  6.5427326E-04
          78 -2.2221429E-03
          79  3.5250506E-03
          80  1.8594578E-02
          81  5.4778969E-03
          82 -3.2740775E-02
          83  0.1751883    
          84  0.5786228    
          85 -2.7205073E-03
          86  1.1311031E-02
          87 -5.9766971E-02
          88 -0.2188047    
          89 -3.1088181E-03
          90  3.1503543E-02
          91 -0.1040806    
          92 -0.2996269    
          93  3.9997171E-03
          94 -1.1745822E-02
          95  4.3319013E-02
          96  9.5213510E-02
          97 -4.4427523E-03
          98  3.0367929E-02
          99 -5.2510381E-02
         100 -0.2749380    
         101  6.8054842E-03
         102 -5.8058826E-03
         103  1.6724464E-02
         104  8.1106827E-02
         105  8.5632382E-03
         106 -2.7562948E-02
         107  6.1551083E-02
         108  0.1547424    
         109 -2.9029993E-03
         110  1.2904340E-02
         111 -1.5397149E-02
         112 -4.7095548E-02
         113 -1.1004906E-02
         114  2.7121585E-02
         115  2.5091887E-02
         116  1.4244675E-02
         117  1.2478068E-02
         118 -1.3564631E-02
         119 -9.7572189E-03
         120 -5.3193962E-04
         121 -5.3467583E-03
         122 -5.1374357E-02
         123 -2.7014858E-03
         124 -2.5355825E-02
         125  6.4888122E-03
         126  1.4630235E-02
         127 -4.8713419E-03
         128  5.1137954E-03
         129 -4.9986389E-05
         130 -5.4521575E-03
         131 -9.3821285E-04
         132 -8.0926456E-03
         133  1.2011403E-03
         134 -2.9895946E-03
         135 -9.8067359E-04
         136  1.3883327E-03
         137  8.9033082E-04
         138  3.2654814E-02
         139  1.4300422E-02
         140  3.8256470E-02
         141 -5.2124746E-05
         142 -3.9672046E-03
         143 -1.9562291E-03
         144 -7.3275045E-03
         145 -6.2241280E-03
         146 -7.2706677E-03
         147  5.3188647E-03
         148 -1.1287403E-02
         149  3.4484568E-03
         150  1.6179944E-03
         151 -2.1223547E-03
         152  1.1596932E-03
         153  1.6590735E-02
         154 -4.3755833E-02
         155 -2.1096680E-02
         156 -1.9167669E-02
         157 -9.1322530E-03
         158  9.2881033E-03
         159  8.8501042E-03
         160  1.8329876E-03
         161  3.8183073E-04
         162 -9.3738298E-04
         163  2.4682880E-04
         164 -1.5135995E-03
         165 -2.2644354E-03
         166  6.2608556E-03
         167 -2.5497618E-04
         168 -2.5397772E-03
         169  4.2289142E-03
         170 -6.2772860E-03
         171 -9.5864362E-04
         172  5.3826785E-03
         173 -2.4744486E-03
         174  7.3120301E-04
         175 -3.3811590E-04
         176 -7.1623374E-04
         177 -8.4356694E-03
         178 -1.1441338E-02
         179 -1.1577955E-02
         180 -7.1315188E-03
         181  6.0986332E-03
         182  9.7074388E-03
         183  2.3857616E-03
         184 -2.6994790E-03
         185  1.4065667E-02
         186 -2.5461527E-02
         187 -4.5528270E-02
         188 -1.0073536E-02
         189 -9.5742680E-03
         190  1.3551721E-02
         191  6.7968634E-03
         192  5.1239920E-03
         193 -4.4624116E-03
         194  2.5233673E-03
         195 -1.3771883E-02
         196 -2.3443748E-03
         197  2.9302887E-03
         198 -2.4736400E-03
         199 -2.5333958E-03
         200  1.0238936E-04
         201  4.9341249E-04
         202  9.3236491E-03
         203  4.2954147E-02
         204  1.7706299E-02
         205 -2.2207308E-03
         206  7.5394328E-04
         207 -5.4372987E-03
         208 -3.0857634E-03
         209  5.8881794E-03
         210 -7.2728922E-03
         211 -2.5363851E-03
         212 -2.8390433E-03
         213 -6.8862922E-03
         214  4.4862907E-03
         215  7.3438301E-03
         216  4.6592844E-03
         217 -1.4810530E-02
         218 -1.1248583E-03
         219 -5.6322064E-02
         220 -2.4981706E-03
         221  1.3407685E-02
         222 -1.5780527E-02
         223  2.0517390E-02
         224 -3.3142587E-05
         225 -2.0663221E-03
         226  1.1107897E-02
         227  3.3694003E-02
         228  1.1362446E-02
         229  4.8656925E-03
         230 -5.6759305E-03
         231 -2.4639401E-03
         232  1.3340068E-02
         233  1.0624494E-02
         234  1.5319130E-02
         235  5.8867380E-02
         236  0.3592483    
         237 -4.3917606E-03
         238 -9.0192788E-04
         239 -1.6788119E-02
         240 -9.6346200E-02
         241 -8.0512911E-03
         242  2.3220545E-02
         243  5.9942859E-03
         244  0.1195449    
         245  8.3912518E-03
         246 -8.8711027E-03
         247  4.2186282E-03
         248 -1.6660305E-02
         249  5.6916091E-04
         250 -3.4336794E-02
         251 -1.3067829E-02
         252 -0.2092712    
         253 -1.0653671E-03
         254  1.2013119E-02
         255  1.8994107E-03
         256  3.1101411E-02
         257  3.8606357E-03
         258 -2.4071126E-03
         259 -3.2536548E-02
         260 -0.1518138    
         261 -2.6497673E-03
         262  5.2096224E-03
         263  3.2758636E-03
         264  2.9567385E-02
         265 -2.7553388E-04
         266  2.1346996E-03
         267 -7.3820092E-02
         268 -0.2523930    
         269 -1.9042303E-05
         270 -1.5738823E-03
         271  2.6100246E-02
         272  8.1862278E-02
         273 -1.4379594E-03
         274 -9.5534849E-04
         275 -4.1141842E-02
         276 -0.1254625    
         277  7.9152803E-04
         278  2.5390321E-03
         279  1.4644180E-02
         280  3.7674285E-02
         281 -4.7703678E-04
         282  3.7010270E-03
         283  5.7215326E-02
         284  0.1804053    
         285 -2.0594362E-03
         286 -9.0569787E-04
         287 -1.2721201E-02
         288 -3.1394683E-02
         289  4.2222217E-02
         290  6.4940371E-02
         291  0.1151449    
         292 -7.5563528E-03
         293 -3.5307132E-02
         294 -3.5334449E-02
         295 -3.2650977E-02
         296  1.9378114E-03
         297  6.9069862E-03
         298  6.0370783E-03
         299 -5.9813950E-02
         300  3.2538481E-02
         301 -9.0315603E-03
         302 -1.0717031E-02
         303  1.3784057E-02
         304 -1.1536203E-02
         305 -2.0312744E-03
         306 -1.0805036E-02
         307 -4.0631633E-02
         308  2.4117375E-02
         309 -1.4266103E-03
         310  4.8091265E-04
         311  1.2730024E-02
         312 -5.4696477E-03
         313  3.3376857E-03
         314  2.3946716E-02
         315  8.1423916E-02
         316 -5.8641359E-02
         317 -6.8928124E-03
         318 -1.0255974E-02
         319 -1.7145844E-02
         320  1.1443524E-02
         321  9.3903635E-03
         322 -1.1861797E-03
         323 -1.8017923E-02
         324  2.5667289E-02
         325 -7.3154648E-03
         326 -1.8319950E-03
         327  7.5137671E-03
         328 -5.5900649E-03
         329 -1.3937559E-02
         330 -4.1539259E-02
         331 -6.9800742E-02
         332  4.8358679E-02
         333  6.9168750E-03
         334  1.5107846E-02
         335  2.7798016E-02
         336 -1.4774125E-02
         337  6.0744002E-03
         338 -2.5563332E-04
         339 -2.2193235E-03
         340 -2.7206873E-03
         341  7.0750670E-05
         342  2.2217003E-03
         343  4.1385842E-03
         344  2.5405476E-03
         345 -3.8666944E-03
         346  6.4999815E-03
         347  5.1696268E-03
         348  2.7242624E-03
         349  1.4314312E-04
         350  5.7368213E-04
         351  4.5288880E-03
         352 -1.0954627E-03
         353 -2.5285971E-03
         354  1.6603459E-04
         355  3.0008531E-03
         356  4.4038179E-03
         357  1.0188006E-04
         358 -3.9203018E-03
         359 -3.1565346E-03
         360  1.5403536E-03
         361  3.2438608E-03
         362 -8.9869546E-03
         363  2.1962095E-03
         364  2.5390852E-03
         365 -4.0923702E-03
         366  1.7426900E-03
         367  1.1522254E-02
         368 -5.5230223E-04
         369 -2.1728172E-03
         370 -3.7228758E-03
         371  5.5797887E-03
         372  3.1284301E-04
         373  4.2920769E-03
         374  3.6882344E-03
         375  4.0873336E-03
         376 -4.1495054E-03
         377  5.9544947E-03
         378  2.7581500E-03
         379  1.9491034E-03
         380  2.0337142E-03
         381 -3.1981084E-03
         382  6.0905707E-03
         383 -5.8361334E-03
         384 -2.7564799E-02
         385 -2.2156488E-02
         386  3.5445066E-03
         387 -3.0766190E-03
         388  5.1715877E-03
         389  7.0930514E-03
         390 -1.3802857E-02
         391 -6.3961357E-02
         392  4.5973617E-03
         393 -6.2847454E-03
         394  3.3547694E-03
         395  1.1224596E-02
         396 -3.2436531E-03
         397 -5.5905739E-03
         398  1.6709531E-03
         399 -2.9086836E-03
         400 -5.3024711E-04
         401 -3.8875916E-04
         402 -2.4723285E-03
         403 -4.4273119E-04
         404  6.6385474E-03
         405  3.8779005E-03
         406  6.9910563E-03
         407  5.8624311E-03
         408 -1.7719793E-03
         409 -5.0550746E-04
         410 -5.1023799E-04
         411 -1.9615372E-03
         412 -2.8932369E-03
         413  8.8054847E-05
         414 -2.0979841E-03
         415  4.9161195E-04
         416  9.4204169E-04
         417 -1.4739281E-03
         418 -1.3368407E-03
         419  4.6902520E-04
         420 -1.7327556E-03
         421 -2.1422147E-03
         422 -2.5798671E-03
         423  1.9683970E-04
         424 -1.4596784E-03
         425 -2.6024712E-04
         426  2.8472773E-03
         427  1.7104071E-03
         428  1.5313653E-04
         429 -5.3730477E-03
         430  2.9790986E-03
         431 -1.3999637E-02
         432  3.6228371E-03
         433 -1.5595552E-03
         434 -1.8362597E-03
         435  2.8529912E-03
         436 -1.0219517E-03
         437  4.8224889E-03
         438  1.0795443E-03
         439  3.8241502E-03
         440 -1.1443507E-02
         441  7.0957630E-03
         442  4.2899172E-03
         443  3.8122927E-04
         444 -1.6931533E-03
         445 -2.9978659E-03
         446  1.0965527E-03
         447  8.6617161E-04
         448 -1.7435263E-05
         449  5.7237054E-04
         450  6.4982455E-03
         451  4.1861190E-03
         452 -2.0225265E-03
         453 -3.2574728E-03
         454  2.2177368E-03
         455  3.8224384E-03
         456  3.0690304E-03
         457  2.6310657E-03
         458  8.5797068E-03
         459 -1.9352242E-02
         460 -1.0416863E-02
         461 -9.4092758E-03
         462 -1.5329004E-02
         463  4.2018327E-03
         464  1.7432561E-03
         465 -4.1340219E-04
         466 -3.1145295E-02
         467 -9.5615806E-03
         468  2.2448841E-03
         469 -9.5696962E-03
         470 -3.1810034E-02
         471 -5.7050763E-03
         472 -8.5136676E-03
         473 -2.6489245E-03
         474 -2.4840378E-03
         475 -9.3628168E-03
         476  4.6655270E-03
         477 -1.7569073E-03
         478 -5.3072846E-03
         479  1.3016955E-03
         480  1.8172059E-02
         481 -1.4386214E-02
         482 -1.0341826E-02
         483 -1.3034561E-04
         484 -1.2093304E-03
         485 -1.5752787E-03
         486  4.1618273E-03
