 [Molden Format]
 [Atoms] Angs
N       1      7     -6.40829016      0.36946469     -2.11223884
C       2      6     -5.50456032     -0.28954403     -1.86003272
C       3      6     -4.41592469     -1.13441272     -1.55019297
C       4      6     -4.23726986     -2.32080197     -2.26464948
C       5      6     -3.19045309     -3.16802035     -1.96926994
C       6      6     -2.30109235     -2.86298902     -0.93677834
C       7      6     -1.10466774     -3.67923770     -0.68771333
C       8      6     -1.08043214     -5.06405144     -0.83451663
C       9      6      0.09887579     -5.75959777     -0.63044855
C      10      6      1.26492942     -5.09971747     -0.28257071
C      11      6      1.26272507     -3.71540359     -0.12671552
C      12      6      2.44709920     -2.94571700      0.27738722
C      13      6      3.40608987     -3.45895908      1.15330523
C      14      6      4.44413361     -2.66599951      1.59454488
C      15      6      4.53801787     -1.32572661      1.20958516
C      16      6      5.54185848     -0.51669735      1.78555849
N      17      7      6.34983519      0.11769493      2.29535516
C      18      6      3.59165263     -0.80143413      0.31378187
N      19      7      3.58148278      0.53729209     -0.07347643
C      20      6      2.44792038      1.33560271     -0.05415475
C      21      6      1.18402766      1.06388952      0.44983830
C      22      6      0.22197676      2.05167577      0.35552389
C      23      6      0.50906482      3.28954763     -0.21364009
C      24      6      1.77743870      3.58030079     -0.67650572
C      25      6      2.76033583      2.60204930     -0.59314793
C      26      6      4.15118484      2.55974243     -0.95569981
C      27      6      5.01050387      3.47980139     -1.54049472
C      28      6      6.31344273      3.09932380     -1.79312273
C      29      6      6.75640575      1.81476386     -1.48972860
C      30      6      5.91916450      0.88081435     -0.90918449
C      31      6      4.62085352      1.26996764     -0.62100669
C      32      6      2.58824716     -1.63385589     -0.16330150
C      33      6      0.07059433     -3.02930187     -0.33121130
C      34      6     -2.50621800     -1.70057035     -0.19970444
C      35      6     -3.53123084     -0.81763190     -0.50637736
N      36      7     -3.64013255      0.37911928      0.20412671
C      37      6     -3.65092887      0.49619960      1.58226983
C      38      6     -3.73269926     -0.49512038      2.54812806
C      39      6     -3.75900845     -0.10075181      3.87278156
C      40      6     -3.71373453      1.24421650      4.23127376
C      41      6     -3.65050971      2.23506567      3.27140343
C      42      6     -3.62114420      1.86382614      1.93398139
C      43      6     -3.56024320      2.60203430      0.70204552
C      44      6     -3.46136324      3.95493286      0.40643699
C      45      6     -3.36630636      4.33606420     -0.91709018
C      46      6     -3.35540118      3.38821540     -1.93703105
C      47      6     -3.45342295      2.03641014     -1.66741962
C      48      6     -3.57418167      1.65071615     -0.34203035
H      49      1     -4.92501367     -2.55807462     -3.06301389
H      50      1     -3.04098139     -4.05837498     -2.56036856
H      51      1     -1.98372562     -5.59801253     -1.08878706
H      52      1      0.10996194     -6.83329888     -0.74694771
H      53      1      2.17955605     -5.65828736     -0.15262646
H      54      1      3.32120738     -4.47302541      1.51201997
H      55      1      5.18127063     -3.06268361      2.27728531
H      56      1      0.95935937      0.11786680      0.92116520
H      57      1     -0.77109100      1.86574749      0.73681571
H      58      1     -0.27480667      4.02906919     -0.27828051
H      59      1      2.00711429      4.54915126     -1.09306014
H      60      1      4.66061405      4.46905110     -1.79376206
H      61      1      6.99977825      3.80160055     -2.24192724
H      62      1      7.77568364      1.53931785     -1.71467946
H      63      1      6.27295555     -0.11606374     -0.69436356
H      64      1      1.91079204     -1.23260360     -0.90149665
H      65      1      0.05407776     -1.95730964     -0.21697891
H      66      1     -1.84936192     -1.45137157      0.62009647
H      67      1     -3.78349537     -1.53988633      2.27831594
H      68      1     -3.81974851     -0.85255442      4.64569375
H      69      1     -3.73608510      1.51167349      5.27705814
H      70      1     -3.62789174      3.27760028      3.54975869
H      71      1     -3.45114135      4.68745022      1.19932513
H      72      1     -3.29011703      5.38325619     -1.16946716
H      73      1     -3.26432345      3.71489314     -2.96195193
H      74      1     -3.42938307      1.31256704     -2.46805840
 [GTO]
           1   0
s              4   1.000000
     53.07056296     -0.01198412
      9.13919008     -0.05472052
      0.73437292      0.58055871
      0.27988770      0.47700800
p              4   1.000000
      6.25553212      0.05713170
      1.62196607      0.28574555
      0.57179323      0.55178731
      0.22764074      0.26323149
s              7   1.000000
      0.47894987     -0.19076104
      0.05878681      0.92168726
      0.02775758      0.24204907
     53.07056296      0.00456660
      9.13919008      0.02085150
      0.73437292     -0.22122453
      0.27988770     -0.18176606
p              7   1.000000
      2.28619608     -0.01184664
      0.12644335      0.58216221
      0.04872781      0.60798194
      6.25553212     -0.02824840
      1.62196607     -0.14128503
      0.57179323     -0.27282765
      0.22764074     -0.13015310
 
           2   0
s              4   1.000000
     32.74323022     -0.01198412
      5.63865518     -0.05472053
      0.45309000      0.58055871
      0.17268381      0.47700799
p              4   1.000000
      5.27742695      0.05713170
      1.36835800      0.28574555
      0.48238854      0.55178731
      0.19204719      0.26323149
s              7   1.000000
      0.38350848     -0.19847159
      0.04707223      0.95894178
      0.02222627      0.25183266
     32.74323022      0.00586673
      5.63865518      0.02678800
      0.45309000     -0.28420798
      0.17268381     -0.23351553
p              7   1.000000
      1.83062075     -0.01173611
      0.10124670      0.57673027
      0.03901771      0.60230909
      5.27742695     -0.02687980
      1.36835800     -0.13443995
      0.48238854     -0.25960949
      0.19204719     -0.12384734
 
           3   0
s              4   1.000000
     35.04419258     -0.01198412
      6.03489994     -0.05472053
      0.48492996      0.58055871
      0.18481881      0.47700800
p              4   1.000000
      5.64828715      0.05713170
      1.46451651      0.28574555
      0.51628739      0.55178731
      0.20554291      0.26323149
s              7   1.000000
      0.38350848     -0.19612928
      0.04707223      0.94762458
      0.02222627      0.24886060
     35.04419258      0.00549918
      6.03489994      0.02510975
      0.48492996     -0.26640249
      0.18481881     -0.21888590
p              7   1.000000
      1.83062075     -0.01160589
      0.10124670      0.57033119
      0.03901771      0.59562620
      5.64828715     -0.02519026
      1.46451651     -0.12598967
      0.51628739     -0.24329164
      0.20554291     -0.11606287
 
           4   0
s              4   1.000000
     35.01752009     -0.01198412
      6.03030672     -0.05472053
      0.48456088      0.58055871
      0.18467814      0.47700799
p              4   1.000000
      5.64398818      0.05713170
      1.46340186      0.28574555
      0.51589444      0.55178730
      0.20538647      0.26323149
s              7   1.000000
      0.38350848     -0.19615410
      0.04707223      0.94774452
      0.02222627      0.24889209
     35.01752009      0.00550318
      6.03030672      0.02512802
      0.48456088     -0.26659629
      0.18467814     -0.21904514
p              7   1.000000
      1.83062075     -0.01160727
      0.10124670      0.57039901
      0.03901771      0.59569704
      5.64398818     -0.02520866
      1.46340186     -0.12608168
      0.51589444     -0.24346931
      0.20538647     -0.11614763
 
           5   0
s              4   1.000000
     34.99874320     -0.01198412
      6.02707318     -0.05472052
      0.48430105      0.58055871
      0.18457912      0.47700799
p              4   1.000000
      5.64096180      0.05713170
      1.46261716      0.28574555
      0.51561781      0.55178731
      0.20527634      0.26323149
s              7   1.000000
      0.38350848     -0.19617161
      0.04707223      0.94782911
      0.02222627      0.24891432
     34.99874320      0.00550600
      6.02707318      0.02514089
      0.48430105     -0.26673289
      0.18457912     -0.21915737
p              7   1.000000
      1.83062075     -0.01160824
      0.10124670      0.57044683
      0.03901771      0.59574697
      5.64096180     -0.02522162
      1.46261716     -0.12614653
      0.51561781     -0.24359454
      0.20527634     -0.11620738
 
           6   0
s              4   1.000000
     35.08986786     -0.01198412
      6.04276560     -0.05472052
      0.48556200      0.58055871
      0.18505970      0.47700799
p              4   1.000000
      5.65564892      0.05713170
      1.46642531      0.28574555
      0.51696030      0.55178731
      0.20581080      0.26323149
s              7   1.000000
      0.38350848     -0.19608688
      0.04707223      0.94741974
      0.02222627      0.24880680
     35.08986786      0.00549235
      6.04276560      0.02507853
      0.48556200     -0.26607126
      0.18505970     -0.21861375
p              7   1.000000
      1.83062075     -0.01160353
      0.10124670      0.57021538
      0.03901771      0.59550528
      5.65564892     -0.02515882
      1.46642531     -0.12583241
      0.51696030     -0.24298796
      0.20581080     -0.11591800
 
           7   0
s              4   1.000000
     35.08683068     -0.01198412
      6.04224257     -0.05472053
      0.48551997      0.58055871
      0.18504368      0.47700799
p              4   1.000000
      5.65515939      0.05713170
      1.46629839      0.28574555
      0.51691555      0.55178731
      0.20579299      0.26323149
s              7   1.000000
      0.38350848     -0.19608969
      0.04707223      0.94743334
      0.02222627      0.24881038
     35.08683068      0.00549280
      6.04224257      0.02508060
      0.48551997     -0.26609326
      0.18504368     -0.21863183
p              7   1.000000
      1.83062075     -0.01160369
      0.10124670      0.57022307
      0.03901771      0.59551329
      5.65515939     -0.02516091
      1.46629839     -0.12584286
      0.51691555     -0.24300813
      0.20579299     -0.11592763
 
           8   0
s              4   1.000000
     34.99584392     -0.01198412
      6.02657390     -0.05472053
      0.48426093      0.58055871
      0.18456383      0.47700799
p              4   1.000000
      5.64049450      0.05713170
      1.46249600      0.28574555
      0.51557510      0.55178731
      0.20525933      0.26323149
s              7   1.000000
      0.38350848     -0.19617431
      0.04707223      0.94784219
      0.02222627      0.24891776
     34.99584392      0.00550644
      6.02657390      0.02514288
      0.48426093     -0.26675400
      0.18456383     -0.21917471
p              7   1.000000
      1.83062075     -0.01160839
      0.10124670      0.57045422
      0.03901771      0.59575469
      5.64049450     -0.02522363
      1.46249600     -0.12615655
      0.51557510     -0.24361389
      0.20525933     -0.11621661
 
           9   0
s              4   1.000000
     34.91847675     -0.01198412
      6.01325064     -0.05472053
      0.48319035      0.58055871
      0.18415580      0.47700799
p              4   1.000000
      5.62802476      0.05713170
      1.45926278      0.28574555
      0.51443529      0.55178731
      0.20480555      0.26323149
s              7   1.000000
      0.38350848     -0.19624673
      0.04707223      0.94819205
      0.02222627      0.24900962
     34.91847675      0.00551809
      6.01325064      0.02519608
      0.48319035     -0.26731837
      0.18415580     -0.21963842
p              7   1.000000
      1.83062075     -0.01161242
      0.10124670      0.57065204
      0.03901771      0.59596126
      5.62802476     -0.02527720
      1.45926278     -0.12642449
      0.51443529     -0.24413128
      0.20480555     -0.11646343
 
          10   0
s              4   1.000000
     34.99608481     -0.01198412
      6.02661538     -0.05472052
      0.48426426      0.58055871
      0.18456510      0.47700799
p              4   1.000000
      5.64053333      0.05713170
      1.46250606      0.28574555
      0.51557864      0.55178731
      0.20526074      0.26323149
s              7   1.000000
      0.38350848     -0.19617409
      0.04707223      0.94784109
      0.02222627      0.24891746
     34.99608481      0.00550640
      6.02661538      0.02514272
      0.48426426     -0.26675224
      0.18456510     -0.21917327
p              7   1.000000
      1.83062075     -0.01160838
      0.10124670      0.57045360
      0.03901771      0.59575405
      5.64053333     -0.02522346
      1.46250606     -0.12615572
      0.51557864     -0.24361228
      0.20526074     -0.11621583
 
          11   0
s              4   1.000000
     35.08414897     -0.01198412
      6.04178076     -0.05472052
      0.48548286      0.58055871
      0.18502954      0.47700800
p              4   1.000000
      5.65472717      0.05713170
      1.46618632      0.28574555
      0.51687605      0.55178731
      0.20577726      0.26323149
s              7   1.000000
      0.38350848     -0.19609218
      0.04707223      0.94744535
      0.02222627      0.24881353
     35.08414897      0.00549320
      6.04178076      0.02508243
      0.48548286     -0.26611268
      0.18502954     -0.21864779
p              7   1.000000
      1.83062075     -0.01160383
      0.10124670      0.57022986
      0.03901771      0.59552037
      5.65472717     -0.02516275
      1.46618632     -0.12585208
      0.51687605     -0.24302594
      0.20577726     -0.11593612
 
          12   0
s              4   1.000000
     35.08561120     -0.01198412
      6.04203257     -0.05472052
      0.48550310      0.58055871
      0.18503725      0.47700799
p              4   1.000000
      5.65496284      0.05713170
      1.46624742      0.28574555
      0.51689759      0.55178730
      0.20578584      0.26323149
s              7   1.000000
      0.38350848     -0.19609082
      0.04707223      0.94743880
      0.02222627      0.24881182
     35.08561120      0.00549298
      6.04203257      0.02508144
      0.48550310     -0.26610209
      0.18503725     -0.21863908
p              7   1.000000
      1.83062075     -0.01160375
      0.10124670      0.57022617
      0.03901771      0.59551653
      5.65496284     -0.02516174
      1.46624742     -0.12584705
      0.51689759     -0.24301623
      0.20578584     -0.11593149
 
          13   0
s              4   1.000000
     34.99473310     -0.01198412
      6.02638261     -0.05472053
      0.48424556      0.58055871
      0.18455797      0.47700799
p              4   1.000000
      5.64031546      0.05713170
      1.46244958      0.28574555
      0.51555873      0.55178731
      0.20525282      0.26323149
s              7   1.000000
      0.38350848     -0.19617535
      0.04707223      0.94784718
      0.02222627      0.24891907
     34.99473310      0.00550661
      6.02638261      0.02514364
      0.48424556     -0.26676208
      0.18455797     -0.21918136
p              7   1.000000
      1.83062075     -0.01160845
      0.10124670      0.57045705
      0.03901771      0.59575765
      5.64031546     -0.02522439
      1.46244958     -0.12616039
      0.51555873     -0.24362130
      0.20525282     -0.11622014
 
          14   0
s              4   1.000000
     35.02433696     -0.01198412
      6.03148064     -0.05472053
      0.48465520      0.58055871
      0.18471409      0.47700799
p              4   1.000000
      5.64508690      0.05713170
      1.46368674      0.28574555
      0.51599487      0.55178731
      0.20542645      0.26323149
s              7   1.000000
      0.38350848     -0.19614775
      0.04707223      0.94771384
      0.02222627      0.24888404
     35.02433696      0.00550216
      6.03148064      0.02512335
      0.48465520     -0.26654674
      0.18471409     -0.21900442
p              7   1.000000
      1.83062075     -0.01160692
      0.10124670      0.57038167
      0.03901771      0.59567892
      5.64508690     -0.02520395
      1.46368674     -0.12605815
      0.51599487     -0.24342388
      0.20542645     -0.11612596
 
          15   0
s              4   1.000000
     35.03608226     -0.01198412
      6.03350328     -0.05472053
      0.48481773      0.58055871
      0.18477604      0.47700799
p              4   1.000000
      5.64697996      0.05713170
      1.46417758      0.28574555
      0.51616791      0.55178731
      0.20549534      0.26323149
s              7   1.000000
      0.38350848     -0.19613682
      0.04707223      0.94766103
      0.02222627      0.24887018
     35.03608226      0.00550040
      6.03350328      0.02511530
      0.48481773     -0.26646139
      0.18477604     -0.21893430
p              7   1.000000
      1.83062075     -0.01160631
      0.10124670      0.57035181
      0.03901771      0.59564773
      5.64697996     -0.02519585
      1.46417758     -0.12601764
      0.51616791     -0.24334563
      0.20549534     -0.11608864
 
          16   0
s              4   1.000000
     32.74251248     -0.01198412
      5.63853158     -0.05472052
      0.45308007      0.58055871
      0.17268003      0.47700799
p              4   1.000000
      5.27731127      0.05713170
      1.36832801      0.28574555
      0.48237797      0.55178731
      0.19204298      0.26323149
s              7   1.000000
      0.38350848     -0.19847239
      0.04707223      0.95894564
      0.02222627      0.25183368
     32.74251248      0.00586685
      5.63853158      0.02678856
      0.45308007     -0.28421390
      0.17268003     -0.23352040
p              7   1.000000
      1.83062075     -0.01173615
      0.10124670      0.57673246
      0.03901771      0.60231139
      5.27731127     -0.02688036
      1.36832801     -0.13444276
      0.48237797     -0.25961491
      0.19204298     -0.12384993
 
          17   0
s              4   1.000000
     53.07177872     -0.01198412
      9.13939945     -0.05472052
      0.73438974      0.58055871
      0.27989411      0.47700799
p              4   1.000000
      6.25567543      0.05713170
      1.62200323      0.28574555
      0.57180633      0.55178731
      0.22764595      0.26323149
s              7   1.000000
      0.47894987     -0.19076050
      0.05878681      0.92168465
      0.02775758      0.24204839
     53.07177872      0.00456650
      9.13939945      0.02085104
      0.73438974     -0.22121960
      0.27989411     -0.18176201
p              7   1.000000
      2.28619608     -0.01184659
      0.12644335      0.58215973
      0.04872781      0.60797934
      6.25567543     -0.02824779
      1.62200323     -0.14128196
      0.57180633     -0.27282172
      0.22764595     -0.13015027
 
          18   0
s              4   1.000000
     35.20705045     -0.01198412
      6.06294541     -0.05472052
      0.48718353      0.58055871
      0.18567770      0.47700799
p              4   1.000000
      5.67453595      0.05713170
      1.47132244      0.28574555
      0.51868669      0.55178731
      0.20649811      0.26323149
s              7   1.000000
      0.38350848     -0.19597878
      0.04707223      0.94689746
      0.02222627      0.24866964
     35.20705045      0.00547488
      6.06294541      0.02499878
      0.48718353     -0.26522513
      0.18567770     -0.21791855
p              7   1.000000
      1.83062075     -0.01159752
      0.10124670      0.56992010
      0.03901771      0.59519689
      5.67453595     -0.02507850
      1.47132244     -0.12543070
      0.51868669     -0.24221223
      0.20649811     -0.11554794
 
          19   0
s              4   1.000000
     61.44364713     -0.01198412
     10.58110446     -0.05472052
      0.85023689      0.58055871
      0.32404632      0.47700799
p              4   1.000000
      7.24248410      0.05713170
      1.87786798      0.28574555
      0.66200657      0.55178731
      0.26355622      0.26323149
s              7   1.000000
      0.47894987     -0.18771047
      0.05878681      0.90694803
      0.02775758      0.23817832
     61.44364713      0.00395418
     10.58110446      0.01805514
      0.85023689     -0.19155644
      0.32404632     -0.15738968
p              7   1.000000
      2.28619608     -0.01155915
      0.12644335      0.56803425
      0.04872781      0.59322739
      7.24248410     -0.02456034
      1.87786798     -0.12283912
      0.66200657     -0.23720777
      0.26355622     -0.11316055
 
          20   0
s              4   1.000000
     35.63348844     -0.01198412
      6.13638156     -0.05472053
      0.49308444      0.58055871
      0.18792669      0.47700799
p              4   1.000000
      5.74326757      0.05713170
      1.48914352      0.28574555
      0.52496917      0.55178731
      0.20899927      0.26323149
s              7   1.000000
      0.38350848     -0.19559337
      0.04707223      0.94503530
      0.02222627      0.24818061
     35.63348844      0.00541223
      6.13638156      0.02471270
      0.49308444     -0.26219002
      0.18792669     -0.21542478
p              7   1.000000
      1.83062075     -0.01157610
      0.10124670      0.56886734
      0.03901771      0.59409745
      5.74326757     -0.02479036
      1.48914352     -0.12398958
      0.52496917     -0.23942937
      0.20899927     -0.11422037
 
          21   0
s              4   1.000000
     34.95044047     -0.01198412
      6.01875505     -0.05472053
      0.48363265      0.58055871
      0.18432437      0.47700799
p              4   1.000000
      5.63317655      0.05713170
      1.46059856      0.28574555
      0.51490619      0.55178731
      0.20499303      0.26323149
s              7   1.000000
      0.38350848     -0.19621676
      0.04707223      0.94804725
      0.02222627      0.24897160
     34.95044047      0.00551327
      6.01875505      0.02517407
      0.48363265     -0.26708492
      0.18432437     -0.21944661
p              7   1.000000
      1.83062075     -0.01161075
      0.10124670      0.57057016
      0.03901771      0.59587578
      5.63317655     -0.02525504
      1.46059856     -0.12631366
      0.51490619     -0.24391727
      0.20499303     -0.11636133
 
          22   0
s              4   1.000000
     34.94030757     -0.01198412
      6.01701008     -0.05472052
      0.48349243      0.58055871
      0.18427093      0.47700800
p              4   1.000000
      5.63154337      0.05713170
      1.46017510      0.28574555
      0.51475691      0.55178731
      0.20493359      0.26323149
s              7   1.000000
      0.38350848     -0.19622625
      0.04707223      0.94809313
      0.02222627      0.24898364
     34.94030757      0.00551480
      6.01701008      0.02518104
      0.48349243     -0.26715888
      0.18427093     -0.21950738
p              7   1.000000
      1.83062075     -0.01161128
      0.10124670      0.57059609
      0.03901771      0.59590288
      5.63154337     -0.02526206
      1.46017510     -0.12634877
      0.51475691     -0.24398507
      0.20493359     -0.11639368
 
          23   0
s              4   1.000000
     34.92555608     -0.01198412
      6.01446975     -0.05472052
      0.48328831      0.58055871
      0.18419314      0.47700799
p              4   1.000000
      5.62916578      0.05713170
      1.45955863      0.28574555
      0.51453958      0.55178731
      0.20484707      0.26323149
s              7   1.000000
      0.38350848     -0.19624008
      0.04707223      0.94815995
      0.02222627      0.24900119
     34.92555608      0.00551702
      6.01446975      0.02519120
      0.48328831     -0.26726663
      0.18419314     -0.21959591
p              7   1.000000
      1.83062075     -0.01161205
      0.10124670      0.57063388
      0.03901771      0.59594233
      5.62916578     -0.02527228
      1.45955863     -0.12639993
      0.51453958     -0.24408385
      0.20484707     -0.11644080
 
          24   0
s              4   1.000000
     34.94014800     -0.01198412
      6.01698260     -0.05472052
      0.48349023      0.58055871
      0.18427009      0.47700799
p              4   1.000000
      5.63151765      0.05713170
      1.46016843      0.28574555
      0.51475456      0.55178731
      0.20493266      0.26323149
s              7   1.000000
      0.38350848     -0.19622640
      0.04707223      0.94809385
      0.02222627      0.24898384
     34.94014800      0.00551482
      6.01698260      0.02518115
      0.48349023     -0.26716005
      0.18427009     -0.21950834
p              7   1.000000
      1.83062075     -0.01161129
      0.10124670      0.57059650
      0.03901771      0.59590329
      5.63151765     -0.02526217
      1.46016843     -0.12634933
      0.51475456     -0.24398614
      0.20493266     -0.11639419
 
          25   0
s              4   1.000000
     35.40908325     -0.01198412
      6.09773713     -0.05472053
      0.48997920      0.58055871
      0.18674320      0.47700799
p              4   1.000000
      5.70709882      0.05713170
      1.47976550      0.28574555
      0.52166313      0.55178731
      0.20768308      0.26323149
s              7   1.000000
      0.38350848     -0.19579465
      0.04707223      0.94600778
      0.02222627      0.24843601
     35.40908325      0.00544502
      6.09773713      0.02486244
      0.48997920     -0.26377866
      0.18674320     -0.21673007
p              7   1.000000
      1.83062075     -0.01158729
      0.10124670      0.56941712
      0.03901771      0.59467161
      5.70709882     -0.02494118
      1.47976550     -0.12474391
      0.52166313     -0.24088602
      0.20768308     -0.11491527
 
          26   0
s              4   1.000000
     35.42077830     -0.01198412
      6.09975112     -0.05472052
      0.49014103      0.58055871
      0.18680488      0.47700799
p              4   1.000000
      5.70898378      0.05713170
      1.48025424      0.28574555
      0.52183543      0.55178731
      0.20775168      0.26323149
s              7   1.000000
      0.38350848     -0.19578407
      0.04707223      0.94595669
      0.02222627      0.24842258
     35.42077830      0.00544330
      6.09975112      0.02485459
      0.49014103     -0.26369541
      0.18680488     -0.21666167
p              7   1.000000
      1.83062075     -0.01158670
      0.10124670      0.56938824
      0.03901771      0.59464142
      5.70898378     -0.02493328
      1.48025424     -0.12470438
      0.52183543     -0.24080968
      0.20775168     -0.11487885
 
          27   0
s              4   1.000000
     34.93951929     -0.01198412
      6.01687433     -0.05472052
      0.48348153      0.58055871
      0.18426678      0.47700799
p              4   1.000000
      5.63141632      0.05713170
      1.46014216      0.28574555
      0.51474529      0.55178731
      0.20492897      0.26323149
s              7   1.000000
      0.38350848     -0.19622699
      0.04707223      0.94809669
      0.02222627      0.24898459
     34.93951929      0.00551492
      6.01687433      0.02518159
      0.48348153     -0.26716464
      0.18426678     -0.21951211
p              7   1.000000
      1.83062075     -0.01161132
      0.10124670      0.57059811
      0.03901771      0.59590499
      5.63141632     -0.02526260
      1.46014216     -0.12635151
      0.51474529     -0.24399035
      0.20492897     -0.11639620
 
          28   0
s              4   1.000000
     34.92368536     -0.01198412
      6.01414760     -0.05472052
      0.48326242      0.58055871
      0.18418327      0.47700799
p              4   1.000000
      5.62886426      0.05713170
      1.45948045      0.28574555
      0.51451202      0.55178731
      0.20483610      0.26323149
s              7   1.000000
      0.38350848     -0.19624184
      0.04707223      0.94816843
      0.02222627      0.24900343
     34.92368536      0.00551730
      6.01414760      0.02519249
      0.48326242     -0.26728030
      0.18418327     -0.21960714
p              7   1.000000
      1.83062075     -0.01161215
      0.10124670      0.57063868
      0.03901771      0.59594734
      5.62886426     -0.02527358
      1.45948045     -0.12640642
      0.51451202     -0.24409638
      0.20483610     -0.11644678
 
          29   0
s              4   1.000000
     34.93879387     -0.01198412
      6.01674941     -0.05472052
      0.48347149      0.58055871
      0.18426295      0.47700799
p              4   1.000000
      5.63129940      0.05713170
      1.46011184      0.28574555
      0.51473461      0.55178731
      0.20492472      0.26323149
s              7   1.000000
      0.38350848     -0.19622767
      0.04707223      0.94809997
      0.02222627      0.24898544
     34.93879387      0.00551503
      6.01674941      0.02518209
      0.48347149     -0.26716994
      0.18426295     -0.21951646
p              7   1.000000
      1.83062075     -0.01161136
      0.10124670      0.57059998
      0.03901771      0.59590693
      5.63129940     -0.02526311
      1.46011184     -0.12635402
      0.51473461     -0.24399521
      0.20492472     -0.11639851
 
          30   0
s              4   1.000000
     34.95055956     -0.01198412
      6.01877556     -0.05472053
      0.48363430      0.58055871
      0.18432500      0.47700799
p              4   1.000000
      5.63319574      0.05713170
      1.46060354      0.28574555
      0.51490795      0.55178731
      0.20499373      0.26323149
s              7   1.000000
      0.38350848     -0.19621664
      0.04707223      0.94804671
      0.02222627      0.24897145
     34.95055956      0.00551325
      6.01877556      0.02517399
      0.48363430     -0.26708405
      0.18432500     -0.21944589
p              7   1.000000
      1.83062075     -0.01161075
      0.10124670      0.57056986
      0.03901771      0.59587545
      5.63319574     -0.02525495
      1.46060354     -0.12631325
      0.51490795     -0.24391647
      0.20499373     -0.11636095
 
          31   0
s              4   1.000000
     35.60879539     -0.01198412
      6.13212922     -0.05472052
      0.49274275      0.58055871
      0.18779646      0.47700800
p              4   1.000000
      5.73928764      0.05713170
      1.48811158      0.28574555
      0.52460538      0.55178731
      0.20885444      0.26323149
s              7   1.000000
      0.38350848     -0.19561536
      0.04707223      0.94514151
      0.02222627      0.24820850
     35.60879539      0.00541582
      6.13212922      0.02472909
      0.49274275     -0.26236391
      0.18779646     -0.21556766
p              7   1.000000
      1.83062075     -0.01157732
      0.10124670      0.56892739
      0.03901771      0.59416016
      5.73928764     -0.02480687
      1.48811158     -0.12407215
      0.52460538     -0.23958882
      0.20885444     -0.11429643
 
          32   0
s              4   1.000000
     35.15214989     -0.01198412
      6.05349108     -0.05472052
      0.48642384      0.58055871
      0.18538816      0.47700799
p              4   1.000000
      5.66568729      0.05713170
      1.46902811      0.28574555
      0.51787787      0.55178730
      0.20617610      0.26323149
s              7   1.000000
      0.38350848     -0.19602931
      0.04707223      0.94714157
      0.02222627      0.24873375
     35.15214989      0.00548305
      6.05349108      0.02503608
      0.48642384     -0.26562089
      0.18538816     -0.21824371
p              7   1.000000
      1.83062075     -0.01160033
      0.10124670      0.57005812
      0.03901771      0.59534103
      5.66568729     -0.02511607
      1.46902811     -0.12561859
      0.51787787     -0.24257506
      0.20617610     -0.11572103
 
          33   0
s              4   1.000000
     35.16796796     -0.01198412
      6.05621509     -0.05472053
      0.48664272      0.58055871
      0.18547159      0.47700799
p              4   1.000000
      5.66823679      0.05713170
      1.46968916      0.28574555
      0.51811091      0.55178731
      0.20626888      0.26323149
s              7   1.000000
      0.38350848     -0.19601473
      0.04707223      0.94707113
      0.02222627      0.24871525
     35.16796796      0.00548069
      6.05621509      0.02502532
      0.48664272     -0.26550675
      0.18547159     -0.21814993
p              7   1.000000
      1.83062075     -0.01159952
      0.10124670      0.57001830
      0.03901771      0.59529944
      5.66823679     -0.02510523
      1.46968916     -0.12556440
      0.51811091     -0.24247041
      0.20626888     -0.11567111
 
          34   0
s              4   1.000000
     35.13058501     -0.01198412
      6.04977743     -0.05472052
      0.48612543      0.58055871
      0.18527443      0.47700800
p              4   1.000000
      5.66221155      0.05713170
      1.46812690      0.28574555
      0.51756017      0.55178731
      0.20604962      0.26323149
s              7   1.000000
      0.38350848     -0.19604921
      0.04707223      0.94723773
      0.02222627      0.24875900
     35.13058501      0.00548626
      6.04977743      0.02505076
      0.48612543     -0.26577666
      0.18527443     -0.21837169
p              7   1.000000
      1.83062075     -0.01160144
      0.10124670      0.57011249
      0.03901771      0.59539779
      5.66221155     -0.02513085
      1.46812690     -0.12569255
      0.51756017     -0.24271787
      0.20604962     -0.11578916
 
          35   0
s              4   1.000000
     35.21505728     -0.01198412
      6.06432426     -0.05472052
      0.48729433      0.58055871
      0.18571993      0.47700800
p              4   1.000000
      5.67582646      0.05713170
      1.47165705      0.28574555
      0.51880465      0.55178731
      0.20654507      0.26323149
s              7   1.000000
      0.38350848     -0.19597143
      0.04707223      0.94686193
      0.02222627      0.24866031
     35.21505728      0.00547369
      6.06432426      0.02499335
      0.48729433     -0.26516751
      0.18571993     -0.21787120
p              7   1.000000
      1.83062075     -0.01159712
      0.10124670      0.56990002
      0.03901771      0.59517593
      5.67582646     -0.02507303
      1.47165705     -0.12540334
      0.51880465     -0.24215940
      0.20654507     -0.11552274
 
          36   0
s              4   1.000000
     61.45025540     -0.01198412
     10.58224246     -0.05472052
      0.85032833      0.58055871
      0.32408118      0.47700799
p              4   1.000000
      7.24326303      0.05713170
      1.87806994      0.28574555
      0.66207777      0.55178731
      0.26358457      0.26323149
s              7   1.000000
      0.47894987     -0.18770851
      0.05878681      0.90693852
      0.02775758      0.23817582
     61.45025540      0.00395376
     10.58224246      0.01805321
      0.85032833     -0.19153599
      0.32408118     -0.15737289
p              7   1.000000
      2.28619608     -0.01155896
      0.12644335      0.56802510
      0.04872781      0.59321783
      7.24326303     -0.02455780
      1.87806994     -0.12282642
      0.66207777     -0.23718325
      0.26358457     -0.11314885
 
          37   0
s              4   1.000000
     35.62600300     -0.01198412
      6.13509251     -0.05472052
      0.49298086      0.58055871
      0.18788721      0.47700800
p              4   1.000000
      5.74206110      0.05713170
      1.48883070      0.28574555
      0.52485889      0.55178731
      0.20895537      0.26323149
s              7   1.000000
      0.38350848     -0.19560003
      0.04707223      0.94506747
      0.02222627      0.24818907
     35.62600300      0.00541332
      6.13509251      0.02471767
      0.49298086     -0.26224271
      0.18788721     -0.21546808
p              7   1.000000
      1.83062075     -0.01157647
      0.10124670      0.56888553
      0.03901771      0.59411643
      5.74206110     -0.02479536
      1.48883070     -0.12401460
      0.52485889     -0.23947768
      0.20895537     -0.11424342
 
          38   0
s              4   1.000000
     34.94286302     -0.01198412
      6.01745015     -0.05472052
      0.48352779      0.58055871
      0.18428441      0.47700799
p              4   1.000000
      5.63195525      0.05713170
      1.46028190      0.28574555
      0.51479456      0.55178731
      0.20494858      0.26323149
s              7   1.000000
      0.38350848     -0.19622385
      0.04707223      0.94808155
      0.02222627      0.24898062
     34.94286302      0.00551441
      6.01745015      0.02517929
      0.48352779     -0.26714022
      0.18428441     -0.21949205
p              7   1.000000
      1.83062075     -0.01161115
      0.10124670      0.57058956
      0.03901771      0.59589605
      5.63195525     -0.02526029
      1.46028190     -0.12633992
      0.51479456     -0.24396797
      0.20494858     -0.11638552
 
          39   0
s              4   1.000000
     34.93657699     -0.01198412
      6.01636764     -0.05472052
      0.48344081      0.58055871
      0.18425126      0.47700799
p              4   1.000000
      5.63094209      0.05713170
      1.46001920      0.28574555
      0.51470195      0.55178731
      0.20491171      0.26323149
s              7   1.000000
      0.38350848     -0.19622974
      0.04707223      0.94811001
      0.02222627      0.24898808
     34.93657699      0.00551536
      6.01636764      0.02518361
      0.48344081     -0.26718612
      0.18425126     -0.21952976
p              7   1.000000
      1.83062075     -0.01161147
      0.10124670      0.57060565
      0.03901771      0.59591283
      5.63094209     -0.02526464
      1.46001920     -0.12636171
      0.51470195     -0.24401005
      0.20491171     -0.11640559
 
          40   0
s              4   1.000000
     34.92351101     -0.01198412
      6.01411758     -0.05472053
      0.48326001      0.58055871
      0.18418235      0.47700799
p              4   1.000000
      5.62883616      0.05713170
      1.45947316      0.28574555
      0.51450945      0.55178731
      0.20483508      0.26323149
s              7   1.000000
      0.38350848     -0.19624200
      0.04707223      0.94816922
      0.02222627      0.24900363
     34.92351101      0.00551733
      6.01411758      0.02519261
      0.48326001     -0.26728157
      0.18418235     -0.21960819
p              7   1.000000
      1.83062075     -0.01161216
      0.10124670      0.57063912
      0.03901771      0.59594779
      5.62883616     -0.02527370
      1.45947316     -0.12640702
      0.51450945     -0.24409755
      0.20483508     -0.11644734
 
          41   0
s              4   1.000000
     34.93885635     -0.01198412
      6.01676017     -0.05472052
      0.48347235      0.58055871
      0.18426328      0.47700799
p              4   1.000000
      5.63130947      0.05713170
      1.46011446      0.28574555
      0.51473553      0.55178731
      0.20492508      0.26323149
s              7   1.000000
      0.38350848     -0.19622761
      0.04707223      0.94809969
      0.02222627      0.24898537
     34.93885635      0.00551502
      6.01676017      0.02518204
      0.48347235     -0.26716948
      0.18426328     -0.21951609
p              7   1.000000
      1.83062075     -0.01161136
      0.10124670      0.57059982
      0.03901771      0.59590673
      5.63130947     -0.02526306
      1.46011446     -0.12635380
      0.51473553     -0.24399479
      0.20492508     -0.11639831
 
          42   0
s              4   1.000000
     35.41592609     -0.01198412
      6.09891553     -0.05472052
      0.49007389      0.58055871
      0.18677929      0.47700799
p              4   1.000000
      5.70820172      0.05713170
      1.48005147      0.28574555
      0.52176394      0.55178730
      0.20772322      0.26323149
s              7   1.000000
      0.38350848     -0.19578846
      0.04707223      0.94597788
      0.02222627      0.24842816
     35.41592609      0.00544402
      6.09891553      0.02485785
      0.49007389     -0.26372994
      0.18677929     -0.21669004
p              7   1.000000
      1.83062075     -0.01158694
      0.10124670      0.56940021
      0.03901771      0.59465397
      5.70820172     -0.02493656
      1.48005147     -0.12472078
      0.52176394     -0.24084135
      0.20772322     -0.11489395
 
          43   0
s              4   1.000000
     35.42219434     -0.01198412
      6.09999497     -0.05472052
      0.49016062      0.58055871
      0.18681235      0.47700799
p              4   1.000000
      5.70921201      0.05713170
      1.48031342      0.28574555
      0.52185629      0.55178731
      0.20775998      0.26323149
s              7   1.000000
      0.38350848     -0.19578279
      0.04707223      0.94595051
      0.02222627      0.24842097
     35.42219434      0.00544309
      6.09999497      0.02485364
      0.49016062     -0.26368533
      0.18681235     -0.21665338
p              7   1.000000
      1.83062075     -0.01158663
      0.10124670      0.56938475
      0.03901771      0.59463778
      5.70921201     -0.02493232
      1.48031342     -0.12469960
      0.52185629     -0.24080044
      0.20775998     -0.11487444
 
          44   0
s              4   1.000000
     34.94094962     -0.01198412
      6.01712065     -0.05472052
      0.48350132      0.58055871
      0.18427432      0.47700799
p              4   1.000000
      5.63164685      0.05713170
      1.46020193      0.28574555
      0.51476637      0.55178731
      0.20493736      0.26323149
s              7   1.000000
      0.38350848     -0.19622565
      0.04707223      0.94809021
      0.02222627      0.24898288
     34.94094962      0.00551470
      6.01712065      0.02518060
      0.48350132     -0.26715419
      0.18427432     -0.21950353
p              7   1.000000
      1.83062075     -0.01161125
      0.10124670      0.57059445
      0.03901771      0.59590114
      5.63164685     -0.02526161
      1.46020193     -0.12634655
      0.51476637     -0.24398078
      0.20493736     -0.11639163
 
          45   0
s              4   1.000000
     34.92551331     -0.01198412
      6.01446239     -0.05472052
      0.48328772      0.58055871
      0.18419291      0.47700799
p              4   1.000000
      5.62915889      0.05713170
      1.45955684      0.28574555
      0.51453895      0.55178731
      0.20484682      0.26323149
s              7   1.000000
      0.38350848     -0.19624012
      0.04707223      0.94816014
      0.02222627      0.24900124
     34.92551331      0.00551703
      6.01446239      0.02519123
      0.48328772     -0.26726694
      0.18419291     -0.21959616
p              7   1.000000
      1.83062075     -0.01161205
      0.10124670      0.57063399
      0.03901771      0.59594245
      5.62915889     -0.02527231
      1.45955684     -0.12640007
      0.51453895     -0.24408414
      0.20484682     -0.11644094
 
          46   0
s              4   1.000000
     34.94014448     -0.01198412
      6.01698200     -0.05472052
      0.48349018      0.58055871
      0.18427007      0.47700799
p              4   1.000000
      5.63151708      0.05713170
      1.46016829      0.28574555
      0.51475451      0.55178731
      0.20493264      0.26323149
s              7   1.000000
      0.38350848     -0.19622640
      0.04707223      0.94809386
      0.02222627      0.24898384
     34.94014448      0.00551482
      6.01698200      0.02518116
      0.48349018     -0.26716007
      0.18427007     -0.21950836
p              7   1.000000
      1.83062075     -0.01161129
      0.10124670      0.57059651
      0.03901771      0.59590329
      5.63151708     -0.02526217
      1.46016829     -0.12634934
      0.51475451     -0.24398617
      0.20493264     -0.11639420
 
          47   0
s              4   1.000000
     34.95146755     -0.01198412
      6.01893192     -0.05472053
      0.48364686      0.58055871
      0.18432979      0.47700800
p              4   1.000000
      5.63334209      0.05713170
      1.46064149      0.28574555
      0.51492132      0.55178731
      0.20499905      0.26323149
s              7   1.000000
      0.38350848     -0.19621580
      0.04707223      0.94804260
      0.02222627      0.24897038
     34.95146755      0.00551312
      6.01893192      0.02517337
      0.48364686     -0.26707743
      0.18432979     -0.21944045
p              7   1.000000
      1.83062075     -0.01161070
      0.10124670      0.57056753
      0.03901771      0.59587303
      5.63334209     -0.02525433
      1.46064149     -0.12631010
      0.51492132     -0.24391040
      0.20499905     -0.11635805
 
          48   0
s              4   1.000000
     35.62630094     -0.01198412
      6.13514382     -0.05472053
      0.49298498      0.58055871
      0.18788878      0.47700799
p              4   1.000000
      5.74210912      0.05713170
      1.48884315      0.28574555
      0.52486328      0.55178731
      0.20895712      0.26323149
s              7   1.000000
      0.38350848     -0.19559977
      0.04707223      0.94506619
      0.02222627      0.24818873
     35.62630094      0.00541327
      6.13514382      0.02471747
      0.49298498     -0.26224061
      0.18788878     -0.21546635
p              7   1.000000
      1.83062075     -0.01157646
      0.10124670      0.56888481
      0.03901771      0.59411566
      5.74210912     -0.02479517
      1.48884315     -0.12401360
      0.52486328     -0.23947576
      0.20895712     -0.11424250
 
          49   0
s              4   1.000000
      8.30926385      0.05675242
      1.52049291      0.26014135
      0.42240958      0.53284611
      0.14019394      0.29162544
s              7   1.000000
      0.92936822     -0.06732802
      0.05643440      0.66945135
      0.02166600      0.51461154
      8.30926385     -0.02902187
      1.52049291     -0.13303023
      0.42240958     -0.27248509
      0.14019394     -0.14913046
p              4   1.000000
      0.64737396      0.05713170
      0.16785440      0.28574555
      0.05917387      0.55178731
      0.02355814      0.26323150
 
          50   0
s              4   1.000000
      8.30947911      0.05675242
      1.52053230      0.26014135
      0.42242052      0.53284611
      0.14019757      0.29162544
s              7   1.000000
      0.92936822     -0.06732774
      0.05643440      0.66944860
      0.02166600      0.51460940
      8.30947911     -0.02902129
      1.52053230     -0.13302759
      0.42242052     -0.27247968
      0.14019757     -0.14912750
p              4   1.000000
      0.64737396      0.05713170
      0.16785440      0.28574555
      0.05917387      0.55178731
      0.02355814      0.26323150
 
          51   0
s              4   1.000000
      8.30924479      0.05675242
      1.52048942      0.26014135
      0.42240861      0.53284611
      0.14019362      0.29162544
s              7   1.000000
      0.92936822     -0.06732804
      0.05643440      0.66945159
      0.02166600      0.51461171
      8.30924479     -0.02902192
      1.52048942     -0.13303046
      0.42240861     -0.27248556
      0.14019362     -0.14913071
p              4   1.000000
      0.64737396      0.05713170
      0.16785440      0.28574555
      0.05917387      0.55178731
      0.02355814      0.26323150
 
          52   0
s              4   1.000000
      8.30900848      0.05675242
      1.52044618      0.26014135
      0.42239660      0.53284611
      0.14018963      0.29162544
s              7   1.000000
      0.92936822     -0.06732835
      0.05643440      0.66945462
      0.02166600      0.51461405
      8.30900848     -0.02902255
      1.52044618     -0.13303336
      0.42239660     -0.27249150
      0.14018963     -0.14913396
p              4   1.000000
      0.64737396      0.05713170
      0.16785440      0.28574555
      0.05917387      0.55178731
      0.02355814      0.26323150
 
          53   0
s              4   1.000000
      8.30927553      0.05675242
      1.52049505      0.26014135
      0.42241017      0.53284611
      0.14019414      0.29162544
s              7   1.000000
      0.92936822     -0.06732800
      0.05643440      0.66945120
      0.02166600      0.51461141
      8.30927553     -0.02902183
      1.52049505     -0.13303008
      0.42241017     -0.27248479
      0.14019414     -0.14913029
p              4   1.000000
      0.64737396      0.05713170
      0.16785440      0.28574555
      0.05917387      0.55178731
      0.02355814      0.26323150
 
          54   0
s              4   1.000000
      8.30945926      0.05675242
      1.52052867      0.26014135
      0.42241951      0.53284611
      0.14019724      0.29162544
s              7   1.000000
      0.92936822     -0.06732777
      0.05643440      0.66944885
      0.02166600      0.51460960
      8.30945926     -0.02902134
      1.52052867     -0.13302783
      0.42241951     -0.27248018
      0.14019724     -0.14912777
p              4   1.000000
      0.64737396      0.05713170
      0.16785440      0.28574555
      0.05917387      0.55178731
      0.02355814      0.26323150
 
          55   0
s              4   1.000000
      8.30930456      0.05675242
      1.52050036      0.26014135
      0.42241165      0.53284611
      0.14019463      0.29162544
s              7   1.000000
      0.92936822     -0.06732797
      0.05643440      0.66945083
      0.02166600      0.51461112
      8.30930456     -0.02902176
      1.52050036     -0.13302973
      0.42241165     -0.27248406
      0.14019463     -0.14912990
p              4   1.000000
      0.64737396      0.05713170
      0.16785440      0.28574555
      0.05917387      0.55178731
      0.02355814      0.26323150
 
          56   0
s              4   1.000000
      8.30951146      0.05675242
      1.52053822      0.26014135
      0.42242217      0.53284611
      0.14019812      0.29162544
s              7   1.000000
      0.92936822     -0.06732770
      0.05643440      0.66944818
      0.02166600      0.51460910
      8.30951146     -0.02902120
      1.52053822     -0.13302719
      0.42242217     -0.27247887
      0.14019812     -0.14912705
p              4   1.000000
      0.64737396      0.05713170
      0.16785440      0.28574555
      0.05917387      0.55178731
      0.02355814      0.26323150
 
          57   0
s              4   1.000000
      8.30974128      0.05675242
      1.52058027      0.26014135
      0.42243385      0.53284611
      0.14020200      0.29162543
s              7   1.000000
      0.92936822     -0.06732740
      0.05643440      0.66944524
      0.02166600      0.51460684
      8.30974128     -0.02902059
      1.52058027     -0.13302437
      0.42243385     -0.27247309
      0.14020200     -0.14912389
p              4   1.000000
      0.64737396      0.05713170
      0.16785440      0.28574555
      0.05917387      0.55178731
      0.02355814      0.26323150
 
          58   0
s              4   1.000000
      8.30925734      0.05675242
      1.52049172      0.26014135
      0.42240925      0.53284611
      0.14019383      0.29162544
s              7   1.000000
      0.92936822     -0.06732803
      0.05643440      0.66945143
      0.02166600      0.51461159
      8.30925734     -0.02902188
      1.52049172     -0.13303031
      0.42240925     -0.27248525
      0.14019383     -0.14913055
p              4   1.000000
      0.64737396      0.05713170
      0.16785440      0.28574555
      0.05917387      0.55178731
      0.02355814      0.26323150
 
          59   0
s              4   1.000000
      8.30897962      0.05675242
      1.52044090      0.26014135
      0.42239513      0.53284611
      0.14018915      0.29162544
s              7   1.000000
      0.92936822     -0.06732838
      0.05643440      0.66945498
      0.02166600      0.51461432
      8.30897962     -0.02902263
      1.52044090     -0.13303371
      0.42239513     -0.27249223
      0.14018915     -0.14913436
p              4   1.000000
      0.64737396      0.05713170
      0.16785440      0.28574555
      0.05917387      0.55178731
      0.02355814      0.26323150
 
          60   0
s              4   1.000000
      8.30894497      0.05675242
      1.52043456      0.26014135
      0.42239337      0.53284611
      0.14018856      0.29162544
s              7   1.000000
      0.92936822     -0.06732843
      0.05643440      0.66945543
      0.02166600      0.51461467
      8.30894497     -0.02902272
      1.52043456     -0.13303414
      0.42239337     -0.27249309
      0.14018856     -0.14913484
p              4   1.000000
      0.64737396      0.05713170
      0.16785440      0.28574555
      0.05917387      0.55178731
      0.02355814      0.26323150
 
          61   0
s              4   1.000000
      8.30896875      0.05675242
      1.52043891      0.26014135
      0.42239458      0.53284611
      0.14018896      0.29162544
s              7   1.000000
      0.92936822     -0.06732840
      0.05643440      0.66945512
      0.02166600      0.51461442
      8.30896875     -0.02902265
      1.52043891     -0.13303385
      0.42239458     -0.27249250
      0.14018896     -0.14913451
p              4   1.000000
      0.64737396      0.05713170
      0.16785440      0.28574555
      0.05917387      0.55178731
      0.02355814      0.26323150
 
          62   0
s              4   1.000000
      8.30905761      0.05675242
      1.52045517      0.26014135
      0.42239910      0.53284611
      0.14019046      0.29162544
s              7   1.000000
      0.92936822     -0.06732828
      0.05643440      0.66945399
      0.02166600      0.51461355
      8.30905761     -0.02902242
      1.52045517     -0.13303276
      0.42239910     -0.27249026
      0.14019046     -0.14913329
p              4   1.000000
      0.64737396      0.05713170
      0.16785440      0.28574555
      0.05917387      0.55178731
      0.02355814      0.26323150
 
          63   0
s              4   1.000000
      8.30960471      0.05675242
      1.52055528      0.26014135
      0.42242691      0.53284611
      0.14019969      0.29162544
s              7   1.000000
      0.92936822     -0.06732758
      0.05643440      0.66944699
      0.02166600      0.51460818
      8.30960471     -0.02902095
      1.52055528     -0.13302605
      0.42242691     -0.27247653
      0.14019969     -0.14912577
p              4   1.000000
      0.64737396      0.05713170
      0.16785440      0.28574555
      0.05917387      0.55178731
      0.02355814      0.26323150
 
          64   0
s              4   1.000000
      8.31078430      0.05675242
      1.52077113      0.26014135
      0.42248687      0.53284611
      0.14021960      0.29162544
s              7   1.000000
      0.92936822     -0.06732606
      0.05643440      0.66943190
      0.02166600      0.51459658
      8.31078430     -0.02901780
      1.52077113     -0.13301159
      0.42248687     -0.27244690
      0.14021960     -0.14910956
p              4   1.000000
      0.64737396      0.05713170
      0.16785440      0.28574555
      0.05917387      0.55178731
      0.02355814      0.26323150
 
          65   0
s              4   1.000000
      8.31115198      0.05675242
      1.52083842      0.26014135
      0.42250557      0.53284611
      0.14022580      0.29162544
s              7   1.000000
      0.92936822     -0.06732559
      0.05643440      0.66942720
      0.02166600      0.51459295
      8.31115198     -0.02901682
      1.52083842     -0.13300708
      0.42250557     -0.27243767
      0.14022580     -0.14910450
p              4   1.000000
      0.64737396      0.05713170
      0.16785440      0.28574555
      0.05917387      0.55178731
      0.02355814      0.26323150
 
          66   0
s              4   1.000000
      8.31056643      0.05675242
      1.52073127      0.26014135
      0.42247580      0.53284611
      0.14021592      0.29162544
s              7   1.000000
      0.92936822     -0.06732634
      0.05643440      0.66943469
      0.02166600      0.51459872
      8.31056643     -0.02901838
      1.52073127     -0.13301426
      0.42247580     -0.27245237
      0.14021592     -0.14911255
p              4   1.000000
      0.64737396      0.05713170
      0.16785440      0.28574555
      0.05917387      0.55178731
      0.02355814      0.26323150
 
          67   0
s              4   1.000000
      8.30916829      0.05675242
      1.52047542      0.26014135
      0.42240472      0.53284611
      0.14019233      0.29162544
s              7   1.000000
      0.92936822     -0.06732814
      0.05643440      0.66945257
      0.02166600      0.51461246
      8.30916829     -0.02902212
      1.52047542     -0.13303140
      0.42240472     -0.27248749
      0.14019233     -0.14913177
p              4   1.000000
      0.64737396      0.05713170
      0.16785440      0.28574555
      0.05917387      0.55178731
      0.02355814      0.26323150
 
          68   0
s              4   1.000000
      8.30901050      0.05675242
      1.52044655      0.26014135
      0.42239670      0.53284611
      0.14018967      0.29162544
s              7   1.000000
      0.92936822     -0.06732834
      0.05643440      0.66945458
      0.02166600      0.51461402
      8.30901050     -0.02902254
      1.52044655     -0.13303333
      0.42239670     -0.27249145
      0.14018967     -0.14913393
p              4   1.000000
      0.64737396      0.05713170
      0.16785440      0.28574555
      0.05917387      0.55178731
      0.02355814      0.26323150
 
          69   0
s              4   1.000000
      8.30897555      0.05675242
      1.52044016      0.26014135
      0.42239492      0.53284611
      0.14018908      0.29162544
s              7   1.000000
      0.92936822     -0.06732839
      0.05643440      0.66945503
      0.02166600      0.51461437
      8.30897555     -0.02902264
      1.52044016     -0.13303376
      0.42239492     -0.27249233
      0.14018908     -0.14913442
p              4   1.000000
      0.64737396      0.05713170
      0.16785440      0.28574555
      0.05917387      0.55178731
      0.02355814      0.26323150
 
          70   0
s              4   1.000000
      8.30896231      0.05675242
      1.52043773      0.26014135
      0.42239425      0.53284611
      0.14018886      0.29162544
s              7   1.000000
      0.92936822     -0.06732841
      0.05643440      0.66945520
      0.02166600      0.51461450
      8.30896231     -0.02902267
      1.52043773     -0.13303392
      0.42239425     -0.27249266
      0.14018886     -0.14913460
p              4   1.000000
      0.64737396      0.05713170
      0.16785440      0.28574555
      0.05917387      0.55178731
      0.02355814      0.26323150
 
          71   0
s              4   1.000000
      8.30896247      0.05675242
      1.52043776      0.26014135
      0.42239426      0.53284611
      0.14018886      0.29162544
s              7   1.000000
      0.92936822     -0.06732841
      0.05643440      0.66945520
      0.02166600      0.51461450
      8.30896247     -0.02902267
      1.52043776     -0.13303392
      0.42239426     -0.27249266
      0.14018886     -0.14913460
p              4   1.000000
      0.64737396      0.05713170
      0.16785440      0.28574555
      0.05917387      0.55178731
      0.02355814      0.26323150
 
          72   0
s              4   1.000000
      8.30898471      0.05675242
      1.52044183      0.26014135
      0.42239539      0.53284611
      0.14018923      0.29162544
s              7   1.000000
      0.92936822     -0.06732838
      0.05643440      0.66945492
      0.02166600      0.51461427
      8.30898471     -0.02902261
      1.52044183     -0.13303365
      0.42239539     -0.27249210
      0.14018923     -0.14913429
p              4   1.000000
      0.64737396      0.05713170
      0.16785440      0.28574555
      0.05917387      0.55178731
      0.02355814      0.26323150
 
          73   0
s              4   1.000000
      8.30908630      0.05675242
      1.52046042      0.26014135
      0.42240055      0.53284611
      0.14019095      0.29162544
s              7   1.000000
      0.92936822     -0.06732825
      0.05643440      0.66945361
      0.02166600      0.51461328
      8.30908630     -0.02902234
      1.52046042     -0.13303240
      0.42240055     -0.27248955
      0.14019095     -0.14913290
p              4   1.000000
      0.64737396      0.05713170
      0.16785440      0.28574555
      0.05917387      0.55178731
      0.02355814      0.26323150
 
          74   0
s              4   1.000000
      8.30957829      0.05675242
      1.52055045      0.26014135
      0.42242557      0.53284611
      0.14019925      0.29162544
s              7   1.000000
      0.92936822     -0.06732761
      0.05643440      0.66944732
      0.02166600      0.51460843
      8.30957829     -0.02902102
      1.52055045     -0.13302637
      0.42242557     -0.27247719
      0.14019925     -0.14912613
p              4   1.000000
      0.64737396      0.05713170
      0.16785440      0.28574555
      0.05917387      0.55178731
      0.02355814      0.26323150
 
 [MO]
 Sym= Hole
 Ene= -0.5514615    
 Spin= Alpha
 Occup= 0
           1 -1.9304474E-03
           2 -3.4039058E-02
           3 -1.5379396E-02
           4  5.2004188E-02
           5  8.3548413E-04
           6  4.7583110E-03
           7  3.7930888E-04
           8 -6.3449270E-03
           9  1.0660108E-02
          10  1.6860239E-02
          11 -2.0512277E-03
          12 -1.1225475E-02
          13  2.7718551E-03
          14  4.4652773E-03
          15  5.5211536E-03
          16  1.6457919E-02
          17 -4.1553698E-02
          18  3.7907790E-02
          19  4.3413978E-02
          20 -0.1483354    
          21  2.7407659E-02
          22 -3.7592489E-03
          23  8.2590291E-03
          24  2.1839088E-02
          25  9.3524158E-03
          26 -1.6739100E-02
          27 -5.4974020E-03
          28  3.5161380E-02
          29 -3.3990680E-03
          30  3.3047614E-03
          31  7.2921066E-05
          32 -7.1543497E-03
          33  2.7808123E-03
          34 -8.8891320E-02
          35 -6.7478605E-02
          36  8.2723550E-02
          37 -2.2035199E-03
          38  9.6684834E-03
          39  2.9089265E-03
          40 -4.5131338E-03
          41 -1.4461857E-02
          42  1.8376330E-02
          43 -1.4731258E-02
          44 -1.8699562E-02
          45  3.1100789E-03
          46  1.4456325E-03
          47  1.9449354E-03
          48 -2.4314323E-03
          49  1.0481010E-02
          50 -1.9158600E-02
          51  8.7344982E-03
          52  9.3162153E-03
          53 -2.9678624E-03
          54  6.0414011E-04
          55  1.9650233E-03
          56  9.1613270E-05
          57 -4.1124155E-03
          58  2.1926907E-04
          59 -6.2946063E-03
          60  1.1280554E-02
          61  9.6551032E-04
          62  9.4746531E-04
          63 -1.5174331E-04
          64 -2.6105522E-04
          65  2.4349752E-03
          66 -2.9870004E-03
          67  1.7753305E-03
          68 -6.5407627E-03
          69 -1.4374325E-03
          70  1.3739322E-03
          71 -6.5147184E-04
          72 -1.2776064E-05
          73 -2.6994559E-04
          74  3.4707340E-03
          75  1.8167699E-03
          76 -1.2967883E-02
          77 -2.5723106E-04
          78  3.0719186E-04
          79  1.0132082E-04
          80 -4.9768911E-05
          81  1.3847771E-03
          82 -4.0906826E-03
          83  1.6772219E-03
          84 -2.0368670E-03
          85 -6.9493864E-04
          86  7.4947445E-04
          87 -1.0861971E-03
          88 -3.0983312E-04
          89  1.4856103E-04
          90  1.1561316E-03
          91  1.5700120E-03
          92  8.5815246E-04
          93  1.5408330E-05
          94  1.8870743E-04
          95 -9.0112095E-05
          96 -8.9631449E-08
          97  4.6378575E-04
          98  3.2316144E-03
          99 -2.5476948E-03
         100 -7.5528417E-03
         101 -1.5263986E-04
         102 -1.9393684E-04
         103  1.0689164E-04
         104  3.6715649E-04
         105 -5.5772538E-04
         106  2.7640886E-03
         107 -1.5541746E-03
         108 -1.5126084E-03
         109  2.5574942E-04
         110 -2.4633852E-04
         111 -1.5864613E-05
         112  2.2343732E-04
         113  1.7187051E-03
         114 -6.4863157E-03
         115  3.5746889E-03
         116  2.9031658E-03
         117 -1.1260342E-03
         118  4.9780798E-04
         119 -7.7395176E-04
         120 -1.5232866E-04
         121 -5.1765394E-04
         122  7.1985385E-05
         123  6.6917168E-04
         124  5.0069147E-04
         125  2.8203344E-06
         126  4.6980745E-04
         127 -4.7598264E-04
         128  8.5389911E-05
         129 -1.9361761E-04
         130  2.2033674E-03
         131 -1.8838135E-03
         132 -2.3268329E-03
         133 -1.4895638E-05
         134 -1.7167459E-04
         135  1.7958209E-04
         136  2.5312923E-04
         137 -3.3549433E-05
         138 -2.2006354E-04
         139  1.2977144E-03
         140  3.8256610E-03
         141  1.3246189E-04
         142 -5.6619296E-04
         143 -3.4414043E-04
         144 -8.0258347E-04
         145 -1.4467328E-04
         146 -6.0678357E-03
         147 -6.1499984E-03
         148 -2.1441489E-02
         149  1.0675863E-04
         150  7.7428855E-04
         151  6.3541718E-04
         152  1.6442948E-03
         153 -9.6089678E-04
         154  1.4760440E-03
         155  1.1515069E-03
         156  2.2101188E-03
         157  6.8509864E-04
         158 -1.2075836E-03
         159 -1.0555001E-03
         160 -7.3445402E-04
         161  1.6624336E-03
         162  1.9855853E-03
         163  6.6177812E-03
         164  1.2116954E-02
         165  7.1701920E-04
         166 -1.4884362E-03
         167 -1.3956199E-03
         168 -3.9487390E-04
         169 -4.1598999E-03
         170  7.4788732E-03
         171  8.0839853E-04
         172  2.0360970E-04
         173  3.4421494E-03
         174 -3.0977032E-04
         175  7.7860802E-04
         176  4.0994078E-04
         177  3.2948246E-03
         178 -7.8156358E-03
         179 -1.8039380E-03
         180 -1.0214468E-02
         181 -2.6257400E-04
         182 -2.3806859E-03
         183 -1.6369375E-04
         184 -1.9766419E-04
         185 -1.5571965E-03
         186  1.3237437E-03
         187 -2.5527128E-03
         188 -7.3440117E-03
         189  6.4176891E-04
         190 -5.9631874E-04
         191  3.7643500E-04
         192  2.7626380E-04
         193  1.8753871E-04
         194  1.5833151E-03
         195  4.4320347E-03
         196  8.1986394E-03
         197 -3.7430156E-05
         198  2.1898723E-04
         199 -2.3443541E-04
         200 -4.7165339E-04
         201 -1.6597877E-04
         202  3.2914898E-03
         203  3.3195808E-03
         204  8.9571821E-03
         205  1.6589901E-04
         206  1.3355631E-04
         207 -1.3158398E-04
         208 -2.5438366E-04
         209 -1.0127571E-05
         210 -1.7014308E-03
         211 -2.7795106E-03
         212 -5.8991672E-03
         213  1.0262485E-04
         214  9.6031406E-05
         215 -1.3000247E-05
         216  5.8607524E-04
         217  9.1833659E-05
         218 -3.3878377E-03
         219 -3.7900284E-03
         220 -1.1101071E-02
         221  6.2918742E-05
         222 -1.2274201E-04
         223  2.2712884E-04
         224  4.0431556E-04
         225 -1.0282912E-04
         226  8.7395869E-04
         227  5.9284607E-04
         228  1.7912379E-03
         229  5.7065954E-05
         230  8.3606874E-06
         231  6.4772532E-05
         232  1.8237176E-04
         233  9.8927245E-05
         234  4.5259697E-03
         235  3.1999855E-03
         236  1.2262586E-02
         237 -1.0168718E-04
         238 -1.3834615E-04
         239 -2.7909540E-04
         240 -4.2322322E-04
         241  1.4984258E-04
         242  2.6219542E-04
         243  1.3389722E-03
         244  3.3814246E-03
         245 -2.2502791E-04
         246 -4.7243599E-04
         247 -1.0180285E-04
         248 -8.6852477E-04
         249 -1.7182046E-03
         250 -7.6767639E-03
         251  6.4776349E-04
         252  4.7872690E-03
         253  1.1613030E-03
         254  5.1806454E-04
         255  5.8854924E-04
         256  1.4691937E-04
         257 -2.4785360E-03
         258  7.2869146E-04
         259 -3.7706385E-03
         260  1.3281130E-02
         261  1.6358519E-03
         262 -6.1903661E-04
         263  1.8931944E-03
         264 -3.4760445E-04
         265  4.1864429E-02
         266  3.3394631E-02
         267  0.1342224    
         268 -0.1112475    
         269 -2.2095947E-02
         270  3.3700088E-04
         271 -1.9868931E-02
         272  2.8484340E-03
         273 -3.2430431E-03
         274  6.0060572E-02
         275 -5.1971795E-03
         276 -1.0243632E-02
         277  6.2043653E-03
         278 -2.2484204E-02
         279  6.5121050E-03
         280  3.7569108E-03
         281  2.1496272E-02
         282 -0.5275300    
         283 -4.9504596E-03
         284 -2.3724336E-02
         285 -8.0121104E-03
         286  4.0639393E-02
         287 -6.3244789E-04
         288  5.3835236E-03
         289 -3.5178065E-03
         290  8.4079690E-02
         291  1.7604454E-03
         292  1.0461896E-02
         293  4.0475782E-03
         294 -2.0802693E-02
         295 -6.9884432E-04
         296 -3.2317811E-03
         297  7.0320885E-04
         298  0.3147095    
         299 -2.3561161E-02
         300  1.1369036E-02
         301  1.0754849E-03
         302 -1.0521319E-02
         303  1.3063467E-03
         304 -2.5665280E-03
         305 -8.8623428E-04
         306  4.5386039E-02
         307 -8.3886094E-05
         308  3.7949476E-03
         309  4.5554206E-04
         310  4.0048924E-03
         311 -8.2656811E-04
         312  5.1770912E-04
         313  3.6307363E-04
         314 -0.3015429    
         315  9.7501753E-03
         316 -1.0112303E-02
         317 -2.2900729E-04
         318  9.7824279E-03
         319 -1.5055557E-04
         320  6.8875612E-04
         321 -1.3691175E-03
         322 -0.1752218    
         323  6.8818922E-03
         324 -1.6529891E-03
         325 -2.3411601E-04
         326  1.0763889E-02
         327  3.7438452E-04
         328  1.7136408E-03
         329  4.6411250E-03
         330  0.2368508    
         331 -1.2468873E-02
         332  1.8769293E-03
         333 -7.1505009E-04
         334 -1.0873130E-02
         335 -2.1366000E-03
         336 -5.4200907E-04
         337 -5.9829344E-04
         338  0.2443053    
         339 -1.7726937E-02
         340  3.7658256E-03
         341  1.0825098E-03
         342 -1.1093436E-02
         343  5.7619502E-04
         344  9.0287346E-04
         345 -1.4193935E-03
         346 -0.1757364    
         347  1.4003697E-02
         348 -8.9947330E-03
         349 -3.9370989E-05
         350  1.0398882E-02
         351  1.0446379E-03
         352  9.1537053E-04
         353 -6.6199270E-04
         354 -0.3086642    
         355  1.8746464E-02
         356 -1.8268058E-02
         357  8.4434971E-05
         358  9.1011170E-03
         359  8.5828657E-04
         360  6.0264464E-04
         361 -9.8020048E-04
         362  3.8410615E-02
         363 -1.2427034E-03
         364  2.0863747E-03
         365 -7.4002962E-04
         366  3.8911174E-03
         367  2.1135302E-03
         368 -8.3032291E-04
         369 -1.4445332E-03
         370  0.3187403    
         371 -1.6158123E-02
         372  2.9503092E-02
         373  1.8634039E-03
         374 -1.0205235E-02
         375  1.7697437E-03
         376 -1.2603445E-03
         377 -5.8360896E-03
         378  0.1034369    
         379  6.5607913E-03
         380  3.4088618E-03
         381  6.5665799E-03
         382 -2.3116289E-02
         383 -5.9138839E-03
         384  2.1056847E-03
         385 -2.2618799E-02
         386  3.5716253E-04
         387 -1.3243103E-03
         388 -3.7171412E-03
         389 -2.4981115E-03
         390 -1.8284987E-03
         391 -5.6662661E-04
         392 -9.7826365E-03
         393 -4.1331463E-03
         394  6.9466904E-03
         395 -3.6014300E-03
         396  7.0790813E-04
         397 -6.9234881E-04
         398  8.0792379E-05
         399 -6.2666157E-05
         400 -1.1755113E-03
         401  4.0202658E-04
         402  3.2025101E-04
         403  7.2450854E-04
         404 -1.8910940E-04
         405  1.7782662E-03
         406 -7.0956266E-05
         407 -2.4074504E-04
         408  5.1805726E-04
         409 -1.7309947E-04
         410 -1.4599532E-04
         411 -6.9749600E-05
         412  1.3792208E-04
         413 -1.0099466E-04
         414 -5.8669836E-04
         415  2.0218336E-03
         416  1.2538464E-04
         417 -1.0734743E-04
         418  1.7194764E-04
         419 -8.5207721E-05
         420  8.5127458E-04
         421  9.8324509E-04
         422 -2.5819628E-03
         423  6.5074378E-04
         424  1.1875494E-03
         425 -1.7371834E-03
         426 -1.4210176E-03
         427  3.6189288E-03
         428  6.3229436E-03
         429  3.9676190E-03
         430  1.2568180E-03
         431 -6.6668371E-04
         432  1.5807587E-03
         433 -3.3003674E-03
         434 -6.2399451E-04
         435 -5.3199567E-04
         436  2.5439970E-04
         437 -3.9423030E-05
         438  6.1595114E-04
         439 -1.6013868E-07
         440 -5.3141004E-04
         441 -1.2903678E-04
         442 -1.3508256E-04
         443 -1.4298496E-05
         444 -9.0871414E-05
         445  8.7662520E-05
         446  9.5807463E-06
         447 -2.0917380E-04
         448 -1.4679406E-04
         449 -6.3755619E-04
         450  5.9219874E-05
         451  1.3158747E-04
         452  3.7989223E-05
         453  9.7952761E-05
         454  4.4192700E-05
         455  8.3061599E-04
         456  1.9955340E-04
         457  6.5598782E-05
         458  3.5341328E-04
         459  4.7994443E-04
         460  1.1869892E-03
         461  4.8853422E-04
         462 -3.1724878E-04
         463  1.5739381E-03
         464  7.6100248E-04
         465 -4.3789134E-03
         466  3.2253710E-03
         467 -3.8775601E-03
         468  3.5873801E-03
         469 -1.3518664E-03
         470 -1.3705444E-02
         471 -6.2941299E-03
         472  8.4936945E-03
         473 -1.4094862E-02
         474 -5.4847267E-03
         475  3.8731210E-03
         476 -1.8551745E-03
         477  1.4760088E-02
         478  2.4798852E-03
         479  1.8128472E-03
         480 -2.1071080E-03
         481  2.6193689E-04
         482  2.5710994E-03
         483 -4.9343426E-04
         484  1.5685672E-04
         485 -1.8654915E-03
         486 -3.1756930E-04
         487 -1.4023535E-02
         488  3.7572230E-04
         489 -3.5044466E-04
         490  2.5196706E-03
         491 -4.6169941E-04
         492 -3.8295740E-03
         493  2.4869796E-04
         494 -6.5568357E-04
         495  3.8746402E-03
         496 -1.6094962E-03
         497 -3.7681281E-03
         498  6.8179215E-04
         499  2.6052643E-04
         500  4.8179663E-04
         501  1.5196622E-04
         502 -1.3200315E-02
         503  2.3285023E-04
         504 -5.7777087E-04
         505  3.6939161E-03
         506 -1.6374277E-03
         507  2.6558742E-03
         508  3.6884219E-04
         509 -1.5228240E-04
         510  1.4998673E-03
         511 -4.7955965E-04
         512  1.4246150E-02
         513 -3.0403214E-03
         514 -1.7170880E-03
 Sym= Particle
 Ene= -0.5514615    
 Spin= Alpha
 Occup= 2
           1  1.6548638E-03
           2 -7.8814797E-02
           3 -7.0387214E-02
           4  0.1065821    
           5 -3.6241654E-03
           6  1.0604461E-02
           7  9.3849385E-03
           8 -1.9801205E-02
           9 -7.9510501E-04
          10  5.4090042E-02
          11  4.6882723E-02
          12 -7.0959352E-02
          13 -4.5799385E-03
          14 -1.6359674E-02
          15 -2.1945499E-02
          16  2.4292717E-02
          17 -3.6669953E-03
          18  0.1285979    
          19  0.1116907    
          20 -0.1636443    
          21  1.9246336E-03
          22 -3.5060186E-02
          23 -3.1230321E-02
          24  4.8554152E-02
          25  4.3081108E-04
          26 -1.6449556E-03
          27  2.7124065E-03
          28  1.9664150E-04
          29 -9.8549691E-04
          30  3.5130077E-03
          31  6.2159082E-04
          32 -4.7462415E-03
          33  2.2224565E-03
          34 -0.1342463    
          35 -0.1162000    
          36  0.1425224    
          37 -3.1157427E-03
          38  3.0741191E-02
          39  2.6428431E-02
          40 -3.5523154E-02
          41 -3.6587934E-03
          42  9.5341258E-02
          43  9.2235863E-02
          44 -0.1102253    
          45  2.2839305E-04
          46 -2.2359645E-02
          47 -2.1618105E-02
          48  2.1837777E-02
          49  2.6301052E-03
          50  7.6615874E-04
          51  3.3994406E-03
          52 -2.3900215E-02
          53 -3.0855848E-03
          54  8.4860288E-03
          55  3.2640200E-03
          56 -1.8620583E-03
          57  5.7659834E-03
          58 -1.1963047E-02
          59  7.3843072E-03
          60  5.7933092E-02
          61 -5.6102122E-03
          62  3.6390440E-03
          63 -5.3284378E-03
          64 -9.6045472E-03
          65 -1.5069400E-03
          66 -9.4863470E-05
          67 -1.5630284E-03
          68  1.4699792E-03
          69  8.0840976E-04
          70  2.7898661E-05
          71  1.0305574E-03
          72  2.2265352E-03
          73 -7.5185858E-04
          74  1.2441131E-02
          75  8.6951321E-03
          76 -5.0630115E-02
          77  9.4069575E-04
          78 -3.0865045E-03
          79 -1.6509702E-03
          80  6.7269835E-03
          81  4.3876260E-03
          82 -8.8078892E-03
          83  2.0927712E-03
          84  8.1350338E-03
          85 -1.8284728E-03
          86  1.0582657E-03
          87 -1.6576437E-03
          88  2.6335113E-03
          89 -1.2412225E-03
          90 -6.6539943E-03
          91  6.8104449E-03
          92  1.1658023E-02
          93  7.6741033E-04
          94  1.4879698E-03
          95 -2.7143618E-03
          96 -2.3659789E-03
          97  4.1688248E-04
          98  7.9229428E-03
          99 -5.1369378E-03
         100 -1.2415980E-02
         101  5.2489474E-04
         102 -2.4296939E-03
         103  8.3783310E-04
         104  2.3073165E-03
         105 -5.3705712E-04
         106  3.3256675E-03
         107 -4.5969317E-04
         108 -4.0221871E-03
         109  7.5662654E-04
         110 -1.3618515E-03
         111 -2.8463791E-04
         112  1.3895946E-03
         113 -1.9274146E-04
         114 -1.2943301E-02
         115  4.9436609E-03
         116  1.5481520E-02
         117  3.5547445E-04
         118  3.3223133E-03
         119 -1.2912259E-03
         120 -3.7241599E-03
         121  9.9937235E-05
         122 -5.3466880E-03
         123  1.9114352E-03
         124  6.1120936E-03
         125 -8.9997135E-05
         126  2.0363121E-03
         127 -1.1429473E-04
         128 -1.4665225E-03
         129 -2.6856855E-04
         130  8.6035850E-03
         131 -3.0992106E-03
         132 -9.7497571E-03
         133  1.2625035E-04
         134 -1.5720391E-03
         135  5.2889460E-04
         136  1.5167970E-03
         137 -2.5471006E-04
         138  1.1063241E-02
         139 -3.8492177E-03
         140 -1.3591952E-02
         141  1.4325436E-04
         142 -3.4114001E-03
         143  6.7259965E-04
         144  4.2199707E-03
         145  6.3263084E-05
         146 -4.7624437E-04
         147 -9.1274705E-04
         148 -2.3250638E-03
         149 -6.3509832E-04
         150  1.5179543E-03
         151 -9.6302618E-05
         152  7.8213535E-04
         153  1.3540069E-03
         154  3.5539805E-03
         155  1.3652847E-03
         156  9.7943312E-03
         157 -1.2925810E-03
         158  1.1040180E-03
         159  2.0721270E-04
         160 -3.7563017E-03
         161 -1.9377436E-03
         162  3.0516873E-03
         163  1.3370692E-03
         164  3.8078027E-03
         165  1.5837890E-03
         166  1.2259277E-03
         167 -7.6947414E-04
         168 -1.1048508E-03
         169  3.2868721E-03
         170 -7.5980006E-03
         171 -3.9488217E-03
         172 -8.8605816E-03
         173 -1.8333881E-03
         174  6.1269007E-03
         175  1.4690788E-03
         176 -2.3200777E-03
         177 -2.5038463E-03
         178  3.8599088E-03
         179  1.0740419E-03
         180  3.2256525E-03
         181  8.0285291E-04
         182 -3.0593760E-04
         183  1.7263355E-03
         184 -2.0331375E-03
         185  1.2980350E-03
         186 -5.0952047E-04
         187  1.6996899E-03
         188  5.6961086E-03
         189 -2.0232962E-03
         190  1.9793615E-03
         191 -9.9339173E-05
         192 -3.4355971E-03
         193 -2.8258748E-04
         194 -1.9189420E-03
         195 -2.9019064E-03
         196 -9.8218806E-03
         197 -7.0288475E-04
         198  1.4943839E-03
         199  1.2997793E-03
         200  1.6531696E-03
         201  2.5362300E-04
         202 -2.0776850E-03
         203 -3.4710923E-03
         204 -8.1224917E-03
         205 -4.3145925E-04
         206  7.3836208E-04
         207  1.1481333E-03
         208  1.8653705E-03
         209 -2.5565788E-04
         210  2.8444438E-03
         211  3.2227093E-03
         212  8.2793729E-03
         213 -2.1823109E-04
         214 -4.2073365E-04
         215 -4.4548514E-04
         216 -2.2374950E-03
         217  1.5928916E-05
         218  4.8983190E-04
         219  4.1545424E-04
         220  1.4727950E-03
         221 -2.6617400E-04
         222  7.8674835E-05
         223  6.2718478E-05
         224 -3.8359495E-04
         225 -3.0042260E-04
         226 -2.8910639E-03
         227 -2.7484354E-03
         228 -9.5300935E-03
         229  9.9084085E-05
         230  1.0763584E-03
         231  6.4917037E-04
         232  2.3162731E-03
         233  2.1226909E-04
         234  1.4247154E-03
         235  1.6865117E-03
         236  5.2766469E-03
         237 -9.9492936E-05
         238  8.8676978E-05
         239 -4.0372336E-04
         240 -1.2392625E-03
         241 -1.2212381E-03
         242  3.2107206E-03
         243  3.3764315E-03
         244  4.7967015E-03
         245  7.3234993E-04
         246 -9.2659320E-04
         247 -1.6577537E-03
         248 -1.6741604E-03
         249  4.9138459E-04
         250  1.1021909E-03
         251 -1.6494403E-03
         252 -3.1718963E-03
         253 -1.5427558E-04
         254  1.8116171E-03
         255 -1.6555303E-03
         256  3.2184288E-04
         257 -1.3202646E-02
         258  7.1709004E-04
         259 -4.6784221E-03
         260  4.8704173E-02
         261  1.0543543E-02
         262 -3.5461104E-03
         263  5.4458268E-03
         264 -1.0375232E-02
         265  5.0293137E-03
         266  5.5662692E-02
         267  5.7513542E-02
         268 -7.8574106E-02
         269 -1.0108326E-03
         270 -2.0188872E-02
         271 -1.8268384E-02
         272  3.0326921E-02
         273 -1.3514478E-03
         274 -0.1913691    
         275 -0.1481948    
         276  0.2009045    
         277  3.8901353E-03
         278  7.2697319E-02
         279  5.9291936E-02
         280 -7.4208893E-02
         281  3.5601640E-03
         282 -9.3394823E-02
         283  7.5188163E-04
         284 -3.8468475E-03
         285 -6.5183558E-04
         286  3.0499918E-02
         287 -4.3170229E-03
         288  7.0642261E-03
         289 -1.8965609E-02
         290  0.1849555    
         291  4.0697893E-03
         292  4.3251440E-02
         293  1.8914593E-02
         294 -7.1516819E-02
         295 -6.3523273E-03
         296 -1.9141408E-02
         297  9.6496259E-04
         298  0.1980900    
         299 -8.5172560E-03
         300  5.2750786E-03
         301  1.7164620E-03
         302 -5.3523410E-02
         303  1.2567026E-03
         304 -2.6268291E-03
         305 -2.9095199E-03
         306 -0.3211999    
         307  1.6702134E-02
         308 -7.0128213E-03
         309  2.1930805E-03
         310  8.0636039E-02
         311 -5.5011082E-03
         312  3.1995922E-03
         313 -1.1403956E-03
         314  4.7641881E-02
         315 -3.5267593E-03
         316  1.9018753E-03
         317  1.8772439E-03
         318 -6.6534216E-03
         319  1.0140956E-03
         320 -1.4020987E-04
         321 -3.5363694E-03
         322  0.2845470    
         323 -9.0235705E-03
         324  1.3116447E-02
         325  3.3222600E-03
         326 -7.3742226E-02
         327  3.1435310E-03
         328 -2.2540998E-03
         329 -1.4097615E-05
         330 -0.2874653    
         331 -5.7426309E-03
         332 -4.3175058E-03
         333  3.6937408E-03
         334  7.1116611E-02
         335  5.3865463E-03
         336  1.3870087E-04
         337  1.1215656E-03
         338 -0.2776467    
         339  2.0148026E-02
         340  4.2182268E-03
         341 -8.7554718E-04
         342  6.6815801E-02
         343 -5.7383375E-03
         344 -1.4376303E-03
         345  2.3665365E-03
         346  0.2827663    
         347 -2.1210929E-02
         348  1.5296352E-02
         349 -9.5970830E-04
         350 -7.4798860E-02
         351  2.0798089E-03
         352 -3.4978010E-03
         353  1.0438203E-03
         354  4.1180395E-02
         355 -1.5081780E-03
         356  4.9416083E-03
         357 -1.8564902E-03
         358 -7.0197321E-03
         359 -6.6948310E-04
         360 -3.3050145E-03
         361  4.1279811E-03
         362 -0.3181239    
         363  1.2655080E-02
         364 -2.3056446E-02
         365 -4.6652476E-03
         366  8.0319755E-02
         367 -2.5673721E-03
         368  5.8606528E-03
         369 -2.3873835E-03
         370  0.1942514    
         371 -8.1828618E-03
         372  1.3664550E-02
         373 -2.0790445E-03
         374 -4.8205931E-02
         375  4.1315863E-03
         376 -4.9647437E-03
         377  1.6769772E-02
         378  0.1848997    
         379 -4.6195403E-02
         380  1.7329365E-02
         381 -1.2573407E-02
         382 -7.2007202E-02
         383  2.2276701E-02
         384 -2.3486840E-03
         385 -4.4102059E-03
         386  9.7813690E-04
         387  4.3256083E-03
         388  2.8678153E-03
         389 -3.0081065E-03
         390  6.9104768E-05
         391 -1.5403492E-03
         392 -3.0030640E-02
         393 -2.3211248E-02
         394  3.1098867E-02
         395 -2.3740171E-03
         396  1.7725274E-03
         397 -4.7584479E-03
         398  1.7140917E-03
         399  6.3130683E-03
         400  4.0946011E-03
         401 -3.5497578E-04
         402  6.2732329E-04
         403  5.3614815E-04
         404 -7.0600235E-04
         405  1.3818803E-03
         406  7.5476093E-04
         407  1.5145545E-03
         408  1.4772002E-03
         409 -7.3806355E-03
         410  6.1405159E-04
         411 -7.7144774E-05
         412  1.8493859E-03
         413 -5.7283707E-04
         414 -1.9661710E-03
         415  4.5295176E-04
         416 -2.0824106E-04
         417  7.3421316E-04
         418 -7.0915261E-04
         419  3.6903220E-05
         420 -1.5143882E-03
         421  1.3668583E-03
         422 -1.3746147E-03
         423 -3.2622328E-03
         424  2.1115439E-03
         425 -4.1935449E-03
         426 -3.2413288E-03
         427  1.4058959E-02
         428 -2.8684577E-03
         429 -1.2524725E-02
         430  9.1608445E-04
         431  3.4098519E-04
         432 -8.1812926E-03
         433  6.2386738E-03
         434  8.5212998E-03
         435 -2.2027765E-04
         436 -1.6473896E-03
         437  1.0133019E-03
         438  3.9609417E-04
         439  3.1509029E-04
         440  2.8225797E-04
         441 -3.8943824E-04
         442  8.8681740E-04
         443  1.1634645E-03
         444  1.4170936E-03
         445 -1.2371721E-04
         446 -1.0451128E-04
         447  1.4797470E-04
         448  1.1939774E-04
         449 -7.1991301E-05
         450  1.3557491E-04
         451  2.9280232E-05
         452 -1.7900388E-04
         453 -7.9927268E-04
         454 -1.9597770E-03
         455  2.5183862E-04
         456 -4.2849121E-04
         457  1.1538195E-03
         458  1.0223408E-03
         459  7.0213509E-04
         460  3.4514963E-04
         461 -5.4716237E-04
         462  1.2352541E-03
         463 -3.1122906E-04
         464  9.0638663E-05
         465  3.4507143E-03
         466  4.6654339E-03
         467 -1.1856322E-02
         468  6.9845370E-03
         469  8.0819282E-04
         470 -8.3076948E-04
         471  3.4977747E-03
         472  1.1253806E-02
         473  1.9412898E-02
         474 -3.0293164E-03
         475  5.6255851E-03
         476 -4.9725291E-03
         477  2.9681655E-02
         478  4.6957629E-03
         479  3.3814571E-04
         480  3.1189099E-03
         481  4.2069133E-04
         482 -6.7891531E-02
         483  2.4109527E-03
         484 -1.9349279E-03
         485  2.9743509E-04
         486  1.4897271E-03
         487  1.2043520E-02
         488 -5.4359855E-04
         489 -5.4619956E-04
         490  6.3446136E-03
         491 -6.0447218E-04
         492  5.9426237E-02
         493 -1.7143075E-03
         494  3.1446621E-03
         495 -7.5005312E-03
         496  1.9486323E-03
         497  5.7310347E-02
         498 -7.0506060E-03
         499  3.6753803E-03
         500 -2.0425365E-04
         501 -1.4296782E-03
         502  9.8366877E-03
         503 -2.7216307E-04
         504 -1.2472704E-03
         505 -2.4109047E-03
         506 -1.2761573E-03
         507 -6.4066835E-02
         508  3.7638920E-03
         509 -3.0632850E-03
         510 -5.0793621E-03
         511  1.5254751E-03
         512  3.3032671E-02
         513 -1.1788299E-02
         514 -3.0610464E-03
 Sym= Hole
 Ene= -0.3035275    
 Spin= Alpha
 Occup= 0
           1  6.9693589E-05
           2  2.1568977E-03
           3  1.4218043E-03
           4 -2.9790138E-03
           5 -3.8431102E-05
           6 -2.9366609E-04
           7 -2.5486454E-04
           8  3.1449881E-04
           9 -3.3246921E-04
          10 -4.7188238E-04
          11  1.6304122E-04
          12  4.8896065E-04
          13 -5.7663598E-05
          14 -1.1285712E-04
          15 -5.0561305E-04
          16 -7.2146411E-04
          17  1.8751738E-03
          18 -2.5511559E-03
          19 -2.5467167E-03
          20  7.2320234E-03
          21 -1.1801167E-03
          22  1.6610173E-04
          23 -6.2644784E-04
          24 -1.1639295E-03
          25 -4.7755925E-04
          26 -1.2423612E-04
          27 -7.0117420E-04
          28  7.8615514E-05
          29  2.6527821E-04
          30  8.5771397E-05
          31 -1.7488419E-04
          32  4.2073586E-04
          33  2.8223969E-04
          34  4.0790294E-03
          35  3.2771691E-03
          36 -3.4377340E-03
          37  1.6004931E-04
          38  7.9590782E-06
          39 -1.3831134E-04
          40  3.1293480E-04
          41  9.4269443E-04
          42  6.3040399E-04
          43  2.7464100E-04
          44 -2.4181337E-04
          45 -6.0712092E-04
          46  3.2680453E-04
          47 -6.6617598E-05
          48 -2.3256306E-04
          49  2.5906033E-04
          50 -8.2896164E-05
          51 -5.8297272E-04
          52  5.6796460E-03
          53 -1.6957805E-04
          54  7.5851305E-05
          55  9.0539485E-04
          56 -6.6403154E-04
          57 -1.1860237E-03
          58 -1.6492774E-03
          59 -9.1818941E-04
          60  5.2001216E-03
          61  8.4141910E-04
          62  4.7204870E-04
          63 -1.7080666E-04
          64  2.4677152E-04
          65 -2.4268038E-03
          66 -3.0744311E-03
          67 -1.9467336E-03
          68 -7.2837237E-04
          69  1.2427155E-03
          70  5.2577385E-04
          71  1.5398025E-04
          72 -7.8947978E-06
          73  4.0685427E-03
          74  1.2557973E-03
          75  1.1216713E-02
          76 -5.1248949E-03
          77 -7.5839856E-04
          78  1.5614893E-03
          79 -2.8370356E-04
          80 -5.9323950E-04
          81 -1.2332243E-02
          82 -1.3649367E-02
          83 -1.2636620E-02
          84 -1.3239917E-02
          85  3.3577825E-03
          86  1.8873664E-04
          87 -2.2056967E-03
          88  4.8273738E-04
          89  1.3038791E-02
          90  3.0154616E-04
          91  2.4831705E-02
          92  1.1068832E-02
          93 -3.8819488E-03
          94 -1.4871915E-03
          95  7.5623987E-04
          96  4.1978820E-03
          97  1.5799615E-03
          98  7.3823169E-02
          99 -5.1411938E-02
         100 -0.1348966    
         101 -2.2589057E-04
         102 -1.8886883E-03
         103  5.2313996E-03
         104  1.1126366E-02
         105 -9.4771758E-03
         106  3.6206529E-02
         107 -2.7414104E-02
         108 -2.9481066E-02
         109  2.8371480E-03
         110 -5.2738693E-03
         111  3.9928043E-03
         112  4.0889103E-03
         113  4.2680949E-02
         114 -0.1412197    
         115  7.2798744E-02
         116  6.2731400E-02
         117 -2.7550958E-02
         118  1.3019633E-02
         119 -2.0087987E-02
         120 -1.8570919E-03
         121 -1.1920869E-02
         122 -2.3669351E-03
         123  1.3400007E-02
         124  1.7051393E-02
         125 -1.6605847E-03
         126  1.1321493E-02
         127 -1.1249953E-02
         128  4.1187047E-03
         129  6.3366233E-04
         130  4.5851294E-02
         131 -3.8954735E-02
         132 -4.0138517E-02
         133 -1.5843581E-04
         134 -4.7110622E-03
         135  4.0310188E-03
         136  4.8513864E-03
         137  5.7943678E-04
         138  4.9806801E-03
         139  2.8214894E-02
         140  6.6635892E-02
         141 -3.8907034E-03
         142 -4.5822989E-03
         143 -1.0325946E-02
         144 -1.8117925E-02
         145 -1.3464111E-02
         146 -0.1349380    
         147 -0.1515840    
         148 -0.4875107    
         149  4.8441766E-03
         150  1.4994144E-02
         151  1.0661651E-02
         152  3.6156114E-02
         153 -4.3617143E-05
         154  2.6395636E-02
         155  2.2949802E-02
         156  8.7877512E-02
         157 -1.4394869E-03
         158 -5.0321459E-03
         159 -5.4490594E-03
         160 -2.0043271E-02
         161 -3.5282650E-03
         162  9.1993138E-02
         163  0.1202936    
         164  0.2665664    
         165  8.4111682E-04
         166 -5.7641366E-03
         167 -2.8109455E-03
         168 -9.1041531E-03
         169  2.2124012E-03
         170  1.0115447E-02
         171  7.3953373E-03
         172  3.0287975E-02
         173 -1.0065191E-03
         174  1.0150644E-03
         175  2.1776848E-03
         176  3.2861121E-03
         177 -1.1894593E-03
         178 -7.4858688E-02
         179 -0.1016537    
         180 -0.2702213    
         181  1.8776480E-04
         182  2.3609276E-03
         183  3.2141870E-03
         184  8.6368546E-03
         185  1.9195903E-03
         186 -3.7259124E-02
         187 -5.6605842E-02
         188 -0.1447586    
         189 -2.7756367E-04
         190  3.6220879E-03
         191  3.1637750E-03
         192  1.0861459E-02
         193 -5.3465390E-03
         194  6.1160162E-02
         195  9.0239473E-02
         196  0.2225223    
         197  1.2246857E-03
         198 -1.0882310E-03
         199 -1.2753620E-03
         200 -9.4231945E-03
         201  1.3434951E-03
         202  5.4986343E-02
         203  7.6624945E-02
         204  0.2043514    
         205 -1.6780959E-03
         206 -1.4483827E-03
         207 -4.6364442E-03
         208 -9.0291491E-03
         209  3.1647852E-04
         210 -4.8511468E-02
         211 -5.9756745E-02
         212 -0.1649434    
         213 -3.3446093E-04
         214  3.1549116E-03
         215  2.8701189E-03
         216  1.0310735E-02
         217  1.0304971E-03
         218 -8.0276154E-02
         219 -9.2796139E-02
         220 -0.2664968    
         221 -1.3338996E-04
         222  2.3050527E-03
         223  2.3098618E-03
         224  9.0602990E-03
         225  2.2030296E-04
         226  1.6470993E-02
         227  1.9172501E-02
         228  5.4600492E-02
         229  5.5902463E-04
         230 -1.0259869E-04
         231  2.3623169E-04
         232  4.7215973E-03
         233  1.3189311E-03
         234  9.7090364E-02
         235  9.3457446E-02
         236  0.2937012    
         237 -1.7423939E-03
         238 -4.5057600E-03
         239 -4.1868216E-03
         240 -9.4315968E-03
         241  6.0237660E-03
         242  1.6754048E-02
         243  2.1609867E-02
         244  7.6963715E-02
         245 -6.2448666E-03
         246 -1.4643017E-03
         247 -4.8648217E-03
         248 -2.3533491E-02
         249 -3.9953001E-02
         250 -0.1753695    
         251  1.1083867E-02
         252  0.1126113    
         253  1.9892504E-02
         254  1.2165288E-02
         255  1.0720882E-02
         256 -8.2127862E-03
         257 -3.0318298E-03
         258 -2.9447780E-04
         259 -4.2311982E-03
         260 -2.2613029E-03
         261  1.9120821E-04
         262 -1.4153927E-03
         263  1.2737101E-04
         264 -9.2750252E-04
         265 -2.0825663E-03
         266  1.2647064E-03
         267 -2.4646511E-03
         268  2.5992047E-03
         269  4.9690407E-04
         270  3.5331497E-04
         271  5.6351302E-04
         272 -3.5191452E-04
         273  2.4552675E-04
         274 -6.2486489E-04
         275  1.1566652E-03
         276 -1.1002884E-03
         277 -5.1164784E-04
         278  1.1175531E-03
         279 -5.8539788E-04
         280 -9.2708658E-05
         281 -1.0265387E-03
         282  2.2468811E-02
         283  2.5737236E-04
         284  1.7315907E-03
         285  4.8456510E-04
         286 -1.2224775E-03
         287 -5.0264591E-04
         288 -1.1371858E-04
         289  1.4771026E-04
         290 -4.2829402E-03
         291 -6.0896663E-04
         292 -1.1329460E-03
         293 -2.3045855E-04
         294  8.1423204E-04
         295 -3.5779455E-04
         296 -2.7488923E-04
         297 -5.8417532E-05
         298 -1.3716694E-02
         299  1.1105785E-03
         300 -3.9884722E-04
         301 -1.2746175E-04
         302  2.0576367E-04
         303 -2.3489035E-04
         304 -5.1120362E-05
         305  1.7357962E-04
         306 -1.3485173E-03
         307  4.2566174E-04
         308 -4.0910742E-04
         309 -3.0885079E-05
         310 -4.7021636E-04
         311  1.1651432E-04
         312  1.0009282E-04
         313 -1.3671757E-04
         314  1.3931699E-02
         315 -8.4955979E-04
         316 -2.3225124E-04
         317 -2.7879852E-05
         318 -6.7315396E-04
         319 -1.2652607E-04
         320  8.2626277E-05
         321  2.4523633E-04
         322  8.1282156E-03
         323 -6.7080621E-04
         324 -2.7585510E-04
         325 -3.1252188E-05
         326 -6.9566700E-04
         327 -3.3596014E-05
         328  6.9141170E-05
         329 -5.0257181E-04
         330 -1.0542712E-02
         331  9.6620928E-04
         332  4.0662321E-04
         333  4.7130881E-05
         334  2.9813178E-04
         335  8.3070641E-05
         336  1.5286815E-04
         337  1.1992478E-04
         338 -1.1413602E-02
         339  6.6588970E-04
         340 -6.1090919E-04
         341  2.5931079E-04
         342  5.7599600E-04
         343 -4.0435308E-04
         344 -8.4459389E-05
         345 -1.5316905E-04
         346  7.0990585E-03
         347 -6.0722884E-04
         348  2.3903215E-04
         349  1.7510535E-04
         350 -1.9478756E-04
         351 -6.9913163E-05
         352  6.2014948E-04
         353 -6.6924353E-05
         354  1.3899942E-02
         355 -4.9961329E-04
         356  9.9186983E-04
         357  7.1728963E-04
         358 -6.5096322E-04
         359  1.3481388E-04
         360  7.5880275E-04
         361 -2.5036806E-04
         362 -7.4497476E-04
         363 -8.8085515E-05
         364 -3.8479047E-04
         365  1.1195524E-03
         366 -7.0553384E-04
         367 -5.6946767E-04
         368  7.7792638E-06
         369 -6.1446040E-06
         370 -1.3659745E-02
         371  5.9516728E-04
         372 -1.3401767E-03
         373  6.0677086E-04
         374  1.6056777E-04
         375 -7.0779963E-04
         376  3.8764611E-04
         377  1.9529909E-04
         378 -5.2501201E-03
         379  2.7932384E-04
         380  6.2217565E-05
         381  2.3186926E-04
         382  1.2683764E-03
         383  2.3259909E-05
         384  3.2990525E-04
         385  5.7046075E-04
         386  1.4456577E-05
         387  8.2905673E-05
         388  4.7068654E-05
         389  1.7898566E-04
         390 -3.7686698E-04
         391  4.3839164E-04
         392  7.4061402E-04
         393  3.4317331E-04
         394 -1.6864315E-04
         395  3.2365153E-04
         396  2.9112163E-04
         397 -1.7791298E-04
         398 -2.4669160E-04
         399 -2.1833161E-04
         400  3.6461868E-03
         401 -1.9721987E-04
         402  3.2857718E-04
         403 -4.5261157E-04
         404  3.3022850E-04
         405  1.5531768E-03
         406  8.0905581E-04
         407  1.1556979E-03
         408  2.1089099E-03
         409  5.6851120E-04
         410 -1.6407929E-03
         411  4.8876420E-04
         412  4.7374628E-03
         413 -4.0534227E-03
         414 -1.1393133E-02
         415  2.6088899E-02
         416 -2.6867757E-04
         417 -1.3859505E-03
         418  3.6015443E-03
         419 -2.5824322E-03
         420 -5.6960513E-03
         421  2.0879377E-03
         422  2.8888527E-03
         423  1.5516854E-03
         424  1.4791686E-02
         425  5.1511680E-03
         426 -8.9311221E-04
         427  5.0362333E-04
         428  6.6690735E-04
         429  1.6621174E-03
         430  1.7760416E-03
         431  8.7565917E-05
         432 -3.3678515E-03
         433 -4.7259182E-03
         434 -1.3057617E-02
         435 -1.9256386E-03
         436 -3.5337004E-04
         437 -1.6839167E-03
         438 -8.5980352E-04
         439 -3.6789738E-03
         440 -2.7541518E-03
         441  9.6639630E-04
         442 -7.8857696E-04
         443 -1.4045577E-03
         444 -3.1596578E-03
         445 -4.0472392E-04
         446  8.1259408E-05
         447 -3.5428659E-03
         448 -4.1974187E-03
         449 -1.3056986E-02
         450 -3.6619562E-03
         451  1.3678076E-03
         452  3.0232809E-04
         453  4.4248856E-04
         454  2.7220144E-03
         455  2.8811522E-05
         456 -3.8318255E-04
         457  3.7652783E-03
         458  7.6881158E-03
         459  1.2128517E-02
         460  2.1373922E-02
         461  3.5723611E-03
         462  4.9645035E-03
         463  1.8667920E-02
         464  2.9517862E-03
         465  8.3545799E-04
         466 -2.4463600E-03
         467 -9.4076706E-05
         468 -1.5814372E-03
         469  1.8826001E-03
         470  6.0194632E-04
         471  9.1733185E-05
         472 -3.0865817E-04
         473 -4.1197528E-04
         474  4.8237297E-04
         475 -3.9520566E-04
         476  2.6418295E-05
         477 -6.0202100E-04
         478 -1.7289798E-04
         479 -8.6774889E-05
         480 -2.4049889E-04
         481 -1.9121560E-04
         482 -1.3646275E-04
         483  2.8271537E-05
         484  1.3910696E-05
         485 -5.5529451E-04
         486 -2.9118967E-04
         487  6.3358963E-04
         488  1.9946403E-06
         489  4.4136494E-05
         490 -3.8458253E-04
         491 -1.4543805E-04
         492  1.8285860E-04
         493 -3.6163878E-05
         494  3.5754900E-04
         495 -4.4188442E-04
         496 -1.3791579E-04
         497  4.7834968E-04
         498  2.1839529E-04
         499  4.1141483E-04
         500  1.6796125E-04
         501 -1.1355385E-04
         502  5.5117940E-04
         503  3.9636867E-05
         504  2.4229210E-04
         505  6.0781385E-05
         506 -2.1423605E-04
         507 -2.1311223E-04
         508 -1.6659185E-04
         509  1.8209819E-04
         510  4.8997899E-05
         511 -2.6456930E-04
         512 -9.5395662E-04
         513  1.6547018E-04
         514  4.3561228E-04
 Sym= Particle
 Ene= -0.3035275    
 Spin= Alpha
 Occup= 2
           1 -4.3575402E-04
           2  1.2884237E-03
           3  5.1058986E-04
           4 -1.7920397E-03
           5  6.0406805E-04
           6 -9.4963347E-05
           7  2.8133822E-05
           8  8.9869020E-04
           9 -2.5948728E-04
          10 -1.8755012E-03
          11 -1.0012592E-03
          12  2.2383665E-03
          13  5.4966530E-04
          14  2.1377423E-04
          15  1.4678624E-03
          16 -1.3432483E-03
          17  5.6177954E-04
          18 -1.7132175E-04
          19 -1.0690887E-03
          20  1.5902388E-03
          21 -1.0974748E-05
          22 -2.4294823E-05
          23  7.6621107E-04
          24 -1.3651304E-03
          25 -8.2951941E-04
          26 -2.4762833E-03
          27 -5.4378866E-04
          28  1.7686960E-03
          29  1.0389846E-03
          30  8.7468640E-04
          31 -9.1046223E-04
          32  6.8453839E-05
          33  4.8782228E-04
          34  1.5462012E-03
          35  1.7165374E-04
          36 -2.4048660E-03
          37  4.7038769E-04
          38  8.0197910E-04
          39 -8.8674226E-04
          40  1.8827071E-03
          41 -2.0535330E-03
          42 -4.3768268E-03
          43  9.8739658E-04
          44  2.0213195E-03
          45  1.6469720E-03
          46  3.4535280E-03
          47 -1.0420412E-03
          48 -2.1429327E-03
          49  4.7760373E-03
          50  1.2185651E-02
          51  4.4579003E-03
          52 -1.8770363E-02
          53 -2.0353955E-03
          54 -1.2982857E-03
          55 -2.9847314E-04
          56 -7.0576946E-04
          57 -1.7436874E-03
          58 -2.2514477E-02
          59 -6.6708499E-03
          60  8.9916758E-02
          61  2.0993727E-03
          62  5.5069989E-03
          63  1.1966473E-03
          64 -1.4593139E-02
          65 -2.7831206E-03
          66  3.4143421E-04
          67 -4.1145293E-04
          68 -1.2188129E-02
          69  1.2704253E-03
          70  8.4723323E-04
          71  1.6193070E-03
          72 -1.4805885E-03
          73  1.0413401E-02
          74  2.0261286E-02
          75  3.2006878E-02
          76 -9.1192245E-02
          77 -9.6226251E-03
          78 -7.6865610E-03
          79 -1.1163582E-02
          80  1.7202718E-02
          81 -1.5766677E-03
          82 -1.3480554E-02
          83 -9.5678652E-03
          84  6.0575821E-02
          85 -1.9375999E-03
          86 -7.8698033E-03
          87  6.8333922E-03
          88 -3.8154090E-03
          89 -1.1079298E-05
          90 -0.1363703    
          91  9.2765108E-02
          92  0.1994731    
          93 -3.0362797E-03
          94  3.4203105E-02
          95 -2.4534747E-02
          96 -4.3494180E-02
          97 -6.2263018E-04
          98  0.1274986    
          99 -7.6952212E-02
         100 -0.1811917    
         101 -5.9206848E-04
         102 -2.8291073E-02
         103  1.7828749E-02
         104  4.4812199E-02
         105  6.8152387E-04
         106  4.7206819E-02
         107 -1.8425163E-02
         108 -6.2537678E-02
         109  1.3305372E-05
         110 -1.8928029E-02
         111  4.2315666E-03
         112  2.0867953E-02
         113 -4.1675175E-04
         114 -0.1946489    
         115  7.6994792E-02
         116  0.2362576    
         117  1.2359028E-03
         118  5.3424634E-02
         119 -1.9954700E-02
         120 -6.5708123E-02
         121 -2.7798183E-04
         122 -8.6047716E-02
         123  3.1844091E-02
         124  9.9335708E-02
         125  4.4328426E-03
         126  2.8700355E-02
         127 -2.3719128E-03
         128 -3.1888008E-02
         129 -1.3450026E-03
         130  0.1334391    
         131 -4.9730841E-02
         132 -0.1461132    
         133  2.9575170E-03
         134 -2.4686961E-02
         135  8.8761337E-03
         136  2.3501612E-02
         137  5.1680771E-03
         138  0.1957879    
         139 -7.0386969E-02
         140 -0.2561631    
         141 -4.7383672E-03
         142 -7.1706146E-02
         143  2.7441390E-02
         144  9.6620016E-02
         145 -4.1430038E-03
         146 -1.7732248E-02
         147 -1.7389897E-02
         148 -6.2844731E-02
         149  3.6757337E-03
         150  1.1712383E-02
         151  3.2290446E-03
         152  2.0850431E-02
         153  2.0466508E-02
         154  7.2423771E-02
         155  2.5434826E-02
         156  0.1468657    
         157 -1.8017942E-02
         158 -2.5103167E-02
         159 -4.1994913E-03
         160 -5.7008389E-02
         161 -5.8521844E-05
         162  4.6302114E-02
         163  6.1416298E-02
         164  0.1554435    
         165 -2.9471745E-03
         166 -1.3684068E-02
         167 -1.4897276E-02
         168 -4.2436812E-02
         169  2.3809008E-03
         170 -7.5736664E-02
         171 -0.1033527    
         172 -0.2523869    
         173 -3.1888380E-03
         174  1.9980874E-02
         175  2.6117241E-02
         176  6.1132796E-02
         177  1.6696920E-03
         178  9.6925907E-03
         179  1.2773174E-02
         180  2.8853450E-02
         181 -3.1613079E-03
         182 -5.5196456E-04
         183 -1.0826265E-03
         184 -1.9107095E-03
         185  4.5054927E-03
         186  7.0340529E-02
         187  8.5959360E-02
         188  0.2404882    
         189 -4.0605739E-03
         190 -1.6989881E-02
         191 -2.4069572E-02
         192 -6.3828915E-02
         193 -1.5430873E-03
         194 -5.2882649E-02
         195 -7.2449721E-02
         196 -0.2411035    
         197 -2.0668760E-03
         198  1.0211364E-02
         199  1.5402544E-02
         200  5.8295105E-02
         201 -9.9978107E-04
         202 -5.8244880E-02
         203 -9.7117715E-02
         204 -0.2402663    
         205  9.5413288E-04
         206  1.1650608E-02
         207  2.4441540E-02
         208  5.7498332E-02
         209 -2.7632085E-03
         210  6.7037039E-02
         211  8.0083169E-02
         212  0.2175099    
         213  2.9147748E-04
         214 -1.7045971E-02
         215 -1.9069916E-02
         216 -5.8942933E-02
         217 -7.8960002E-04
         218  1.8398805E-02
         219  1.7675016E-02
         220  5.7258714E-02
         221  8.5485558E-04
         222 -4.9937195E-03
         223 -1.1432769E-03
         224 -1.1229117E-02
         225 -5.0329310E-03
         226 -7.9813100E-02
         227 -8.3143011E-02
         228 -0.2662599    
         229  5.5331830E-03
         230  1.9871196E-02
         231  2.0303963E-02
         232  6.7218594E-02
         233  2.6651679E-03
         234  4.0293671E-02
         235  4.3349359E-02
         236  0.1376529    
         237  3.0284813E-03
         238 -9.7602308E-03
         239 -1.0442533E-02
         240 -3.2868378E-02
         241 -1.7517585E-02
         242  7.7019736E-02
         243  8.7377489E-02
         244  0.1579462    
         245  1.4279359E-02
         246 -3.1075668E-02
         247 -3.8548987E-02
         248 -5.9843488E-02
         249 -9.4032643E-04
         250 -3.0331694E-02
         251 -1.4441792E-03
         252  1.6249890E-02
         253 -2.6941500E-03
         254  2.0062219E-02
         255  4.7876779E-04
         256 -5.5335863E-03
         257 -1.3439362E-02
         258  5.1290351E-03
         259  1.7335812E-02
         260 -9.2966102E-02
         261  9.3169427E-03
         262  3.3945069E-03
         263  2.6277982E-04
         264  2.2401897E-02
         265  1.4352574E-03
         266 -8.3700521E-03
         267 -1.0106365E-02
         268  1.2075495E-02
         269 -2.8138657E-04
         270  2.7411091E-03
         271  1.2412566E-03
         272 -4.6253372E-03
         273 -9.7562280E-04
         274  6.9243521E-03
         275  7.2358623E-03
         276 -9.1417069E-03
         277  1.6965572E-03
         278 -2.5442392E-03
         279 -3.9381334E-03
         280  4.2235730E-03
         281 -9.5800241E-04
         282  6.0318662E-03
         283 -5.1408052E-04
         284 -1.0845159E-04
         285  1.1252760E-03
         286 -2.8532804E-03
         287  1.5405129E-04
         288  1.4136718E-03
         289  1.2414198E-03
         290 -9.7159827E-03
         291 -1.2153735E-05
         292 -1.9718867E-03
         293 -1.3142376E-03
         294  3.8568287E-03
         295  6.0699418E-05
         296  2.4310530E-03
         297 -4.9264851E-04
         298 -1.3763800E-02
         299  7.4557069E-04
         300  5.8553389E-05
         301  3.9837696E-06
         302  4.1415882E-03
         303 -4.6126588E-04
         304  8.8524580E-04
         305  3.7182946E-04
         306  1.9008655E-02
         307 -1.0804601E-03
         308  4.1237380E-04
         309 -5.0080387E-04
         310 -4.3690009E-03
         311  6.6726707E-04
         312 -4.9240749E-05
         313  2.2031207E-04
         314 -9.2042820E-04
         315  2.7053573E-04
         316  8.6099826E-05
         317 -6.8893633E-04
         318  1.0992714E-03
         319  3.5247163E-04
         320 -1.2447963E-04
         321  4.9170473E-04
         322 -1.7253989E-02
         323  1.1090770E-03
         324 -7.4619713E-04
         325 -1.8012684E-03
         326  5.2483175E-03
         327 -1.6270498E-04
         328  9.2139491E-04
         329 -2.3377641E-05
         330  1.7542228E-02
         331  5.3831580E-04
         332  4.5466065E-04
         333 -1.5640345E-03
         334 -5.3821695E-03
         335  1.0714046E-04
         336  1.6349539E-03
         337 -3.9702479E-04
         338  1.6214460E-02
         339 -8.4068713E-04
         340  3.2258319E-04
         341  5.9905736E-04
         342 -4.2215358E-03
         343  7.8452314E-04
         344  4.2421048E-04
         345 -1.4735544E-04
         346 -1.7751424E-02
         347  1.5334637E-03
         348 -6.9123320E-04
         349 -2.4608278E-04
         350  4.2441222E-03
         351 -1.9654074E-04
         352  5.8433268E-04
         353 -3.6907691E-04
         354 -3.9143144E-04
         355 -8.0009690E-05
         356  2.9917483E-05
         357  5.1011139E-04
         358  7.2329136E-04
         359  4.4934847E-04
         360  1.5181108E-04
         361 -2.7848542E-04
         362  1.9153802E-02
         363 -1.0344597E-03
         364  1.6699390E-03
         365  1.2327937E-03
         366 -4.0941634E-03
         367  7.2003296E-04
         368 -1.0832032E-04
         369 -9.5822627E-04
         370 -1.4524894E-02
         371  1.3368864E-03
         372 -9.9276903E-04
         373  3.5347324E-03
         374  5.5680317E-03
         375  2.4017831E-04
         376  9.3288411E-04
         377 -9.8754116E-04
         378 -1.1595975E-02
         379  2.2961183E-03
         380 -1.0693086E-03
         381  3.9195875E-03
         382  7.5903768E-03
         383 -8.6114414E-05
         384  2.2134768E-04
         385 -1.6236063E-05
         386  9.5399584E-05
         387 -4.9723528E-04
         388 -5.7927531E-04
         389 -2.1488650E-06
         390  6.8267528E-04
         391 -4.0830235E-04
         392 -7.3695683E-04
         393  1.9170947E-03
         394 -7.0525694E-04
         395  1.9946399E-03
         396  5.9363979E-04
         397 -3.8203127E-03
         398 -1.0430367E-03
         399  1.5067030E-02
         400  6.4459015E-03
         401 -9.0087997E-04
         402 -4.6330827E-04
         403  3.4822806E-04
         404 -8.4859936E-04
         405 -2.3525227E-03
         406  2.1479146E-04
         407  3.9190734E-03
         408  3.0264114E-03
         409 -1.2443923E-02
         410  3.6367932E-03
         411 -1.9380883E-03
         412  2.8851086E-02
         413 -1.4185486E-02
         414 -3.8216550E-02
         415  1.6253591E-03
         416 -5.6354306E-04
         417  5.7818475E-03
         418 -4.6142032E-03
         419 -8.1438506E-03
         420 -6.0299127E-03
         421  3.4266622E-03
         422  3.7176223E-03
         423  6.4204829E-03
         424  2.7265325E-02
         425 -2.7119843E-03
         426 -1.8194017E-03
         427 -1.6269226E-02
         428 -1.9622495E-02
         429 -5.0090306E-02
         430 -8.2517776E-04
         431 -2.2152478E-03
         432  1.9961153E-03
         433  3.0694276E-03
         434  6.4565246E-03
         435 -8.5318116E-03
         436  1.5597808E-03
         437  1.5100043E-02
         438  1.5878074E-02
         439  5.0235208E-02
         440  7.6443129E-03
         441 -2.7741618E-03
         442  1.4549118E-02
         443  1.8105183E-02
         444  4.4274248E-02
         445 -5.2452237E-05
         446  4.9108447E-04
         447  3.2584108E-03
         448  5.8077280E-03
         449  1.3823226E-02
         450  1.8829210E-03
         451  2.6266475E-03
         452 -1.5027851E-02
         453 -1.9555598E-02
         454 -5.1854648E-02
         455  5.2195382E-03
         456 -1.0842754E-03
         457  1.3988920E-02
         458  2.0788966E-02
         459  2.0509377E-02
         460 -1.7445284E-03
         461 -3.4142055E-03
         462  5.6070671E-04
         463 -2.0401806E-03
         464  6.3902289E-03
         465  5.3254226E-03
         466 -3.5526868E-04
         467  8.4759304E-03
         468  7.4539561E-04
         469 -5.5604763E-03
         470  3.6204752E-04
         471 -9.6297538E-04
         472 -2.7157615E-03
         473  5.8935519E-04
         474 -1.2104372E-03
         475 -1.8298207E-04
         476  5.7666376E-04
         477 -1.7182771E-03
         478 -1.0513591E-03
         479 -2.7211255E-04
         480 -1.4780235E-04
         481  2.7322653E-04
         482  3.5920194E-03
         483 -7.1801849E-05
         484 -1.0949172E-04
         485  2.3266359E-06
         486  3.4160240E-04
         487 -1.5678348E-04
         488  1.5928021E-04
         489 -1.7066137E-04
         490 -4.0442686E-04
         491  2.0189691E-04
         492 -3.5960830E-03
         493 -6.3767569E-05
         494 -1.4700880E-05
         495  3.0841111E-04
         496 -6.3704234E-04
         497 -4.9628690E-03
         498  5.5823132E-04
         499  5.4000702E-04
         500  2.7002784E-04
         501 -4.3013238E-04
         502  3.0827284E-04
         503  8.2892447E-04
         504 -3.9916797E-04
         505 -1.0997051E-04
         506 -1.4318376E-04
         507  3.5578210E-03
         508  2.2307622E-04
         509 -2.3253329E-04
         510  1.7199667E-05
         511  3.6845892E-04
         512 -1.9319892E-03
         513  1.9544644E-04
         514 -1.5469421E-04
 Sym= Hole
 Ene= -7.1855105E-02
 Spin= Alpha
 Occup= 0
           1  4.0380048E-04
           2 -9.1055135E-04
           3 -7.1037351E-04
           4 -1.2355441E-03
           5  6.5508997E-04
           6  1.8421097E-03
           7  1.9180606E-03
           8 -9.5167011E-04
           9  1.0139583E-04
          10  1.1311006E-03
          11  1.0777693E-03
          12 -2.7450133E-04
          13  2.3477323E-05
          14 -4.9391142E-06
          15  4.3893556E-04
          16  1.1507157E-03
          17 -3.7742459E-04
          18  2.4166827E-03
          19  1.1861769E-03
          20 -4.0340791E-03
          21  4.4831575E-04
          22 -9.3250535E-04
          23 -4.8551407E-05
          24 -5.6946039E-04
          25  1.2099731E-04
          26 -1.0364344E-03
          27 -1.1598562E-04
          28  2.5426426E-03
          29  1.3541880E-05
          30  7.1711162E-05
          31 -4.8929192E-05
          32 -3.8028691E-05
          33 -6.1700362E-06
          34 -3.2159553E-03
          35 -2.9694703E-03
          36  2.9308335E-03
          37  1.9210870E-04
          38  1.2940545E-04
          39  2.4445166E-04
          40 -1.6505728E-04
          41 -5.4495672E-06
          42  4.0202410E-04
          43  4.0197105E-04
          44  3.2312184E-04
          45 -2.7388468E-04
          46  7.4472366E-05
          47 -2.8980448E-04
          48 -4.0185821E-04
          49  1.3664897E-04
          50 -3.9608445E-04
          51  4.8986811E-04
          52  6.3512911E-04
          53 -1.9389490E-04
          54  9.9472954E-06
          55  3.9875077E-04
          56 -4.3792261E-05
          57 -2.1539683E-05
          58 -1.2615274E-04
          59 -4.5780587E-04
          60  2.8922077E-04
          61  8.1926755E-06
          62 -3.2192997E-06
          63 -6.3414140E-05
          64  5.2004089E-06
          65 -6.0086913E-05
          66 -4.5029030E-04
          67 -2.8121751E-04
          68 -2.6376400E-04
          69 -4.6792196E-05
          70 -1.2344099E-04
          71 -7.6533026E-05
          72 -2.5936843E-05
          73  1.2529560E-04
          74  3.0742827E-04
          75  7.9169066E-04
          76 -1.1189165E-04
          77  2.4396433E-05
          78  1.0156370E-04
          79  3.3645707E-04
          80  8.4772924E-05
          81  7.5003059E-05
          82 -2.2825408E-04
          83 -7.7535433E-04
          84 -9.2801776E-05
          85 -6.6669134E-05
          86 -1.0836890E-04
          87 -3.2214844E-04
          88 -5.7459773E-05
          89  6.0944076E-06
          90  3.1156858E-04
          91  7.1170984E-04
          92  1.4339307E-04
          93  4.4969756E-06
          94  6.7916422E-05
          95  2.5499074E-04
          96 -3.5850651E-05
          97 -1.7163758E-04
          98 -8.0520709E-05
          99 -7.5728958E-06
         100  8.9706686E-05
         101 -2.5379451E-05
         102 -1.3468803E-04
         103 -3.7976220E-05
         104 -6.8849906E-05
         105  7.5583594E-05
         106  3.1521203E-04
         107 -1.5442299E-04
         108  3.9125085E-04
         109 -1.8597093E-05
         110  2.6329220E-05
         111 -1.2321703E-04
         112  2.9635708E-05
         113 -3.5808215E-04
         114 -1.2337155E-05
         115  1.3216869E-04
         116  4.2063408E-04
         117  1.4266049E-05
         118 -1.5643924E-05
         119  1.2347373E-04
         120 -1.5373904E-05
         121  2.7405616E-05
         122 -3.3917936E-04
         123 -2.7333026E-05
         124  4.9106067E-04
         125  2.1638873E-06
         126 -9.1573194E-05
         127  2.5167825E-05
         128  6.1703198E-05
         129 -8.8030298E-05
         130 -3.4914684E-04
         131 -2.5452659E-05
         132  5.3817465E-04
         133 -4.7643716E-05
         134  5.7813679E-05
         135  4.9362084E-06
         136  9.8828068E-06
         137 -3.6775371E-05
         138 -4.5795125E-04
         139  1.2193951E-04
         140  4.7955522E-04
         141  6.7358655E-05
         142 -1.0532639E-04
         143  6.0582301E-05
         144 -1.0402769E-05
         145 -1.8422783E-04
         146  8.0536434E-04
         147  1.4990874E-04
         148  1.2616441E-03
         149  2.0509427E-04
         150 -1.7317130E-04
         151  2.4343510E-05
         152 -2.0506016E-04
         153  4.4422931E-04
         154 -1.3322167E-03
         155 -9.6148910E-04
         156 -3.5991243E-04
         157  6.1434002E-05
         158 -8.5777589E-05
         159  6.4672910E-05
         160 -2.8824637E-04
         161 -7.8857364E-04
         162  1.2193674E-03
         163 -9.5099368E-04
         164 -2.2861612E-04
         165  6.2550878E-04
         166  7.0708011E-05
         167  9.7718366E-05
         168 -4.4705637E-04
         169  2.6778081E-03
         170 -4.6997755E-03
         171 -1.7454817E-04
         172  3.7561106E-03
         173 -1.1258478E-03
         174  1.5799751E-04
         175  1.2611179E-03
         176 -1.3594319E-04
         177  3.4176005E-04
         178 -3.0010729E-05
         179  1.8598092E-03
         180  6.9153553E-04
         181  1.7188232E-04
         182 -5.9590855E-04
         183  2.6755192E-04
         184  1.6615654E-03
         185  1.2643290E-04
         186 -4.5808335E-04
         187 -7.1952824E-04
         188  4.8889709E-04
         189  3.0268615E-04
         190  2.1827503E-04
         191 -2.5470922E-04
         192  1.1766247E-04
         193  2.9403821E-04
         194 -4.4424357E-04
         195  2.7552023E-04
         196 -9.8638446E-04
         197  2.3066129E-04
         198 -2.6897519E-04
         199  1.8525124E-04
         200 -2.8815170E-04
         201  3.3678990E-04
         202  2.1229278E-04
         203  2.1951164E-04
         204  7.7464851E-04
         205  1.1905778E-04
         206 -4.9694187E-05
         207  8.5144100E-05
         208 -3.7248137E-05
         209 -2.4906045E-04
         210  5.9357903E-04
         211 -1.9838712E-04
         212  9.2159124E-04
         213  8.3369036E-05
         214  3.4791094E-05
         215 -1.0478843E-04
         216  3.7308713E-05
         217  2.7456929E-04
         218 -6.1174374E-05
         219  2.8975305E-04
         220  1.4108117E-05
         221  2.1822358E-05
         222 -1.5860748E-04
         223  1.0575516E-04
         224 -1.2617228E-05
         225 -2.0690549E-04
         226 -6.5377433E-05
         227 -3.6391665E-04
         228 -7.0508278E-04
         229 -7.0439492E-05
         230  6.3772328E-05
         231  2.0643054E-05
         232 -4.3146370E-05
         233  1.1182293E-04
         234  4.0125477E-04
         235 -7.8213017E-04
         236 -1.6918495E-04
         237  2.8257964E-05
         238  5.3389242E-05
         239 -1.1177378E-04
         240  1.0876782E-04
         241  6.5325446E-05
         242 -8.9430294E-05
         243  3.4978447E-04
         244  1.3651917E-03
         245 -4.7997466E-05
         246 -1.0265918E-04
         247  1.1858235E-04
         248  8.0665421E-05
         249  2.2223307E-04
         250  1.9974599E-04
         251 -3.9109372E-04
         252  7.7112333E-04
         253  3.6512308E-06
         254 -5.4542819E-05
         255 -2.9921965E-04
         256  1.5490627E-04
         257 -2.5516294E-05
         258 -3.2406420E-04
         259  3.0075211E-05
         260  3.4286611E-04
         261 -3.6174541E-05
         262 -3.0052671E-04
         263 -6.3465905E-07
         264 -8.9214140E-05
         265  1.7944422E-04
         266  1.7675828E-03
         267  3.3403656E-03
         268 -4.4551552E-03
         269  8.6947584E-05
         270  2.1181967E-04
         271 -3.5262675E-04
         272  1.0039413E-03
         273 -1.3938434E-03
         274  2.5972705E-03
         275  2.5591275E-04
         276 -1.1573881E-03
         277  1.4220388E-03
         278  2.9871097E-05
         279  3.2536089E-04
         280  5.2279007E-04
         281 -1.2057768E-03
         282 -8.2813492E-03
         283 -2.4575037E-03
         284  3.5317522E-04
         285  8.4552489E-04
         286  9.9641003E-04
         287  7.3624379E-04
         288  5.2704988E-04
         289  5.5497820E-03
         290  0.2238454    
         291 -8.0301045E-03
         292  3.2761351E-03
         293 -1.7992355E-03
         294 -3.8505488E-03
         295  1.4477494E-03
         296  3.9687031E-05
         297 -1.5728992E-03
         298 -0.1746289    
         299  7.7120569E-03
         300 -3.8495064E-03
         301  3.5440287E-04
         302 -5.2554329E-04
         303  4.4776869E-04
         304 -8.1486243E-05
         305  7.5330585E-04
         306 -0.3673365    
         307  1.6243933E-02
         308 -1.2860057E-02
         309 -3.0011500E-04
         310 -6.4774544E-04
         311 -4.1104951E-05
         312 -4.6196881E-05
         313  2.6734546E-04
         314 -7.4263327E-02
         315  3.2736519E-03
         316 -2.5804420E-03
         317 -2.0850786E-04
         318  1.6933600E-03
         319 -6.3950729E-06
         320  1.9398598E-04
         321 -8.6592056E-04
         322  0.3335165    
         323 -9.6993623E-03
         324  1.2202488E-02
         325  7.8669086E-04
         326  5.6243418E-03
         327 -4.7896686E-04
         328 -1.6297464E-04
         329  5.4428406E-04
         330  0.3318197    
         331 -7.9183634E-03
         332  7.9157082E-03
         333  3.1933273E-04
         334  3.5552783E-03
         335 -9.7641721E-04
         336 -3.0911143E-04
         337  1.1599585E-03
         338 -0.3405885    
         339  2.0222936E-02
         340 -5.7603121E-03
         341  4.2246367E-04
         342 -3.6617306E-03
         343 -8.8615395E-04
         344 -4.6799067E-04
         345 -1.1606781E-03
         346 -0.3366763    
         347  2.4691099E-02
         348 -1.8655412E-02
         349  1.0812404E-03
         350 -5.7037887E-03
         351  1.5623754E-04
         352 -7.8059710E-04
         353  8.6532830E-04
         354  7.9069003E-02
         355 -5.6693014E-03
         356  7.2392141E-03
         357 -2.4265129E-04
         358 -1.3615077E-03
         359  9.0357862E-06
         360 -4.5363110E-04
         361  7.1693782E-04
         362  0.3809807    
         363 -2.2927796E-02
         364  2.6612785E-02
         365 -3.1611786E-04
         366  1.8971730E-03
         367 -1.0063407E-04
         368  7.2537536E-05
         369 -1.9767600E-04
         370  0.1896747    
         371 -1.0186277E-02
         372  1.5695171E-02
         373  1.1558818E-04
         374  1.0713035E-03
         375  3.0301156E-04
         376  2.2264113E-04
         377  4.1580424E-03
         378 -0.2246252    
         379  1.0011987E-02
         380 -1.5431570E-02
         381 -5.2352349E-04
         382  3.2484487E-03
         383  1.9593284E-05
         384  1.2651174E-03
         385 -1.1180496E-03
         386 -4.5849745E-05
         387 -2.4043629E-04
         388 -2.2667626E-04
         389  2.0602859E-04
         390  7.9742837E-04
         391  2.2320027E-04
         392 -1.8704416E-04
         393  2.3683252E-04
         394  2.0926677E-04
         395  1.6471722E-04
         396  2.3152560E-04
         397 -4.8751899E-05
         398  1.9973789E-04
         399 -3.9002156E-05
         400  2.9997586E-04
         401  8.9412955E-05
         402  1.5523168E-04
         403  5.5808257E-05
         404  2.3142537E-05
         405 -7.2989613E-05
         406 -3.5494395E-07
         407 -1.0047743E-04
         408 -1.0115571E-04
         409 -3.6242844E-05
         410  1.9785799E-05
         411 -4.8417420E-05
         412 -7.4117364E-05
         413 -4.6737914E-05
         414 -3.5786292E-05
         415  4.7489774E-04
         416  1.5299855E-04
         417 -1.5887761E-05
         418 -2.4045286E-05
         419 -6.6390690E-05
         420 -8.8516634E-04
         421  4.8034018E-04
         422 -2.5930809E-04
         423  1.3706360E-04
         424 -3.3350260E-04
         425  7.3573872E-04
         426 -1.3056294E-03
         427  1.1735678E-03
         428  3.8697701E-05
         429  6.8770902E-04
         430 -8.5597340E-04
         431  2.4789444E-04
         432 -1.0582360E-03
         433 -4.5212478E-04
         434 -8.1509330E-05
         435 -1.2887653E-03
         436 -1.6277807E-04
         437 -1.3356945E-04
         438 -3.2408693E-04
         439 -1.4264983E-04
         440 -6.9602055E-04
         441 -1.8252658E-04
         442 -1.4562756E-04
         443  1.5654691E-04
         444  2.8122558E-06
         445  2.7258109E-04
         446  1.0435503E-04
         447 -4.9279330E-05
         448 -1.6254353E-05
         449  2.8619301E-05
         450 -1.8323906E-05
         451  1.7812616E-05
         452 -2.6177388E-05
         453  6.7395842E-05
         454 -6.4272994E-05
         455  7.3320302E-04
         456  2.8709724E-04
         457 -1.4209790E-04
         458  1.7060673E-05
         459  3.3451150E-05
         460 -5.6229782E-04
         461 -1.1583991E-04
         462 -1.1712382E-04
         463 -4.9324171E-06
         464 -6.4721709E-05
         465  6.1566119E-05
         466  5.1247396E-05
         467  1.0102680E-04
         468 -4.8886493E-05
         469 -3.4280054E-04
         470 -1.1316353E-03
         471  6.1565486E-04
         472 -3.8803910E-04
         473  1.7337293E-03
         474  1.0495329E-03
         475 -2.5585078E-04
         476  1.2936439E-04
         477  3.8042006E-03
         478 -6.4482017E-05
         479 -4.6122317E-05
         480 -1.1796217E-04
         481 -2.1543101E-06
         482 -2.7079838E-03
         483  2.1048589E-04
         484  1.0403530E-04
         485 -5.0313788E-04
         486 -2.0489926E-04
         487 -5.1344670E-03
         488  2.2833428E-04
         489 -8.0258596E-06
         490 -2.6591262E-04
         491 -1.2302616E-04
         492 -3.8713785E-03
         493  3.3751861E-04
         494 -1.5747237E-04
         495 -2.4137520E-03
         496 -1.1700885E-05
         497  3.6587617E-03
         498 -2.3089352E-04
         499  3.1453965E-04
         500 -1.9915958E-03
         501 -3.1949728E-04
         502  4.2238501E-03
         503 -2.0434734E-04
         504  5.3667129E-05
         505  4.3906472E-04
         506 -2.2326985E-04
         507  1.1650363E-03
         508  4.8500933E-05
         509  2.0788203E-04
         510 -2.1012849E-03
         511  1.7201995E-04
         512 -3.8329125E-03
         513  2.6666047E-04
         514  1.9312734E-04
 Sym= Particle
 Ene= -7.1855105E-02
 Spin= Alpha
 Occup= 2
           1 -2.4402081E-03
           2 -8.9040650E-03
           3 -6.8309032E-03
           4  1.7941171E-02
           5 -1.0257590E-03
           6  1.2414989E-03
           7  1.7991604E-04
           8 -6.6244518E-03
           9 -1.1332957E-03
          10  3.9466661E-03
          11  1.6534035E-05
          12 -1.2170743E-02
          13 -6.0039829E-04
          14  1.8593286E-03
          15 -4.8666145E-03
          16 -4.0846941E-04
          17 -3.3939397E-04
          18  8.1234733E-03
          19  6.7050648E-03
          20 -9.6020931E-03
          21 -3.5005799E-03
          22  2.8781216E-03
          23 -6.2116031E-03
          24  6.9544371E-03
          25 -4.6830860E-04
          26 -9.8403785E-03
          27 -9.6002137E-03
          28  9.1001550E-03
          29 -2.4831484E-03
          30  3.3797938E-03
          31  2.4640521E-03
          32 -2.4496208E-04
          33  7.3841534E-04
          34  7.9186255E-04
          35  5.1348301E-04
          36  7.0124988E-05
          37 -2.6257578E-03
          38 -5.8509555E-04
          39  2.6910895E-04
          40 -1.2013161E-03
          41 -1.6604800E-03
          42  9.1679851E-03
          43  7.3982161E-03
          44 -1.2475553E-02
          45 -1.0719353E-06
          46 -2.2767936E-03
          47  3.4411350E-04
          48  2.1164543E-03
          49  3.6870944E-04
          50 -2.8628891E-03
          51 -9.9963194E-04
          52  8.5004782E-03
          53 -1.0479379E-03
          54  3.1508757E-03
          55  4.4825167E-04
          56 -5.5838819E-03
          57  8.4659952E-04
          58  5.8940094E-04
          59  1.6612198E-03
          60 -4.5590238E-03
          61 -1.2389927E-03
          62  3.1239155E-04
          63 -1.8810785E-03
          64  1.5585104E-03
          65 -4.8535861E-04
          66  5.2953146E-05
          67  6.2593521E-04
          68 -3.9619581E-06
          69  7.6218648E-04
          70 -4.5834979E-04
          71 -6.1556825E-04
          72  4.1520267E-04
          73 -1.4081503E-05
          74 -1.7784854E-03
          75 -2.0905833E-05
          76  5.6984252E-03
          77  3.5382956E-04
          78  1.0912074E-03
          79 -1.3811429E-04
          80 -2.2311464E-03
          81  2.4060816E-04
          82  1.8789204E-03
          83  1.3685360E-03
          84 -9.3906801E-03
          85 -7.4643824E-05
          86 -3.6324598E-04
          87 -6.8719516E-04
          88  3.9090579E-03
          89 -2.3978812E-04
          90 -1.4557336E-03
          91  1.2438942E-03
          92  2.1490890E-03
          93  1.8334996E-04
          94  1.2591116E-03
          95 -2.1092333E-04
          96 -1.1052963E-03
          97  4.2996404E-04
          98 -1.7516727E-03
          99  1.2271198E-03
         100  1.0019488E-03
         101 -1.8990404E-04
         102  8.9370820E-04
         103 -2.8679910E-04
         104 -2.7679116E-04
         105 -6.0314251E-05
         106  2.7998281E-03
         107 -1.1174351E-03
         108 -3.4822996E-03
         109 -1.1562009E-04
         110 -1.2705906E-03
         111  7.4719958E-04
         112  1.3231651E-03
         113 -7.3381794E-05
         114 -1.9496430E-03
         115  1.0659675E-03
         116  2.8220497E-03
         117 -1.6326302E-04
         118  4.1661735E-04
         119 -1.5873114E-04
         120 -1.1096240E-03
         121  4.5972502E-08
         122 -2.1045341E-03
         123  6.3081202E-04
         124  2.4701508E-03
         125 -3.4837375E-04
         126  1.2056830E-03
         127 -8.5854699E-05
         128 -1.2755065E-03
         129  1.8544045E-04
         130  2.4005172E-03
         131 -8.5879507E-04
         132 -2.8895189E-03
         133 -1.0080256E-04
         134 -6.0803868E-05
         135  1.6420479E-04
         136  6.6871184E-04
         137  1.7613974E-04
         138  1.8627472E-03
         139 -9.4642211E-04
         140 -2.6545504E-03
         141 -2.8802879E-04
         142 -1.0482999E-03
         143  8.0565287E-04
         144  1.6060454E-03
         145  8.0200349E-05
         146  3.5997582E-04
         147  4.6083971E-04
         148  1.0445253E-03
         149 -1.7805482E-04
         150 -3.9898089E-04
         151 -4.7106377E-04
         152 -1.0541864E-04
         153 -2.9581756E-04
         154 -2.7399551E-04
         155 -1.3599232E-03
         156 -2.6781335E-03
         157  6.8204931E-04
         158 -1.5451248E-03
         159  1.0998396E-03
         160  1.6443614E-03
         161 -2.8130374E-04
         162  8.4091147E-04
         163 -4.5282676E-04
         164  1.1870463E-03
         165  1.8995970E-04
         166 -2.4053643E-03
         167  2.4170098E-03
         168 -1.0859508E-03
         169  1.4783130E-03
         170 -3.0315373E-04
         171  1.8047225E-03
         172  8.1011682E-04
         173 -1.7647084E-03
         174 -1.7159508E-03
         175 -2.5941366E-03
         176 -9.6989429E-04
         177 -3.1400628E-03
         178  4.3283682E-03
         179 -4.3950519E-03
         180 -1.2775257E-03
         181  2.8962970E-03
         182 -3.5088335E-03
         183 -5.2887469E-04
         184  1.8581717E-03
         185  4.4131756E-04
         186 -1.3003072E-03
         187 -5.2591402E-04
         188  2.9572884E-03
         189  2.5293035E-05
         190  1.2788634E-03
         191 -1.3858165E-03
         192  6.2220730E-04
         193 -5.3244183E-04
         194 -1.3820847E-04
         195 -2.5523241E-04
         196  5.5875018E-04
         197  7.4543682E-04
         198 -6.1010307E-04
         199  4.9812690E-04
         200  4.2991553E-04
         201  3.4708966E-04
         202 -3.8645320E-04
         203  1.6396388E-04
         204  6.9719367E-04
         205  3.3506568E-04
         206 -5.5651594E-04
         207  3.1103723E-04
         208 -5.9889676E-04
         209 -2.5108465E-04
         210 -7.4178132E-04
         211 -1.2262135E-03
         212 -3.9026185E-03
         213  8.1582298E-04
         214 -7.3296338E-04
         215  3.5516362E-04
         216  1.3115790E-03
         217 -1.2579515E-04
         218  8.6075882E-04
         219  1.3516656E-03
         220  2.9402024E-03
         221  4.8816414E-04
         222 -1.2152830E-04
         223 -5.3671212E-04
         224 -7.2367600E-04
         225  1.7036448E-04
         226  8.6210307E-04
         227  3.5503940E-04
         228  7.8899501E-04
         229  1.2239302E-04
         230 -8.6773961E-04
         231 -2.9248014E-05
         232 -4.5483797E-05
         233  8.2542123E-05
         234 -1.5033768E-03
         235 -1.4514269E-03
         236 -3.6956917E-03
         237  2.7015540E-04
         238  3.7797692E-04
         239  3.4225336E-04
         240  9.9134049E-04
         241 -4.5048544E-04
         242  1.0488349E-03
         243  9.9942542E-04
         244  2.6562237E-03
         245  6.0850999E-04
         246 -6.6445151E-04
         247 -5.3697085E-04
         248 -1.0591486E-03
         249 -2.3704120E-04
         250 -4.5848702E-04
         251  8.9339598E-04
         252  1.1259163E-04
         253 -1.1742624E-04
         254  3.6499530E-04
         255  9.5657844E-05
         256 -1.5310156E-04
         257 -6.5442780E-04
         258 -1.0528616E-04
         259  6.6612283E-04
         260  3.3640452E-03
         261  1.6041762E-04
         262  7.7543868E-04
         263  1.0950970E-04
         264 -1.9671235E-03
         265  4.3913056E-04
         266 -4.2755352E-03
         267 -2.7207285E-03
         268  3.7635842E-03
         269 -1.1804708E-03
         270 -3.3073833E-03
         271  1.4345138E-03
         272 -6.4832419E-03
         273  2.4724221E-03
         274 -6.5101585E-03
         275 -3.6288213E-03
         276  5.3325980E-03
         277 -8.4341224E-03
         278  3.2321136E-03
         279  3.1220361E-03
         280 -2.7581933E-03
         281  9.4955759E-03
         282  1.0391981E-03
         283  5.2006105E-03
         284  1.6339716E-03
         285 -8.7920763E-03
         286 -3.2827660E-04
         287 -5.9325844E-03
         288 -1.0547500E-04
         289 -9.8418975E-03
         290 -0.3918154    
         291  1.7998885E-02
         292 -4.5168987E-03
         293  3.2307147E-03
         294  0.1563689    
         295 -8.4930565E-03
         296  1.8748117E-03
         297  5.5226660E-03
         298  0.2473901    
         299 -9.8186526E-03
         300  3.1036930E-03
         301 -5.2949963E-03
         302 -8.0228947E-02
         303  2.2032056E-03
         304 -1.6030534E-03
         305  4.3805179E-04
         306  0.1197607    
         307 -4.1794842E-03
         308  6.7516784E-03
         309 -1.5132407E-03
         310 -3.8757507E-02
         311  9.0138399E-04
         312 -3.5548741E-03
         313 -1.6433630E-03
         314 -0.3816244    
         315  1.4709568E-02
         316 -1.0612882E-02
         317  9.2828600E-04
         318  0.1092156    
         319 -4.7867326E-03
         320  2.7457455E-03
         321  1.6508376E-03
         322  0.2481441    
         323 -8.1969313E-03
         324  8.6324289E-03
         325 -1.5056990E-03
         326 -7.3045418E-02
         327  1.8690139E-03
         328 -4.1729123E-03
         329  1.2630421E-03
         330  0.1945788    
         331 -1.0128047E-02
         332  5.9014405E-03
         333 -2.2038089E-03
         334 -8.9028180E-02
         335  5.0501693E-03
         336 -3.3523068E-03
         337  5.6133922E-03
         338 -0.1898089    
         339  7.1390299E-03
         340 -8.4897624E-03
         341 -5.2581537E-03
         342  8.7248027E-02
         343 -2.8161849E-03
         344  5.9123933E-03
         345  5.2330830E-05
         346 -0.2622673    
         347  1.8589484E-02
         348 -1.4744024E-02
         349  1.1669669E-03
         350  7.7530019E-02
         351 -8.0939177E-03
         352  7.7244677E-03
         353 -1.3679140E-03
         354  0.3906363    
         355 -2.1803647E-02
         356  2.3209488E-02
         357  1.7832556E-03
         358 -0.1127953    
         359  4.3308581E-03
         360 -6.5038549E-03
         361  5.5079599E-04
         362 -0.1162943    
         363  8.7923082E-03
         364 -7.4544321E-03
         365 -1.5749938E-03
         366  3.6730945E-02
         367 -4.1974075E-03
         368  1.4885835E-03
         369  5.9387288E-03
         370 -0.2632405    
         371  1.1150504E-02
         372 -1.4719181E-02
         373 -7.1025654E-03
         374  8.4527060E-02
         375 -4.6731094E-03
         376  3.4410555E-03
         377 -1.1014499E-02
         378  0.3983495    
         379 -1.8936122E-02
         380  2.2406815E-02
         381  3.0048317E-03
         382 -0.1589470    
         383  8.3656656E-03
         384 -8.6151222E-03
         385 -3.5699841E-04
         386 -1.5178452E-03
         387 -2.4071427E-03
         388 -4.0075253E-03
         389  3.1889156E-03
         390  5.6756275E-05
         391 -1.2821631E-03
         392  4.2505318E-04
         393 -1.9509917E-03
         394 -9.8723569E-04
         395 -7.0842587E-05
         396 -6.4299355E-04
         397  1.2741976E-03
         398 -1.3200156E-03
         399 -2.0767630E-03
         400  5.0234946E-04
         401  2.1331638E-04
         402 -5.6431425E-04
         403 -7.9809915E-04
         404 -7.2571289E-05
         405  3.0043218E-04
         406 -1.4891120E-04
         407  3.6933107E-04
         408 -4.2448434E-04
         409  1.7408382E-03
         410 -1.6924436E-04
         411  2.7175146E-04
         412 -4.9514062E-04
         413 -3.0156838E-05
         414  1.6395887E-05
         415  2.6985607E-04
         416 -5.0011202E-04
         417  4.0544200E-04
         418 -1.6040272E-04
         419 -8.1699621E-04
         420 -2.1395109E-04
         421  6.0357625E-04
         422  1.9350466E-03
         423  2.2381071E-03
         424 -2.5537773E-04
         425  1.3618821E-03
         426 -1.2476539E-04
         427  6.1520164E-05
         428 -1.5506177E-03
         429 -6.0102032E-03
         430  4.6649682E-03
         431  3.0645733E-03
         432 -1.1610603E-02
         433  8.3984369E-03
         434 -7.9735788E-03
         435  2.1311473E-03
         436 -2.0746142E-03
         437  1.7685242E-03
         438 -1.0334135E-03
         439  1.1409728E-03
         440 -3.5263301E-04
         441  6.4696610E-04
         442 -1.4328911E-03
         443 -5.0609268E-04
         444 -3.5556706E-04
         445 -2.1885955E-04
         446  2.6112079E-04
         447  8.2618813E-04
         448  2.9075670E-04
         449  8.4954547E-04
         450 -8.8952045E-04
         451  6.0762564E-04
         452 -8.8577234E-04
         453  5.6472374E-04
         454  4.0886074E-04
         455 -3.7453510E-04
         456  4.2321166E-04
         457 -2.8061020E-04
         458 -2.9562882E-05
         459 -9.1745285E-04
         460  4.3199066E-06
         461  2.1795007E-04
         462 -2.3882254E-04
         463  4.8350194E-04
         464 -2.4487230E-04
         465 -2.2465816E-04
         466 -2.6325337E-04
         467  8.5860660E-04
         468  2.3325336E-04
         469 -1.9014854E-03
         470 -1.3542640E-03
         471  3.4878021E-03
         472  5.1003316E-04
         473 -1.2657924E-02
         474  2.4588010E-03
         475 -2.7828279E-04
         476  4.4953870E-04
         477  5.6308713E-02
         478  2.0553729E-04
         479  1.6051783E-03
         480 -3.0781998E-04
         481  1.0924399E-03
         482  3.3781651E-02
         483  7.5154379E-04
         484 -1.3192291E-03
         485  1.3696171E-03
         486  6.9004501E-04
         487 -9.0488054E-02
         488  3.4591460E-03
         489 -2.0122160E-03
         490 -7.7043154E-04
         491  1.8953725E-03
         492  4.1463390E-02
         493 -4.1990685E-03
         494 -5.3604849E-04
         495 -1.4445215E-03
         496  2.8359713E-03
         497 -4.4657022E-02
         498 -2.8830871E-04
         499 -1.8238842E-03
         500 -4.4626705E-04
         501  7.3809677E-04
         502  9.2142016E-02
         503 -5.5691237E-03
         504  4.7317995E-03
         505 -6.9481984E-04
         506  5.5085582E-04
         507 -3.2333419E-02
         508  1.9668904E-03
         509 -4.4420868E-04
         510 -1.2658516E-04
         511 -2.3766321E-03
         512 -5.7203166E-02
         513  3.7970976E-03
         514 -1.7548701E-03
