 [Molden Format]
 [Atoms] Angs
BR      1     35     -4.74606353      4.53160772     -0.61622505
C       2      6     -3.77695596      3.18339209      0.33363923
C       3      6     -2.97240197      3.54364852      1.40089897
C       4      6     -2.28800166      2.55213032      2.08498478
C       5      6     -2.41566653      1.22472468      1.71874282
C       6      6     -3.22556150      0.87991430      0.63993099
N       7      7     -3.38507096     -0.46603514      0.27503138
C       8      6     -2.40648784     -1.40402446      0.04807336
C       9      6     -0.97627789     -1.15156805      0.03781096
C      10      6     -0.11638419     -2.18430308      0.41590401
C      11      6      1.24961801     -2.00260260      0.39942905
C      12      6      1.80525436     -0.78435384      0.00550522
C      13      6      3.25948267     -0.58964907     -0.00805060
C      14      6      4.11310570     -1.60496895     -0.43972659
C      15      6      5.47928332     -1.42445553     -0.46517151
C      16      6      6.04460015     -0.22121206     -0.03786613
N      17      7      7.42874985     -0.04034735     -0.05149894
C      18      6      7.97490603      1.21560191     -0.34773361
C      19      6      7.39490752      2.03070280     -1.31987978
C      20      6      7.93731888      3.26930079     -1.60422813
C      21      6      9.06754426      3.71154005     -0.93553619
C      22      6      9.65150876      2.90304345      0.02646837
C      23      6      9.11106583      1.66673799      0.32418655
C      24      6      8.28082867     -1.11951711      0.22187637
C      25      6      9.46865572     -1.27994630     -0.49125741
C      26      6     10.30720741     -2.34340644     -0.21699974
C      27      6      9.97439762     -3.26565741      0.76214011
C      28      6      8.79467417     -3.11168341      1.47255426
C      29      6      7.95411330     -2.04661519      1.21151373
C      30      6      5.19515784      0.79528555      0.40362101
C      31      6      3.82847931      0.61414404      0.40744001
C      32      6      0.94276061      0.23827096     -0.38885702
C      33      6     -0.42542056      0.05864722     -0.38261604
N      34      7     -2.93261999     -2.57388084     -0.21320251
C      35      6     -4.28759715     -2.42826297     -0.16606593
C      36      6     -5.16419151     -3.57102564     -0.37830331
C      37      6     -6.44188905     -3.63430273      0.17512360
C      38      6     -7.24295750     -4.73924952     -0.04583729
C      39      6     -6.78142395     -5.79750306     -0.81198009
C      40      6     -5.50530787     -5.75023526     -1.35053452
C      41      6     -4.70132856     -4.64771103     -1.13452374
C      42      6     -4.59737543     -1.11238650      0.12774684
C      43      6     -5.87843620     -0.42809565      0.26468602
C      44      6     -6.83136414     -0.53170609     -0.74831934
C      45      6     -8.03974258      0.13003778     -0.63964887
C      46      6     -8.31326033      0.90434653      0.47703314
C      47      6     -7.37567635      1.00506760      1.49151639
C      48      6     -6.16485239      0.34474201      1.38881246
C      49      6     -3.90758886      1.86655850     -0.06544338
H      50      1     -2.88444785      4.57827503      1.69222628
H      51      1     -1.65849328      2.81901065      2.91936479
H      52      1     -1.89356130      0.45123233      2.26089850
H      53      1     -0.54607922     -3.12543559      0.72344183
H      54      1      1.89777232     -2.80674257      0.71491575
H      55      1      3.69652994     -2.53659930     -0.79352439
H      56      1      6.12192088     -2.21550625     -0.82327472
H      57      1      6.52037546      1.68402246     -1.85114738
H      58      1      7.47874994      3.88967446     -2.36070235
H      59      1      9.49023898      4.67874271     -1.16273321
H      60      1     10.53076190      3.24060972      0.55586355
H      61      1      9.56396580      1.04194649      1.08038914
H      62      1      9.72612725     -0.56758468     -1.26167481
H      63      1     11.22288213     -2.45744140     -0.77894807
H      64      1     10.63016856     -4.09759997      0.97085416
H      65      1      8.53003571     -3.82179544      2.24262116
H      66      1      7.03935049     -1.92378603      1.77309934
H      67      1      5.61786032      1.72741113      0.74937708
H      68      1      3.19163531      1.40779163      0.77001991
H      69      1      1.35177023      1.17668241     -0.73357012
H      70      1     -1.06553478      0.85627886     -0.73048652
H      71      1     -6.80337562     -2.82196206      0.78819547
H      72      1     -8.23237004     -4.77656484      0.38745162
H      73      1     -7.41153827     -6.65832238     -0.98268385
H      74      1     -5.13687127     -6.57641621     -1.94176245
H      75      1     -3.70398916     -4.59836566     -1.54482786
H      76      1     -6.61202253     -1.13294665     -1.61904779
H      77      1     -8.76862915      0.04615223     -1.43234635
H      78      1     -9.25559891      1.42542611      0.55721487
H      79      1     -7.58682961      1.60086116      2.36763174
H      80      1     -5.44155627      0.41632008      2.18915613
H      81      1     -4.52967149      1.60349758     -0.90686445
 [GTO]
           1   0
s              4   1.000000
      0.85245488     -0.11206828
      0.43729936     -0.28454268
      0.13359414      0.89098738
      0.07438289      0.35178111
p              4   1.000000
     12.73563627     -0.00603522
      3.69252941     -0.06013311
      0.64447099      0.64515182
      0.31623667      0.41179238
s              7   1.000000
      0.08230620     -0.73502077
      0.03358786      0.82945515
      0.01989320      0.79378886
      0.85245488      0.05418149
      0.43729936      0.13756745
      0.13359414     -0.43076441
      0.07438289     -0.17007512
p              7   1.000000
      0.16210445     -0.13955199
      0.03603777      0.81115095
      0.01984789      0.27377811
     12.73563627      0.00056100
      3.69252941      0.00558963
      0.64447099     -0.05996965
      0.31623667     -0.03827788
 
           2   0
s              4   1.000000
     34.94525864     -0.01198412
      6.01786270     -0.05472052
      0.48356095      0.58055871
      0.18429704      0.47700799
p              4   1.000000
      5.63234136      0.05713170
      1.46038201      0.28574555
      0.51482985      0.55178731
      0.20496264      0.26323149
s              7   1.000000
      0.38350848     -0.19622161
      0.04707223      0.94807070
      0.02222627      0.24897777
     34.94525864      0.00551405
      6.01786270      0.02517764
      0.48356095     -0.26712274
      0.18429704     -0.21947768
p              7   1.000000
      1.83062075     -0.01161102
      0.10124670      0.57058342
      0.03901771      0.59588961
      5.63234136     -0.02525863
      1.46038201     -0.12633161
      0.51482985     -0.24395194
      0.20496264     -0.11637787
 
           3   0
s              4   1.000000
     35.17370737     -0.01198412
      6.05720346     -0.05472052
      0.48672214      0.58055871
      0.18550186      0.47700800
p              4   1.000000
      5.66916184      0.05713170
      1.46992901      0.28574555
      0.51819546      0.55178731
      0.20630254      0.26323149
s              7   1.000000
      0.38350848     -0.19600944
      0.04707223      0.94704559
      0.02222627      0.24870855
     35.17370737      0.00547984
      6.05720346      0.02502142
      0.48672214     -0.26546535
      0.18550186     -0.21811592
p              7   1.000000
      1.83062075     -0.01159923
      0.10124670      0.57000385
      0.03901771      0.59528435
      5.66916184     -0.02510130
      1.46992901     -0.12554475
      0.51819546     -0.24243246
      0.20630254     -0.11565300
 
           4   0
s              4   1.000000
     34.93768909     -0.01198412
      6.01655916     -0.05472052
      0.48345620      0.58055871
      0.18425712      0.47700799
p              4   1.000000
      5.63112133      0.05713170
      1.46006568      0.28574555
      0.51471833      0.55178731
      0.20491824      0.26323149
s              7   1.000000
      0.38350848     -0.19622870
      0.04707223      0.94810498
      0.02222627      0.24898676
     34.93768909      0.00551519
      6.01655916      0.02518285
      0.48345620     -0.26717800
      0.18425712     -0.21952309
p              7   1.000000
      1.83062075     -0.01161142
      0.10124670      0.57060280
      0.03901771      0.59590988
      5.63112133     -0.02526387
      1.46006568     -0.12635785
      0.51471833     -0.24400260
      0.20491824     -0.11640204
 
           5   0
s              4   1.000000
     35.01221220     -0.01198412
      6.02939265     -0.05472052
      0.48448743      0.58055871
      0.18465015      0.47700799
p              4   1.000000
      5.64313268      0.05713170
      1.46318004      0.28574555
      0.51581624      0.55178731
      0.20535533      0.26323149
s              7   1.000000
      0.38350848     -0.19615905
      0.04707223      0.94776842
      0.02222627      0.24889838
     35.01221220      0.00550398
      6.02939265      0.02513166
      0.48448743     -0.26663490
      0.18465015     -0.21907686
p              7   1.000000
      1.83062075     -0.01160754
      0.10124670      0.57041253
      0.03901771      0.59571116
      5.64313268     -0.02521232
      1.46318004     -0.12610001
      0.51581624     -0.24350470
      0.20535533     -0.11616451
 
           6   0
s              4   1.000000
     35.16366361     -0.01198412
      6.05547384     -0.05472053
      0.48658316      0.58055871
      0.18544889      0.47700799
p              4   1.000000
      5.66754303      0.05713170
      1.46950928      0.28574555
      0.51804749      0.55178731
      0.20624363      0.26323149
s              7   1.000000
      0.38350848     -0.19601869
      0.04707223      0.94709029
      0.02222627      0.24872030
     35.16366361      0.00548133
      6.05547384      0.02502825
      0.48658316     -0.26553780
      0.18544889     -0.21817544
p              7   1.000000
      1.83062075     -0.01159974
      0.10124670      0.57002912
      0.03901771      0.59531077
      5.66754303     -0.02510818
      1.46950928     -0.12557914
      0.51804749     -0.24249888
      0.20624363     -0.11568469
 
           7   0
s              4   1.000000
     61.63359209     -0.01198412
     10.61381455     -0.05472053
      0.85286529      0.58055871
      0.32504807      0.47700799
p              4   1.000000
      7.26487329      0.05713170
      1.88367316      0.28574555
      0.66405308      0.55178731
      0.26437097      0.26323149
s              7   1.000000
      0.47894987     -0.18765418
      0.05878681      0.90667602
      0.02775758      0.23810689
     61.63359209      0.00394209
     10.61381455      0.01799991
      0.85286529     -0.19097047
      0.32504807     -0.15690823
p              7   1.000000
      2.28619608     -0.01155381
      0.12644335      0.56777202
      0.04872781      0.59295353
      7.26487329     -0.02448756
      1.88367316     -0.12247510
      0.66405308     -0.23650485
      0.26437097     -0.11282522
 
           8   0
s              4   1.000000
     35.81815355     -0.01198412
      6.16818242     -0.05472053
      0.49563978      0.58055871
      0.18890059      0.47700800
p              4   1.000000
      5.77303118      0.05713170
      1.49686078      0.28574555
      0.52768974      0.55178731
      0.21008238      0.26323149
s              7   1.000000
      0.38350848     -0.19543026
      0.04707223      0.94424720
      0.02222627      0.24797365
     35.81815355      0.00538553
      6.16818242      0.02459080
      0.49563978     -0.26089668
      0.18890059     -0.21436212
p              7   1.000000
      1.83062075     -0.01156703
      0.10124670      0.56842181
      0.03901771      0.59363213
      5.77303118     -0.02466757
      1.49686078     -0.12337543
      0.52768974     -0.23824342
      0.21008238     -0.11365461
 
           9   0
s              4   1.000000
     35.07075783     -0.01198412
      6.03947470     -0.05472053
      0.48529756      0.58055871
      0.18495891      0.47700800
p              4   1.000000
      5.65256883      0.05713170
      1.46562669      0.28574555
      0.51667876      0.55178731
      0.20569872      0.26323149
s              7   1.000000
      0.38350848     -0.19610460
      0.04707223      0.94750536
      0.02222627      0.24882930
     35.07075783      0.00549520
      6.03947470      0.02509158
      0.48529756     -0.26620974
      0.18495891     -0.21872753
p              7   1.000000
      1.83062075     -0.01160452
      0.10124670      0.57026379
      0.03901771      0.59555581
      5.65256883     -0.02517196
      1.46562669     -0.12589816
      0.51667876     -0.24311493
      0.20569872     -0.11597857
 
          10   0
s              4   1.000000
     35.02669123     -0.01198412
      6.03188606     -0.05472053
      0.48468778      0.58055871
      0.18472651      0.47700799
p              4   1.000000
      5.64546635      0.05713170
      1.46378512      0.28574555
      0.51602955      0.55178731
      0.20544026      0.26323149
s              7   1.000000
      0.38350848     -0.19614556
      0.04707223      0.94770325
      0.02222627      0.24888127
     35.02669123      0.00550181
      6.03188606      0.02512173
      0.48468778     -0.26652963
      0.18472651     -0.21899036
p              7   1.000000
      1.83062075     -0.01160679
      0.10124670      0.57037567
      0.03901771      0.59567269
      5.64546635     -0.02520233
      1.46378512     -0.12605003
      0.51602955     -0.24340819
      0.20544026     -0.11611847
 
          11   0
s              4   1.000000
     35.00924734     -0.01198412
      6.02888208     -0.05472052
      0.48444640      0.58055871
      0.18463451      0.47700799
p              4   1.000000
      5.64265481      0.05713170
      1.46305613      0.28574555
      0.51577256      0.55178731
      0.20533794      0.26323149
s              7   1.000000
      0.38350848     -0.19616181
      0.04707223      0.94778178
      0.02222627      0.24890189
     35.00924734      0.00550443
      6.02888208      0.02513369
      0.48444640     -0.26665646
      0.18463451     -0.21909457
p              7   1.000000
      1.83062075     -0.01160770
      0.10124670      0.57042007
      0.03901771      0.59571905
      5.64265481     -0.02521437
      1.46305613     -0.12611025
      0.51577256     -0.24352447
      0.20533794     -0.11617394
 
          12   0
s              4   1.000000
     35.08463300     -0.01198412
      6.04186412     -0.05472052
      0.48548956      0.58055871
      0.18503209      0.47700799
p              4   1.000000
      5.65480518      0.05713170
      1.46620654      0.28574555
      0.51688318      0.55178731
      0.20578010      0.26323149
s              7   1.000000
      0.38350848     -0.19609173
      0.04707223      0.94744319
      0.02222627      0.24881297
     35.08463300      0.00549313
      6.04186412      0.02508210
      0.48548956     -0.26610918
      0.18503209     -0.21864491
p              7   1.000000
      1.83062075     -0.01160380
      0.10124670      0.57022864
      0.03901771      0.59551912
      5.65480518     -0.02516242
      1.46620654     -0.12585042
      0.51688318     -0.24302273
      0.20578010     -0.11593459
 
          13   0
s              4   1.000000
     35.08381488     -0.01198412
      6.04172323     -0.05472053
      0.48547824      0.58055871
      0.18502777      0.47700800
p              4   1.000000
      5.65467332      0.05713170
      1.46617235      0.28574555
      0.51687112      0.55178731
      0.20577530      0.26323149
s              7   1.000000
      0.38350848     -0.19609249
      0.04707223      0.94744685
      0.02222627      0.24881392
     35.08381488      0.00549325
      6.04172323      0.02508266
      0.48547824     -0.26611511
      0.18502777     -0.21864978
p              7   1.000000
      1.83062075     -0.01160384
      0.10124670      0.57023071
      0.03901771      0.59552126
      5.65467332     -0.02516298
      1.46617235     -0.12585323
      0.51687112     -0.24302816
      0.20577530     -0.11593718
 
          14   0
s              4   1.000000
     35.01356588     -0.01198412
      6.02962577     -0.05472052
      0.48450616      0.58055871
      0.18465729      0.47700799
p              4   1.000000
      5.64335086      0.05713170
      1.46323661      0.28574555
      0.51583618      0.55178731
      0.20536327      0.26323149
s              7   1.000000
      0.38350848     -0.19615778
      0.04707223      0.94776232
      0.02222627      0.24889677
     35.01356588      0.00550378
      6.02962577      0.02513073
      0.48450616     -0.26662505
      0.18465729     -0.21906876
p              7   1.000000
      1.83062075     -0.01160747
      0.10124670      0.57040907
      0.03901771      0.59570756
      5.64335086     -0.02521138
      1.46323661     -0.12609533
      0.51583618     -0.24349567
      0.20536327     -0.11616021
 
          15   0
s              4   1.000000
     35.01717086     -0.01198412
      6.03024658     -0.05472052
      0.48455604      0.58055871
      0.18467630      0.47700799
p              4   1.000000
      5.64393189      0.05713170
      1.46338726      0.28574555
      0.51588929      0.55178731
      0.20538442      0.26323149
s              7   1.000000
      0.38350848     -0.19615442
      0.04707223      0.94774609
      0.02222627      0.24889250
     35.01717086      0.00550324
      6.03024658      0.02512826
      0.48455604     -0.26659883
      0.18467630     -0.21904723
p              7   1.000000
      1.83062075     -0.01160729
      0.10124670      0.57039990
      0.03901771      0.59569797
      5.64393189     -0.02520890
      1.46338726     -0.12608289
      0.51588929     -0.24347164
      0.20538442     -0.11614874
 
          16   0
s              4   1.000000
     35.19230452     -0.01198412
      6.06040604     -0.05472052
      0.48697948      0.58055871
      0.18559993      0.47700799
p              4   1.000000
      5.67215926      0.05713170
      1.47070620      0.28574555
      0.51846945      0.55178731
      0.20641162      0.26323149
s              7   1.000000
      0.38350848     -0.19599233
      0.04707223      0.94696292
      0.02222627      0.24868683
     35.19230452      0.00547707
      6.06040604      0.02500879
      0.48697948     -0.26533132
      0.18559993     -0.21800579
p              7   1.000000
      1.83062075     -0.01159828
      0.10124670      0.56995711
      0.03901771      0.59523556
      5.67215926     -0.02508858
      1.47070620     -0.12548111
      0.51846945     -0.24230958
      0.20641162     -0.11559438
 
          17   0
s              4   1.000000
     61.15256857     -0.01198412
     10.53097832     -0.05472052
      0.84620904      0.58055871
      0.32251121      0.47700799
p              4   1.000000
      7.20817410      0.05713170
      1.86897191      0.28574555
      0.65887043      0.55178731
      0.26230767      0.26323149
s              7   1.000000
      0.47894987     -0.18779768
      0.05878681      0.90736938
      0.02775758      0.23828897
     61.15256857      0.00397285
     10.53097832      0.01814039
      0.84620904     -0.19246094
      0.32251121     -0.15813286
p              7   1.000000
      2.28619608     -0.01156741
      0.12644335      0.56844032
      0.04872781      0.59365147
      7.20817410     -0.02467269
      1.86897191     -0.12340102
      0.65887043     -0.23829283
      0.26230767     -0.11367818
 
          18   0
s              4   1.000000
     35.19791503     -0.01198412
      6.06137222     -0.05472052
      0.48705712      0.58055871
      0.18562952      0.47700800
p              4   1.000000
      5.67306354      0.05713170
      1.47094066      0.28574555
      0.51855210      0.55178731
      0.20644453      0.26323149
s              7   1.000000
      0.38350848     -0.19598718
      0.04707223      0.94693800
      0.02222627      0.24868030
     35.19791503      0.00547624
      6.06137222      0.02500498
      0.48705712     -0.26529091
      0.18562952     -0.21797258
p              7   1.000000
      1.83062075     -0.01159799
      0.10124670      0.56994302
      0.03901771      0.59522084
      5.67306354     -0.02508474
      1.47094066     -0.12546192
      0.51855210     -0.24227253
      0.20644453     -0.11557670
 
          19   0
s              4   1.000000
     35.01881428     -0.01198412
      6.03052959     -0.05472052
      0.48457878      0.58055871
      0.18468497      0.47700799
p              4   1.000000
      5.64419678      0.05713170
      1.46345594      0.28574555
      0.51591351      0.55178731
      0.20539406      0.26323149
s              7   1.000000
      0.38350848     -0.19615290
      0.04707223      0.94773869
      0.02222627      0.24889058
     35.01881428      0.00550299
      6.03052959      0.02512713
      0.48457878     -0.26658688
      0.18468497     -0.21903741
p              7   1.000000
      1.83062075     -0.01160720
      0.10124670      0.57039572
      0.03901771      0.59569360
      5.64419678     -0.02520776
      1.46345594     -0.12607721
      0.51591351     -0.24346068
      0.20539406     -0.11614352
 
          20   0
s              4   1.000000
     34.92054125     -0.01198412
      6.01360616     -0.05472052
      0.48321891      0.58055871
      0.18416669      0.47700799
p              4   1.000000
      5.62835751      0.05713170
      1.45934906      0.28574555
      0.51446570      0.55178731
      0.20481766      0.26323149
s              7   1.000000
      0.38350848     -0.19624479
      0.04707223      0.94818269
      0.02222627      0.24900716
     34.92054125      0.00551778
      6.01360616      0.02519465
      0.48321891     -0.26730328
      0.18416669     -0.21962602
p              7   1.000000
      1.83062075     -0.01161231
      0.10124670      0.57064674
      0.03901771      0.59595576
      5.62835751     -0.02527576
      1.45934906     -0.12641732
      0.51446570     -0.24411745
      0.20481766     -0.11645683
 
          21   0
s              4   1.000000
     34.91525692     -0.01198412
      6.01269615     -0.05472053
      0.48314579      0.58055871
      0.18413882      0.47700799
p              4   1.000000
      5.62750580      0.05713170
      1.45912822      0.28574555
      0.51438785      0.55178731
      0.20478667      0.26323149
s              7   1.000000
      0.38350848     -0.19624975
      0.04707223      0.94820666
      0.02222627      0.24901347
     34.91525692      0.00551857
      6.01269615      0.02519829
      0.48314579     -0.26734191
      0.18413882     -0.21965776
p              7   1.000000
      1.83062075     -0.01161259
      0.10124670      0.57066029
      0.03901771      0.59596992
      5.62750580     -0.02527943
      1.45912822     -0.12643566
      0.51438785     -0.24415286
      0.20478667     -0.11647372
 
          22   0
s              4   1.000000
     34.92038261     -0.01198412
      6.01357884     -0.05472052
      0.48321672      0.58055871
      0.18416585      0.47700800
p              4   1.000000
      5.62833194      0.05713170
      1.45934243      0.28574555
      0.51446337      0.55178731
      0.20481673      0.26323149
s              7   1.000000
      0.38350848     -0.19624493
      0.04707223      0.94818341
      0.02222627      0.24900736
     34.92038261      0.00551780
      6.01357884      0.02519476
      0.48321672     -0.26730444
      0.18416585     -0.21962698
p              7   1.000000
      1.83062075     -0.01161232
      0.10124670      0.57064715
      0.03901771      0.59595616
      5.62833194     -0.02527587
      1.45934243     -0.12641787
      0.51446337     -0.24411851
      0.20481673     -0.11645734
 
          23   0
s              4   1.000000
     35.01999708     -0.01198412
      6.03073328     -0.05472052
      0.48459515      0.58055871
      0.18469121      0.47700799
p              4   1.000000
      5.64438741      0.05713170
      1.46350537      0.28574555
      0.51593093      0.55178731
      0.20540099      0.26323149
s              7   1.000000
      0.38350848     -0.19615179
      0.04707223      0.94773338
      0.02222627      0.24888916
     35.01999708      0.00550281
      6.03073328      0.02512632
      0.48459515     -0.26657829
      0.18469121     -0.21903034
p              7   1.000000
      1.83062075     -0.01160714
      0.10124670      0.57039271
      0.03901771      0.59569045
      5.64438741     -0.02520695
      1.46350537     -0.12607313
      0.51593093     -0.24345280
      0.20540099     -0.11613976
 
          24   0
s              4   1.000000
     35.20057775     -0.01198412
      6.06183076     -0.05472052
      0.48709397      0.58055871
      0.18564357      0.47700799
p              4   1.000000
      5.67349271      0.05713170
      1.47105194      0.28574555
      0.51859133      0.55178731
      0.20646015      0.26323149
s              7   1.000000
      0.38350848     -0.19598473
      0.04707223      0.94692618
      0.02222627      0.24867720
     35.20057775      0.00547584
      6.06183076      0.02500317
      0.48709397     -0.26527173
      0.18564357     -0.21795683
p              7   1.000000
      1.83062075     -0.01159785
      0.10124670      0.56993634
      0.03901771      0.59521384
      5.67349271     -0.02508292
      1.47105194     -0.12545282
      0.51859133     -0.24225495
      0.20646015     -0.11556832
 
          25   0
s              4   1.000000
     35.01932438     -0.01198412
      6.03061743     -0.05472052
      0.48458584      0.58055871
      0.18468766      0.47700799
p              4   1.000000
      5.64427899      0.05713170
      1.46347726      0.28574555
      0.51592102      0.55178731
      0.20539705      0.26323149
s              7   1.000000
      0.38350848     -0.19615242
      0.04707223      0.94773640
      0.02222627      0.24888997
     35.01932438      0.00550291
      6.03061743      0.02512678
      0.48458584     -0.26658318
      0.18468766     -0.21903436
p              7   1.000000
      1.83062075     -0.01160718
      0.10124670      0.57039442
      0.03901771      0.59569223
      5.64427899     -0.02520741
      1.46347726     -0.12607545
      0.51592102     -0.24345728
      0.20539705     -0.11614189
 
          26   0
s              4   1.000000
     34.92051593     -0.01198412
      6.01360180     -0.05472052
      0.48321856      0.58055871
      0.18416656      0.47700799
p              4   1.000000
      5.62835343      0.05713170
      1.45934800      0.28574555
      0.51446533      0.55178731
      0.20481751      0.26323149
s              7   1.000000
      0.38350848     -0.19624481
      0.04707223      0.94818280
      0.02222627      0.24900721
     34.92051593      0.00551778
      6.01360180      0.02519467
      0.48321856     -0.26730346
      0.18416656     -0.21962617
p              7   1.000000
      1.83062075     -0.01161231
      0.10124670      0.57064680
      0.03901771      0.59595584
      5.62835343     -0.02527578
      1.45934800     -0.12641741
      0.51446533     -0.24411762
      0.20481751     -0.11645691
 
          27   0
s              4   1.000000
     34.91550809     -0.01198412
      6.01273941     -0.05472053
      0.48314927      0.58055871
      0.18414014      0.47700800
p              4   1.000000
      5.62754628      0.05713170
      1.45913872      0.28574555
      0.51439155      0.55178731
      0.20478814      0.26323149
s              7   1.000000
      0.38350848     -0.19624951
      0.04707223      0.94820552
      0.02222627      0.24901316
     34.91550809      0.00551854
      6.01273941      0.02519812
      0.48314927     -0.26734007
      0.18414014     -0.21965625
p              7   1.000000
      1.83062075     -0.01161257
      0.10124670      0.57065964
      0.03901771      0.59596923
      5.62754628     -0.02527926
      1.45913872     -0.12643479
      0.51439155     -0.24415118
      0.20478814     -0.11647292
 
          28   0
s              4   1.000000
     34.92052945     -0.01198412
      6.01360413     -0.05472052
      0.48321875      0.58055871
      0.18416663      0.47700799
p              4   1.000000
      5.62835561      0.05713170
      1.45934856      0.28574555
      0.51446553      0.55178731
      0.20481759      0.26323149
s              7   1.000000
      0.38350848     -0.19624480
      0.04707223      0.94818275
      0.02222627      0.24900719
     34.92052945      0.00551778
      6.01360413      0.02519466
      0.48321875     -0.26730337
      0.18416663     -0.21962609
p              7   1.000000
      1.83062075     -0.01161231
      0.10124670      0.57064677
      0.03901771      0.59595580
      5.62835561     -0.02527577
      1.45934856     -0.12641737
      0.51446553     -0.24411753
      0.20481759     -0.11645687
 
          29   0
s              4   1.000000
     35.01924279     -0.01198412
      6.03060338     -0.05472052
      0.48458471      0.58055871
      0.18468723      0.47700799
p              4   1.000000
      5.64426584      0.05713170
      1.46347385      0.28574555
      0.51591982      0.55178731
      0.20539657      0.26323149
s              7   1.000000
      0.38350848     -0.19615250
      0.04707223      0.94773676
      0.02222627      0.24889007
     35.01924279      0.00550293
      6.03060338      0.02512684
      0.48458471     -0.26658377
      0.18468723     -0.21903485
p              7   1.000000
      1.83062075     -0.01160718
      0.10124670      0.57039463
      0.03901771      0.59569247
      5.64426584     -0.02520747
      1.46347385     -0.12607574
      0.51591982     -0.24345783
      0.20539657     -0.11614216
 
          30   0
s              4   1.000000
     35.01576289     -0.01198412
      6.03000411     -0.05472052
      0.48453656      0.58055871
      0.18466888      0.47700800
p              4   1.000000
      5.64370496      0.05713170
      1.46332842      0.28574555
      0.51586855      0.55178731
      0.20537616      0.26323149
s              7   1.000000
      0.38350848     -0.19615574
      0.04707223      0.94775244
      0.02222627      0.24889418
     35.01576289      0.00550345
      6.03000411      0.02512922
      0.48453656     -0.26660907
      0.18466888     -0.21905564
p              7   1.000000
      1.83062075     -0.01160736
      0.10124670      0.57040348
      0.03901771      0.59570170
      5.64370496     -0.02520987
      1.46332842     -0.12608775
      0.51586855     -0.24348102
      0.20537616     -0.11615322
 
          31   0
s              4   1.000000
     35.01207504     -0.01198412
      6.02936904     -0.05472052
      0.48448553      0.58055871
      0.18464943      0.47700799
p              4   1.000000
      5.64311057      0.05713170
      1.46317431      0.28574555
      0.51581422      0.55178731
      0.20535453      0.26323149
s              7   1.000000
      0.38350848     -0.19615917
      0.04707223      0.94776904
      0.02222627      0.24889855
     35.01207504      0.00550400
      6.02936904      0.02513175
      0.48448553     -0.26663589
      0.18464943     -0.21907767
p              7   1.000000
      1.83062075     -0.01160755
      0.10124670      0.57041287
      0.03901771      0.59571153
      5.64311057     -0.02521241
      1.46317431     -0.12610048
      0.51581422     -0.24350561
      0.20535453     -0.11616495
 
          32   0
s              4   1.000000
     35.01355552     -0.01198412
      6.02962399     -0.05472052
      0.48450602      0.58055871
      0.18465724      0.47700799
p              4   1.000000
      5.64334919      0.05713170
      1.46323618      0.28574555
      0.51583603      0.55178731
      0.20536321      0.26323149
s              7   1.000000
      0.38350848     -0.19615780
      0.04707223      0.94776237
      0.02222627      0.24889679
     35.01355552      0.00550378
      6.02962399      0.02513073
      0.48450602     -0.26662512
      0.18465724     -0.21906883
p              7   1.000000
      1.83062075     -0.01160747
      0.10124670      0.57040910
      0.03901771      0.59570756
      5.64334919     -0.02521139
      1.46323618     -0.12609537
      0.51583603     -0.24349574
      0.20536321     -0.11616024
 
          33   0
s              4   1.000000
     35.00949241     -0.01198412
      6.02892429     -0.05472052
      0.48444979      0.58055871
      0.18463581      0.47700800
p              4   1.000000
      5.64269431      0.05713170
      1.46306638      0.28574555
      0.51577617      0.55178731
      0.20533938      0.26323149
s              7   1.000000
      0.38350848     -0.19616158
      0.04707223      0.94778067
      0.02222627      0.24890159
     35.00949241      0.00550439
      6.02892429      0.02513352
      0.48444979     -0.26665468
      0.18463581     -0.21909311
p              7   1.000000
      1.83062075     -0.01160769
      0.10124670      0.57041944
      0.03901771      0.59571836
      5.64269431     -0.02521420
      1.46306638     -0.12610940
      0.51577617     -0.24352284
      0.20533938     -0.11617317
 
          34   0
s              4   1.000000
     57.60724080     -0.01198412
      9.92044355     -0.05472053
      0.79714997      0.58055871
      0.30381358      0.47700799
p              4   1.000000
      6.79027931      0.05713170
      1.76061803      0.28574555
      0.62067234      0.55178731
      0.24710035      0.26323149
s              7   1.000000
      0.47894987     -0.18895842
      0.05878681      0.91297767
      0.02775758      0.23976181
     57.60724080      0.00421428
      9.92044355      0.01924276
      0.79714997     -0.20415649
      0.30381358     -0.16774234
p              7   1.000000
      2.28619608     -0.01167712
      0.12644335      0.57383162
      0.04872781      0.59928188
      6.79027931     -0.02612568
      1.76061803     -0.13066823
      0.62067234     -0.25232613
      0.24710035     -0.12037280
 
          35   0
s              4   1.000000
     35.68413643     -0.01198412
      6.14510357     -0.05472052
      0.49378529      0.58055871
      0.18819380      0.47700799
p              4   1.000000
      5.75143082      0.05713170
      1.49126013      0.28574555
      0.52571534      0.55178731
      0.20929634      0.26323149
s              7   1.000000
      0.38350848     -0.19554841
      0.04707223      0.94481807
      0.02222627      0.24812358
     35.68413643      0.00540488
      6.14510357      0.02467915
      0.49378529     -0.26183405
      0.18819380     -0.21513230
p              7   1.000000
      1.83062075     -0.01157360
      0.10124670      0.56874453
      0.03901771      0.59396917
      5.75143082     -0.02475657
      1.49126013     -0.12382055
      0.52571534     -0.23910296
      0.20929634     -0.11406466
 
          36   0
s              4   1.000000
     35.06061986     -0.01198412
      6.03772885     -0.05472052
      0.48515727      0.58055871
      0.18490545      0.47700799
p              4   1.000000
      5.65093484      0.05713170
      1.46520302      0.28574555
      0.51652940      0.55178731
      0.20563926      0.26323149
s              7   1.000000
      0.38350848     -0.19611401
      0.04707223      0.94755083
      0.02222627      0.24884124
     35.06061986      0.00549672
      6.03772885      0.02509851
      0.48515727     -0.26628327
      0.18490545     -0.21878794
p              7   1.000000
      1.83062075     -0.01160504
      0.10124670      0.57028950
      0.03901771      0.59558267
      5.65093484     -0.02517894
      1.46520302     -0.12593307
      0.51652940     -0.24318233
      0.20563926     -0.11601073
 
          37   0
s              4   1.000000
     35.01300190     -0.01198412
      6.02952865     -0.05472052
      0.48449835      0.58055871
      0.18465432      0.47700799
p              4   1.000000
      5.64325996      0.05713170
      1.46321304      0.28574555
      0.51582788      0.55178730
      0.20535997      0.26323149
s              7   1.000000
      0.38350848     -0.19615831
      0.04707223      0.94776487
      0.02222627      0.24889745
     35.01300190      0.00550386
      6.02952865      0.02513111
      0.48449835     -0.26662915
      0.18465432     -0.21907213
p              7   1.000000
      1.83062075     -0.01160750
      0.10124670      0.57041051
      0.03901771      0.59570906
      5.64325996     -0.02521177
      1.46321304     -0.12609728
      0.51582788     -0.24349943
      0.20535997     -0.11616200
 
          38   0
s              4   1.000000
     34.91924381     -0.01198412
      6.01338273     -0.05472052
      0.48320096      0.58055871
      0.18415985      0.47700799
p              4   1.000000
      5.62814839      0.05713170
      1.45929484      0.28574555
      0.51444659      0.55178731
      0.20481005      0.26323149
s              7   1.000000
      0.38350848     -0.19624601
      0.04707223      0.94818858
      0.02222627      0.24900872
     34.91924381      0.00551797
      6.01338273      0.02519555
      0.48320096     -0.26731276
      0.18415985     -0.21963382
p              7   1.000000
      1.83062075     -0.01161238
      0.10124670      0.57065007
      0.03901771      0.59595924
      5.62814839     -0.02527666
      1.45929484     -0.12642183
      0.51444659     -0.24412614
      0.20481005     -0.11646098
 
          39   0
s              4   1.000000
     34.91792763     -0.01198412
      6.01315607     -0.05472052
      0.48318275      0.58055871
      0.18415291      0.47700799
p              4   1.000000
      5.62793626      0.05713170
      1.45923983      0.28574555
      0.51442720      0.55178731
      0.20480233      0.26323149
s              7   1.000000
      0.38350848     -0.19624724
      0.04707223      0.94819455
      0.02222627      0.24901028
     34.91792763      0.00551817
      6.01315607      0.02519645
      0.48318275     -0.26732238
      0.18415291     -0.21964172
p              7   1.000000
      1.83062075     -0.01161245
      0.10124670      0.57065344
      0.03901771      0.59596276
      5.62793626     -0.02527758
      1.45923983     -0.12642639
      0.51442720     -0.24413496
      0.20480233     -0.11646518
 
          40   0
s              4   1.000000
     34.91546511     -0.01198412
      6.01273201     -0.05472052
      0.48314867      0.58055871
      0.18413992      0.47700799
p              4   1.000000
      5.62753936      0.05713170
      1.45913692      0.28574555
      0.51439092      0.55178731
      0.20478789      0.26323149
s              7   1.000000
      0.38350848     -0.19624955
      0.04707223      0.94820571
      0.02222627      0.24901321
     34.91546511      0.00551854
      6.01273201      0.02519815
      0.48314867     -0.26734039
      0.18413992     -0.21965651
p              7   1.000000
      1.83062075     -0.01161258
      0.10124670      0.57065975
      0.03901771      0.59596935
      5.62753936     -0.02527929
      1.45913692     -0.12643494
      0.51439092     -0.24415147
      0.20478789     -0.11647306
 
          41   0
s              4   1.000000
     35.02899083     -0.01198412
      6.03228207     -0.05472053
      0.48471960      0.58055871
      0.18473864      0.47700799
p              4   1.000000
      5.64583699      0.05713170
      1.46388123      0.28574555
      0.51606343      0.55178730
      0.20545374      0.26323149
s              7   1.000000
      0.38350848     -0.19614342
      0.04707223      0.94769290
      0.02222627      0.24887854
     35.02899083      0.00550146
      6.03228207      0.02512016
      0.48471960     -0.26651291
      0.18473864     -0.21897663
p              7   1.000000
      1.83062075     -0.01160668
      0.10124670      0.57036983
      0.03901771      0.59566658
      5.64583699     -0.02520074
      1.46388123     -0.12604210
      0.51606343     -0.24339287
      0.20545374     -0.11611117
 
          42   0
s              4   1.000000
     35.59663379     -0.01198412
      6.13003489     -0.05472053
      0.49257446      0.58055871
      0.18773232      0.47700799
p              4   1.000000
      5.73732748      0.05713170
      1.48760334      0.28574555
      0.52442621      0.55178731
      0.20878311      0.26323149
s              7   1.000000
      0.38350848     -0.19562620
      0.04707223      0.94519389
      0.02222627      0.24822227
     35.59663379      0.00541759
      6.13003489      0.02473717
      0.49257446     -0.26244964
      0.18773232     -0.21563810
p              7   1.000000
      1.83062075     -0.01157793
      0.10124670      0.56895700
      0.03901771      0.59419107
      5.73732748     -0.02481501
      1.48760334     -0.12411286
      0.52442621     -0.23966743
      0.20878311     -0.11433393
 
          43   0
s              4   1.000000
     35.06635909     -0.01198412
      6.03871720     -0.05472052
      0.48523669      0.58055871
      0.18493571      0.47700800
p              4   1.000000
      5.65185986      0.05713170
      1.46544287      0.28574555
      0.51661396      0.55178731
      0.20567292      0.26323149
s              7   1.000000
      0.38350848     -0.19610868
      0.04707223      0.94752507
      0.02222627      0.24883447
     35.06635909      0.00549586
      6.03871720      0.02509459
      0.48523669     -0.26624164
      0.18493571     -0.21875374
p              7   1.000000
      1.83062075     -0.01160474
      0.10124670      0.57027495
      0.03901771      0.59556746
      5.65185986     -0.02517499
      1.46544287     -0.12591331
      0.51661396     -0.24314417
      0.20567292     -0.11599252
 
          44   0
s              4   1.000000
     35.02283338     -0.01198412
      6.03122171     -0.05472052
      0.48463440      0.58055871
      0.18470617      0.47700799
p              4   1.000000
      5.64484456      0.05713170
      1.46362390      0.28574555
      0.51597272      0.55178731
      0.20541763      0.26323149
s              7   1.000000
      0.38350848     -0.19614915
      0.04707223      0.94772060
      0.02222627      0.24888582
     35.02283338      0.00550239
      6.03122171      0.02512438
      0.48463440     -0.26655767
      0.18470617     -0.21901340
p              7   1.000000
      1.83062075     -0.01160699
      0.10124670      0.57038549
      0.03901771      0.59568292
      5.64484456     -0.02520499
      1.46362390     -0.12606334
      0.51597272     -0.24343390
      0.20541763     -0.11613074
 
          45   0
s              4   1.000000
     34.91839863     -0.01198412
      6.01323718     -0.05472052
      0.48318926      0.58055871
      0.18415539      0.47700799
p              4   1.000000
      5.62801217      0.05713170
      1.45925952      0.28574555
      0.51443414      0.55178731
      0.20480509      0.26323149
s              7   1.000000
      0.38350848     -0.19624680
      0.04707223      0.94819241
      0.02222627      0.24900972
     34.91839863      0.00551810
      6.01323718      0.02519613
      0.48318926     -0.26731894
      0.18415539     -0.21963889
p              7   1.000000
      1.83062075     -0.01161242
      0.10124670      0.57065223
      0.03901771      0.59596150
      5.62801217     -0.02527725
      1.45925952     -0.12642476
      0.51443414     -0.24413181
      0.20480509     -0.11646368
 
          46   0
s              4   1.000000
     34.91987228     -0.01198412
      6.01349096     -0.05472053
      0.48320966      0.58055871
      0.18416316      0.47700799
p              4   1.000000
      5.62824969      0.05713170
      1.45932110      0.28574555
      0.51445585      0.55178730
      0.20481374      0.26323149
s              7   1.000000
      0.38350848     -0.19624542
      0.04707223      0.94818572
      0.02222627      0.24900797
     34.91987228      0.00551788
      6.01349096      0.02519511
      0.48320966     -0.26730817
      0.18416316     -0.21963004
p              7   1.000000
      1.83062075     -0.01161235
      0.10124670      0.57064845
      0.03901771      0.59595754
      5.62824969     -0.02527623
      1.45932110     -0.12641965
      0.51445585     -0.24412193
      0.20481374     -0.11645897
 
          47   0
s              4   1.000000
     34.91993538     -0.01198412
      6.01350182     -0.05472052
      0.48321053      0.58055871
      0.18416349      0.47700800
p              4   1.000000
      5.62825986      0.05713170
      1.45932374      0.28574555
      0.51445678      0.55178731
      0.20481411      0.26323149
s              7   1.000000
      0.38350848     -0.19624536
      0.04707223      0.94818544
      0.02222627      0.24900789
     34.91993538      0.00551787
      6.01350182      0.02519507
      0.48321053     -0.26730771
      0.18416349     -0.21962966
p              7   1.000000
      1.83062075     -0.01161234
      0.10124670      0.57064829
      0.03901771      0.59595738
      5.62825986     -0.02527618
      1.45932374     -0.12641943
      0.51445678     -0.24412151
      0.20481411     -0.11645877
 
          48   0
s              4   1.000000
     35.02570086     -0.01198412
      6.03171551     -0.05472052
      0.48467408      0.58055871
      0.18472129      0.47700799
p              4   1.000000
      5.64530673      0.05713170
      1.46374374      0.28574555
      0.51601496      0.55178731
      0.20543445      0.26323149
s              7   1.000000
      0.38350848     -0.19614648
      0.04707223      0.94770770
      0.02222627      0.24888244
     35.02570086      0.00550196
      6.03171551      0.02512241
      0.48467408     -0.26653682
      0.18472129     -0.21899628
p              7   1.000000
      1.83062075     -0.01160685
      0.10124670      0.57037819
      0.03901771      0.59567532
      5.64530673     -0.02520301
      1.46374374     -0.12605345
      0.51601496     -0.24341479
      0.20543445     -0.11612162
 
          49   0
s              4   1.000000
     35.30035117     -0.01198412
      6.07901257     -0.05472052
      0.48847460      0.58055871
      0.18616976      0.47700799
p              4   1.000000
      5.68957380      0.05713170
      1.47522153      0.28574555
      0.52006124      0.55178731
      0.20704534      0.26323149
s              7   1.000000
      0.38350848     -0.19589340
      0.04707223      0.94648491
      0.02222627      0.24856130
     35.30035117      0.00546105
      6.07901257      0.02493564
      0.48847460     -0.26455521
      0.18616976     -0.21736812
p              7   1.000000
      1.83062075     -0.01159278
      0.10124670      0.56968687
      0.03901771      0.59495330
      5.68957380     -0.02501490
      1.47522153     -0.12511262
      0.52006124     -0.24159801
      0.20704534     -0.11525493
 
          50   0
s              4   1.000000
      8.31103898      0.05675242
      1.52081774      0.26014135
      0.42249982      0.53284611
      0.14022389      0.29162544
s              7   1.000000
      0.92936822     -0.06732573
      0.05643440      0.66942865
      0.02166600      0.51459407
      8.31103898     -0.02901712
      1.52081774     -0.13300846
      0.42249982     -0.27244051
      0.14022389     -0.14910606
p              4   1.000000
      0.64737396      0.05713170
      0.16785440      0.28574555
      0.05917387      0.55178731
      0.02355814      0.26323150
 
          51   0
s              4   1.000000
      8.30913135      0.05675242
      1.52046867      0.26014135
      0.42240285      0.53284611
      0.14019171      0.29162544
s              7   1.000000
      0.92936822     -0.06732819
      0.05643440      0.66945304
      0.02166600      0.51461283
      8.30913135     -0.02902222
      1.52046867     -0.13303185
      0.42240285     -0.27248841
      0.14019171     -0.14913228
p              4   1.000000
      0.64737396      0.05713170
      0.16785440      0.28574555
      0.05917387      0.55178731
      0.02355814      0.26323150
 
          52   0
s              4   1.000000
      8.30962571      0.05675242
      1.52055913      0.26014135
      0.42242798      0.53284611
      0.14020005      0.29162544
s              7   1.000000
      0.92936822     -0.06732755
      0.05643440      0.66944672
      0.02166600      0.51460796
      8.30962571     -0.02902090
      1.52055913     -0.13302579
      0.42242798     -0.27247600
      0.14020005     -0.14912548
p              4   1.000000
      0.64737396      0.05713170
      0.16785440      0.28574555
      0.05917387      0.55178731
      0.02355814      0.26323150
 
          53   0
s              4   1.000000
      8.30965835      0.05675242
      1.52056510      0.26014135
      0.42242964      0.53284611
      0.14020060      0.29162544
s              7   1.000000
      0.92936822     -0.06732751
      0.05643440      0.66944631
      0.02166600      0.51460764
      8.30965835     -0.02902081
      1.52056510     -0.13302539
      0.42242964     -0.27247518
      0.14020060     -0.14912503
p              4   1.000000
      0.64737396      0.05713170
      0.16785440      0.28574555
      0.05917387      0.55178731
      0.02355814      0.26323150
 
          54   0
s              4   1.000000
      8.30951880      0.05675242
      1.52053956      0.26014135
      0.42242254      0.53284611
      0.14019824      0.29162544
s              7   1.000000
      0.92936822     -0.06732769
      0.05643440      0.66944809
      0.02166600      0.51460903
      8.30951880     -0.02902118
      1.52053956     -0.13302710
      0.42242254     -0.27247868
      0.14019824     -0.14912695
p              4   1.000000
      0.64737396      0.05713170
      0.16785440      0.28574555
      0.05917387      0.55178731
      0.02355814      0.26323150
 
          55   0
s              4   1.000000
      8.30955985      0.05675242
      1.52054708      0.26014135
      0.42242463      0.53284611
      0.14019894      0.29162544
s              7   1.000000
      0.92936822     -0.06732764
      0.05643440      0.66944757
      0.02166600      0.51460861
      8.30955985     -0.02902107
      1.52054708     -0.13302660
      0.42242463     -0.27247765
      0.14019894     -0.14912639
p              4   1.000000
      0.64737396      0.05713170
      0.16785440      0.28574555
      0.05917387      0.55178731
      0.02355814      0.26323150
 
          56   0
s              4   1.000000
      8.30982660      0.05675242
      1.52059589      0.26014135
      0.42243819      0.53284611
      0.14020344      0.29162544
s              7   1.000000
      0.92936822     -0.06732729
      0.05643440      0.66944415
      0.02166600      0.51460600
      8.30982660     -0.02902036
      1.52059589     -0.13302333
      0.42243819     -0.27247095
      0.14020344     -0.14912272
p              4   1.000000
      0.64737396      0.05713170
      0.16785440      0.28574555
      0.05917387      0.55178731
      0.02355814      0.26323150
 
          57   0
s              4   1.000000
      8.30967671      0.05675242
      1.52056846      0.26014135
      0.42243057      0.53284611
      0.14020091      0.29162544
s              7   1.000000
      0.92936822     -0.06732749
      0.05643440      0.66944606
      0.02166600      0.51460746
      8.30967671     -0.02902076
      1.52056846     -0.13302516
      0.42243057     -0.27247472
      0.14020091     -0.14912478
p              4   1.000000
      0.64737396      0.05713170
      0.16785440      0.28574555
      0.05917387      0.55178731
      0.02355814      0.26323150
 
          58   0
s              4   1.000000
      8.30890433      0.05675242
      1.52042712      0.26014135
      0.42239130      0.53284611
      0.14018788      0.29162544
s              7   1.000000
      0.92936822     -0.06732848
      0.05643440      0.66945594
      0.02166600      0.51461507
      8.30890433     -0.02902283
      1.52042712     -0.13303464
      0.42239130     -0.27249411
      0.14018788     -0.14913540
p              4   1.000000
      0.64737396      0.05713170
      0.16785440      0.28574555
      0.05917387      0.55178731
      0.02355814      0.26323150
 
          59   0
s              4   1.000000
      8.30876161      0.05675242
      1.52040101      0.26014135
      0.42238405      0.53284611
      0.14018547      0.29162544
s              7   1.000000
      0.92936822     -0.06732866
      0.05643440      0.66945777
      0.02166600      0.51461646
      8.30876161     -0.02902321
      1.52040101     -0.13303639
      0.42238405     -0.27249770
      0.14018547     -0.14913736
p              4   1.000000
      0.64737396      0.05713170
      0.16785440      0.28574555
      0.05917387      0.55178731
      0.02355814      0.26323150
 
          60   0
s              4   1.000000
      8.30890219      0.05675242
      1.52042673      0.26014135
      0.42239119      0.53284611
      0.14018784      0.29162544
s              7   1.000000
      0.92936822     -0.06732848
      0.05643440      0.66945598
      0.02166600      0.51461509
      8.30890219     -0.02902283
      1.52042673     -0.13303466
      0.42239119     -0.27249417
      0.14018784     -0.14913542
p              4   1.000000
      0.64737396      0.05713170
      0.16785440      0.28574555
      0.05917387      0.55178731
      0.02355814      0.26323150
 
          61   0
s              4   1.000000
      8.30966003      0.05675242
      1.52056541      0.26014135
      0.42242972      0.53284611
      0.14020063      0.29162544
s              7   1.000000
      0.92936822     -0.06732751
      0.05643440      0.66944628
      0.02166600      0.51460764
      8.30966003     -0.02902081
      1.52056541     -0.13302537
      0.42242972     -0.27247514
      0.14020063     -0.14912501
p              4   1.000000
      0.64737396      0.05713170
      0.16785440      0.28574555
      0.05917387      0.55178731
      0.02355814      0.26323150
 
          62   0
s              4   1.000000
      8.30965216      0.05675242
      1.52056397      0.26014135
      0.42242932      0.53284611
      0.14020049      0.29162544
s              7   1.000000
      0.92936822     -0.06732752
      0.05643440      0.66944638
      0.02166600      0.51460771
      8.30965216     -0.02902083
      1.52056397     -0.13302547
      0.42242932     -0.27247533
      0.14020049     -0.14912511
p              4   1.000000
      0.64737396      0.05713170
      0.16785440      0.28574555
      0.05917387      0.55178731
      0.02355814      0.26323150
 
          63   0
s              4   1.000000
      8.30890283      0.05675242
      1.52042685      0.26014135
      0.42239123      0.53284611
      0.14018785      0.29162544
s              7   1.000000
      0.92936822     -0.06732848
      0.05643440      0.66945596
      0.02166600      0.51461507
      8.30890283     -0.02902283
      1.52042685     -0.13303465
      0.42239123     -0.27249415
      0.14018785     -0.14913542
p              4   1.000000
      0.64737396      0.05713170
      0.16785440      0.28574555
      0.05917387      0.55178731
      0.02355814      0.26323150
 
          64   0
s              4   1.000000
      8.30876558      0.05675242
      1.52040173      0.26014135
      0.42238425      0.53284611
      0.14018554      0.29162544
s              7   1.000000
      0.92936822     -0.06732866
      0.05643440      0.66945772
      0.02166600      0.51461643
      8.30876558     -0.02902320
      1.52040173     -0.13303634
      0.42238425     -0.27249760
      0.14018554     -0.14913731
p              4   1.000000
      0.64737396      0.05713170
      0.16785440      0.28574555
      0.05917387      0.55178731
      0.02355814      0.26323150
 
          65   0
s              4   1.000000
      8.30890586      0.05675242
      1.52042740      0.26014135
      0.42239138      0.53284611
      0.14018790      0.29162544
s              7   1.000000
      0.92936822     -0.06732848
      0.05643440      0.66945593
      0.02166600      0.51461504
      8.30890586     -0.02902282
      1.52042740     -0.13303462
      0.42239138     -0.27249408
      0.14018790     -0.14913537
p              4   1.000000
      0.64737396      0.05713170
      0.16785440      0.28574555
      0.05917387      0.55178731
      0.02355814      0.26323150
 
          66   0
s              4   1.000000
      8.30966392      0.05675242
      1.52056612      0.26014135
      0.42242992      0.53284611
      0.14020069      0.29162544
s              7   1.000000
      0.92936822     -0.06732750
      0.05643440      0.66944623
      0.02166600      0.51460759
      8.30966392     -0.02902080
      1.52056612     -0.13302532
      0.42242992     -0.27247504
      0.14020069     -0.14912496
p              4   1.000000
      0.64737396      0.05713170
      0.16785440      0.28574555
      0.05917387      0.55178731
      0.02355814      0.26323150
 
          67   0
s              4   1.000000
      8.30979880      0.05675242
      1.52059080      0.26014135
      0.42243677      0.53284611
      0.14020297      0.29162544
s              7   1.000000
      0.92936822     -0.06732733
      0.05643440      0.66944450
      0.02166600      0.51460627
      8.30979880     -0.02902043
      1.52059080     -0.13302367
      0.42243677     -0.27247165
      0.14020297     -0.14912310
p              4   1.000000
      0.64737396      0.05713170
      0.16785440      0.28574555
      0.05917387      0.55178731
      0.02355814      0.26323150
 
          68   0
s              4   1.000000
      8.30954095      0.05675242
      1.52054362      0.26014135
      0.42242367      0.53284611
      0.14019862      0.29162543
s              7   1.000000
      0.92936822     -0.06732766
      0.05643440      0.66944780
      0.02166600      0.51460881
      8.30954095     -0.02902112
      1.52054362     -0.13302683
      0.42242367     -0.27247813
      0.14019862     -0.14912665
p              4   1.000000
      0.64737396      0.05713170
      0.16785440      0.28574555
      0.05917387      0.55178731
      0.02355814      0.26323150
 
          69   0
s              4   1.000000
      8.30954876      0.05675242
      1.52054504      0.26014135
      0.42242406      0.53284611
      0.14019875      0.29162544
s              7   1.000000
      0.92936822     -0.06732765
      0.05643440      0.66944770
      0.02166600      0.51460873
      8.30954876     -0.02902110
      1.52054504     -0.13302673
      0.42242406     -0.27247793
      0.14019875     -0.14912654
p              4   1.000000
      0.64737396      0.05713170
      0.16785440      0.28574555
      0.05917387      0.55178731
      0.02355814      0.26323150
 
          70   0
s              4   1.000000
      8.31014988      0.05675242
      1.52065504      0.26014135
      0.42245462      0.53284611
      0.14020889      0.29162544
s              7   1.000000
      0.92936822     -0.06732688
      0.05643440      0.66944002
      0.02166600      0.51460282
      8.31014988     -0.02901950
      1.52065504     -0.13301936
      0.42245462     -0.27246284
      0.14020889     -0.14911827
p              4   1.000000
      0.64737396      0.05713170
      0.16785440      0.28574555
      0.05917387      0.55178731
      0.02355814      0.26323150
 
          71   0
s              4   1.000000
      8.31003313      0.05675242
      1.52063368      0.26014135
      0.42244869      0.53284611
      0.14020692      0.29162544
s              7   1.000000
      0.92936822     -0.06732703
      0.05643440      0.66944151
      0.02166600      0.51460396
      8.31003313     -0.02901981
      1.52063368     -0.13302079
      0.42244869     -0.27246576
      0.14020692     -0.14911988
p              4   1.000000
      0.64737396      0.05713170
      0.16785440      0.28574555
      0.05917387      0.55178731
      0.02355814      0.26323150
 
          72   0
s              4   1.000000
      8.30886575      0.05675242
      1.52042006      0.26014135
      0.42238934      0.53284611
      0.14018723      0.29162544
s              7   1.000000
      0.92936822     -0.06732853
      0.05643440      0.66945644
      0.02166600      0.51461544
      8.30886575     -0.02902293
      1.52042006     -0.13303511
      0.42238934     -0.27249509
      0.14018723     -0.14913593
p              4   1.000000
      0.64737396      0.05713170
      0.16785440      0.28574555
      0.05917387      0.55178731
      0.02355814      0.26323150
 
          73   0
s              4   1.000000
      8.30873143      0.05675242
      1.52039548      0.26014135
      0.42238251      0.53284611
      0.14018496      0.29162544
s              7   1.000000
      0.92936822     -0.06732870
      0.05643440      0.66945816
      0.02166600      0.51461676
      8.30873143     -0.02902329
      1.52039548     -0.13303676
      0.42238251     -0.27249846
      0.14018496     -0.14913777
p              4   1.000000
      0.64737396      0.05713170
      0.16785440      0.28574555
      0.05917387      0.55178731
      0.02355814      0.26323150
 
          74   0
s              4   1.000000
      8.30882785      0.05675242
      1.52041313      0.26014135
      0.42238742      0.53284611
      0.14018659      0.29162544
s              7   1.000000
      0.92936822     -0.06732858
      0.05643440      0.66945692
      0.02166600      0.51461581
      8.30882785     -0.02902303
      1.52041313     -0.13303557
      0.42238742     -0.27249604
      0.14018659     -0.14913645
p              4   1.000000
      0.64737396      0.05713170
      0.16785440      0.28574555
      0.05917387      0.55178731
      0.02355814      0.26323150
 
          75   0
s              4   1.000000
      8.30964003      0.05675242
      1.52056175      0.26014135
      0.42242870      0.53284611
      0.14020029      0.29162544
s              7   1.000000
      0.92936822     -0.06732753
      0.05643440      0.66944654
      0.02166600      0.51460784
      8.30964003     -0.02902086
      1.52056175     -0.13302561
      0.42242870     -0.27247564
      0.14020029     -0.14912528
p              4   1.000000
      0.64737396      0.05713170
      0.16785440      0.28574555
      0.05917387      0.55178731
      0.02355814      0.26323150
 
          76   0
s              4   1.000000
      8.30948943      0.05675242
      1.52053419      0.26014135
      0.42242105      0.53284611
      0.14019775      0.29162544
s              7   1.000000
      0.92936822     -0.06732773
      0.05643440      0.66944846
      0.02166600      0.51460930
      8.30948943     -0.02902126
      1.52053419     -0.13302746
      0.42242105     -0.27247942
      0.14019775     -0.14912735
p              4   1.000000
      0.64737396      0.05713170
      0.16785440      0.28574555
      0.05917387      0.55178731
      0.02355814      0.26323150
 
          77   0
s              4   1.000000
      8.30891123      0.05675242
      1.52042838      0.26014135
      0.42239165      0.53284611
      0.14018799      0.29162544
s              7   1.000000
      0.92936822     -0.06732847
      0.05643440      0.66945586
      0.02166600      0.51461499
      8.30891123     -0.02902281
      1.52042838     -0.13303455
      0.42239165     -0.27249394
      0.14018799     -0.14913530
p              4   1.000000
      0.64737396      0.05713170
      0.16785440      0.28574555
      0.05917387      0.55178731
      0.02355814      0.26323150
 
          78   0
s              4   1.000000
      8.30882638      0.05675242
      1.52041286      0.26014135
      0.42238734      0.53284611
      0.14018656      0.29162544
s              7   1.000000
      0.92936822     -0.06732858
      0.05643440      0.66945695
      0.02166600      0.51461584
      8.30882638     -0.02902304
      1.52041286     -0.13303559
      0.42238734     -0.27249608
      0.14018656     -0.14913647
p              4   1.000000
      0.64737396      0.05713170
      0.16785440      0.28574555
      0.05917387      0.55178731
      0.02355814      0.26323150
 
          79   0
s              4   1.000000
      8.30892911      0.05675242
      1.52043166      0.26014135
      0.42239256      0.53284611
      0.14018829      0.29162544
s              7   1.000000
      0.92936822     -0.06732845
      0.05643440      0.66945563
      0.02166600      0.51461482
      8.30892911     -0.02902276
      1.52043166     -0.13303433
      0.42239256     -0.27249350
      0.14018829     -0.14913506
p              4   1.000000
      0.64737396      0.05713170
      0.16785440      0.28574555
      0.05917387      0.55178731
      0.02355814      0.26323150
 
          80   0
s              4   1.000000
      8.30967903      0.05675242
      1.52056888      0.26014135
      0.42243069      0.53284611
      0.14020095      0.29162544
s              7   1.000000
      0.92936822     -0.06732748
      0.05643440      0.66944604
      0.02166600      0.51460744
      8.30967903     -0.02902075
      1.52056888     -0.13302514
      0.42243069     -0.27247466
      0.14020095     -0.14912475
p              4   1.000000
      0.64737396      0.05713170
      0.16785440      0.28574555
      0.05917387      0.55178731
      0.02355814      0.26323150
 
          81   0
s              4   1.000000
      8.31208734      0.05675242
      1.52100957      0.26014135
      0.42255311      0.53284611
      0.14024158      0.29162544
s              7   1.000000
      0.92936822     -0.06732439
      0.05643440      0.66941525
      0.02166600      0.51458379
      8.31208734     -0.02901431
      1.52100957     -0.13299561
      0.42255311     -0.27241419
      0.14024158     -0.14909165
p              4   1.000000
      0.64737396      0.05713170
      0.16785440      0.28574555
      0.05917387      0.55178731
      0.02355814      0.26323150
 
 [MO]
 Sym= Hole
 Ene= -0.9312211    
 Spin= Alpha
 Occup= 0
           1 -7.3546078E-04
           2 -1.0684734E-03
           3  1.4826007E-03
           4 -6.1861298E-04
           5  1.6457640E-04
           6  2.6826820E-04
           7 -3.1040481E-04
           8  5.7092126E-05
           9  1.3826748E-03
          10  7.5075380E-04
          11 -2.2192187E-04
          12 -1.7960389E-03
          13 -5.9176801E-04
          14 -2.2151925E-04
          15 -2.0353486E-04
          16  5.8341183E-04
          17 -2.9654542E-04
          18  4.8384881E-03
          19  1.2284340E-03
          20 -4.6969685E-03
          21  4.7049616E-05
          22 -5.4001372E-04
          23 -1.7730678E-04
          24  7.3071953E-04
          25 -1.8949808E-04
          26 -1.6877567E-03
          27 -1.8791734E-04
          28  1.7507507E-03
          29  5.3750075E-05
          30 -2.6274635E-04
          31 -6.4000960E-05
          32  3.7294747E-05
          33  1.0978570E-03
          34 -7.9217870E-03
          35 -4.6183987E-04
          36  1.0034201E-03
          37 -4.2396432E-04
          38  1.7105544E-03
          39  4.1496329E-04
          40  2.7527826E-04
          41  5.2300020E-04
          42  2.7205519E-04
          43 -1.4374377E-03
          44  9.1066468E-04
          45  7.0390920E-04
          46  3.6375911E-04
          47  7.5308507E-04
          48 -9.8551472E-04
          49 -3.9395085E-03
          50 -5.5114543E-03
          51  9.5308330E-03
          52 -2.5158770E-02
          53  2.3721182E-03
          54  1.2353958E-03
          55 -2.4830957E-03
          56  3.0470185E-03
          57  1.4374397E-05
          58 -1.8549263E-03
          59  2.2438655E-03
          60 -1.1788073E-02
          61 -2.7717254E-04
          62  3.2851778E-04
          63  1.0527665E-03
          64  3.4202451E-03
          65  7.2607957E-04
          66 -1.9748339E-03
          67  2.7660867E-02
          68  8.7152667E-02
          69 -5.8327091E-04
          70 -2.8164688E-04
          71 -1.1394821E-03
          72 -9.5838234E-03
          73  6.4858068E-03
          74  7.9794256E-03
          75  4.8741712E-03
          76  5.9103407E-03
          77 -2.8366442E-03
          78 -1.5586285E-03
          79 -1.4861001E-03
          80 -1.6686320E-03
          81 -1.7859213E-02
          82 -1.2726338E-02
          83 -5.2057046E-02
          84 -8.2857125E-02
          85  1.0582609E-02
          86 -2.3064176E-05
          87  5.9677791E-03
          88  4.8838453E-03
          89  4.2229509E-05
          90 -1.4398779E-03
          91  7.1206563E-03
          92 -2.5177103E-02
          93 -1.0587535E-04
          94  1.5061704E-05
          95  1.9286409E-03
          96  6.7723952E-03
          97  1.5035849E-04
          98  1.5562847E-02
          99 -9.3554363E-02
         100  0.2944323    
         101 -1.2694384E-04
         102 -7.9052418E-04
         103  5.0018588E-03
         104 -1.7348662E-02
         105 -7.5415918E-03
         106 -6.0909754E-03
         107 -3.2708444E-02
         108  6.0368869E-02
         109  3.0674434E-03
         110  2.4280077E-04
         111  3.8999016E-03
         112 -5.5002207E-03
         113  2.7557444E-02
         114  4.9647004E-03
         115  0.1511222    
         116 -0.2316344    
         117 -1.5076796E-02
         118 -8.4515214E-03
         119 -1.2015225E-02
         120  1.2400143E-02
         121 -1.1949320E-04
         122 -6.5839333E-03
         123  3.3565275E-02
         124 -0.1743356    
         125  3.2301733E-04
         126  1.1992227E-04
         127  4.3759686E-03
         128  2.4262827E-02
         129  1.7348543E-03
         130 -1.0042192E-02
         131  0.1261075    
         132  0.5402929    
         133 -7.7222066E-04
         134  1.2224608E-03
         135 -1.5396137E-02
         136 -5.3495944E-02
         137 -4.2010508E-03
         138  3.5406735E-02
         139 -2.6203116E-02
         140 -8.6152926E-02
         141  2.2752627E-03
         142 -1.1906378E-03
         143  5.2901860E-03
         144  2.4081456E-02
         145  2.8726637E-02
         146  0.1628833    
         147 -0.1312280    
         148 -0.1142353    
         149 -1.5898215E-02
         150 -8.2173999E-03
         151  1.8817766E-02
         152  2.7412702E-03
         153 -8.5577732E-03
         154 -1.0073888E-02
         155  1.9549180E-02
         156  6.7474777E-03
         157  2.9986752E-03
         158  4.5326324E-03
         159 -4.2512873E-03
         160 -4.0980862E-03
         161 -8.2151371E-04
         162 -0.1233275    
         163  9.4610132E-02
         164  0.1688907    
         165  8.8034489E-05
         166  6.9112042E-03
         167 -5.8871387E-03
         168 -1.3194498E-02
         169  8.1627984E-03
         170 -2.4008373E-02
         171  2.4383552E-03
         172  1.9188650E-02
         173 -3.2363371E-03
         174  6.0240426E-03
         175 -1.8823029E-03
         176 -4.2437804E-03
         177 -2.9940234E-02
         178  0.1769461    
         179 -7.3687695E-02
         180 -0.1271958    
         181  1.6705088E-02
         182 -1.8536156E-02
         183 -3.6875317E-03
         184  8.0952644E-03
         185  3.2984957E-03
         186 -2.7222432E-02
         187 -3.3691555E-02
         188 -8.1510693E-02
         189 -1.4660081E-03
         190 -3.0873645E-05
         191  6.1852844E-03
         192  2.3979278E-02
         193  3.0347310E-02
         194 -0.1567519    
         195 -0.1134722    
         196 -0.1178721    
         197 -1.6765324E-02
         198  1.9247323E-02
         199  8.8958605E-04
         200  7.3046912E-03
         201 -8.4672356E-03
         202  2.2344187E-02
         203  6.5270695E-03
         204  1.6786173E-02
         205  3.2804040E-03
         206 -5.3965338E-03
         207 -3.4401170E-03
         208 -4.0196935E-03
         209  6.4023572E-04
         210  9.9349916E-02
         211  0.1196280    
         212  0.1605188    
         213 -6.3724161E-05
         214 -5.5520283E-03
         215 -7.4936957E-03
         216 -1.2950620E-02
         217  8.5770776E-03
         218  4.4505703E-03
         219  2.0666018E-02
         220  5.5865739E-03
         221 -3.1167234E-03
         222 -3.3794246E-03
         223 -5.5153277E-03
         224 -3.7801957E-03
         225 -2.9311601E-02
         226 -0.1264728    
         227 -0.1655853    
         228 -0.1056767    
         229  1.6445922E-02
         230  3.3482681E-03
         231  2.0536477E-02
         232  2.3082132E-03
         233 -2.7502926E-02
         234 -4.8847295E-02
         235  0.1445683    
         236 -0.2327966    
         237  1.5360068E-02
         238  1.1723145E-02
         239 -9.3634157E-03
         240  1.2217768E-02
         241  7.4684434E-03
         242  1.5235763E-02
         243 -2.9416090E-02
         244  5.9332669E-02
         245 -3.0648201E-03
         246 -1.5519684E-03
         247  3.7052121E-03
         248 -5.5573080E-03
         249  1.7250435E-02
         250  2.5259912E-02
         251 -4.8715353E-02
         252 -8.2877100E-02
         253 -1.0482231E-02
         254 -1.3416621E-03
         255  5.8285962E-03
         256  4.6684258E-03
         257 -6.4536883E-03
         258 -9.2032570E-03
         259  3.1704523E-03
         260  4.5546428E-03
         261  2.4407208E-03
         262  1.9407064E-03
         263 -1.3999823E-03
         264 -1.4956166E-03
         265  4.2736037E-03
         266  3.7986715E-03
         267  1.1669412E-02
         268 -2.8230002E-02
         269 -2.4371969E-03
         270  8.3064297E-05
         271 -2.4361613E-03
         272  1.5875406E-03
         273 -1.1420799E-03
         274 -2.5240930E-03
         275 -5.1694838E-03
         276  2.7804174E-02
         277  1.1084665E-04
         278  4.5031283E-04
         279  3.2449100E-04
         280 -4.7398279E-03
         281  9.9884521E-04
         282  1.3288866E-03
         283  1.4409879E-03
         284 -1.1004925E-03
         285 -5.0299271E-04
         286 -4.4052073E-04
         287 -8.2791667E-05
         288  3.9178989E-04
         289 -1.5103196E-03
         290 -6.3219485E-03
         291  4.0945392E-03
         292 -7.5224652E-03
         293  8.8012620E-04
         294  8.5904362E-04
         295 -2.2084342E-04
         296  1.0736956E-03
         297  6.7442894E-04
         298  6.4421090E-04
         299  7.2301109E-04
         300  8.8987334E-05
         301 -2.0344241E-04
         302 -1.0945218E-04
         303 -1.9596251E-05
         304 -1.2896846E-04
         305 -1.1693679E-05
         306  3.6641427E-03
         307 -4.4652596E-03
         308  8.9989854E-03
         309  9.8594704E-05
         310 -1.9401115E-04
         311  4.4526506E-04
         312 -8.1332604E-04
         313 -2.3033163E-04
         314  2.8204688E-04
         315 -7.0178689E-04
         316  5.5512058E-04
         317  1.1603389E-04
         318 -1.3121824E-04
         319  6.8115834E-05
         320 -1.3945195E-05
         321  1.1105862E-03
         322 -4.3776594E-03
         323  5.8801835E-03
         324 -7.3625906E-03
         325 -7.5207703E-04
         326  5.0194206E-04
         327 -6.2902021E-04
         328  3.5025532E-04
         329  4.2596678E-04
         330  1.4909067E-03
         331 -6.7617120E-03
         332  3.5118688E-02
         333 -1.7057851E-05
         334 -5.1250862E-04
         335  3.6640849E-04
         336 -5.5555804E-03
         337 -8.2911627E-04
         338 -1.6797010E-03
         339  3.1802474E-04
         340 -1.3882063E-03
         341  3.7076572E-04
         342  3.1777626E-04
         343 -6.1871001E-06
         344  9.6190622E-04
         345  2.8218625E-03
         346  6.7292107E-03
         347  6.7812661E-03
         348 -9.2689635E-04
         349 -1.7398123E-03
         350 -1.2956186E-03
         351 -4.6991697E-04
         352  3.1216667E-04
         353 -1.1326936E-03
         354 -1.2856590E-03
         355  8.3085941E-04
         356 -9.9903438E-05
         357  4.3734023E-04
         358  3.0894001E-04
         359 -8.9503046E-05
         360  5.0532060E-05
         361 -1.8738441E-05
         362 -3.4967905E-03
         363 -6.7340625E-03
         364  4.4755382E-03
         365 -9.3408446E-05
         366  1.7561094E-04
         367  7.0000457E-04
         368 -5.0859246E-04
         369  6.6206220E-04
         370  6.2572071E-04
         371 -7.5383403E-04
         372 -1.0881384E-04
         373 -3.4188174E-04
         374  3.2682565E-05
         375  3.1193031E-04
         376  1.6806330E-04
         377 -2.4455904E-03
         378  2.3011432E-03
         379  9.2320023E-03
         380 -9.6072443E-04
         381  1.6246513E-03
         382  1.4728135E-04
         383 -1.2789328E-03
         384 -2.7354759E-05
         385 -2.7369184E-03
         386 -7.2787004E-03
         387  2.5216390E-03
         388  2.3144479E-03
         389  1.7575574E-03
         390  7.6145399E-04
         391 -9.4943313E-04
         392 -3.5930375E-04
         393  1.1066117E-04
         394 -5.9228907E-05
         395  8.1498106E-04
         396  1.9813301E-04
         397 -6.4254674E-04
         398  1.0562174E-03
         399 -2.4008341E-04
         400 -3.7364685E-04
         401  5.4045846E-05
         402  3.6640180E-04
         403 -1.5246520E-03
         404  4.9996283E-04
         405  1.1417619E-03
         406 -9.2053658E-04
         407 -2.8122752E-04
         408 -7.6229479E-03
         409 -7.9315738E-05
         410  3.4269225E-04
         411  1.6469344E-03
         412  1.8152959E-03
         413  3.9670761E-03
         414  1.2274947E-03
         415  4.7552069E-03
         416 -4.1107521E-03
         417 -4.6528406E-03
         418  2.1798996E-02
         419 -9.4826141E-04
         420  1.5330124E-03
         421  7.3797657E-04
         422  1.5925522E-03
         423 -1.9327249E-02
         424 -1.6687330E-03
         425 -7.6362286E-03
         426 -4.1015693E-03
         427 -1.1185188E-02
         428 -1.7800884E-02
         429 -2.2196427E-03
         430  3.9877845E-03
         431  5.7022511E-03
         432 -1.4085615E-02
         433  2.0481810E-02
         434 -1.9052268E-03
         435 -1.3430897E-03
         436 -1.6352858E-03
         437  1.5954897E-03
         438  6.0028757E-04
         439 -1.0411796E-04
         440 -9.8531200E-03
         441  8.0418540E-03
         442  1.4814703E-02
         443 -1.7596021E-02
         444  1.3527545E-03
         445  9.1178674E-04
         446  2.3503785E-03
         447  7.9619815E-04
         448  1.6727637E-02
         449  1.3035397E-03
         450 -2.8694896E-03
         451 -1.1377090E-02
         452 -9.7008487E-03
         453 -1.6460566E-02
         454 -1.4719005E-03
         455  5.5231298E-03
         456 -1.0456343E-02
         457 -9.7906403E-03
         458  1.7910315E-02
         459 -1.5126255E-03
         460 -1.3624408E-03
         461  2.1211777E-03
         462  8.1995298E-04
         463 -5.2598753E-04
         464  6.8102781E-05
         465  8.0008330E-03
         466  1.0231769E-02
         467  1.4445687E-02
         468 -2.0188013E-02
         469  1.7746425E-03
         470  1.7806087E-03
         471 -1.3228871E-03
         472  1.6532416E-03
         473  1.8029932E-02
         474  2.2201010E-03
         475 -5.9021502E-03
         476  4.7423001E-03
         477 -1.3881939E-02
         478  1.9622393E-02
         479  1.6056752E-03
         480  8.2859276E-03
         481 -1.9422162E-03
         482 -1.1392636E-02
         483 -2.1684470E-02
         484  7.9687813E-04
         485 -1.4598158E-03
         486  2.7601235E-04
         487  1.7804626E-03
         488 -3.6039292E-03
         489 -1.5371051E-03
         490 -3.3631183E-03
         491 -4.9580941E-03
         492 -4.6103401E-03
         493  8.0653150E-03
         494 -7.0424977E-04
         495  1.3388939E-04
         496  1.3254811E-03
         497  1.6092741E-03
         498  2.0927466E-04
         499  4.3388442E-04
         500  6.3850905E-04
         501  6.1291270E-04
         502  7.5956828E-05
         503 -8.6424768E-04
         504  2.7498108E-04
         505  1.5619966E-04
         506  6.1570165E-05
         507 -2.0148107E-04
         508  1.0042567E-04
         509  1.4882989E-04
         510  4.3780150E-04
         511 -3.2293811E-04
         512  9.3455100E-04
         513  6.0107216E-04
         514  5.8082886E-05
         515  4.0699721E-05
         516 -1.8375997E-05
         517  1.2977750E-04
         518 -6.9346948E-04
         519  2.8332620E-04
         520 -3.1242811E-04
         521  9.7711303E-04
         522 -7.0228643E-04
         523 -8.4060000E-04
         524 -7.7255233E-04
         525 -1.2888595E-03
         526  1.0915974E-03
         527  3.1573843E-04
         528  1.2098240E-03
         529 -3.5015590E-04
         530 -2.1778475E-04
         531  2.7773294E-05
         532 -2.2931884E-04
         533  2.3516797E-05
         534 -1.1057449E-04
         535 -4.6626001E-04
         536 -6.4757763E-04
         537  5.7974725E-04
         538 -1.0732552E-03
         539  3.4659508E-05
         540  2.9645596E-06
         541 -2.0098569E-05
         542 -4.5238488E-05
         543  1.1005966E-03
         544  1.1736043E-04
         545  9.8913908E-04
         546  3.7963706E-04
         547  4.7288829E-04
         548  4.8253138E-04
         549  3.3991603E-04
         550 -5.6676933E-04
         551 -9.5596554E-04
         552  3.5495183E-04
 Sym= Particle
 Ene= -0.9312211    
 Spin= Alpha
 Occup= 2
           1 -2.9238197E-04
           2 -4.0801973E-04
           3  5.9624750E-04
           4 -4.1336808E-04
           5  1.7957053E-04
           6  6.5060612E-04
           7 -8.0095115E-04
           8  2.5140774E-04
           9  3.4011694E-04
          10 -5.6170009E-04
          11  5.3303607E-04
          12 -2.1919709E-04
          13  7.5057804E-05
          14  2.9497311E-04
          15 -4.7288058E-04
          16  1.6696165E-04
          17 -1.3891746E-04
          18  8.9888468E-05
          19  1.2624994E-04
          20  5.2811039E-05
          21  3.0661191E-04
          22 -3.9110170E-04
          23 -2.7992512E-04
          24  1.2442532E-04
          25 -1.1066321E-04
          26 -6.7026733E-05
          27  1.3840469E-04
          28 -2.8611577E-05
          29  4.4081020E-04
          30  7.0806587E-04
          31 -6.0166791E-04
          32  1.6810307E-04
          33  4.8383557E-05
          34 -2.2809251E-04
          35 -1.5143145E-04
          36  1.5372700E-04
          37  5.5143074E-04
          38  1.5294050E-03
          39  1.3530571E-06
          40 -4.3842560E-04
          41 -3.1023900E-04
          42 -1.2723169E-04
          43 -3.2412237E-05
          44  3.5886346E-06
          45  1.2737896E-03
          46  1.0206109E-03
          47  2.7162465E-05
          48 -5.2620133E-04
          49 -8.2611368E-04
          50 -6.5949443E-04
          51  5.3843344E-04
          52 -4.4216562E-04
          53  7.9173816E-04
          54  1.7915163E-04
          55 -3.9419270E-04
          56 -4.9030259E-05
          57  1.3761772E-03
          58  1.8937385E-03
          59  3.0492459E-04
          60  4.3691794E-04
          61  1.0226090E-03
          62  1.9779014E-03
          63 -7.5792908E-05
          64  4.5642428E-05
          65 -2.1777991E-03
          66 -8.4032281E-04
          67  5.1101932E-04
          68  1.7360330E-03
          69  2.2170835E-03
          70  2.6233729E-03
          71 -4.1019038E-04
          72 -6.6405575E-04
          73  1.9692900E-03
          74  4.5685079E-03
          75 -1.7513236E-04
          76 -2.2116010E-03
          77 -6.0149125E-04
          78 -3.3831117E-03
          79  2.3018901E-04
          80 -1.5423569E-05
          81 -5.1586451E-03
          82 -6.4261295E-03
          83  7.1478314E-03
          84 -3.3898898E-03
          85  4.2948923E-03
          86  3.1489597E-03
          87 -7.9000397E-03
          88  4.5883465E-03
          89 -1.6386406E-03
          90 -2.2727929E-03
          91  3.3675050E-04
          92  1.6445722E-03
          93 -5.3744524E-04
          94 -7.3144301E-03
          95 -1.3536667E-03
          96 -3.2692228E-04
          97 -1.0667713E-03
          98 -6.3260980E-03
          99 -1.5501467E-03
         100  2.2571869E-03
         101  3.6555601E-04
         102  3.4070180E-03
         103  6.5333396E-04
         104 -5.9631682E-04
         105  3.9181607E-03
         106  1.9962031E-02
         107 -0.1386748    
         108  0.3537620    
         109 -1.3239234E-03
         110 -4.0262155E-03
         111  4.2114943E-02
         112 -0.1045298    
         113 -2.4757658E-03
         114 -2.4055250E-02
         115  0.1334592    
         116 -0.3482383    
         117  7.6175607E-03
         118  6.9247391E-03
         119 -3.6930140E-02
         120  0.1013224    
         121  1.9329658E-03
         122 -1.9953670E-03
         123 -8.7467663E-04
         124  1.3149151E-03
         125  1.2200504E-02
         126  6.6718073E-03
         127  1.0114507E-03
         128 -7.1404950E-04
         129  4.4504544E-03
         130  1.4245071E-03
         131 -4.9230403E-05
         132  2.0621657E-05
         133  5.5529657E-03
         134 -2.7156944E-04
         135  2.1451159E-04
         136 -1.5476529E-04
         137 -3.5413024E-03
         138  2.2729799E-02
         139 -4.0117702E-03
         140 -2.5241651E-02
         141  1.3885959E-02
         142 -9.1901468E-03
         143 -4.6344246E-03
         144  1.4313070E-02
         145  2.3649277E-03
         146  0.1096199    
         147 -8.1877977E-02
         148 -0.1354080    
         149 -1.9549056E-04
         150 -2.1356950E-02
         151  2.6822684E-02
         152  3.2818045E-02
         153 -1.6818970E-03
         154 -0.1390799    
         155  0.1027698    
         156  0.1687361    
         157  1.1250067E-03
         158  3.9349433E-02
         159 -2.5908493E-02
         160 -4.7660895E-02
         161 -2.4672862E-04
         162  1.7794022E-02
         163 -1.4144439E-02
         164 -2.2650961E-02
         165  1.5440263E-03
         166 -5.0716600E-03
         167  4.6036839E-03
         168  6.2166285E-03
         169 -9.9377614E-04
         170  0.1223640    
         171 -8.8147633E-02
         172 -0.1492468    
         173  2.0762377E-03
         174 -3.3299562E-02
         175  2.7040340E-02
         176  4.2077012E-02
         177 -1.1999768E-03
         178 -0.1348564    
         179  9.8514386E-02
         180  0.1612284    
         181  6.0418285E-03
         182  3.6518417E-02
         183 -2.3822723E-02
         184 -4.3333989E-02
         185 -3.7768916E-03
         186  2.1368908E-02
         187  8.3041918E-03
         188  2.3524052E-02
         189  1.3838729E-02
         190 -1.0263229E-02
         191  2.7168924E-03
         192 -1.3564437E-02
         193 -1.0860469E-03
         194 -0.1065604    
         195 -0.1230687    
         196 -0.1486160    
         197  5.6406874E-03
         198  2.9452065E-02
         199  2.9748237E-02
         200  3.9532717E-02
         201 -9.6408150E-04
         202  9.7596928E-02
         203  0.1110266    
         204  0.1386978    
         205  1.9239333E-03
         206 -2.5584005E-02
         207 -3.2976247E-02
         208 -3.8793076E-02
         209 -2.7750980E-04
         210  1.3723057E-02
         211  1.7367117E-02
         212  2.1041637E-02
         213  1.5264439E-03
         214 -3.7944198E-03
         215 -5.5008926E-03
         216 -5.7966555E-03
         217 -1.7251340E-03
         218 -0.1101581    
         219 -0.1286862    
         220 -0.1567046    
         221  9.8485686E-04
         222  3.2044731E-02
         223  3.3158433E-02
         224  4.4233356E-02
         225  2.3599251E-03
         226  8.6243652E-02
         227  0.1018245    
         228  0.1248775    
         229 -3.8138183E-04
         230 -1.3643947E-02
         231 -2.9731888E-02
         232 -2.9530304E-02
         233 -2.1560551E-03
         234  1.8678015E-02
         235 -0.1330495    
         236  0.3473441    
         237  7.1272235E-03
         238 -5.3275796E-03
         239  3.6648225E-02
         240 -0.1010849    
         241  3.5147311E-03
         242 -2.4143750E-02
         243  0.1385980    
         244 -0.3564451    
         245 -1.1272114E-03
         246  9.2352694E-03
         247 -4.1662458E-02
         248  0.1056235    
         249 -5.0526955E-03
         250 -4.0040468E-03
         251 -9.7741755E-03
         252  1.3677555E-03
         253  4.1516293E-03
         254  1.1108813E-03
         255  8.6394036E-03
         256 -4.4701817E-03
         257  2.0562622E-03
         258  4.3279426E-03
         259  8.6549268E-04
         260  4.4671170E-04
         261 -9.7545999E-04
         262 -2.4356577E-03
         263 -2.0081976E-03
         264  1.2669970E-04
         265 -9.2986785E-04
         266 -5.3885014E-04
         267  3.5513385E-04
         268 -8.0123515E-04
         269  9.9627988E-04
         270  9.2487637E-04
         271 -2.2342015E-04
         272  5.0305953E-04
         273  3.5675123E-04
         274  3.6899617E-04
         275 -1.8078877E-04
         276  3.0666834E-04
         277 -1.9926387E-04
         278 -2.4277304E-04
         279  2.8527173E-04
         280  3.6113295E-05
         281 -1.2710861E-04
         282 -6.1078688E-05
         283 -1.6456630E-04
         284  1.5090698E-04
         285  7.1553528E-05
         286  6.5892287E-05
         287  1.6822702E-04
         288 -1.1679159E-04
         289  2.2877868E-05
         290  4.3729746E-05
         291  2.2858780E-04
         292 -2.0918081E-04
         293  1.8654016E-05
         294 -1.2793984E-04
         295 -1.9620715E-04
         296  1.4577157E-04
         297  1.7926471E-04
         298 -1.5072747E-04
         299 -6.3740015E-05
         300 -2.8891276E-05
         301 -2.0567491E-04
         302  4.3787502E-05
         303  2.0210681E-04
         304 -1.0559231E-04
         305 -1.6560974E-04
         306  2.0108763E-04
         307 -2.0445026E-05
         308  2.0645038E-04
         309  1.2613685E-04
         310 -1.9441349E-04
         311 -1.9370249E-04
         312  8.8024390E-06
         313  5.2706138E-05
         314 -1.4816472E-04
         315 -2.4338498E-05
         316 -2.2045946E-05
         317 -5.5274715E-05
         318  2.5796882E-04
         319  5.9333404E-05
         320  7.3353665E-05
         321  9.3010836E-05
         322 -4.9746035E-05
         323  1.6623363E-04
         324 -1.2888727E-04
         325 -9.8035736E-05
         326 -1.7412448E-04
         327 -5.5989251E-05
         328 -2.9534334E-04
         329  3.4238058E-04
         330  2.2063137E-04
         331  2.1586572E-04
         332  6.2871567E-04
         333 -2.2616000E-04
         334 -1.2903116E-04
         335 -3.2080291E-04
         336 -1.0495500E-04
         337 -1.8325997E-04
         338 -3.0834915E-04
         339  1.4201130E-04
         340 -3.2991178E-05
         341  1.6468394E-04
         342  2.8977543E-04
         343 -1.6286406E-04
         344  2.3586227E-04
         345  1.1946041E-04
         346  1.6502492E-04
         347 -5.3280779E-05
         348  8.6085034E-05
         349 -1.1105328E-04
         350 -1.0306788E-04
         351  1.7229846E-04
         352 -1.0721343E-04
         353  7.2178591E-05
         354 -1.3497290E-04
         355 -5.1568150E-05
         356 -5.4592707E-05
         357 -1.1027091E-04
         358  4.0522049E-05
         359  1.2236685E-05
         360  5.6672383E-05
         361 -7.2944349E-05
         362 -9.1863316E-05
         363 -1.2660331E-05
         364 -5.9771053E-05
         365  9.3179326E-05
         366 -1.5764410E-05
         367  1.5914691E-05
         368  1.3223907E-04
         369  1.5059584E-04
         370 -2.8383167E-05
         371  7.2057570E-05
         372  6.7714776E-05
         373 -7.0668662E-05
         374  1.9383313E-04
         375 -1.9536090E-07
         376 -1.5373022E-04
         377 -1.6161843E-04
         378 -9.5224685E-05
         379 -1.0914968E-04
         380 -2.0295642E-04
         381  2.4819354E-04
         382  2.0549989E-04
         383  1.1887210E-04
         384  4.3047927E-04
         385 -2.4579742E-06
         386 -3.8425473E-04
         387 -1.1449333E-04
         388 -2.1740656E-04
         389  3.6504847E-04
         390  8.0650620E-04
         391  2.0731067E-04
         392 -2.5767877E-05
         393 -1.5886565E-04
         394 -2.4889174E-04
         395 -5.6755671E-04
         396 -1.6254699E-04
         397  2.0468673E-04
         398 -5.3926513E-05
         399 -3.8501115E-05
         400  3.4800774E-04
         401 -4.5467808E-04
         402  2.0989279E-04
         403 -4.4869189E-04
         404  9.2356012E-04
         405  9.3445415E-04
         406 -1.2114433E-04
         407 -7.1370590E-04
         408  2.9374505E-03
         409 -1.1104882E-04
         410  3.4681350E-04
         411  9.3884260E-04
         412 -7.9490896E-04
         413  3.2782794E-03
         414  7.4160737E-03
         415  2.1565681E-02
         416  6.3959585E-04
         417  2.2375204E-03
         418 -8.2185576E-03
         419  5.0171127E-04
         420  9.3525294E-03
         421 -3.1903323E-02
         422  8.4169023E-02
         423  3.2361378E-03
         424  7.5865362E-04
         425 -2.2629828E-03
         426  3.0939609E-02
         427 -9.1744281E-02
         428  5.6409165E-03
         429 -5.0165947E-03
         430  3.7448976E-02
         431 -2.5304947E-02
         432 -5.1876694E-02
         433 -1.5004611E-05
         434 -3.1663646E-04
         435 -3.5945836E-02
         436  2.4903297E-02
         437  4.1670781E-02
         438 -8.0030452E-04
         439 -1.2165032E-04
         440  4.7214576E-03
         441 -3.1436635E-03
         442 -5.4173046E-03
         443  8.5698121E-04
         444 -4.3037374E-04
         445  3.1920832E-02
         446 -2.2859758E-02
         447 -3.6180995E-02
         448  4.9486198E-03
         449 -5.2595278E-04
         450 -3.7592895E-02
         451  2.4674986E-02
         452  5.1424913E-02
         453  5.1532960E-03
         454 -8.3336927E-04
         455 -3.1220634E-02
         456 -3.2582339E-02
         457 -4.8766982E-02
         458  8.9637877E-04
         459 -5.1626662E-04
         460  2.5384821E-02
         461  2.8917734E-02
         462  3.3594053E-02
         463 -6.9257920E-04
         464 -1.9918490E-04
         465  3.5941047E-03
         466  3.9025052E-03
         467  4.8421896E-03
         468  2.4968322E-04
         469 -4.7507792E-04
         470 -2.8793193E-02
         471 -3.1649493E-02
         472 -3.8541295E-02
         473  5.8315014E-03
         474 -5.0961450E-03
         475  3.0176951E-02
         476  3.3213060E-02
         477  4.9319062E-02
         478  3.2251580E-03
         479  4.5510996E-04
         480  7.3339413E-03
         481 -3.0468654E-02
         482  9.2127293E-02
         483 -7.9753725E-03
         484  3.8939118E-04
         485 -1.0343295E-03
         486  3.3064779E-02
         487 -8.5058898E-02
         488  3.4481708E-03
         489  7.1840049E-03
         490  2.1308823E-02
         491  5.2778139E-03
         492 -3.0136965E-03
         493  2.5388466E-03
         494 -3.2761873E-04
         495  1.1318858E-03
         496 -1.4765774E-03
         497  4.1533829E-04
         498 -5.4890621E-05
         499  2.1573725E-04
         500 -1.0636753E-04
         501 -2.1328453E-04
         502  2.0601047E-04
         503 -2.4215462E-04
         504  2.8740687E-04
         505  2.1097127E-04
         506  4.3910986E-04
         507 -2.6275835E-04
         508  3.3099580E-04
         509 -1.7369195E-04
         510 -2.6614711E-04
         511 -4.4587671E-04
         512  1.0511989E-04
         513 -1.4557283E-05
         514  6.0461232E-05
         515  3.4232702E-04
         516  1.1964371E-04
         517  3.0775744E-04
         518 -9.5782772E-05
         519  3.5613071E-04
         520 -2.0190794E-04
         521  1.1751591E-05
         522 -4.2114093E-04
         523  8.1948274E-06
         524  1.0766680E-04
         525  1.2420684E-04
         526  3.9892699E-04
         527 -2.0536438E-04
         528 -1.2072208E-04
         529  1.7761230E-04
         530  2.7883914E-04
         531 -5.7290588E-05
         532  5.8159345E-05
         533 -1.6366879E-05
         534  1.4284026E-04
         535 -9.0062407E-05
         536  1.1028232E-05
         537  8.6179687E-05
         538 -2.5663117E-04
         539  2.1754848E-04
         540  3.3675300E-04
         541 -4.9150152E-05
         542 -5.3264439E-04
         543  2.6859532E-04
         544 -3.5993214E-06
         545  2.0857291E-04
         546 -1.2728349E-07
         547  1.3873732E-04
         548 -7.3378033E-04
         549  7.0453907E-04
         550  9.6002239E-04
         551 -1.9698527E-04
         552 -5.4054108E-05
