 [Molden Format]
 [Atoms] Angs
O       1      8      3.62485382      2.42726216     -0.87697520
C       2      6      4.04708163      1.38295281     -0.41325133
C       3      6      5.40990247      1.30041832      0.16898832
C       4      6      5.99094086      2.46726394      0.67069632
C       5      6      7.24690742      2.43289807      1.24923773
C       6      6      7.94696964      1.23822631      1.33168642
C       7      6      7.38905657      0.07503500      0.82082700
C       8      6      6.13237487      0.11455107      0.25287908
S       9     16      5.44052762     -1.34910592     -0.50320537
O      10      8      5.72687608     -1.29101170     -1.92203009
O      11      8      5.88778022     -2.53271685      0.19360764
C      12      6      3.68880622     -1.11717897     -0.27890074
C      13      6      2.84376390     -2.20316083     -0.16529625
C      14      6      1.47628316     -2.00823459     -0.08525993
C      15      6      0.93411466     -0.72033747     -0.13929799
C      16      6     -0.51469153     -0.50930599     -0.08184673
C      17      6     -1.32880450     -1.31137097      0.72046897
C      18      6     -2.69082591     -1.11349650      0.77438296
C      19      6     -3.29589229     -0.11041816      0.01109739
N      20      7     -4.67201555      0.08442908      0.05488204
C      21      6     -5.21146196      1.37318933     -0.07799429
C      22      6     -4.59016057      2.46615900      0.52539951
C      23      6     -5.13040382      3.73149501      0.39635213
C      24      6     -6.29794630      3.92604177     -0.32414048
C      25      6     -6.92123404      2.84227702     -0.92158162
C      26      6     -6.38352896      1.57445563     -0.80584498
C      27      6     -5.53752733     -1.00700914      0.22706066
C      28      6     -6.67207178     -0.88631991      1.02842324
C      29      6     -7.52959552     -1.95857560      1.18564288
C      30      6     -7.26732947     -3.16496424      0.55645448
C      31      6     -6.13966843     -3.29031580     -0.23904893
C      32      6     -5.28051248     -2.22133531     -0.40863819
C      33      6     -2.48447117      0.69168728     -0.79704538
C      34      6     -1.12136777      0.49854345     -0.83457290
C      35      6      1.80570870      0.36222078     -0.25645636
C      36      6      3.18470621      0.17995106     -0.32132133
H      37      1      5.43306198      3.38905458      0.59897209
H      38      1      7.68246181      3.34140315      1.63582868
H      39      1      8.92605533      1.21067598      1.78424964
H      40      1      7.90756422     -0.87045979      0.85681830
H      41      1      3.27694256     -3.19115918     -0.14269823
H      42      1      0.82139171     -2.86216221     -0.00931621
H      43      1     -0.88333607     -2.07506627      1.33978059
H      44      1     -3.30070278     -1.73092330      1.41704096
H      45      1     -3.68644382      2.31531409      1.09770830
H      46      1     -4.64074209      4.56992952      0.87004004
H      47      1     -6.71917084      4.91553671     -0.41967494
H      48      1     -7.82906459      2.98552904     -1.48934538
H      49      1     -6.86682926      0.73202314     -1.27899375
H      50      1     -6.87471810      0.05145957      1.52493419
H      51      1     -8.40462126     -1.85319206      1.81035727
H      52      1     -7.93865394     -4.00093278      0.68346622
H      53      1     -5.93161857     -4.22490683     -0.73939475
H      54      1     -4.40828708     -2.31747882     -1.03874462
H      55      1     -2.93662691      1.46213545     -1.40380350
H      56      1     -0.52010545      1.11303862     -1.48752305
H      57      1      1.42710094      1.37320350     -0.27707910
 [GTO]
           1   0
s              4   1.000000
     73.01908281     -0.01198412
     12.57449027     -0.05472052
      1.01041395      0.58055871
      0.38509376      0.47700799
p              4   1.000000
      7.52993074      0.05713170
      1.95239860      0.28574555
      0.68828092      0.55178731
      0.27401650      0.26323149
s              7   1.000000
      0.57971233     -0.18805124
      0.07115450      0.90859448
      0.03359728      0.23861071
     73.01908281      0.00402670
     12.57449027      0.01838626
      1.01041395     -0.19506942
      0.38509376     -0.16027607
p              7   1.000000
      2.76717072     -0.01185889
      0.15304476      0.58276397
      0.05897927      0.60861039
      7.52993074     -0.02839672
      1.95239860     -0.14202687
      0.68828092     -0.27426018
      0.27401650     -0.13083649
 
           2   0
s              4   1.000000
     34.99506201     -0.01198412
      6.02643925     -0.05472052
      0.48425011      0.58055871
      0.18455970      0.47700799
p              4   1.000000
      5.64036847      0.05713170
      1.46246332      0.28574555
      0.51556358      0.55178730
      0.20525474      0.26323149
s              7   1.000000
      0.38350848     -0.19617504
      0.04707223      0.94784570
      0.02222627      0.24891868
     34.99506201      0.00550656
      6.02643925      0.02514342
      0.48425011     -0.26675969
      0.18455970     -0.21917939
p              7   1.000000
      1.83062075     -0.01160843
      0.10124670      0.57045622
      0.03901771      0.59575680
      5.64036847     -0.02522417
      1.46246332     -0.12615926
      0.51556358     -0.24361911
      0.20525474     -0.11621910
 
           3   0
s              4   1.000000
     35.25601661     -0.01198412
      6.07137779     -0.05472053
      0.48786111      0.58055871
      0.18593594      0.47700799
p              4   1.000000
      5.68242813      0.05713170
      1.47336876      0.28574555
      0.51940808      0.55178731
      0.20678531      0.26323149
s              7   1.000000
      0.38350848     -0.19593390
      0.04707223      0.94668058
      0.02222627      0.24861268
     35.25601661      0.00546761
      6.07137779      0.02496560
      0.48786111     -0.26487313
      0.18593594     -0.21762933
p              7   1.000000
      1.83062075     -0.01159503
      0.10124670      0.56979750
      0.03901771      0.59506884
      5.68242813     -0.02504508
      1.47336876     -0.12526357
      0.51940808     -0.24188950
      0.20678531     -0.11539398
 
           4   0
s              4   1.000000
     35.01924486     -0.01198412
      6.03060374     -0.05472052
      0.48458474      0.58055871
      0.18468724      0.47700799
p              4   1.000000
      5.64426617      0.05713170
      1.46347394      0.28574555
      0.51591985      0.55178731
      0.20539658      0.26323149
s              7   1.000000
      0.38350848     -0.19615249
      0.04707223      0.94773676
      0.02222627      0.24889007
     35.01924486      0.00550292
      6.03060374      0.02512683
      0.48458474     -0.26658375
      0.18468724     -0.21903483
p              7   1.000000
      1.83062075     -0.01160718
      0.10124670      0.57039462
      0.03901771      0.59569247
      5.64426617     -0.02520747
      1.46347394     -0.12607573
      0.51591985     -0.24345781
      0.20539658     -0.11614215
 
           5   0
s              4   1.000000
     34.91246090     -0.01198412
      6.01221466     -0.05472053
      0.48310710      0.58055871
      0.18412407      0.47700799
p              4   1.000000
      5.62705515      0.05713170
      1.45901137      0.28574555
      0.51434666      0.55178730
      0.20477027      0.26323149
s              7   1.000000
      0.38350848     -0.19625237
      0.04707223      0.94821935
      0.02222627      0.24901679
     34.91246090      0.00551900
      6.01221466      0.02520022
      0.48310710     -0.26736235
      0.18412407     -0.21967456
p              7   1.000000
      1.83062075     -0.01161273
      0.10124670      0.57066746
      0.03901771      0.59597740
      5.62705515     -0.02528137
      1.45901137     -0.12644537
      0.51434666     -0.24417160
      0.20477027     -0.11648266
 
           6   0
s              4   1.000000
     34.92381909     -0.01198412
      6.01417063     -0.05472053
      0.48326427      0.58055871
      0.18418398      0.47700799
p              4   1.000000
      5.62888582      0.05713170
      1.45948604      0.28574555
      0.51451399      0.55178731
      0.20483689      0.26323149
s              7   1.000000
      0.38350848     -0.19624171
      0.04707223      0.94816782
      0.02222627      0.24900326
     34.92381909      0.00551728
      6.01417063      0.02519240
      0.48326427     -0.26727932
      0.18418398     -0.21960634
p              7   1.000000
      1.83062075     -0.01161214
      0.10124670      0.57063834
      0.03901771      0.59594698
      5.62888582     -0.02527349
      1.45948604     -0.12640595
      0.51451399     -0.24409549
      0.20483689     -0.11644635
 
           7   0
s              4   1.000000
     35.10317080     -0.01198412
      6.04505648     -0.05472052
      0.48574608      0.58055871
      0.18512986      0.47700799
p              4   1.000000
      5.65779303      0.05713170
      1.46698125      0.28574555
      0.51715629      0.55178731
      0.20588883      0.26323149
s              7   1.000000
      0.38350848     -0.19607456
      0.04707223      0.94736021
      0.02222627      0.24879118
     35.10317080      0.00549036
      6.04505648      0.02506945
      0.48574608     -0.26597494
      0.18512986     -0.21853461
p              7   1.000000
      1.83062075     -0.01160285
      0.10124670      0.57018174
      0.03901771      0.59547013
      5.65779303     -0.02514967
      1.46698125     -0.12578668
      0.51715629     -0.24289966
      0.20588883     -0.11587588
 
           8   0
s              4   1.000000
     35.06482589     -0.01198412
      6.03845317     -0.05472052
      0.48521548      0.58055871
      0.18492763      0.47700799
p              4   1.000000
      5.65161275      0.05713170
      1.46537879      0.28574555
      0.51659137      0.55178730
      0.20566393      0.26323149
s              7   1.000000
      0.38350848     -0.19611011
      0.04707223      0.94753196
      0.02222627      0.24883627
     35.06482589      0.00549609
      6.03845317      0.02509564
      0.48521548     -0.26625276
      0.18492763     -0.21876288
p              7   1.000000
      1.83062075     -0.01160482
      0.10124670      0.57027883
      0.03901771      0.59557155
      5.65161275     -0.02517605
      1.46537879     -0.12591859
      0.51659137     -0.24315436
      0.20566393     -0.11599739
 
           9   0
s              4   1.000000
     13.76485807     -0.03295496
      3.87722245     -0.17245169
      0.69524628      0.75185111
      0.34206401      0.35896273
p              4   1.000000
      7.94832655     -0.01434249
      0.82137975      0.27551776
      0.37123558      0.58467508
      0.17946347      0.21449865
s              7   1.000000
      0.16124732     -0.33688518
      0.03162593      1.06299336
      0.01560824      0.12640927
     13.76485807      0.00358912
      3.87722245      0.01878166
      0.69524628     -0.08188388
      0.34206401     -0.03909452
p              7   1.000000
      0.34551743     -0.06390704
      0.05282782      0.68650820
      0.02597475      0.40880053
      7.94832655      0.00407121
      0.82137975     -0.07820745
      0.37123558     -0.16596370
      0.17946347     -0.06088679
 
          10   0
s              4   1.000000
     72.81656958     -0.01198412
     12.53961581     -0.05472052
      1.00761163      0.58055871
      0.38402573      0.47700799
p              4   1.000000
      7.50904702      0.05713170
      1.94698376      0.28574555
      0.68637203      0.55178731
      0.27325653      0.26323149
s              7   1.000000
      0.57971233     -0.18810382
      0.07115450      0.90884851
      0.03359728      0.23867742
     72.81656958      0.00403778
     12.53961581      0.01843686
      1.00761163     -0.19560635
      0.38402573     -0.16071724
p              7   1.000000
      2.76717072     -0.01186510
      0.15304476      0.58306900
      0.05897927      0.60892895
      7.50904702     -0.02847167
      1.94698376     -0.14240173
      0.68637203     -0.27498404
      0.27325653     -0.13118181
 
          11   0
s              4   1.000000
     72.81013062     -0.01198412
     12.53850697     -0.05472052
      1.00752254      0.58055871
      0.38399178      0.47700799
p              4   1.000000
      7.50838301      0.05713170
      1.94681160      0.28574555
      0.68631133      0.55178731
      0.27323237      0.26323149
s              7   1.000000
      0.57971233     -0.18810549
      0.07115450      0.90885661
      0.03359728      0.23867955
     72.81013062      0.00403814
     12.53850697      0.01843848
      1.00752254     -0.19562346
      0.38399178     -0.16073130
p              7   1.000000
      2.76717072     -0.01186529
      0.15304476      0.58307874
      0.05897927      0.60893914
      7.50838301     -0.02847406
      1.94681160     -0.14241368
      0.68631133     -0.27500712
      0.27323237     -0.13119282
 
          12   0
s              4   1.000000
     35.06161462     -0.01198412
      6.03790016     -0.05472053
      0.48517104      0.58055871
      0.18491069      0.47700799
p              4   1.000000
      5.65109517      0.05713170
      1.46524459      0.28574555
      0.51654406      0.55178731
      0.20564509      0.26323149
s              7   1.000000
      0.38350848     -0.19611309
      0.04707223      0.94754636
      0.02222627      0.24884005
     35.06161462      0.00549657
      6.03790016      0.02509783
      0.48517104     -0.26627605
      0.18491069     -0.21878202
p              7   1.000000
      1.83062075     -0.01160499
      0.10124670      0.57028697
      0.03901771      0.59558004
      5.65109517     -0.02517826
      1.46524459     -0.12592964
      0.51654406     -0.24317572
      0.20564509     -0.11600757
 
          13   0
s              4   1.000000
     35.09586217     -0.01198412
      6.04379787     -0.05472053
      0.48564495      0.58055871
      0.18509131      0.47700799
p              4   1.000000
      5.65661506      0.05713170
      1.46667582      0.28574555
      0.51704861      0.55178730
      0.20584596      0.26323149
s              7   1.000000
      0.38350848     -0.19608133
      0.04707223      0.94739291
      0.02222627      0.24879976
     35.09586217      0.00549145
      6.04379787      0.02507444
      0.48564495     -0.26602785
      0.18509131     -0.21857808
p              7   1.000000
      1.83062075     -0.01160322
      0.10124670      0.57020022
      0.03901771      0.59548942
      5.65661506     -0.02515470
      1.46667582     -0.12581180
      0.51704861     -0.24294816
      0.20584596     -0.11589902
 
          14   0
s              4   1.000000
     35.01722652     -0.01198412
      6.03025616     -0.05472052
      0.48455681      0.58055871
      0.18467659      0.47700799
p              4   1.000000
      5.64394087      0.05713170
      1.46338959      0.28574555
      0.51589011      0.55178731
      0.20538474      0.26323149
s              7   1.000000
      0.38350848     -0.19615437
      0.04707223      0.94774584
      0.02222627      0.24889245
     35.01722652      0.00550323
      6.03025616      0.02512822
      0.48455681     -0.26659843
      0.18467659     -0.21904689
p              7   1.000000
      1.83062075     -0.01160728
      0.10124670      0.57039975
      0.03901771      0.59569781
      5.64394087     -0.02520886
      1.46338959     -0.12608270
      0.51589011     -0.24347127
      0.20538474     -0.11614857
 
          15   0
s              4   1.000000
     35.07461973     -0.01198412
      6.04013975     -0.05472052
      0.48535100      0.58055871
      0.18497928      0.47700799
p              4   1.000000
      5.65319128      0.05713170
      1.46578808      0.28574555
      0.51673566      0.55178731
      0.20572137      0.26323149
s              7   1.000000
      0.38350848     -0.19610102
      0.04707223      0.94748804
      0.02222627      0.24882474
     35.07461973      0.00549463
      6.04013975      0.02508894
      0.48535100     -0.26618175
      0.18497928     -0.21870453
p              7   1.000000
      1.83062075     -0.01160432
      0.10124670      0.57025400
      0.03901771      0.59554562
      5.65319128     -0.02516931
      1.46578808     -0.12588487
      0.51673566     -0.24308926
      0.20572137     -0.11596633
 
          16   0
s              4   1.000000
     35.08487122     -0.01198412
      6.04190514     -0.05472052
      0.48549286      0.58055871
      0.18503334      0.47700799
p              4   1.000000
      5.65484358      0.05713170
      1.46621650      0.28574555
      0.51688669      0.55178730
      0.20578150      0.26323149
s              7   1.000000
      0.38350848     -0.19609151
      0.04707223      0.94744212
      0.02222627      0.24881268
     35.08487122      0.00549309
      6.04190514      0.02508194
      0.48549286     -0.26610745
      0.18503334     -0.21864349
p              7   1.000000
      1.83062075     -0.01160379
      0.10124670      0.57022803
      0.03901771      0.59551847
      5.65484358     -0.02516225
      1.46621650     -0.12584960
      0.51688669     -0.24302115
      0.20578150     -0.11593384
 
          17   0
s              4   1.000000
     35.00958874     -0.01198412
      6.02894087     -0.05472052
      0.48445112      0.58055871
      0.18463631      0.47700799
p              4   1.000000
      5.64270984      0.05713170
      1.46307040      0.28574555
      0.51577759      0.55178731
      0.20533995      0.26323149
s              7   1.000000
      0.38350848     -0.19616149
      0.04707223      0.94778023
      0.02222627      0.24890147
     35.00958874      0.00550437
      6.02894087      0.02513345
      0.48445112     -0.26665398
      0.18463631     -0.21909253
p              7   1.000000
      1.83062075     -0.01160768
      0.10124670      0.57041920
      0.03901771      0.59571812
      5.64270984     -0.02521413
      1.46307040     -0.12610907
      0.51577759     -0.24352219
      0.20533995     -0.11617286
 
          18   0
s              4   1.000000
     35.01668192     -0.01198412
      6.03016238     -0.05472052
      0.48454928      0.58055871
      0.18467372      0.47700799
p              4   1.000000
      5.64385309      0.05713170
      1.46336683      0.28574555
      0.51588209      0.55178731
      0.20538155      0.26323149
s              7   1.000000
      0.38350848     -0.19615488
      0.04707223      0.94774830
      0.02222627      0.24889309
     35.01668192      0.00550331
      6.03016238      0.02512859
      0.48454928     -0.26660239
      0.18467372     -0.21905014
p              7   1.000000
      1.83062075     -0.01160731
      0.10124670      0.57040114
      0.03901771      0.59569927
      5.64385309     -0.02520923
      1.46336683     -0.12608458
      0.51588209     -0.24347490
      0.20538155     -0.11615030
 
          19   0
s              4   1.000000
     35.19039190     -0.01198412
      6.06007667     -0.05472053
      0.48695302      0.58055871
      0.18558985      0.47700799
p              4   1.000000
      5.67185099      0.05713170
      1.47062627      0.28574555
      0.51844127      0.55178731
      0.20640040      0.26323149
s              7   1.000000
      0.38350848     -0.19599409
      0.04707223      0.94697142
      0.02222627      0.24868907
     35.19039190      0.00547736
      6.06007667      0.02501009
      0.48695302     -0.26534510
      0.18558985     -0.21801711
p              7   1.000000
      1.83062075     -0.01159838
      0.10124670      0.56996192
      0.03901771      0.59524058
      5.67185099     -0.02508989
      1.47062627     -0.12548765
      0.51844127     -0.24232221
      0.20640040     -0.11560041
 
          20   0
s              4   1.000000
     61.15476506     -0.01198412
     10.53135658     -0.05472052
      0.84623944      0.58055871
      0.32252279      0.47700800
p              4   1.000000
      7.20843300      0.05713170
      1.86903904      0.28574555
      0.65889410      0.55178731
      0.26231709      0.26323149
s              7   1.000000
      0.47894987     -0.18779702
      0.05878681      0.90736618
      0.02775758      0.23828814
     61.15476506      0.00397271
     10.53135658      0.01813975
      0.84623944     -0.19245409
      0.32252279     -0.15812722
p              7   1.000000
      2.28619608     -0.01156735
      0.12644335      0.56843724
      0.04872781      0.59364825
      7.20843300     -0.02467183
      1.86903904     -0.12339676
      0.65889410     -0.23828461
      0.26231709     -0.11367426
 
          21   0
s              4   1.000000
     35.20200512     -0.01198412
      6.06207656     -0.05472052
      0.48711372      0.58055871
      0.18565109      0.47700800
p              4   1.000000
      5.67372276      0.05713170
      1.47111159      0.28574555
      0.51861236      0.55178731
      0.20646852      0.26323149
s              7   1.000000
      0.38350848     -0.19598342
      0.04707223      0.94691984
      0.02222627      0.24867552
     35.20200512      0.00547563
      6.06207656      0.02500220
      0.48711372     -0.26526146
      0.18565109     -0.21794839
p              7   1.000000
      1.83062075     -0.01159778
      0.10124670      0.56993277
      0.03901771      0.59521011
      5.67372276     -0.02508195
      1.47111159     -0.12544794
      0.51861236     -0.24224553
      0.20646852     -0.11556382
 
          22   0
s              4   1.000000
     35.01806962     -0.01198412
      6.03040135     -0.05472052
      0.48456848      0.58055871
      0.18468104      0.47700799
p              4   1.000000
      5.64407675      0.05713170
      1.46342482      0.28574555
      0.51590254      0.55178731
      0.20538969      0.26323149
s              7   1.000000
      0.38350848     -0.19615359
      0.04707223      0.94774205
      0.02222627      0.24889145
     35.01806962      0.00550310
      6.03040135      0.02512764
      0.48456848     -0.26659230
      0.18468104     -0.21904185
p              7   1.000000
      1.83062075     -0.01160724
      0.10124670      0.57039761
      0.03901771      0.59569559
      5.64407675     -0.02520828
      1.46342482     -0.12607979
      0.51590254     -0.24346565
      0.20538969     -0.11614588
 
          23   0
s              4   1.000000
     34.92068320     -0.01198412
      6.01363060     -0.05472052
      0.48322088      0.58055871
      0.18416744      0.47700800
p              4   1.000000
      5.62838039      0.05713170
      1.45935499      0.28574555
      0.51446779      0.55178731
      0.20481849      0.26323149
s              7   1.000000
      0.38350848     -0.19624465
      0.04707223      0.94818204
      0.02222627      0.24900699
     34.92068320      0.00551776
      6.01363060      0.02519456
      0.48322088     -0.26730224
      0.18416744     -0.21962517
p              7   1.000000
      1.83062075     -0.01161230
      0.10124670      0.57064637
      0.03901771      0.59595535
      5.62838039     -0.02527566
      1.45935499     -0.12641683
      0.51446779     -0.24411650
      0.20481849     -0.11645637
 
          24   0
s              4   1.000000
     34.91571632     -0.01198412
      6.01277527     -0.05472052
      0.48315215      0.58055871
      0.18414124      0.47700799
p              4   1.000000
      5.62757985      0.05713170
      1.45914742      0.28574555
      0.51439462      0.55178731
      0.20478936      0.26323149
s              7   1.000000
      0.38350848     -0.19624932
      0.04707223      0.94820457
      0.02222627      0.24901291
     34.91571632      0.00551851
      6.01277527      0.02519798
      0.48315215     -0.26733855
      0.18414124     -0.21965500
p              7   1.000000
      1.83062075     -0.01161256
      0.10124670      0.57065911
      0.03901771      0.59596866
      5.62757985     -0.02527911
      1.45914742     -0.12643407
      0.51439462     -0.24414978
      0.20478936     -0.11647225
 
          25   0
s              4   1.000000
     34.92063615     -0.01198412
      6.01362250     -0.05472053
      0.48322023      0.58055871
      0.18416719      0.47700799
p              4   1.000000
      5.62837280      0.05713170
      1.45935302      0.28574555
      0.51446710      0.55178731
      0.20481822      0.26323149
s              7   1.000000
      0.38350848     -0.19624470
      0.04707223      0.94818226
      0.02222627      0.24900706
     34.92063615      0.00551776
      6.01362250      0.02519459
      0.48322023     -0.26730258
      0.18416719     -0.21962545
p              7   1.000000
      1.83062075     -0.01161231
      0.10124670      0.57064650
      0.03901771      0.59595552
      5.62837280     -0.02527570
      1.45935302     -0.12641699
      0.51446710     -0.24411681
      0.20481822     -0.11645652
 
          26   0
s              4   1.000000
     35.01923339     -0.01198412
      6.03060176     -0.05472053
      0.48458458      0.58055871
      0.18468718      0.47700800
p              4   1.000000
      5.64426432      0.05713170
      1.46347346      0.28574555
      0.51591968      0.55178731
      0.20539652      0.26323149
s              7   1.000000
      0.38350848     -0.19615250
      0.04707223      0.94773681
      0.02222627      0.24889007
     35.01923339      0.00550293
      6.03060176      0.02512684
      0.48458458     -0.26658384
      0.18468718     -0.21903490
p              7   1.000000
      1.83062075     -0.01160718
      0.10124670      0.57039465
      0.03901771      0.59569247
      5.64426432     -0.02520747
      1.46347346     -0.12607577
      0.51591968     -0.24345789
      0.20539652     -0.11614219
 
          27   0
s              4   1.000000
     35.20266564     -0.01198412
      6.06219031     -0.05472052
      0.48712286      0.58055871
      0.18565458      0.47700800
p              4   1.000000
      5.67382923      0.05713170
      1.47113919      0.28574555
      0.51862209      0.55178731
      0.20647239      0.26323149
s              7   1.000000
      0.38350848     -0.19598281
      0.04707223      0.94691691
      0.02222627      0.24867476
     35.20266564      0.00547553
      6.06219031      0.02500175
      0.48712286     -0.26525670
      0.18565458     -0.21794448
p              7   1.000000
      1.83062075     -0.01159775
      0.10124670      0.56993111
      0.03901771      0.59520837
      5.67382923     -0.02508149
      1.47113919     -0.12544568
      0.51862209     -0.24224117
      0.20647239     -0.11556174
 
          28   0
s              4   1.000000
     35.01902578     -0.01198412
      6.03056601     -0.05472052
      0.48458171      0.58055871
      0.18468608      0.47700800
p              4   1.000000
      5.64423086      0.05713170
      1.46346478      0.28574555
      0.51591662      0.55178731
      0.20539530      0.26323149
s              7   1.000000
      0.38350848     -0.19615270
      0.04707223      0.94773775
      0.02222627      0.24889031
     35.01902578      0.00550296
      6.03056601      0.02512699
      0.48458171     -0.26658535
      0.18468608     -0.21903614
p              7   1.000000
      1.83062075     -0.01160719
      0.10124670      0.57039518
      0.03901771      0.59569304
      5.64423086     -0.02520762
      1.46346478     -0.12607648
      0.51591662     -0.24345927
      0.20539530     -0.11614284
 
          29   0
s              4   1.000000
     34.92063169     -0.01198412
      6.01362173     -0.05472052
      0.48322016      0.58055871
      0.18416717      0.47700799
p              4   1.000000
      5.62837208      0.05713170
      1.45935284      0.28574555
      0.51446703      0.55178731
      0.20481819      0.26323149
s              7   1.000000
      0.38350848     -0.19624470
      0.04707223      0.94818228
      0.02222627      0.24900706
     34.92063169      0.00551776
      6.01362173      0.02519459
      0.48322016     -0.26730262
      0.18416717     -0.21962548
p              7   1.000000
      1.83062075     -0.01161231
      0.10124670      0.57064651
      0.03901771      0.59595552
      5.62837208     -0.02527570
      1.45935284     -0.12641701
      0.51446703     -0.24411684
      0.20481819     -0.11645654
 
          30   0
s              4   1.000000
     34.91576087     -0.01198412
      6.01278294     -0.05472053
      0.48315276      0.58055871
      0.18414148      0.47700799
p              4   1.000000
      5.62758703      0.05713170
      1.45914928      0.28574555
      0.51439528      0.55178731
      0.20478962      0.26323149
s              7   1.000000
      0.38350848     -0.19624927
      0.04707223      0.94820438
      0.02222627      0.24901287
     34.91576087      0.00551850
      6.01278294      0.02519795
      0.48315276     -0.26733822
      0.18414148     -0.21965473
p              7   1.000000
      1.83062075     -0.01161256
      0.10124670      0.57065900
      0.03901771      0.59596854
      5.62758703     -0.02527908
      1.45914928     -0.12643391
      0.51439528     -0.24414948
      0.20478962     -0.11647211
 
          31   0
s              4   1.000000
     34.92055744     -0.01198412
      6.01360895     -0.05472052
      0.48321914      0.58055871
      0.18416677      0.47700800
p              4   1.000000
      5.62836012      0.05713170
      1.45934973      0.28574555
      0.51446594      0.55178731
      0.20481776      0.26323149
s              7   1.000000
      0.38350848     -0.19624477
      0.04707223      0.94818262
      0.02222627      0.24900716
     34.92055744      0.00551778
      6.01360895      0.02519464
      0.48321914     -0.26730316
      0.18416677     -0.21962593
p              7   1.000000
      1.83062075     -0.01161231
      0.10124670      0.57064669
      0.03901771      0.59595572
      5.62836012     -0.02527575
      1.45934973     -0.12641727
      0.51446594     -0.24411734
      0.20481776     -0.11645678
 
          32   0
s              4   1.000000
     35.01801322     -0.01198412
      6.03039164     -0.05472053
      0.48456770      0.58055871
      0.18468074      0.47700800
p              4   1.000000
      5.64406766      0.05713170
      1.46342247      0.28574555
      0.51590170      0.55178731
      0.20538936      0.26323149
s              7   1.000000
      0.38350848     -0.19615364
      0.04707223      0.94774230
      0.02222627      0.24889153
     35.01801322      0.00550311
      6.03039164      0.02512768
      0.48456770     -0.26659271
      0.18468074     -0.21904219
p              7   1.000000
      1.83062075     -0.01160724
      0.10124670      0.57039775
      0.03901771      0.59569571
      5.64406766     -0.02520832
      1.46342247     -0.12607998
      0.51590170     -0.24346602
      0.20538936     -0.11614607
 
          33   0
s              4   1.000000
     35.01647583     -0.01198412
      6.03012689     -0.05472052
      0.48454643      0.58055871
      0.18467264      0.47700799
p              4   1.000000
      5.64381987      0.05713170
      1.46335822      0.28574555
      0.51587905      0.55178731
      0.20538034      0.26323149
s              7   1.000000
      0.38350848     -0.19615507
      0.04707223      0.94774922
      0.02222627      0.24889333
     35.01647583      0.00550334
      6.03012689      0.02512873
      0.48454643     -0.26660389
      0.18467264     -0.21905138
p              7   1.000000
      1.83062075     -0.01160732
      0.10124670      0.57040167
      0.03901771      0.59569979
      5.64381987     -0.02520938
      1.46335822     -0.12608529
      0.51587905     -0.24347627
      0.20538034     -0.11615095
 
          34   0
s              4   1.000000
     35.01163320     -0.01198412
      6.02929294     -0.05472053
      0.48447941      0.58055871
      0.18464710      0.47700799
p              4   1.000000
      5.64303936      0.05713170
      1.46315584      0.28574555
      0.51580771      0.55178731
      0.20535194      0.26323149
s              7   1.000000
      0.38350848     -0.19615959
      0.04707223      0.94777103
      0.02222627      0.24889906
     35.01163320      0.00550407
      6.02929294      0.02513205
      0.48447941     -0.26663911
      0.18464710     -0.21908031
p              7   1.000000
      1.83062075     -0.01160757
      0.10124670      0.57041400
      0.03901771      0.59571270
      5.64303936     -0.02521272
      1.46315584     -0.12610201
      0.51580771     -0.24350856
      0.20535194     -0.11616636
 
          35   0
s              4   1.000000
     35.12050050     -0.01198412
      6.04804080     -0.05472052
      0.48598588      0.58055871
      0.18522125      0.47700799
p              4   1.000000
      5.66058617      0.05713170
      1.46770547      0.28574555
      0.51741160      0.55178731
      0.20599047      0.26323149
s              7   1.000000
      0.38350848     -0.19605853
      0.04707223      0.94728276
      0.02222627      0.24877082
     35.12050050      0.00548777
      6.04804080      0.02505763
      0.48598588     -0.26584956
      0.18522125     -0.21843160
p              7   1.000000
      1.83062075     -0.01160196
      0.10124670      0.57013794
      0.03901771      0.59542441
      5.66058617     -0.02513777
      1.46770547     -0.12572716
      0.51741160     -0.24278471
      0.20599047     -0.11582104
 
          36   0
s              4   1.000000
     35.25298627     -0.01198412
      6.07085594     -0.05472053
      0.48781918      0.58055871
      0.18591996      0.47700800
p              4   1.000000
      5.68193971      0.05713170
      1.47324212      0.28574555
      0.51936344      0.55178731
      0.20676753      0.26323149
s              7   1.000000
      0.38350848     -0.19593667
      0.04707223      0.94669397
      0.02222627      0.24861622
     35.25298627      0.00546806
      6.07085594      0.02496765
      0.48781918     -0.26489489
      0.18591996     -0.21764720
p              7   1.000000
      1.83062075     -0.01159518
      0.10124670      0.56980507
      0.03901771      0.59507677
      5.68193971     -0.02504715
      1.47324212     -0.12527390
      0.51936344     -0.24190945
      0.20676753     -0.11540350
 
          37   0
s              4   1.000000
      8.30936227      0.05675242
      1.52051092      0.26014135
      0.42241458      0.53284611
      0.14019560      0.29162544
s              7   1.000000
      0.92936822     -0.06732789
      0.05643440      0.66945009
      0.02166600      0.51461057
      8.30936227     -0.02902160
      1.52051092     -0.13302902
      0.42241458     -0.27248261
      0.14019560     -0.14912910
p              4   1.000000
      0.64737396      0.05713170
      0.16785440      0.28574555
      0.05917387      0.55178731
      0.02355814      0.26323150
 
          38   0
s              4   1.000000
      8.30893563      0.05675242
      1.52043285      0.26014135
      0.42239289      0.53284611
      0.14018840      0.29162544
s              7   1.000000
      0.92936822     -0.06732844
      0.05643440      0.66945554
      0.02166600      0.51461474
      8.30893563     -0.02902274
      1.52043285     -0.13303425
      0.42239289     -0.27249333
      0.14018840     -0.14913497
p              4   1.000000
      0.64737396      0.05713170
      0.16785440      0.28574555
      0.05917387      0.55178731
      0.02355814      0.26323150
 
          39   0
s              4   1.000000
      8.30883720      0.05675242
      1.52041484      0.26014135
      0.42238789      0.53284611
      0.14018674      0.29162544
s              7   1.000000
      0.92936822     -0.06732857
      0.05643440      0.66945680
      0.02166600      0.51461571
      8.30883720     -0.02902301
      1.52041484     -0.13303546
      0.42238789     -0.27249580
      0.14018674     -0.14913632
p              4   1.000000
      0.64737396      0.05713170
      0.16785440      0.28574555
      0.05917387      0.55178731
      0.02355814      0.26323150
 
          40   0
s              4   1.000000
      8.31042092      0.05675242
      1.52070464      0.26014135
      0.42246840      0.53284611
      0.14021346      0.29162544
s              7   1.000000
      0.92936822     -0.06732653
      0.05643440      0.66943655
      0.02166600      0.51460016
      8.31042092     -0.02901877
      1.52070464     -0.13301604
      0.42246840     -0.27245603
      0.14021346     -0.14911455
p              4   1.000000
      0.64737396      0.05713170
      0.16785440      0.28574555
      0.05917387      0.55178731
      0.02355814      0.26323150
 
          41   0
s              4   1.000000
      8.31046809      0.05675242
      1.52071327      0.26014135
      0.42247080      0.53284611
      0.14021426      0.29162544
s              7   1.000000
      0.92936822     -0.06732647
      0.05643440      0.66943595
      0.02166600      0.51459969
      8.31046809     -0.02901864
      1.52071327     -0.13301546
      0.42247080     -0.27245484
      0.14021426     -0.14911390
p              4   1.000000
      0.64737396      0.05713170
      0.16785440      0.28574555
      0.05917387      0.55178731
      0.02355814      0.26323150
 
          42   0
s              4   1.000000
      8.30950390      0.05675242
      1.52053684      0.26014135
      0.42242178      0.53284611
      0.14019799      0.29162544
s              7   1.000000
      0.92936822     -0.06732771
      0.05643440      0.66944828
      0.02166600      0.51460918
      8.30950390     -0.02902122
      1.52053684     -0.13302728
      0.42242178     -0.27247906
      0.14019799     -0.14912715
p              4   1.000000
      0.64737396      0.05713170
      0.16785440      0.28574555
      0.05917387      0.55178731
      0.02355814      0.26323150
 
          43   0
s              4   1.000000
      8.30960941      0.05675242
      1.52055614      0.26014135
      0.42242715      0.53284611
      0.14019977      0.29162544
s              7   1.000000
      0.92936822     -0.06732757
      0.05643440      0.66944692
      0.02166600      0.51460814
      8.30960941     -0.02902094
      1.52055614     -0.13302599
      0.42242715     -0.27247641
      0.14019977     -0.14912570
p              4   1.000000
      0.64737396      0.05713170
      0.16785440      0.28574555
      0.05917387      0.55178731
      0.02355814      0.26323150
 
          44   0
s              4   1.000000
      8.30985963      0.05675242
      1.52060193      0.26014135
      0.42243987      0.53284611
      0.14020399      0.29162544
s              7   1.000000
      0.92936822     -0.06732725
      0.05643440      0.66944373
      0.02166600      0.51460568
      8.30985963     -0.02902027
      1.52060193     -0.13302292
      0.42243987     -0.27247012
      0.14020399     -0.14912227
p              4   1.000000
      0.64737396      0.05713170
      0.16785440      0.28574555
      0.05917387      0.55178731
      0.02355814      0.26323150
 
          45   0
s              4   1.000000
      8.30965380      0.05675242
      1.52056427      0.26014135
      0.42242940      0.53284611
      0.14020052      0.29162543
s              7   1.000000
      0.92936822     -0.06732752
      0.05643440      0.66944635
      0.02166600      0.51460769
      8.30965380     -0.02902082
      1.52056427     -0.13302545
      0.42242940     -0.27247529
      0.14020052     -0.14912509
p              4   1.000000
      0.64737396      0.05713170
      0.16785440      0.28574555
      0.05917387      0.55178731
      0.02355814      0.26323150
 
          46   0
s              4   1.000000
      8.30890409      0.05675242
      1.52042708      0.26014135
      0.42239129      0.53284611
      0.14018787      0.29162544
s              7   1.000000
      0.92936822     -0.06732848
      0.05643440      0.66945595
      0.02166600      0.51461507
      8.30890409     -0.02902283
      1.52042708     -0.13303464
      0.42239129     -0.27249412
      0.14018787     -0.14913540
p              4   1.000000
      0.64737396      0.05713170
      0.16785440      0.28574555
      0.05917387      0.55178731
      0.02355814      0.26323150
 
          47   0
s              4   1.000000
      8.30876992      0.05675242
      1.52040253      0.26014135
      0.42238447      0.53284611
      0.14018561      0.29162543
s              7   1.000000
      0.92936822     -0.06732865
      0.05643440      0.66945766
      0.02166600      0.51461638
      8.30876992     -0.02902319
      1.52040253     -0.13303628
      0.42238447     -0.27249749
      0.14018561     -0.14913725
p              4   1.000000
      0.64737396      0.05713170
      0.16785440      0.28574555
      0.05917387      0.55178731
      0.02355814      0.26323150
 
          48   0
s              4   1.000000
      8.30890185      0.05675242
      1.52042667      0.26014135
      0.42239118      0.53284611
      0.14018784      0.29162544
s              7   1.000000
      0.92936822     -0.06732848
      0.05643440      0.66945598
      0.02166600      0.51461509
      8.30890185     -0.02902283
      1.52042667     -0.13303467
      0.42239118     -0.27249418
      0.14018784     -0.14913543
p              4   1.000000
      0.64737396      0.05713170
      0.16785440      0.28574555
      0.05917387      0.55178731
      0.02355814      0.26323150
 
          49   0
s              4   1.000000
      8.30964756      0.05675242
      1.52056312      0.26014135
      0.42242909      0.53284611
      0.14020042      0.29162544
s              7   1.000000
      0.92936822     -0.06732752
      0.05643440      0.66944644
      0.02166600      0.51460776
      8.30964756     -0.02902084
      1.52056312     -0.13302552
      0.42242909     -0.27247545
      0.14020042     -0.14912518
p              4   1.000000
      0.64737396      0.05713170
      0.16785440      0.28574555
      0.05917387      0.55178731
      0.02355814      0.26323150
 
          50   0
s              4   1.000000
      8.30964579      0.05675242
      1.52056280      0.26014135
      0.42242900      0.53284611
      0.14020039      0.29162544
s              7   1.000000
      0.92936822     -0.06732753
      0.05643440      0.66944646
      0.02166600      0.51460776
      8.30964579     -0.02902084
      1.52056280     -0.13302554
      0.42242900     -0.27247549
      0.14020039     -0.14912521
p              4   1.000000
      0.64737396      0.05713170
      0.16785440      0.28574555
      0.05917387      0.55178731
      0.02355814      0.26323150
 
          51   0
s              4   1.000000
      8.30890128      0.05675242
      1.52042657      0.26014135
      0.42239115      0.53284611
      0.14018782      0.29162544
s              7   1.000000
      0.92936822     -0.06732848
      0.05643440      0.66945599
      0.02166600      0.51461509
      8.30890128     -0.02902284
      1.52042657     -0.13303467
      0.42239115     -0.27249419
      0.14018782     -0.14913544
p              4   1.000000
      0.64737396      0.05713170
      0.16785440      0.28574555
      0.05917387      0.55178731
      0.02355814      0.26323150
 
          52   0
s              4   1.000000
      8.30876981      0.05675242
      1.52040251      0.26014135
      0.42238446      0.53284611
      0.14018561      0.29162544
s              7   1.000000
      0.92936822     -0.06732865
      0.05643440      0.66945766
      0.02166600      0.51461638
      8.30876981     -0.02902319
      1.52040251     -0.13303629
      0.42238446     -0.27249750
      0.14018561     -0.14913725
p              4   1.000000
      0.64737396      0.05713170
      0.16785440      0.28574555
      0.05917387      0.55178731
      0.02355814      0.26323150
 
          53   0
s              4   1.000000
      8.30890283      0.05675242
      1.52042685      0.26014135
      0.42239123      0.53284611
      0.14018785      0.29162544
s              7   1.000000
      0.92936822     -0.06732848
      0.05643440      0.66945596
      0.02166600      0.51461507
      8.30890283     -0.02902283
      1.52042685     -0.13303465
      0.42239123     -0.27249415
      0.14018785     -0.14913542
p              4   1.000000
      0.64737396      0.05713170
      0.16785440      0.28574555
      0.05917387      0.55178731
      0.02355814      0.26323150
 
          54   0
s              4   1.000000
      8.30964990      0.05675242
      1.52056355      0.26014135
      0.42242921      0.53284611
      0.14020046      0.29162544
s              7   1.000000
      0.92936822     -0.06732752
      0.05643440      0.66944640
      0.02166600      0.51460774
      8.30964990     -0.02902083
      1.52056355     -0.13302549
      0.42242921     -0.27247539
      0.14020046     -0.14912515
p              4   1.000000
      0.64737396      0.05713170
      0.16785440      0.28574555
      0.05917387      0.55178731
      0.02355814      0.26323150
 
          55   0
s              4   1.000000
      8.30986788      0.05675242
      1.52060344      0.26014135
      0.42244029      0.53284611
      0.14020413      0.29162544
s              7   1.000000
      0.92936822     -0.06732724
      0.05643440      0.66944362
      0.02166600      0.51460558
      8.30986788     -0.02902025
      1.52060344     -0.13302282
      0.42244029     -0.27246992
      0.14020413     -0.14912215
p              4   1.000000
      0.64737396      0.05713170
      0.16785440      0.28574555
      0.05917387      0.55178731
      0.02355814      0.26323150
 
          56   0
s              4   1.000000
      8.30963384      0.05675242
      1.52056061      0.26014135
      0.42242839      0.53284611
      0.14020019      0.29162544
s              7   1.000000
      0.92936822     -0.06732754
      0.05643440      0.66944661
      0.02166600      0.51460789
      8.30963384     -0.02902088
      1.52056061     -0.13302569
      0.42242839     -0.27247579
      0.14020019     -0.14912537
p              4   1.000000
      0.64737396      0.05713170
      0.16785440      0.28574555
      0.05917387      0.55178731
      0.02355814      0.26323150
 
          57   0
s              4   1.000000
      8.31005307      0.05675242
      1.52063733      0.26014135
      0.42244970      0.53284611
      0.14020726      0.29162544
s              7   1.000000
      0.92936822     -0.06732700
      0.05643440      0.66944125
      0.02166600      0.51460376
      8.31005307     -0.02901975
      1.52063733     -0.13302055
      0.42244970     -0.27246526
      0.14020726     -0.14911961
p              4   1.000000
      0.64737396      0.05713170
      0.16785440      0.28574555
      0.05917387      0.55178731
      0.02355814      0.26323150
 
 [MO]
 Sym= Hole
 Ene= -0.9040722    
 Spin= Alpha
 Occup= 0
           1 -5.7946145E-05
           2  3.7887670E-02
           3  9.3365042E-03
           4 -1.9341806E-03
           5 -2.2160284E-04
           6 -1.6548901E-03
           7 -5.3913263E-04
           8  1.1525456E-03
           9 -3.9995136E-03
          10 -1.3595445E-02
          11  2.4017286E-03
          12  8.5103428E-03
          13 -4.7093385E-04
          14 -1.3211193E-03
          15 -1.1047095E-03
          16 -2.8968158E-03
          17 -7.0629208E-03
          18  4.5937102E-02
          19  2.0780880E-03
          20 -4.4699866E-02
          21  3.2201388E-03
          22  4.0176880E-04
          23  1.7553915E-03
          24 -1.6530467E-03
          25 -1.0678521E-03
          26  3.7983663E-03
          27  4.9202177E-03
          28 -1.1793576E-02
          29 -1.2843727E-04
          30 -1.4320278E-03
          31  2.1971499E-03
          32  4.5666751E-05
          33 -1.9866975E-03
          34 -1.4172536E-02
          35 -8.7641012E-03
          36  4.0952645E-02
          37 -3.8649011E-04
          38  4.8556074E-04
          39  8.5003697E-04
          40  1.7852023E-03
          41 -2.4053194E-03
          42 -1.6833335E-02
          43 -2.8877617E-03
          44  4.1553468E-02
          45 -4.1602518E-05
          46  9.2300010E-04
          47 -2.9086237E-04
          48  1.0697099E-03
          49  8.4677344E-04
          50  4.1192677E-03
          51 -7.6386891E-04
          52 -1.2667038E-02
          53 -2.2209876E-03
          54  3.2569289E-03
          55 -1.4204701E-03
          56  1.5039862E-03
          57 -1.0494610E-02
          58  3.1131737E-02
          59  4.0552061E-02
          60 -4.5329005E-02
          61  4.5388676E-03
          62  2.3610087E-04
          63  1.3433163E-03
          64 -1.1660601E-03
          65 -9.1601862E-03
          66  1.0530453E-02
          67 -6.7779021E-03
          68 -7.1431454E-03
          69 -2.5745980E-03
          70 -3.9085965E-03
          71  4.5101182E-04
          72  7.6585752E-03
          73  3.3769382E-03
          74 -0.1105032    
          75  1.3287998E-02
          76  1.7154600E-02
          77  1.2732770E-03
          78 -8.4774150E-03
          79 -6.9917698E-04
          80 -1.1588989E-03
          81 -2.5776548E-03
          82  1.6979154E-02
          83  7.2917501E-03
          84  1.3575285E-03
          85 -3.1694327E-04
          86  4.5246743E-03
          87 -7.7317777E-04
          88 -5.2554281E-03
          89 -5.1420205E-03
          90  1.1477141E-02
          91  2.4646601E-02
          92  0.3577858    
          93  2.3833737E-03
          94  8.6274470E-04
          95 -8.3517130E-05
          96 -4.2244755E-03
          97 -3.7494176E-03
          98  2.7508721E-02
          99  5.0995718E-03
         100  0.1802349    
         101  1.7777685E-03
         102 -3.4516773E-04
         103  1.5873871E-03
         104  2.8681785E-03
         105  1.5247575E-02
         106 -3.3081681E-02
         107  1.5247110E-02
         108 -0.1875287    
         109 -9.3149859E-03
         110 -1.0429333E-03
         111 -1.5061314E-03
         112  4.2827567E-03
         113  1.7742101E-03
         114 -1.2677516E-02
         115 -3.5825115E-02
         116 -0.2740799    
         117 -7.0756330E-04
         118  1.8239589E-04
         119 -1.5450957E-03
         120  3.4819616E-04
         121 -2.0040479E-03
         122  3.3493895E-02
         123  0.1914557    
         124  0.2727312    
         125  6.9351046E-04
         126 -2.2500283E-03
         127 -1.3608967E-02
         128 -6.7112567E-03
         129  1.8117964E-02
         130  3.1712361E-02
         131  0.1265171    
         132  0.1100311    
         133 -7.3821791E-03
         134  3.5353706E-03
         135 -4.2597577E-03
         136  2.6183468E-04
         137 -2.1641813E-02
         138 -1.7818723E-02
         139 -0.1606972    
         140 -0.1283493    
         141  1.1092011E-02
         142 -3.8014879E-03
         143  1.1195500E-02
         144  6.7875702E-03
         145 -8.6084066E-05
         146 -2.3220716E-02
         147 -0.1256734    
         148 -0.1823348    
         149  1.0537429E-04
         150  4.5607411E-04
         151  1.8720097E-03
         152  1.7606415E-02
         153  5.8434851E-04
         154  1.8008577E-02
         155  5.1739097E-02
         156  0.3561407    
         157 -3.2953959E-04
         158 -1.5402556E-03
         159 -1.2569976E-03
         160 -4.2221062E-02
         161  8.5588135E-03
         162  1.1855772E-02
         163 -1.5857508E-02
         164 -3.3758283E-02
         165 -5.2926512E-03
         166  7.3569675E-04
         167  4.9140383E-03
         168  1.7326809E-02
         169 -1.7906889E-02
         170  0.1004650    
         171  5.2845240E-02
         172 -9.7698696E-02
         173  1.0320942E-02
         174 -6.8654567E-03
         175 -1.3433513E-02
         176  7.3739970E-03
         177  5.7922076E-03
         178  1.8479297E-03
         179 -7.8524472E-03
         180 -3.9062826E-03
         181 -1.8184592E-03
         182  3.3580582E-03
         183  1.4409920E-03
         184 -4.3225447E-03
         185  1.3710224E-03
         186 -6.5270782E-02
         187 -1.7526640E-02
         188  0.1161365    
         189 -3.2116671E-04
         190  5.3002229E-03
         191  1.1433841E-03
         192 -1.0834831E-02
         193 -4.7948477E-03
         194 -1.2282132E-02
         195  1.8632775E-03
         196  1.0473798E-02
         197  2.1706119E-03
         198  4.2760479E-03
         199 -3.5459310E-04
         200 -3.3457149E-03
         201  1.9161725E-02
         202  9.8778181E-02
         203  1.3816182E-02
         204 -9.0463780E-02
         205 -1.1619302E-02
         206 -1.3759466E-02
         207  4.8246668E-03
         208  6.4340769E-03
         209 -8.8704908E-03
         210 -1.7443160E-02
         211 -1.2252733E-02
         212 -3.1606413E-02
         213  5.4093106E-03
         214  1.6859386E-03
         215  4.9284310E-03
         216  1.7295036E-02
         217 -1.9096714E-02
         218 -9.6734487E-02
         219  4.1437142E-02
         220 -8.4075458E-02
         221  1.1791295E-02
         222  1.4948528E-02
         223  7.9922721E-04
         224  5.5092103E-03
         225  4.6981294E-03
         226  1.2198450E-02
         227 -1.0437007E-03
         228  8.6115403E-03
         229 -2.2221201E-03
         230 -4.5288969E-03
         231  8.6538860E-04
         232 -3.0605381E-03
         233 -1.2890260E-03
         234  6.4420268E-02
         235 -3.6005478E-02
         236  0.1105985    
         237  1.9398752E-04
         238 -5.5103428E-03
         239  2.5895878E-03
         240 -1.0516055E-02
         241 -5.7505844E-03
         242 -4.0463316E-03
         243 -7.1085030E-03
         244 -3.4537618E-03
         245  1.8524254E-03
         246 -3.1437411E-03
         247  2.3391270E-03
         248 -4.0472373E-03
         249  1.7906342E-02
         250 -8.6795248E-02
         251  7.9015218E-02
         252 -8.9662299E-02
         253 -1.0352449E-02
         254  3.3060671E-03
         255 -1.5031658E-02
         256  6.8737506E-03
         257  2.1075172E-02
         258 -3.7302185E-02
         259 -0.1576830    
         260 -0.1272781    
         261 -1.1546343E-02
         262  6.2918123E-03
         263  9.6833836E-03
         264  6.3597183E-03
         265 -1.8150652E-02
         266  1.3444589E-02
         267  0.1271362    
         268  0.1115391    
         269  7.3044472E-03
         270 -4.9390951E-03
         271 -2.7786682E-03
         272  6.2329567E-04
         273 -1.9064942E-02
         274 -4.0265266E-03
         275  4.8316591E-03
         276 -0.2761603    
         277  8.8112960E-03
         278 -7.6041761E-04
         279 -3.1716477E-03
         280  2.5272630E-03
         281  1.6716594E-02
         282  1.1868509E-02
         283  1.4131061E-02
         284  9.9372454E-02
         285 -5.1076063E-03
         286  2.9237224E-03
         287 -1.9265637E-03
         288 -1.4187841E-03
         289  7.6923696E-03
         290 -6.2505127E-04
         291 -1.4773238E-03
         292  1.4424130E-04
         293 -5.4167619E-04
         294  3.7593287E-04
         295 -4.4616649E-04
         296  2.4924137E-05
         297  6.5787073E-04
         298 -3.8397970E-04
         299  1.6791068E-03
         300 -4.2092273E-04
         301  5.1584869E-04
         302 -1.1719402E-05
         303 -7.9692621E-04
         304  8.6029638E-03
         305 -1.8121935E-03
         306  2.5393552E-04
         307 -1.7041146E-03
         308  1.7514685E-03
         309  1.3265377E-02
         310 -3.8844129E-04
         311 -2.8782026E-03
         312 -1.4703574E-03
         313 -5.3819986E-03
         314 -3.8036567E-03
         315 -1.9851804E-03
         316  4.1524577E-03
         317  1.2120538E-03
         318 -3.8708523E-03
         319 -1.9163579E-02
         320  1.0948560E-03
         321  6.0675893E-04
         322  2.0554755E-03
         323 -1.2508401E-03
         324  2.0972028E-02
         325  8.7310787E-04
         326 -5.0403662E-03
         327 -3.9010877E-03
         328 -1.0615011E-02
         329  1.0800064E-02
         330  8.4312761E-04
         331  5.4753484E-04
         332 -5.2364031E-03
         333 -7.5450302E-03
         334 -1.4432876E-02
         335  1.8370344E-03
         336 -1.2855644E-04
         337  1.0533333E-03
         338  1.3991867E-04
         339 -4.8730933E-04
         340  1.4614106E-04
         341 -6.6591180E-03
         342 -1.8685178E-03
         343  1.2417517E-02
         344  9.6686706E-03
         345 -8.1538281E-04
         346  8.6228037E-04
         347 -7.4408145E-04
         348  8.1579183E-04
         349 -1.0862147E-02
         350 -9.4777794E-04
         351 -2.5716452E-03
         352  5.2336012E-03
         353 -9.1482550E-03
         354  1.1078527E-02
         355  9.5778611E-04
         356  3.4114444E-03
         357  4.5382357E-03
         358 -9.2487689E-03
         359 -9.6204085E-03
         360  7.5060746E-04
         361 -9.8917179E-04
         362 -5.7971297E-04
         363  9.2190824E-04
         364  4.7247973E-04
         365 -1.6542787E-04
         366  6.6745994E-03
         367 -3.7057900E-03
         368  1.2025841E-02
         369  1.4463498E-02
         370 -1.8983000E-03
         371  3.7239253E-04
         372  9.3240559E-04
         373  9.7792428E-05
         374 -1.0659955E-02
         375 -1.0105640E-03
         376 -2.4683201E-03
         377 -4.8748413E-03
         378 -7.5968336E-03
         379 -1.9999223E-02
         380 -1.3865562E-03
         381  2.9185726E-03
         382 -4.7320556E-03
         383 -1.0885512E-02
         384  2.0291150E-02
         385 -1.1444250E-03
         386 -6.4381235E-04
         387  3.1238354E-03
         388 -2.4417962E-03
         389  6.7498945E-03
         390  6.7659543E-04
         391 -5.8762594E-03
         392  1.0989162E-03
         393  1.0543079E-03
 Sym= Particle
 Ene= -0.9040722    
 Spin= Alpha
 Occup= 2
           1  1.1276972E-02
           2  0.1388382    
           3 -0.1271452    
           4 -0.3458622    
           5 -9.6136620E-03
           6 -3.4764901E-02
           7  3.9866138E-02
           8  8.3660476E-02
           9 -1.7997129E-02
          10 -0.1710350    
          11  0.1439531    
          12  0.4582156    
          13  1.5711947E-03
          14  5.5444881E-02
          15 -4.5695242E-02
          16 -0.1265376    
          17 -4.5039402E-03
          18 -5.3309485E-02
          19 -2.9419476E-02
          20  0.1292403    
          21  1.9283349E-03
          22  8.5388665E-04
          23  1.0808207E-02
          24 -1.9217778E-02
          25 -1.1610355E-02
          26  8.8750646E-02
          27  6.2552691E-02
          28 -0.1688491    
          29  8.1914281E-03
          30 -1.8184343E-02
          31 -2.3031399E-02
          32  2.5564769E-02
          33  3.4362569E-03
          34  1.4876889E-02
          35  7.1578976E-03
          36 -3.9255749E-02
          37 -1.7946194E-03
          38 -4.7445474E-03
          39 -1.8253357E-03
          40  4.6486929E-03
          41  2.7561865E-03
          42 -9.0576991E-02
          43 -3.6995906E-02
          44  0.1909258    
          45 -1.7142715E-03
          46  1.3004363E-02
          47  2.3137191E-03
          48 -3.0896226E-02
          49 -6.8694586E-03
          50  2.5194872E-02
          51  4.7965795E-03
          52 -2.7625501E-02
          53  2.2895057E-03
          54 -4.7725704E-03
          55  8.2521881E-05
          56 -2.0819849E-03
          57  2.3821447E-02
          58  6.5619662E-02
          59  5.3800628E-02
          60 -0.1969511    
          61 -1.9362286E-02
          62 -1.0436731E-02
          63 -5.4501006E-03
          64  5.2342016E-02
          65 -1.0101506E-02
          66  5.6291497E-03
          67 -2.4196452E-03
          68 -9.9470839E-03
          69 -1.2804420E-03
          70  1.6546658E-03
          71  1.9347846E-03
          72 -1.2781397E-02
          73 -9.7345086E-03
          74  1.3065704E-02
          75 -1.5114769E-02
          76 -3.0815013E-02
          77  6.1309398E-03
          78  4.3278271E-03
          79 -6.2872153E-03
          80  1.0606398E-02
          81  5.4311468E-03
          82 -1.5728436E-02
          83  2.3705808E-02
          84  8.6457916E-03
          85 -9.2693549E-03
          86  4.3350491E-03
          87 -5.3836652E-03
          88  2.0071603E-03
          89  2.5291689E-02
          90 -7.2655133E-03
          91  1.6728014E-02
          92 -0.1807071    
          93 -2.1521110E-02
          94 -7.7763242E-03
          95 -6.2993024E-03
          96  4.0913213E-02
          97 -8.6765224E-03
          98 -1.4416405E-02
          99 -1.9772684E-02
         100 -0.1764895    
         101  2.0315179E-03
         102  5.2328748E-03
         103  5.9793107E-03
         104  4.1403260E-02
         105  1.1169988E-02
         106  1.1841197E-02
         107  2.2897532E-02
         108  0.3207207    
         109 -1.0386597E-02
         110  4.7689169E-03
         111 -3.8138772E-03
         112 -6.6077508E-02
         113  4.7846674E-03
         114 -3.0184558E-03
         115  3.3926263E-03
         116 -1.6591372E-02
         117 -6.2420452E-03
         118  3.2533796E-03
         119  3.3981642E-03
         120  3.9633848E-03
         121 -4.6106759E-03
         122 -2.5635143E-03
         123  4.2866677E-02
         124  5.0660424E-02
         125 -1.7899554E-03
         126 -3.8127939E-03
         127 -1.0589737E-02
         128 -1.1959873E-02
         129 -1.9527805E-03
         130  4.0755691E-03
         131  3.4496810E-02
         132  2.4444709E-02
         133 -5.1193492E-06
         134  2.2096047E-04
         135 -1.0394196E-02
         136 -2.1439404E-03
         137  1.0857902E-03
         138 -1.1104171E-02
         139 -6.5907910E-02
         140 -7.5996481E-02
         141 -1.7194524E-03
         142  4.8168222E-03
         143  1.9246271E-02
         144  2.0942872E-02
         145 -3.5650522E-04
         146  3.6326547E-03
         147  4.3214589E-02
         148  4.9191050E-02
         149 -2.6356122E-03
         150  1.5963208E-03
         151 -1.5960274E-02
         152 -2.0272022E-02
         153  9.5780613E-04
         154  1.2273535E-03
         155  8.0298807E-04
         156 -1.3207988E-03
         157 -8.2809321E-04
         158  6.1567401E-04
         159  3.9898371E-03
         160  1.0448623E-03
         161 -5.9134481E-03
         162  5.2756541E-03
         163  1.0337674E-02
         164 -1.4494641E-02
         165  4.9547446E-03
         166 -4.6009553E-04
         167 -3.5391802E-03
         168  5.3563905E-03
         169  5.9765077E-04
         170 -2.5243566E-03
         171 -1.4946745E-03
         172  7.9992798E-04
         173  6.5965805E-04
         174  4.7930279E-03
         175 -9.1156375E-04
         176 -4.2259647E-04
         177 -3.4885225E-04
         178 -8.0703245E-03
         179 -1.8195991E-03
         180  1.1849783E-02
         181  1.3013752E-03
         182  2.7799150E-03
         183 -2.4102685E-04
         184 -2.3428802E-03
         185 -4.3867031E-04
         186  7.3187342E-03
         187  2.2783035E-03
         188 -1.1153979E-02
         189  1.6239852E-03
         190 -1.7478446E-03
         191 -1.3328211E-03
         192  2.9062086E-03
         193 -3.2791568E-04
         194  1.1810985E-03
         195  9.6472551E-04
         196 -1.7301424E-03
         197  1.3272600E-03
         198 -3.3971411E-04
         199 -9.2945393E-04
         200  4.9434399E-04
         201  8.7841233E-04
         202 -6.4834617E-03
         203 -2.3917963E-03
         204  1.4604830E-02
         205  2.6193110E-04
         206  1.4033606E-03
         207 -5.6964491E-04
         208 -4.4710408E-03
         209  3.7587241E-03
         210 -2.0776115E-02
         211  1.9698530E-02
         212 -3.7454110E-02
         213 -4.2606131E-03
         214  7.6194596E-03
         215 -8.4337434E-03
         216  1.3540440E-02
         217 -1.6996132E-04
         218 -3.6554711E-03
         219  2.3049719E-03
         220 -2.4043934E-03
         221 -1.1528794E-03
         222  5.3265103E-04
         223 -5.4578853E-05
         224 -1.1996754E-03
         225  3.2180411E-04
         226  2.4007922E-02
         227 -1.3292456E-02
         228  3.6326967E-02
         229 -6.8446971E-04
         230 -6.1908630E-03
         231  4.1272547E-03
         232 -9.9913683E-03
         233  1.0545664E-04
         234 -1.8647024E-02
         235  1.0715577E-02
         236 -2.7516410E-02
         237 -4.9371039E-04
         238  3.6996896E-03
         239 -2.3805134E-03
         240  6.2623601E-03
         241  2.2658911E-04
         242 -8.4815947E-03
         243  5.3373608E-03
         244 -1.2732949E-02
         245  6.3102134E-04
         246  2.9312375E-03
         247 -7.4143597E-04
         248  4.1246209E-03
         249 -1.3217515E-03
         250  2.6164588E-02
         251 -1.6102033E-02
         252  4.0579326E-02
         253  2.2461212E-03
         254 -4.7874758E-03
         255  5.4070991E-03
         256 -1.0204791E-02
         257  2.2416885E-03
         258  7.8882985E-03
         259  1.9409295E-02
         260  2.1732450E-02
         261 -3.3465028E-03
         262 -2.6669318E-03
         263 -5.0389320E-03
         264 -4.7018314E-03
         265 -6.3681989E-03
         266 -1.7715149E-02
         267 -6.1603375E-02
         268 -5.9667338E-02
         269  2.2189831E-03
         270  6.1058123E-03
         271  2.2535395E-02
         272  1.6382197E-02
         273 -1.0453953E-02
         274 -4.8994023E-02
         275  1.2512172E-03
         276 -0.3569545    
         277  4.0802490E-03
         278  2.0832954E-02
         279 -8.7097147E-03
         280  7.9335198E-02
         281 -5.8989268E-04
         282  1.8317636E-02
         283  1.4262969E-02
         284  0.2708844    
         285 -3.1425708E-03
         286 -7.0653688E-03
         287  4.8991935E-03
         288 -6.9606908E-02
         289  3.5160272E-03
         290 -2.3815518E-03
         291  3.7861533E-02
         292  2.5900914E-03
         293 -2.4992554E-02
         294 -8.9066215E-03
         295  2.4740950E-03
         296  1.5998178E-03
         297  1.4665703E-03
         298 -3.7234828E-03
         299 -3.4892031E-03
         300  2.5466108E-04
         301 -1.4169871E-02
         302 -6.6256868E-03
         303  3.1527907E-02
         304  6.6016586E-03
         305 -1.2717182E-03
         306  1.9838468E-03
         307  2.0222915E-03
         308 -6.2050507E-03
         309  6.1133276E-03
         310 -2.0801607E-03
         311 -6.0395454E-04
         312 -2.1493856E-03
         313 -3.9629877E-02
         314 -1.0348035E-02
         315 -2.4272844E-03
         316  1.0791559E-02
         317  5.4473630E-03
         318  6.2507831E-02
         319  4.0508360E-03
         320  3.0773832E-03
         321  1.4072370E-02
         322  5.6130830E-03
         323  9.6685151E-03
         324  1.9291508E-03
         325  4.0472220E-04
         326  2.4023466E-04
         327 -1.8290732E-02
         328 -2.1247813E-02
         329  1.3460519E-03
         330  1.8331315E-03
         331  1.3197863E-03
         332 -2.7415478E-03
         333 -2.4493379E-03
         334  1.2365237E-03
         335  1.6430432E-03
         336 -1.5811317E-03
         337 -1.1476013E-03
         338  2.9410692E-03
         339  4.7065283E-04
         340  1.6046100E-03
         341  2.4142903E-03
         342 -3.4627874E-04
         343 -2.8745655E-03
         344  1.0336306E-03
         345  1.5435668E-03
         346  1.2152485E-03
         347 -2.3277425E-04
         348  2.2190094E-05
         349  1.4071523E-03
         350  1.7917561E-04
         351 -7.4290333E-04
         352 -9.8231679E-04
         353  4.8375973E-03
         354 -1.4078530E-03
         355  6.9163513E-04
         356 -1.7805664E-03
         357  8.0453110E-06
         358 -1.5139051E-03
         359 -8.5280568E-04
         360 -1.2613084E-04
         361  5.8561801E-03
         362 -3.0663693E-03
         363  8.5082790E-03
         364  2.6903723E-05
         365 -4.7946366E-04
         366 -5.4109921E-03
         367  2.4133788E-03
         368 -7.3320800E-03
         369 -6.5890967E-04
         370 -2.7745853E-06
         371 -2.3098590E-03
         372  1.2124531E-03
         373 -3.3676517E-03
         374 -2.0606176E-03
         375  2.9000659E-03
         376  1.1387075E-02
         377 -6.4149359E-03
         378  1.5416983E-02
         379  1.9480247E-03
         380 -2.8325553E-04
         381  2.1373304E-03
         382  2.7079687E-03
         383  5.3387969E-03
         384  5.9358357E-03
         385  4.3453919E-03
         386  1.3309575E-02
         387 -1.4487997E-02
         388 -2.2693096E-02
         389 -3.4169785E-03
         390 -4.6892171E-03
         391 -9.0568485E-03
         392 -3.1266570E-02
         393 -7.1811035E-02
 Sym= Hole
 Ene= -6.3621484E-02
 Spin= Alpha
 Occup= 0
           1 -3.7347071E-03
           2 -1.3579146E-02
           3  8.5891828E-02
           4  0.1295478    
           5 -4.9857970E-04
           6  1.7050385E-03
           7  3.4503639E-03
           8  7.0509324E-03
           9  9.1043729E-03
          10  2.8471563E-02
          11 -3.3976089E-02
          12 -6.2660225E-02
          13 -3.4601867E-04
          14 -8.9190644E-04
          15  2.6660305E-03
          16  1.1615621E-02
          17  9.9150389E-03
          18 -1.0788844E-02
          19 -6.6451170E-03
          20 -4.2827236E-03
          21 -2.4609005E-03
          22 -2.7573549E-03
          23 -2.6850824E-03
          24  3.8256331E-03
          25 -2.9506125E-03
          26 -6.8469113E-03
          27 -3.1130805E-03
          28  2.3800509E-02
          29  2.4227574E-03
          30 -2.9054224E-03
          31 -1.0773969E-03
          32 -1.8979104E-03
          33  9.2696643E-04
          34 -4.3309508E-03
          35 -1.0759007E-03
          36  5.4548010E-03
          37 -1.1290963E-03
          38  2.2129833E-03
          39  5.2717648E-04
          40  3.8870951E-04
          41 -7.4526743E-04
          42  6.9262744E-03
          43  3.9977306E-03
          44 -8.1984578E-03
          45 -2.8627025E-04
          46  8.7239203E-04
          47  4.6982008E-04
          48 -2.1387827E-05
          49  1.5929975E-03
          50 -1.0967323E-03
          51 -2.8563677E-03
          52 -3.6798839E-03
          53 -8.2683098E-04
          54 -1.8291897E-04
          55 -6.8442745E-04
          56 -9.2682207E-04
          57 -6.1580469E-03
          58  1.4630037E-03
          59  5.9070010E-03
          60  1.2543083E-02
          61  8.2273857E-04
          62 -1.9850428E-03
          63  3.8329726E-03
          64  1.1280056E-03
          65 -1.3869165E-02
          66  1.5147939E-02
          67 -8.9951586E-03
          68 -9.9531971E-03
          69 -1.9871658E-03
          70 -4.5177774E-03
          71  3.7465398E-03
          72  3.0772870E-03
          73 -3.5604527E-03
          74 -8.4505327E-02
          75  2.9008606E-02
          76  6.2638400E-03
          77  9.6907350E-04
          78  1.3457889E-03
          79 -3.8407193E-03
          80 -2.8524201E-04
          81  5.9449649E-04
          82 -1.0294458E-02
          83  2.8117836E-02
          84  2.1696959E-02
          85 -1.2553438E-03
          86  4.2423164E-03
          87 -4.5816274E-04
          88 -1.7157234E-03
          89 -2.2236764E-02
          90 -3.4457766E-02
          91 -6.5815672E-03
          92  3.9236147E-02
          93  9.0513863E-03
          94 -7.0123782E-04
          95 -1.4335562E-03
          96  1.2975088E-03
          97  6.7595984E-03
          98  4.5197945E-02
          99  3.3423316E-02
         100  0.4579191    
         101 -8.3625532E-04
         102  2.8416647E-03
         103  1.1797772E-03
         104  1.3345792E-02
         105 -1.2830500E-03
         106  1.4049947E-02
         107  2.0921361E-02
         108  0.4156908    
         109  1.0509503E-03
         110 -3.1472675E-03
         111  1.8921397E-03
         112  1.0331403E-02
         113  8.1293326E-04
         114 -7.4512600E-03
         115 -3.1411657E-03
         116 -5.9931803E-02
         117 -1.0009506E-03
         118 -1.5423301E-03
         119 -1.3495719E-03
         120 -3.3338882E-03
         121 -1.7417952E-03
         122 -3.8520829E-03
         123 -2.3223154E-02
         124 -2.9843165E-02
         125  5.9149129E-04
         126  3.0629425E-03
         127  1.7529607E-03
         128  3.7138897E-03
         129 -1.8783626E-03
         130  2.2945404E-03
         131 -4.4527594E-03
         132 -1.2894645E-02
         133  1.0211352E-04
         134 -1.4941670E-03
         135  1.5725982E-03
         136 -1.6139305E-04
         137  8.7679401E-03
         138 -3.3121803E-03
         139  3.1202633E-02
         140  9.2613436E-03
         141 -4.3254448E-03
         142  6.6538504E-04
         143 -3.4662061E-03
         144 -3.2132652E-03
         145 -1.8458929E-03
         146 -1.8786386E-03
         147 -7.2164163E-03
         148  1.1287521E-02
         149  1.2771277E-04
         150 -4.5616212E-04
         151 -2.8415404E-03
         152 -4.9743657E-03
         153  1.1889817E-03
         154 -5.9435326E-03
         155 -1.6191633E-02
         156 -0.1507691    
         157 -3.4767523E-04
         158  5.0717517E-04
         159  2.6392881E-03
         160  1.3209078E-02
         161  9.7240036E-04
         162 -4.1074338E-03
         163 -2.9506155E-03
         164  2.5121441E-02
         165 -1.0142458E-03
         166  1.0307212E-03
         167 -4.4721758E-04
         168 -6.6294945E-03
         169  8.3486289E-03
         170 -3.9115135E-02
         171 -2.0976804E-02
         172  4.0163957E-02
         173 -4.1494360E-03
         174  1.5194557E-03
         175  3.9754761E-03
         176 -1.8817963E-03
         177 -2.2014061E-03
         178  1.4602001E-03
         179  2.8156715E-03
         180 -6.9211057E-04
         181  9.8888692E-04
         182 -8.3348789E-04
         183 -8.4521988E-04
         184  1.4662733E-03
         185 -3.4690837E-04
         186  2.4502899E-02
         187  5.2720793E-03
         188 -4.4608053E-02
         189  5.0183127E-05
         190 -1.4321655E-03
         191 -3.2746710E-04
         192  3.2778759E-03
         193  3.1400069E-03
         194  5.2835271E-03
         195 -2.3409149E-03
         196 -1.0453762E-03
         197 -6.8578852E-04
         198 -1.1421453E-03
         199  1.8607843E-04
         200  1.5926703E-03
         201 -9.1685206E-03
         202 -4.5682300E-02
         203 -4.9956478E-03
         204  3.7228871E-02
         205  4.0963818E-03
         206  3.8255972E-03
         207 -1.2289726E-03
         208 -1.5611673E-03
         209 -1.6559865E-03
         210  5.2347351E-03
         211 -3.7819131E-03
         212  2.7196977E-02
         213  6.6847779E-04
         214 -1.3879081E-03
         215  7.6256465E-04
         216 -5.8950079E-03
         217  9.5100114E-03
         218  4.8045140E-02
         219 -1.9404085E-02
         220  3.8035743E-02
         221 -4.4341651E-03
         222 -3.8336448E-03
         223 -7.0535796E-05
         224 -1.1669029E-03
         225 -2.7119063E-03
         226 -4.5469948E-03
         227 -1.8853246E-03
         228  2.3699258E-03
         229  7.5481687E-04
         230  1.2692543E-03
         231 -2.9771341E-04
         232  1.4874825E-03
         233 -4.0177294E-04
         234 -2.6165789E-02
         235  1.3690402E-02
         236 -4.5106225E-02
         237 -1.3720211E-04
         238  1.4221240E-03
         239 -7.0374884E-04
         240  3.1489439E-03
         241  3.0581134E-03
         242 -3.7706525E-03
         243  6.2787570E-03
         244 -6.7260531E-03
         245 -9.2038914E-04
         246  6.6955283E-04
         247 -1.0621774E-03
         248  1.4086806E-03
         249 -9.2570297E-03
         250  3.0798314E-02
         251 -3.1899959E-02
         252  3.4187194E-02
         253  4.4258852E-03
         254 -1.3060146E-03
         255  3.6792711E-03
         256 -1.8856755E-03
         257 -5.1174625E-03
         258  2.6437808E-02
         259  7.1206495E-02
         260  5.7625379E-02
         261  2.5026759E-03
         262 -2.3985058E-03
         263 -2.0125066E-03
         264 -1.7290809E-03
         265 -3.8835378E-03
         266 -5.9933537E-03
         267  3.3407029E-02
         268  4.3875862E-02
         269  1.5828437E-03
         270 -2.0121667E-03
         271  1.5110592E-03
         272  3.4746975E-03
         273  4.2508314E-03
         274 -3.0569805E-02
         275 -2.4239462E-02
         276 -0.4505013    
         277 -2.9949411E-03
         278 -1.2576547E-03
         279  9.4867166E-04
         280 -1.3593977E-02
         281  1.1166505E-02
         282 -1.2500219E-02
         283 -1.4170546E-02
         284 -0.4358316    
         285 -2.8583726E-03
         286 -3.4540566E-03
         287 -1.1567607E-03
         288 -5.3727170E-03
         289 -6.8325101E-04
         290  3.0868696E-03
         291 -3.8616597E-03
         292 -3.3861885E-03
         293 -3.7777729E-03
         294 -1.0102314E-03
         295 -2.2800450E-04
         296  7.6625030E-04
         297  1.0880268E-03
         298 -1.1277104E-03
         299  2.8882448E-03
         300  6.1034167E-04
         301  4.3914897E-05
         302  1.3241020E-04
         303 -1.7244488E-03
         304  2.5859727E-03
         305  3.9545214E-04
         306  4.4860720E-04
         307  6.5542577E-04
         308  1.2207595E-03
         309  2.6526458E-03
         310 -8.8989211E-04
         311 -3.3807636E-03
         312 -3.2070929E-03
         313 -2.0781742E-02
         314  6.2497873E-03
         315  6.8764179E-04
         316 -5.5390468E-05
         317 -6.0985272E-04
         318 -1.5789539E-02
         319  3.4214631E-03
         320  2.0905156E-04
         321 -3.6094366E-03
         322 -1.1041018E-03
         323  1.7081422E-03
         324 -5.5046193E-03
         325 -1.2771202E-03
         326  2.4071634E-03
         327 -4.3485390E-05
         328  4.1109775E-03
         329 -5.5881091E-03
         330 -1.0104968E-03
         331 -2.1073553E-03
         332  2.8043205E-03
         333  2.4949766E-03
         334  4.9645384E-03
         335 -4.1536675E-04
         336  4.0961269E-04
         337 -3.4191977E-04
         338 -9.7016501E-04
         339 -5.9832499E-04
         340 -3.1941649E-04
         341  2.4486117E-03
         342  7.2501699E-04
         343 -4.1479319E-03
         344 -6.2810434E-03
         345  2.5591720E-04
         346 -6.0271970E-05
         347  8.2119583E-04
         348 -8.0060324E-04
         349  4.0107118E-03
         350  2.0272675E-04
         351  7.4635370E-04
         352 -1.7231571E-03
         353  2.9244304E-03
         354 -4.4298763E-03
         355 -4.4002660E-04
         356 -1.3930481E-03
         357 -1.2721209E-03
         358  2.7299598E-03
         359  7.2510312E-03
         360 -1.1549370E-04
         361  1.2706370E-04
         362  7.3841854E-04
         363 -8.2077913E-04
         364  2.1435208E-05
         365 -5.5423337E-05
         366 -2.2966312E-03
         367  1.2273157E-03
         368 -3.8228210E-03
         369 -5.0313720E-03
         370  2.8107129E-04
         371 -6.8243238E-04
         372 -5.5374036E-04
         373 -3.6404890E-04
         374  5.3259577E-03
         375  3.4061060E-04
         376  1.4295079E-03
         377  2.5522341E-03
         378  2.3682399E-03
         379  5.7933391E-03
         380  2.7893961E-04
         381 -2.4540250E-03
         382 -1.0846563E-03
         383  1.5241515E-03
         384 -1.0720813E-02
         385  8.5258238E-05
         386 -2.1220189E-04
         387  2.5802613E-03
         388 -4.9061254E-03
         389 -1.1019408E-03
         390 -8.3458622E-04
         391  3.8172503E-03
         392  6.9182896E-04
         393  2.5360115E-02
 Sym= Particle
 Ene= -6.3621484E-02
 Spin= Alpha
 Occup= 2
           1  1.3218374E-03
           2  2.3092138E-02
           3 -2.3216760E-02
           4 -6.0736027E-02
           5 -2.5833936E-03
           6 -4.7665706E-04
           7  7.0029008E-03
           8  1.9879252E-02
           9  1.7769287E-03
          10 -3.3457462E-02
          11  1.7105006E-02
          12  7.2782233E-02
          13 -5.7179458E-04
          14  9.9777710E-03
          15 -5.9076762E-03
          16 -1.7196814E-02
          17 -6.5554720E-03
          18  9.2800716E-03
          19  4.7325082E-03
          20 -7.8784656E-03
          21  2.6483068E-03
          22 -4.9273469E-03
          23  2.5366885E-03
          24 -1.3525356E-03
          25  1.5807135E-03
          26  3.5367368E-04
          27 -2.5614764E-04
          28 -4.0300703E-03
          29 -8.9190149E-04
          30  1.6823978E-03
          31 -8.3387282E-04
          32  1.8408254E-04
          33 -9.0393456E-05
          34  6.5607589E-04
          35 -1.7269378E-03
          36 -1.7177573E-03
          37 -8.1857026E-04
          38  6.7473593E-04
          39  1.5644550E-03
          40  1.7230853E-03
          41  2.8879461E-03
          42 -1.6215446E-03
          43 -2.6862840E-03
          44 -2.0108707E-03
          45 -1.7194788E-03
          46 -2.4130717E-03
          47 -3.0036983E-03
          48  7.6803295E-03
          49 -4.1595544E-03
          50 -3.3285453E-03
          51 -5.7616346E-03
          52  2.6351698E-02
          53  9.3682035E-04
          54  1.0859725E-03
          55 -1.2626091E-03
          56 -6.1695105E-03
          57  2.0866740E-02
          58 -7.1166498E-03
          59 -1.7138975E-02
          60 -2.9479943E-02
          61 -1.7779408E-02
          62  1.9007098E-02
          63  1.0037991E-02
          64 -7.2743702E-03
          65  1.5884411E-02
          66 -1.4918311E-02
          67  1.2526547E-03
          68 -1.9944388E-02
          69  1.1507957E-03
          70  7.6521612E-03
          71  2.9216825E-03
          72 -3.5565019E-02
          73 -1.3908830E-02
          74  4.4147957E-02
          75 -7.8192037E-03
          76 -5.2040346E-02
          77  2.7922023E-02
          78 -2.7612459E-02
          79  7.8295918E-05
          80  1.5481876E-02
          81  6.3974964E-03
          82 -7.3762154E-03
          83  2.2796439E-02
          84  5.4067369E-03
          85 -8.9275762E-03
          86  6.6566048E-03
          87 -7.2911517E-03
          88 -2.4369878E-03
          89 -8.2476260E-03
          90 -5.3520527E-02
          91 -2.2364598E-02
          92 -0.4985718    
          93  4.9677058E-03
          94  1.0682925E-02
          95  5.7246126E-03
          96  0.1308816    
          97  2.1758780E-03
          98  2.3764454E-02
          99  2.0178821E-02
         100  0.3202244    
         101 -1.7415142E-03
         102 -1.3171308E-02
         103 -9.8807374E-03
         104 -0.1007179    
         105 -4.6049743E-03
         106  1.2529938E-02
         107  2.5039976E-03
         108  0.2017563    
         109  1.6993147E-03
         110 -4.3816231E-03
         111 -5.7601458E-03
         112 -6.6018105E-02
         113 -5.6198583E-04
         114 -2.1514751E-02
         115 -2.7825978E-02
         116 -0.5060177    
         117  1.3822103E-03
         118  7.7875787E-03
         119  3.3902000E-03
         120  0.1609512    
         121 -1.9571980E-04
         122 -1.2321382E-02
         123 -7.8713104E-02
         124 -9.4796352E-02
         125  6.3081522E-04
         126  9.5641735E-04
         127  1.2408582E-02
         128 -1.8510088E-02
         129  2.6686618E-02
         130  3.7375733E-02
         131  9.5528133E-02
         132  6.5351866E-02
         133 -2.5083994E-02
         134 -2.4239123E-02
         135 -2.0594504E-02
         136 -1.6059993E-02
         137 -1.2890148E-02
         138  3.4912932E-03
         139  5.2752044E-02
         140  6.6807471E-02
         141  8.4417127E-03
         142 -2.0030369E-03
         143 -7.9318676E-03
         144 -1.3196206E-02
         145 -1.3188694E-03
         146 -1.8825617E-02
         147 -0.1239308    
         148 -0.1569263    
         149  4.3874225E-03
         150  2.6636166E-03
         151  3.0071899E-02
         152  4.5674246E-02
         153 -6.7733275E-04
         154  2.8090912E-03
         155  9.7803725E-03
         156  6.7895629E-02
         157  1.6643888E-03
         158 -9.0654951E-04
         159 -7.3573752E-03
         160 -1.9293193E-02
         161  1.2960187E-02
         162 -1.1020451E-02
         163 -2.4382629E-02
         164  3.0178750E-02
         165 -1.0600397E-02
         166  1.8996233E-03
         167  8.0897212E-03
         168 -7.1626082E-03
         169 -4.2823358E-03
         170  2.3585735E-02
         171  1.2930051E-02
         172 -2.1655610E-02
         173  8.3262584E-04
         174 -8.2682278E-03
         175 -3.3770802E-03
         176  2.3020722E-03
         177  9.7894412E-04
         178  1.0682019E-02
         179 -7.4111842E-05
         180 -1.5922640E-02
         181 -1.8946438E-03
         182 -9.3942316E-04
         183  1.7336480E-03
         184  2.5339710E-04
         185  1.3522039E-03
         186 -2.2441205E-02
         187 -6.4713419E-03
         188  3.7745129E-02
         189 -2.9600409E-03
         190  3.3126136E-03
         191  1.4887573E-03
         192 -7.6347827E-03
         193 -7.1698465E-05
         194  9.1998460E-04
         195 -3.4258087E-04
         196 -2.1304227E-03
         197 -9.7229943E-04
         198  4.0754961E-04
         199  7.9885061E-04
         200  7.0199987E-04
         201  1.6463746E-03
         202  2.6643828E-02
         203  6.2108333E-03
         204 -4.0185813E-02
         205 -2.2689761E-03
         206 -6.6027348E-03
         207  1.6299150E-03
         208  1.1266844E-02
         209 -1.0955769E-02
         210  2.4951017E-02
         211 -3.6731876E-02
         212  5.6375023E-02
         213  1.1825482E-02
         214 -7.7601909E-03
         215  1.2929100E-02
         216 -1.6821872E-02
         217 -3.1087892E-03
         218 -1.3994890E-02
         219  5.5919811E-03
         220 -1.8854903E-02
         221  5.1280172E-03
         222  3.9821495E-03
         223  4.8285312E-04
         224  6.0034594E-03
         225  2.7955070E-04
         226 -3.0549910E-02
         227  1.6938364E-02
         228 -4.6429984E-02
         229  6.6804310E-04
         230  8.0428310E-03
         231 -5.1436978E-03
         232  1.2492528E-02
         233 -1.6406365E-03
         234  3.6871389E-02
         235 -1.9924771E-02
         236  5.6524694E-02
         237  2.5277541E-03
         238 -6.9489102E-03
         239  2.6292503E-03
         240 -1.1380123E-02
         241 -1.0844425E-03
         242  7.0977467E-03
         243 -6.2944437E-03
         244  1.2306941E-02
         245  2.1146325E-04
         246 -4.6188338E-03
         247  2.3317621E-03
         248 -7.0769354E-03
         249  3.5922306E-03
         250 -5.1496986E-02
         251  3.5705160E-02
         252 -6.6907398E-02
         253 -1.4394484E-03
         254  1.3111948E-02
         255 -1.1111361E-02
         256  1.3942479E-02
         257  1.0696840E-02
         258  9.9301862E-04
         259 -1.9354286E-02
         260 -1.5338321E-02
         261 -3.7620324E-03
         262  3.1005859E-03
         263  1.2326689E-02
         264  9.6786423E-03
         265 -2.2314906E-02
         266  1.4063678E-02
         267  0.1779400    
         268  0.1455442    
         269  2.2251064E-02
         270  9.0757953E-03
         271 -5.2441943E-02
         272 -3.5302106E-02
         273 -4.3196869E-03
         274  9.9901296E-03
         275  8.0637438E-03
         276  0.3825085    
         277  4.6371599E-03
         278 -2.7189462E-03
         279 -3.5567009E-03
         280 -0.1330829    
         281  2.9015329E-03
         282  9.5773060E-03
         283  1.8398485E-03
         284  9.9294767E-02
         285 -2.9831827E-03
         286 -5.0774342E-03
         287  2.2260163E-03
         288 -3.5041027E-02
         289 -6.1020732E-04
         290 -5.6423445E-04
         291  3.4174616E-03
         292 -1.7960219E-03
         293  4.4782679E-03
         294  1.8513934E-03
         295 -1.8538643E-03
         296  1.4829892E-04
         297  2.4414025E-03
         298  6.5702235E-04
         299 -2.5499812E-03
         300  2.1189995E-04
         301  9.6051401E-04
         302 -1.9367776E-03
         303 -2.2994666E-03
         304 -3.1714912E-03
         305  3.3581352E-03
         306 -6.4591495E-03
         307 -8.3461338E-05
         308  6.1704675E-03
         309  4.1546067E-03
         310 -1.3829186E-03
         311  1.5191275E-03
         312  1.6236469E-03
         313  6.4458139E-02
         314  4.4815582E-03
         315 -3.2691081E-04
         316  3.4457473E-03
         317  3.9017715E-03
         318  3.4630954E-02
         319 -1.0732607E-02
         320 -5.8569480E-03
         321 -1.2229464E-02
         322  4.9691088E-03
         323 -4.7588564E-04
         324  1.2571057E-02
         325 -3.0475871E-03
         326 -4.0114969E-03
         327  1.8240297E-02
         328  2.1726478E-02
         329 -1.1293163E-03
         330 -1.0520164E-03
         331  3.7430839E-03
         332  4.7084494E-03
         333 -3.6729553E-03
         334 -2.5691846E-03
         335 -3.1007282E-03
         336  4.5527858E-03
         337  3.6913897E-03
         338 -4.9640136E-03
         339 -8.8163454E-04
         340 -2.5918919E-03
         341 -5.2061914E-03
         342 -1.1635987E-03
         343  6.7497641E-03
         344 -1.1772969E-03
         345 -1.1060054E-03
         346 -2.1224294E-03
         347  4.1959662E-04
         348  1.3807677E-03
         349 -4.4707335E-03
         350  5.7160121E-04
         351  7.7363053E-05
         352  2.7614969E-03
         353 -7.3260758E-03
         354  4.9505048E-03
         355 -4.4907504E-04
         356  2.8813097E-03
         357  2.4359254E-03
         358 -1.0890376E-03
         359  7.6721999E-04
         360 -1.6443289E-04
         361 -4.2124772E-03
         362  3.3016151E-03
         363 -9.8037627E-03
         364  1.8088199E-03
         365  7.9293537E-04
         366  8.1254924E-03
         367 -5.7567260E-03
         368  1.2425638E-02
         369  3.9988239E-03
         370 -5.3729891E-04
         371  6.2221952E-04
         372  1.4333046E-03
         373  2.5177738E-03
         374  3.9013838E-03
         375 -2.1410650E-03
         376 -1.1365961E-02
         377  1.1213443E-02
         378 -2.2535672E-02
         379 -1.2757663E-02
         380  3.2895028E-03
         381  2.4625622E-03
         382 -1.9615674E-03
         383 -1.6936808E-03
         384  3.7168341E-03
         385  4.6565575E-03
         386  4.3651150E-03
         387  1.7937927E-02
         388  2.3598811E-02
         389  7.9074074E-03
         390  1.4537757E-03
         391 -2.3687792E-03
         392  6.4848796E-03
         393  7.9400547E-02
