 [Molden Format]
 [Atoms] Angs
BR      1     35      6.10375496     -4.16323285     -1.21531823
C       2      6      4.73399867     -2.87336967     -0.83688154
C       3      6      3.40176243     -3.26135719     -0.96555973
C       4      6      2.38380443     -2.36730235     -0.70072346
C       5      6      2.72749474     -1.08319082     -0.29594573
C       6      6      4.08408536     -0.69270881     -0.18989778
C       7      6      5.10173335     -1.59858587     -0.45925901
C       8      6      4.08041319      0.68926578      0.19711909
C       9      6      5.09309852      1.59931965      0.47114709
C      10      6      4.71841584      2.87246453      0.84746242
BR     11     35      6.08103096      4.16805618      1.23210762
C      12      6      3.38401121      3.25485146      0.97044123
C      13      6      2.37096527      2.35661723      0.70101162
C      14      6      2.72181212      1.07410396      0.29727915
N      15      7      1.91783408     -0.00616816     -0.00124338
C      16      6      0.51486996     -0.00801593     -0.00457486
C      17      6     -0.18407778      0.98469901     -0.68982754
C      18      6     -1.56319145      0.98496026     -0.68700160
C      19      6     -2.26831312     -0.00833893     -0.00832632
C      20      6     -3.73176058     -0.00659440     -0.00781914
N      21      7     -4.35301647      1.00572108     -0.60632872
C      22      6     -5.68404637      0.96866974     -0.58148087
C      23      6     -6.41335337      2.05945067     -1.22762683
C      24      6     -7.80771548      2.05714858     -1.24801609
C      25      6     -8.49355286      3.09001973     -1.85761341
C      26      6     -7.79758323      4.13225124     -2.45137082
C      27      6     -6.41094527      4.14011306     -2.43501009
C      28      6     -5.71938165      3.11006245     -1.82723295
N      29      7     -6.38883936     -0.00034275     -0.00276530
C      30      6     -5.68638110     -0.97330482      0.57217241
C      31      6     -6.41843640     -2.06028167      1.22158223
C      32      6     -5.72749686     -3.11949979      1.80941347
C      33      6     -6.42170195     -4.14540409      2.42118562
C      34      6     -7.80791148     -4.12444094      2.45382235
C      35      6     -8.50085465     -3.07356709      1.87186441
C      36      6     -7.81238388     -2.04495504      1.25805249
N      37      7     -4.35544521     -1.01679121      0.59174626
C      38      6     -1.56476912     -1.00200711      0.67141953
C      39      6     -0.18561264     -1.00150554      0.67790131
H      40      1      3.16919806     -4.26720027     -1.27891230
H      41      1      1.35399277     -2.66411362     -0.81898306
H      42      1      6.13904846     -1.31471985     -0.38063532
H      43      1      6.13190873      1.31976196      0.39702947
H      44      1      3.14587265      4.25958738      1.28315844
H      45      1      1.33942042      2.64905789      0.81502064
H      46      1      0.35861562      1.74112532     -1.23582106
H      47      1     -2.11545610      1.74492385     -1.21647092
H      48      1     -8.33286500      1.23822170     -0.78176074
H      49      1     -9.57335358      3.08425121     -1.87080524
H      50      1     -8.33607395      4.93866108     -2.92676931
H      51      1     -5.86944949      4.95190710     -2.89764281
H      52      1     -4.64091272      3.10068585     -1.80455589
H      53      1     -4.64931901     -3.12018331      1.77422266
H      54      1     -5.88258389     -4.96390784      2.87466347
H      55      1     -8.34849603     -4.92753393      2.93244955
H      56      1     -9.58032470     -3.05765793      1.89772971
H      57      1     -8.33506937     -1.21940394      0.80079767
H      58      1     -2.11823425     -1.76188795      1.19977565
H      59      1      0.35566292     -1.75784703      1.22540456
 [GTO]
           1   0
s              4   1.000000
      0.85214765     -0.11206828
      0.43714176     -0.28454268
      0.13354599      0.89098738
      0.07435608      0.35178111
p              4   1.000000
     12.73104626     -0.00603522
      3.69119860     -0.06013311
      0.64423872      0.64515181
      0.31612270      0.41179238
s              7   1.000000
      0.08230620     -0.73508252
      0.03358786      0.82952482
      0.01989320      0.79385553
      0.85214765      0.05420551
      0.43714176      0.13762843
      0.13354599     -0.43095536
      0.07435608     -0.17015052
p              7   1.000000
      0.16210445     -0.13955268
      0.03603777      0.81115493
      0.01984789      0.27377943
     12.73104626      0.00056132
      3.69119860      0.00559286
      0.64423872     -0.06000424
      0.31612270     -0.03829996
 
           2   0
s              4   1.000000
     34.94414416     -0.01198412
      6.01767078     -0.05472052
      0.48354552      0.58055871
      0.18429117      0.47700799
p              4   1.000000
      5.63216173      0.05713170
      1.46033544      0.28574555
      0.51481343      0.55178731
      0.20495610      0.26323149
s              7   1.000000
      0.38350848     -0.19622265
      0.04707223      0.94807574
      0.02222627      0.24897908
     34.94414416      0.00551422
      6.01767078      0.02517840
      0.48354552     -0.26713087
      0.18429117     -0.21948437
p              7   1.000000
      1.83062075     -0.01161108
      0.10124670      0.57058628
      0.03901771      0.59589261
      5.63216173     -0.02525940
      1.46033544     -0.12633548
      0.51481343     -0.24395940
      0.20495610     -0.11638143
 
           3   0
s              4   1.000000
     35.19117567     -0.01198412
      6.06021165     -0.05472052
      0.48696386      0.58055871
      0.18559398      0.47700799
p              4   1.000000
      5.67197732      0.05713170
      1.47065902      0.28574555
      0.51845281      0.55178731
      0.20640500      0.26323149
s              7   1.000000
      0.38350848     -0.19599337
      0.04707223      0.94696793
      0.02222627      0.24868815
     35.19117567      0.00547724
      6.06021165      0.02500955
      0.48696386     -0.26533945
      0.18559398     -0.21801247
p              7   1.000000
      1.83062075     -0.01159834
      0.10124670      0.56995995
      0.03901771      0.59523851
      5.67197732     -0.02508935
      1.47065902     -0.12548497
      0.51845281     -0.24231703
      0.20640500     -0.11559794
 
           4   0
s              4   1.000000
     34.95252031     -0.01198412
      6.01911322     -0.05472052
      0.48366143      0.58055871
      0.18433534      0.47700799
p              4   1.000000
      5.63351177      0.05713170
      1.46068548      0.28574555
      0.51493683      0.55178731
      0.20500523      0.26323149
s              7   1.000000
      0.38350848     -0.19621481
      0.04707223      0.94803784
      0.02222627      0.24896914
     34.95252031      0.00551296
      6.01911322      0.02517264
      0.48366143     -0.26706974
      0.18433534     -0.21943414
p              7   1.000000
      1.83062075     -0.01161064
      0.10124670      0.57056484
      0.03901771      0.59587023
      5.63351177     -0.02525360
      1.46068548     -0.12630645
      0.51493683     -0.24390335
      0.20500523     -0.11635469
 
           5   0
s              4   1.000000
     35.62465579     -0.01198412
      6.13486051     -0.05472052
      0.49296222      0.58055871
      0.18788010      0.47700799
p              4   1.000000
      5.74184396      0.05713170
      1.48877440      0.28574555
      0.52483905      0.55178731
      0.20894747      0.26323149
s              7   1.000000
      0.38350848     -0.19560123
      0.04707223      0.94507327
      0.02222627      0.24819058
     35.62465579      0.00541351
      6.13486051      0.02471856
      0.49296222     -0.26225219
      0.18788010     -0.21547587
p              7   1.000000
      1.83062075     -0.01157654
      0.10124670      0.56888880
      0.03901771      0.59411987
      5.74184396     -0.02479627
      1.48877440     -0.12401910
      0.52483905     -0.23948638
      0.20894747     -0.11424756
 
           6   0
s              4   1.000000
     35.43496197     -0.01198412
      6.10219366     -0.05472052
      0.49033730      0.58055871
      0.18687968      0.47700799
p              4   1.000000
      5.71126985      0.05713170
      1.48084699      0.28574555
      0.52204439      0.55178731
      0.20783487      0.26323149
s              7   1.000000
      0.38350848     -0.19577126
      0.04707223      0.94589479
      0.02222627      0.24840632
     35.43496197      0.00544122
      6.10219366      0.02484508
      0.49033730     -0.26359450
      0.18687968     -0.21657875
p              7   1.000000
      1.83062075     -0.01158599
      0.10124670      0.56935324
      0.03901771      0.59460489
      5.71126985     -0.02492370
      1.48084699     -0.12465647
      0.52204439     -0.24071716
      0.20783487     -0.11483471
 
           7   0
s              4   1.000000
     35.19858604     -0.01198412
      6.06148777     -0.05472052
      0.48706641      0.58055871
      0.18563306      0.47700799
p              4   1.000000
      5.67317169      0.05713170
      1.47096870      0.28574555
      0.51856199      0.55178730
      0.20644846      0.26323149
s              7   1.000000
      0.38350848     -0.19598656
      0.04707223      0.94693503
      0.02222627      0.24867952
     35.19858604      0.00547614
      6.06148777      0.02500452
      0.48706641     -0.26528608
      0.18563306     -0.21796861
p              7   1.000000
      1.83062075     -0.01159796
      0.10124670      0.56994134
      0.03901771      0.59521910
      5.67317169     -0.02508428
      1.47096870     -0.12545963
      0.51856199     -0.24226810
      0.20644846     -0.11557459
 
           8   0
s              4   1.000000
     35.43481731     -0.01198412
      6.10216875     -0.05472052
      0.49033530      0.58055871
      0.18687892      0.47700800
p              4   1.000000
      5.71124653      0.05713170
      1.48084094      0.28574555
      0.52204226      0.55178731
      0.20783402      0.26323149
s              7   1.000000
      0.38350848     -0.19577139
      0.04707223      0.94589542
      0.02222627      0.24840649
     35.43481731      0.00544124
      6.10216875      0.02484518
      0.49033530     -0.26359553
      0.18687892     -0.21657960
p              7   1.000000
      1.83062075     -0.01158600
      0.10124670      0.56935360
      0.03901771      0.59460526
      5.71124653     -0.02492380
      1.48084094     -0.12465696
      0.52204226     -0.24071810
      0.20783402     -0.11483516
 
           9   0
s              4   1.000000
     35.19851570     -0.01198412
      6.06147566     -0.05472052
      0.48706543      0.58055871
      0.18563269      0.47700799
p              4   1.000000
      5.67316035      0.05713170
      1.47096577      0.28574555
      0.51856095      0.55178731
      0.20644805      0.26323149
s              7   1.000000
      0.38350848     -0.19598662
      0.04707223      0.94693533
      0.02222627      0.24867959
     35.19851570      0.00547615
      6.06147566      0.02500457
      0.48706543     -0.26528658
      0.18563269     -0.21796903
p              7   1.000000
      1.83062075     -0.01159796
      0.10124670      0.56994153
      0.03901771      0.59521926
      5.67316035     -0.02508433
      1.47096577     -0.12545987
      0.51856095     -0.24226856
      0.20644805     -0.11557481
 
          10   0
s              4   1.000000
     34.94412634     -0.01198412
      6.01766771     -0.05472053
      0.48354528      0.58055871
      0.18429107      0.47700799
p              4   1.000000
      5.63215886      0.05713170
      1.46033469      0.28574555
      0.51481317      0.55178731
      0.20495599      0.26323149
s              7   1.000000
      0.38350848     -0.19622267
      0.04707223      0.94807583
      0.02222627      0.24897911
     34.94412634      0.00551422
      6.01766771      0.02517842
      0.48354528     -0.26713100
      0.18429107     -0.21948447
p              7   1.000000
      1.83062075     -0.01161108
      0.10124670      0.57058632
      0.03901771      0.59589265
      5.63215886     -0.02525941
      1.46033469     -0.12633554
      0.51481317     -0.24395952
      0.20495599     -0.11638149
 
          11   0
s              4   1.000000
      0.85214646     -0.11206828
      0.43714115     -0.28454268
      0.13354580      0.89098737
      0.07435598      0.35178112
p              4   1.000000
     12.73102847     -0.00603522
      3.69119344     -0.06013311
      0.64423782      0.64515181
      0.31612225      0.41179238
s              7   1.000000
      0.08230620     -0.73508275
      0.03358786      0.82952509
      0.01989320      0.79385579
      0.85214646      0.05420560
      0.43714115      0.13762867
      0.13354580     -0.43095610
      0.07435598     -0.17015080
p              7   1.000000
      0.16210445     -0.13955268
      0.03603777      0.81115497
      0.01984789      0.27377943
     12.73102847      0.00056132
      3.69119344      0.00559287
      0.64423782     -0.06000438
      0.31612225     -0.03830005
 
          12   0
s              4   1.000000
     35.19123958     -0.01198412
      6.06022265     -0.05472052
      0.48696475      0.58055871
      0.18559432      0.47700800
p              4   1.000000
      5.67198762      0.05713170
      1.47066169      0.28574555
      0.51845376      0.55178731
      0.20640537      0.26323149
s              7   1.000000
      0.38350848     -0.19599331
      0.04707223      0.94696766
      0.02222627      0.24868807
     35.19123958      0.00547723
      6.06022265      0.02500951
      0.48696475     -0.26533899
      0.18559432     -0.21801209
p              7   1.000000
      1.83062075     -0.01159833
      0.10124670      0.56995979
      0.03901771      0.59523835
      5.67198762     -0.02508931
      1.47066169     -0.12548475
      0.51845376     -0.24231661
      0.20640537     -0.11559773
 
          13   0
s              4   1.000000
     34.95263076     -0.01198412
      6.01913224     -0.05472052
      0.48366296      0.58055871
      0.18433593      0.47700800
p              4   1.000000
      5.63352957      0.05713170
      1.46069009      0.28574555
      0.51493846      0.55178731
      0.20500587      0.26323149
s              7   1.000000
      0.38350848     -0.19621470
      0.04707223      0.94803734
      0.02222627      0.24896899
     34.95263076      0.00551294
      6.01913224      0.02517257
      0.48366296     -0.26706894
      0.18433593     -0.21943348
p              7   1.000000
      1.83062075     -0.01161064
      0.10124670      0.57056456
      0.03901771      0.59586995
      5.63352957     -0.02525352
      1.46069009     -0.12630607
      0.51493846     -0.24390262
      0.20500587     -0.11635434
 
          14   0
s              4   1.000000
     35.62526871     -0.01198412
      6.13496606     -0.05472052
      0.49297070      0.58055871
      0.18788334      0.47700799
p              4   1.000000
      5.74194275      0.05713170
      1.48880001      0.28574555
      0.52484808      0.55178731
      0.20895106      0.26323149
s              7   1.000000
      0.38350848     -0.19560069
      0.04707223      0.94507064
      0.02222627      0.24818990
     35.62526871      0.00541342
      6.13496606      0.02471816
      0.49297070     -0.26224788
      0.18788334     -0.21547232
p              7   1.000000
      1.83062075     -0.01157651
      0.10124670      0.56888732
      0.03901771      0.59411829
      5.74194275     -0.02479586
      1.48880001     -0.12401706
      0.52484808     -0.23948242
      0.20895106     -0.11424568
 
          15   0
s              4   1.000000
     61.41876452     -0.01198412
     10.57681947     -0.05472052
      0.84989257      0.58055871
      0.32391510      0.47700799
p              4   1.000000
      7.23955114      0.05713170
      1.87710751      0.28574555
      0.66173848      0.55178731
      0.26344949      0.26323149
s              7   1.000000
      0.47894987     -0.18771788
      0.05878681      0.90698383
      0.02775758      0.23818773
     61.41876452      0.00395577
     10.57681947      0.01806240
      0.84989257     -0.19163344
      0.32391510     -0.15745296
p              7   1.000000
      2.28619608     -0.01155985
      0.12644335      0.56806876
      0.04872781      0.59326343
      7.23955114     -0.02456990
      1.87710751     -0.12288696
      0.66173848     -0.23730015
      0.26344949     -0.11320462
 
          16   0
s              4   1.000000
     35.13417094     -0.01198412
      6.05039496     -0.05472052
      0.48617505      0.58055871
      0.18529335      0.47700799
p              4   1.000000
      5.66278951      0.05713170
      1.46827676      0.28574555
      0.51761299      0.55178731
      0.20607065      0.26323149
s              7   1.000000
      0.38350848     -0.19604590
      0.04707223      0.94722173
      0.02222627      0.24875481
     35.13417094      0.00548573
      6.05039496      0.02504832
      0.48617505     -0.26575074
      0.18529335     -0.21835040
p              7   1.000000
      1.83062075     -0.01160125
      0.10124670      0.57010344
      0.03901771      0.59538836
      5.66278951     -0.02512839
      1.46827676     -0.12568024
      0.51761299     -0.24269411
      0.20607065     -0.11577782
 
          17   0
s              4   1.000000
     35.00364680     -0.01198412
      6.02791762     -0.05472052
      0.48436890      0.58055871
      0.18460498      0.47700799
p              4   1.000000
      5.64175214      0.05713170
      1.46282208      0.28574555
      0.51569005      0.55178731
      0.20530510      0.26323149
s              7   1.000000
      0.38350848     -0.19616703
      0.04707223      0.94780700
      0.02222627      0.24890852
     35.00364680      0.00550527
      6.02791762      0.02513753
      0.48436890     -0.26669721
      0.18460498     -0.21912805
p              7   1.000000
      1.83062075     -0.01160799
      0.10124670      0.57043434
      0.03901771      0.59573394
      5.64175214     -0.02521823
      1.46282208     -0.12612959
      0.51569005     -0.24356183
      0.20530510     -0.11619177
 
          18   0
s              4   1.000000
     35.01795176     -0.01198412
      6.03038106     -0.05472052
      0.48456685      0.58055871
      0.18468042      0.47700800
p              4   1.000000
      5.64405776      0.05713170
      1.46341990      0.28574555
      0.51590080      0.55178731
      0.20538900      0.26323149
s              7   1.000000
      0.38350848     -0.19615370
      0.04707223      0.94774258
      0.02222627      0.24889160
     35.01795176      0.00550312
      6.03038106      0.02512772
      0.48456685     -0.26659316
      0.18468042     -0.21904256
p              7   1.000000
      1.83062075     -0.01160725
      0.10124670      0.57039791
      0.03901771      0.59569587
      5.64405776     -0.02520836
      1.46341990     -0.12608019
      0.51590080     -0.24346643
      0.20538900     -0.11614626
 
          19   0
s              4   1.000000
     35.12701545     -0.01198412
      6.04916273     -0.05472053
      0.48607604      0.58055871
      0.18525561      0.47700799
p              4   1.000000
      5.66163622      0.05713170
      1.46797773      0.28574555
      0.51750758      0.55178731
      0.20602868      0.26323149
s              7   1.000000
      0.38350848     -0.19605251
      0.04707223      0.94725367
      0.02222627      0.24876319
     35.12701545      0.00548680
      6.04916273      0.02505319
      0.48607604     -0.26580246
      0.18525561     -0.21839289
p              7   1.000000
      1.83062075     -0.01160162
      0.10124670      0.57012150
      0.03901771      0.59540722
      5.66163622     -0.02513330
      1.46797773     -0.12570480
      0.51750758     -0.24274153
      0.20602868     -0.11580044
 
          20   0
s              4   1.000000
     35.43350203     -0.01198412
      6.10194225     -0.05472052
      0.49031710      0.58055871
      0.18687198      0.47700799
p              4   1.000000
      5.71103454      0.05713170
      1.48078598      0.28574555
      0.52202288      0.55178731
      0.20782630      0.26323149
s              7   1.000000
      0.38350848     -0.19577258
      0.04707223      0.94590115
      0.02222627      0.24840801
     35.43350203      0.00544143
      6.10194225      0.02484606
      0.49031710     -0.26360488
      0.18687198     -0.21658729
p              7   1.000000
      1.83062075     -0.01158606
      0.10124670      0.56935685
      0.03901771      0.59460866
      5.71103454     -0.02492469
      1.48078598     -0.12466140
      0.52202288     -0.24072668
      0.20782630     -0.11483925
 
          21   0
s              4   1.000000
     57.32505446     -0.01198412
      9.87184872     -0.05472052
      0.79324517      0.58055871
      0.30232537      0.47700799
p              4   1.000000
      6.75701744      0.05713170
      1.75199372      0.28574555
      0.61763200      0.55178731
      0.24588994      0.26323149
s              7   1.000000
      0.47894987     -0.18905932
      0.05878681      0.91346518
      0.02775758      0.23988983
     57.32505446      0.00423468
      9.87184872      0.01933592
      0.79324517     -0.20514494
      0.30232537     -0.16855448
p              7   1.000000
      2.28619608     -0.01168664
      0.12644335      0.57429917
      0.04872781      0.59977015
      6.75701744     -0.02624853
      1.75199372     -0.13128262
      0.61763200     -0.25351256
      0.24588994     -0.12093879
 
          22   0
s              4   1.000000
     35.43055902     -0.01198412
      6.10143544     -0.05472052
      0.49027637      0.58055871
      0.18685646      0.47700799
p              4   1.000000
      5.71056020      0.05713170
      1.48066299      0.28574555
      0.52197952      0.55178731
      0.20780904      0.26323149
s              7   1.000000
      0.38350848     -0.19577524
      0.04707223      0.94591400
      0.02222627      0.24841137
     35.43055902      0.00544187
      6.10143544      0.02484803
      0.49027637     -0.26362582
      0.18685646     -0.21660448
p              7   1.000000
      1.83062075     -0.01158621
      0.10124670      0.56936410
      0.03901771      0.59461622
      5.71056020     -0.02492667
      1.48066299     -0.12467134
      0.52197952     -0.24074587
      0.20780904     -0.11484841
 
          23   0
s              4   1.000000
     35.12684458     -0.01198412
      6.04913330     -0.05472052
      0.48607367      0.58055871
      0.18525471      0.47700799
p              4   1.000000
      5.66160868      0.05713170
      1.46797059      0.28574555
      0.51750506      0.55178731
      0.20602768      0.26323149
s              7   1.000000
      0.38350848     -0.19605267
      0.04707223      0.94725443
      0.02222627      0.24876339
     35.12684458      0.00548682
      6.04913330      0.02505331
      0.48607367     -0.26580370
      0.18525471     -0.21839391
p              7   1.000000
      1.83062075     -0.01160163
      0.10124670      0.57012193
      0.03901771      0.59540766
      5.66160868     -0.02513342
      1.46797059     -0.12570538
      0.51750506     -0.24274266
      0.20602768     -0.11580098
 
          24   0
s              4   1.000000
     35.01691912     -0.01198412
      6.03020323     -0.05472053
      0.48455256      0.58055871
      0.18467497      0.47700799
p              4   1.000000
      5.64389132      0.05713170
      1.46337674      0.28574555
      0.51588559      0.55178731
      0.20538294      0.26323149
s              7   1.000000
      0.38350848     -0.19615466
      0.04707223      0.94774723
      0.02222627      0.24889282
     35.01691912      0.00550327
      6.03020323      0.02512843
      0.48455256     -0.26660067
      0.18467497     -0.21904873
p              7   1.000000
      1.83062075     -0.01160730
      0.10124670      0.57040054
      0.03901771      0.59569862
      5.64389132     -0.02520907
      1.46337674     -0.12608376
      0.51588559     -0.24347332
      0.20538294     -0.11614954
 
          25   0
s              4   1.000000
     34.91421004     -0.01198412
      6.01251587     -0.05472052
      0.48313131      0.58055871
      0.18413330      0.47700799
p              4   1.000000
      5.62733707      0.05713170
      1.45908447      0.28574555
      0.51437243      0.55178731
      0.20478053      0.26323149
s              7   1.000000
      0.38350848     -0.19625073
      0.04707223      0.94821140
      0.02222627      0.24901472
     34.91421004      0.00551873
      6.01251587      0.02519902
      0.48313131     -0.26734956
      0.18413330     -0.21966405
p              7   1.000000
      1.83062075     -0.01161264
      0.10124670      0.57066297
      0.03901771      0.59597271
      5.62733707     -0.02528016
      1.45908447     -0.12643930
      0.51437243     -0.24415988
      0.20478053     -0.11647707
 
          26   0
s              4   1.000000
     34.92071995     -0.01198412
      6.01363693     -0.05472052
      0.48322139      0.58055871
      0.18416763      0.47700799
p              4   1.000000
      5.62838631      0.05713170
      1.45935653      0.28574555
      0.51446833      0.55178731
      0.20481871      0.26323149
s              7   1.000000
      0.38350848     -0.19624462
      0.04707223      0.94818187
      0.02222627      0.24900697
     34.92071995      0.00551775
      6.01363693      0.02519453
      0.48322139     -0.26730197
      0.18416763     -0.21962495
p              7   1.000000
      1.83062075     -0.01161230
      0.10124670      0.57064627
      0.03901771      0.59595527
      5.62838631     -0.02527564
      1.45935653     -0.12641670
      0.51446833     -0.24411625
      0.20481871     -0.11645626
 
          27   0
s              4   1.000000
     34.91410749     -0.01198412
      6.01249821     -0.05472052
      0.48312989      0.58055871
      0.18413276      0.47700799
p              4   1.000000
      5.62732054      0.05713170
      1.45908019      0.28574555
      0.51437092      0.55178731
      0.20477993      0.26323149
s              7   1.000000
      0.38350848     -0.19625083
      0.04707223      0.94821188
      0.02222627      0.24901484
     34.91410749      0.00551875
      6.01249821      0.02519909
      0.48312989     -0.26735031
      0.18413276     -0.21966467
p              7   1.000000
      1.83062075     -0.01161265
      0.10124670      0.57066324
      0.03901771      0.59597299
      5.62732054     -0.02528023
      1.45908019     -0.12643965
      0.51437092     -0.24416057
      0.20477993     -0.11647740
 
          28   0
s              4   1.000000
     35.01729225     -0.01198412
      6.03026748     -0.05472052
      0.48455772      0.58055871
      0.18467694      0.47700799
p              4   1.000000
      5.64395146      0.05713170
      1.46339234      0.28574555
      0.51589108      0.55178731
      0.20538513      0.26323149
s              7   1.000000
      0.38350848     -0.19615431
      0.04707223      0.94774555
      0.02222627      0.24889238
     35.01729225      0.00550322
      6.03026748      0.02512817
      0.48455772     -0.26659795
      0.18467694     -0.21904650
p              7   1.000000
      1.83062075     -0.01160728
      0.10124670      0.57039959
      0.03901771      0.59569765
      5.64395146     -0.02520881
      1.46339234     -0.12608247
      0.51589108     -0.24347083
      0.20538513     -0.11614836
 
          29   0
s              4   1.000000
     57.32370241     -0.01198412
      9.87161589     -0.05472052
      0.79322646      0.58055871
      0.30231824      0.47700799
p              4   1.000000
      6.75685807      0.05713170
      1.75195240      0.28574555
      0.61761744      0.55178731
      0.24588414      0.26323149
s              7   1.000000
      0.47894987     -0.18905981
      0.05878681      0.91346753
      0.02775758      0.23989045
     57.32370241      0.00423478
      9.87161589      0.01933637
      0.79322646     -0.20514969
      0.30231824     -0.16855839
p              7   1.000000
      2.28619608     -0.01168668
      0.12644335      0.57430142
      0.04872781      0.59977251
      6.75685807     -0.02624912
      1.75195240     -0.13128558
      0.61761744     -0.25351827
      0.24588414     -0.12094151
 
          30   0
s              4   1.000000
     35.43067244     -0.01198412
      6.10145497     -0.05472053
      0.49027794      0.58055871
      0.18685706      0.47700799
p              4   1.000000
      5.71057848      0.05713170
      1.48066773      0.28574555
      0.52198119      0.55178731
      0.20780971      0.26323149
s              7   1.000000
      0.38350848     -0.19577514
      0.04707223      0.94591351
      0.02222627      0.24841125
     35.43067244      0.00544185
      6.10145497      0.02484796
      0.49027794     -0.26362501
      0.18685706     -0.21660382
p              7   1.000000
      1.83062075     -0.01158620
      0.10124670      0.56936383
      0.03901771      0.59461594
      5.71057848     -0.02492660
      1.48066773     -0.12467096
      0.52198119     -0.24074513
      0.20780971     -0.11484806
 
          31   0
s              4   1.000000
     35.12691549     -0.01198412
      6.04914551     -0.05472053
      0.48607465      0.58055871
      0.18525508      0.47700799
p              4   1.000000
      5.66162011      0.05713170
      1.46797355      0.28574555
      0.51750610      0.55178731
      0.20602810      0.26323149
s              7   1.000000
      0.38350848     -0.19605260
      0.04707223      0.94725411
      0.02222627      0.24876332
     35.12691549      0.00548681
      6.04914551      0.02505326
      0.48607465     -0.26580318
      0.18525508     -0.21839349
p              7   1.000000
      1.83062075     -0.01160163
      0.10124670      0.57012175
      0.03901771      0.59540750
      5.66162011     -0.02513337
      1.46797355     -0.12570514
      0.51750610     -0.24274219
      0.20602810     -0.11580076
 
          32   0
s              4   1.000000
     35.01727422     -0.01198412
      6.03026438     -0.05472052
      0.48455747      0.58055871
      0.18467685      0.47700799
p              4   1.000000
      5.64394855      0.05713170
      1.46339158      0.28574555
      0.51589082      0.55178731
      0.20538502      0.26323149
s              7   1.000000
      0.38350848     -0.19615433
      0.04707223      0.94774564
      0.02222627      0.24889238
     35.01727422      0.00550322
      6.03026438      0.02512819
      0.48455747     -0.26659808
      0.18467685     -0.21904661
p              7   1.000000
      1.83062075     -0.01160728
      0.10124670      0.57039964
      0.03901771      0.59569769
      5.64394855     -0.02520883
      1.46339158     -0.12608253
      0.51589082     -0.24347095
      0.20538502     -0.11614842
 
          33   0
s              4   1.000000
     34.91410799     -0.01198412
      6.01249830     -0.05472052
      0.48312989      0.58055871
      0.18413276      0.47700799
p              4   1.000000
      5.62732062      0.05713170
      1.45908021      0.28574555
      0.51437092      0.55178731
      0.20477993      0.26323149
s              7   1.000000
      0.38350848     -0.19625083
      0.04707223      0.94821188
      0.02222627      0.24901484
     34.91410799      0.00551875
      6.01249830      0.02519909
      0.48312989     -0.26735031
      0.18413276     -0.21966466
p              7   1.000000
      1.83062075     -0.01161265
      0.10124670      0.57066324
      0.03901771      0.59597299
      5.62732062     -0.02528023
      1.45908021     -0.12643965
      0.51437092     -0.24416056
      0.20477993     -0.11647740
 
          34   0
s              4   1.000000
     34.92074333     -0.01198412
      6.01364096     -0.05472052
      0.48322171      0.58055871
      0.18416775      0.47700799
p              4   1.000000
      5.62839008      0.05713170
      1.45935750      0.28574555
      0.51446868      0.55178731
      0.20481885      0.26323149
s              7   1.000000
      0.38350848     -0.19624460
      0.04707223      0.94818178
      0.02222627      0.24900692
     34.92074333      0.00551775
      6.01364096      0.02519451
      0.48322171     -0.26730180
      0.18416775     -0.21962481
p              7   1.000000
      1.83062075     -0.01161230
      0.10124670      0.57064622
      0.03901771      0.59595519
      5.62839008     -0.02527562
      1.45935750     -0.12641662
      0.51446868     -0.24411610
      0.20481885     -0.11645618
 
          35   0
s              4   1.000000
     34.91420316     -0.01198412
      6.01251469     -0.05472052
      0.48313121      0.58055871
      0.18413326      0.47700800
p              4   1.000000
      5.62733596      0.05713170
      1.45908418      0.28574555
      0.51437233      0.55178731
      0.20478049      0.26323149
s              7   1.000000
      0.38350848     -0.19625074
      0.04707223      0.94821145
      0.02222627      0.24901472
     34.91420316      0.00551873
      6.01251469      0.02519902
      0.48313121     -0.26734961
      0.18413326     -0.21966409
p              7   1.000000
      1.83062075     -0.01161264
      0.10124670      0.57066299
      0.03901771      0.59597271
      5.62733596     -0.02528016
      1.45908418     -0.12643932
      0.51437233     -0.24415993
      0.20478049     -0.11647709
 
          36   0
s              4   1.000000
     35.01693978     -0.01198412
      6.03020678     -0.05472052
      0.48455285      0.58055871
      0.18467508      0.47700799
p              4   1.000000
      5.64389465      0.05713170
      1.46337761      0.28574555
      0.51588589      0.55178731
      0.20538306      0.26323149
s              7   1.000000
      0.38350848     -0.19615464
      0.04707223      0.94774714
      0.02222627      0.24889280
     35.01693978      0.00550327
      6.03020678      0.02512841
      0.48455285     -0.26660051
      0.18467508     -0.21904861
p              7   1.000000
      1.83062075     -0.01160730
      0.10124670      0.57040049
      0.03901771      0.59569858
      5.64389465     -0.02520906
      1.46337761     -0.12608369
      0.51588589     -0.24347318
      0.20538306     -0.11614948
 
          37   0
s              4   1.000000
     57.32459659     -0.01198412
      9.87176987     -0.05472052
      0.79323883      0.58055871
      0.30232295      0.47700799
p              4   1.000000
      6.75696347      0.05713170
      1.75197973      0.28574555
      0.61762707      0.55178731
      0.24588798      0.26323149
s              7   1.000000
      0.47894987     -0.18905949
      0.05878681      0.91346597
      0.02775758      0.23989004
     57.32459659      0.00423471
      9.87176987      0.01933607
      0.79323883     -0.20514655
      0.30232295     -0.16855581
p              7   1.000000
      2.28619608     -0.01168665
      0.12644335      0.57429993
      0.04872781      0.59977095
      6.75696347     -0.02624873
      1.75197973     -0.13128362
      0.61762707     -0.25351449
      0.24588798     -0.12093971
 
          38   0
s              4   1.000000
     35.01783453     -0.01198412
      6.03036087     -0.05472052
      0.48456523      0.58055871
      0.18467980      0.47700799
p              4   1.000000
      5.64403886      0.05713170
      1.46341500      0.28574555
      0.51589907      0.55178731
      0.20538831      0.26323149
s              7   1.000000
      0.38350848     -0.19615381
      0.04707223      0.94774311
      0.02222627      0.24889172
     35.01783453      0.00550314
      6.03036087      0.02512780
      0.48456523     -0.26659401
      0.18467980     -0.21904326
p              7   1.000000
      1.83062075     -0.01160725
      0.10124670      0.57039821
      0.03901771      0.59569619
      5.64403886     -0.02520844
      1.46341500     -0.12608060
      0.51589907     -0.24346722
      0.20538831     -0.11614664
 
          39   0
s              4   1.000000
     35.00323106     -0.01198412
      6.02784603     -0.05472052
      0.48436315      0.58055871
      0.18460278      0.47700799
p              4   1.000000
      5.64168513      0.05713170
      1.46280471      0.28574555
      0.51568393      0.55178731
      0.20530266      0.26323149
s              7   1.000000
      0.38350848     -0.19616742
      0.04707223      0.94780888
      0.02222627      0.24890900
     35.00323106      0.00550533
      6.02784603      0.02513781
      0.48436315     -0.26670023
      0.18460278     -0.21913053
p              7   1.000000
      1.83062075     -0.01160801
      0.10124670      0.57043540
      0.03901771      0.59573503
      5.64168513     -0.02521852
      1.46280471     -0.12613103
      0.51568393     -0.24356460
      0.20530266     -0.11619309
 
          40   0
s              4   1.000000
      8.31142138      0.05675242
      1.52088771      0.26014135
      0.42251926      0.53284611
      0.14023034      0.29162544
s              7   1.000000
      0.92936822     -0.06732524
      0.05643440      0.66942375
      0.02166600      0.51459032
      8.31142138     -0.02901610
      1.52088771     -0.13300378
      0.42251926     -0.27243091
      0.14023034     -0.14910080
p              4   1.000000
      0.64737396      0.05713170
      0.16785440      0.28574555
      0.05917387      0.55178731
      0.02355814      0.26323150
 
          41   0
s              4   1.000000
      8.30942727      0.05675242
      1.52052281      0.26014135
      0.42241789      0.53284611
      0.14019670      0.29162544
s              7   1.000000
      0.92936822     -0.06732781
      0.05643440      0.66944925
      0.02166600      0.51460992
      8.30942727     -0.02902143
      1.52052281     -0.13302822
      0.42241789     -0.27248098
      0.14019670     -0.14912821
p              4   1.000000
      0.64737396      0.05713170
      0.16785440      0.28574555
      0.05917387      0.55178731
      0.02355814      0.26323150
 
          42   0
s              4   1.000000
      8.31109259      0.05675242
      1.52082755      0.26014135
      0.42250255      0.53284611
      0.14022480      0.29162544
s              7   1.000000
      0.92936822     -0.06732567
      0.05643440      0.66942796
      0.02166600      0.51459355
      8.31109259     -0.02901697
      1.52082755     -0.13300781
      0.42250255     -0.27243916
      0.14022480     -0.14910532
p              4   1.000000
      0.64737396      0.05713170
      0.16785440      0.28574555
      0.05917387      0.55178731
      0.02355814      0.26323150
 
          43   0
s              4   1.000000
      8.31109192      0.05675242
      1.52082743      0.26014135
      0.42250251      0.53284611
      0.14022479      0.29162544
s              7   1.000000
      0.92936822     -0.06732567
      0.05643440      0.66942797
      0.02166600      0.51459355
      8.31109192     -0.02901698
      1.52082743     -0.13300781
      0.42250251     -0.27243918
      0.14022479     -0.14910533
p              4   1.000000
      0.64737396      0.05713170
      0.16785440      0.28574555
      0.05917387      0.55178731
      0.02355814      0.26323150
 
          44   0
s              4   1.000000
      8.31142205      0.05675242
      1.52088783      0.26014135
      0.42251929      0.53284611
      0.14023036      0.29162544
s              7   1.000000
      0.92936822     -0.06732524
      0.05643440      0.66942374
      0.02166600      0.51459032
      8.31142205     -0.02901609
      1.52088783     -0.13300377
      0.42251929     -0.27243089
      0.14023036     -0.14910080
p              4   1.000000
      0.64737396      0.05713170
      0.16785440      0.28574555
      0.05917387      0.55178731
      0.02355814      0.26323150
 
          45   0
s              4   1.000000
      8.30943146      0.05675242
      1.52052358      0.26014135
      0.42241810      0.53284611
      0.14019677      0.29162544
s              7   1.000000
      0.92936822     -0.06732780
      0.05643440      0.66944920
      0.02166600      0.51460987
      8.30943146     -0.02902142
      1.52052358     -0.13302817
      0.42241810     -0.27248088
      0.14019677     -0.14912815
p              4   1.000000
      0.64737396      0.05713170
      0.16785440      0.28574555
      0.05917387      0.55178731
      0.02355814      0.26323150
 
          46   0
s              4   1.000000
      8.30955372      0.05675242
      1.52054595      0.26014135
      0.42242432      0.53284611
      0.14019883      0.29162544
s              7   1.000000
      0.92936822     -0.06732765
      0.05643440      0.66944764
      0.02166600      0.51460868
      8.30955372     -0.02902109
      1.52054595     -0.13302667
      0.42242432     -0.27247781
      0.14019883     -0.14912647
p              4   1.000000
      0.64737396      0.05713170
      0.16785440      0.28574555
      0.05917387      0.55178731
      0.02355814      0.26323150
 
          47   0
s              4   1.000000
      8.30992447      0.05675242
      1.52061380      0.26014135
      0.42244316      0.53284611
      0.14020509      0.29162544
s              7   1.000000
      0.92936822     -0.06732717
      0.05643440      0.66944290
      0.02166600      0.51460503
      8.30992447     -0.02902010
      1.52061380     -0.13302213
      0.42244316     -0.27246850
      0.14020509     -0.14912138
p              4   1.000000
      0.64737396      0.05713170
      0.16785440      0.28574555
      0.05917387      0.55178731
      0.02355814      0.26323150
 
          48   0
s              4   1.000000
      8.30978255      0.05675242
      1.52058783      0.26014135
      0.42243595      0.53284611
      0.14020269      0.29162544
s              7   1.000000
      0.92936822     -0.06732735
      0.05643440      0.66944471
      0.02166600      0.51460642
      8.30978255     -0.02902048
      1.52058783     -0.13302387
      0.42243595     -0.27247206
      0.14020269     -0.14912332
p              4   1.000000
      0.64737396      0.05713170
      0.16785440      0.28574555
      0.05917387      0.55178731
      0.02355814      0.26323150
 
          49   0
s              4   1.000000
      8.30886739      0.05675242
      1.52042036      0.26014135
      0.42238943      0.53284611
      0.14018725      0.29162544
s              7   1.000000
      0.92936822     -0.06732853
      0.05643440      0.66945641
      0.02166600      0.51461542
      8.30886739     -0.02902293
      1.52042036     -0.13303509
      0.42238943     -0.27249505
      0.14018725     -0.14913590
p              4   1.000000
      0.64737396      0.05713170
      0.16785440      0.28574555
      0.05917387      0.55178731
      0.02355814      0.26323150
 
          50   0
s              4   1.000000
      8.30878377      0.05675242
      1.52040506      0.26014135
      0.42238518      0.53284611
      0.14018584      0.29162544
s              7   1.000000
      0.92936822     -0.06732864
      0.05643440      0.66945749
      0.02166600      0.51461626
      8.30878377     -0.02902315
      1.52040506     -0.13303611
      0.42238518     -0.27249714
      0.14018584     -0.14913705
p              4   1.000000
      0.64737396      0.05713170
      0.16785440      0.28574555
      0.05917387      0.55178731
      0.02355814      0.26323150
 
          51   0
s              4   1.000000
      8.30886660      0.05675242
      1.52042022      0.26014135
      0.42238939      0.53284611
      0.14018724      0.29162544
s              7   1.000000
      0.92936822     -0.06732853
      0.05643440      0.66945642
      0.02166600      0.51461544
      8.30886660     -0.02902293
      1.52042022     -0.13303510
      0.42238939     -0.27249506
      0.14018724     -0.14913591
p              4   1.000000
      0.64737396      0.05713170
      0.16785440      0.28574555
      0.05917387      0.55178731
      0.02355814      0.26323150
 
          52   0
s              4   1.000000
      8.30979923      0.05675242
      1.52059088      0.26014135
      0.42243680      0.53284611
      0.14020298      0.29162544
s              7   1.000000
      0.92936822     -0.06732733
      0.05643440      0.66944450
      0.02166600      0.51460627
      8.30979923     -0.02902043
      1.52059088     -0.13302366
      0.42243680     -0.27247164
      0.14020298     -0.14912310
p              4   1.000000
      0.64737396      0.05713170
      0.16785440      0.28574555
      0.05917387      0.55178731
      0.02355814      0.26323150
 
          53   0
s              4   1.000000
      8.30979794      0.05675242
      1.52059064      0.26014135
      0.42243673      0.53284611
      0.14020295      0.29162544
s              7   1.000000
      0.92936822     -0.06732733
      0.05643440      0.66944451
      0.02166600      0.51460627
      8.30979794     -0.02902044
      1.52059064     -0.13302368
      0.42243673     -0.27247167
      0.14020295     -0.14912311
p              4   1.000000
      0.64737396      0.05713170
      0.16785440      0.28574555
      0.05917387      0.55178731
      0.02355814      0.26323150
 
          54   0
s              4   1.000000
      8.30886719      0.05675242
      1.52042033      0.26014135
      0.42238942      0.53284611
      0.14018725      0.29162544
s              7   1.000000
      0.92936822     -0.06732853
      0.05643440      0.66945642
      0.02166600      0.51461544
      8.30886719     -0.02902293
      1.52042033     -0.13303509
      0.42238942     -0.27249505
      0.14018725     -0.14913591
p              4   1.000000
      0.64737396      0.05713170
      0.16785440      0.28574555
      0.05917387      0.55178731
      0.02355814      0.26323150
 
          55   0
s              4   1.000000
      8.30878402      0.05675242
      1.52040511      0.26014135
      0.42238519      0.53284611
      0.14018585      0.29162544
s              7   1.000000
      0.92936822     -0.06732864
      0.05643440      0.66945748
      0.02166600      0.51461624
      8.30878402     -0.02902315
      1.52040511     -0.13303611
      0.42238519     -0.27249714
      0.14018585     -0.14913705
p              4   1.000000
      0.64737396      0.05713170
      0.16785440      0.28574555
      0.05917387      0.55178731
      0.02355814      0.26323150
 
          56   0
s              4   1.000000
      8.30886711      0.05675242
      1.52042031      0.26014135
      0.42238941      0.53284611
      0.14018725      0.29162544
s              7   1.000000
      0.92936822     -0.06732853
      0.05643440      0.66945642
      0.02166600      0.51461544
      8.30886711     -0.02902293
      1.52042031     -0.13303509
      0.42238941     -0.27249505
      0.14018725     -0.14913591
p              4   1.000000
      0.64737396      0.05713170
      0.16785440      0.28574555
      0.05917387      0.55178731
      0.02355814      0.26323150
 
          57   0
s              4   1.000000
      8.30978282      0.05675242
      1.52058788      0.26014135
      0.42243596      0.53284611
      0.14020270      0.29162544
s              7   1.000000
      0.92936822     -0.06732735
      0.05643440      0.66944471
      0.02166600      0.51460642
      8.30978282     -0.02902048
      1.52058788     -0.13302386
      0.42243596     -0.27247205
      0.14020270     -0.14912332
p              4   1.000000
      0.64737396      0.05713170
      0.16785440      0.28574555
      0.05917387      0.55178731
      0.02355814      0.26323150
 
          58   0
s              4   1.000000
      8.30992106      0.05675242
      1.52061317      0.26014135
      0.42244299      0.53284611
      0.14020503      0.29162544
s              7   1.000000
      0.92936822     -0.06732717
      0.05643440      0.66944294
      0.02166600      0.51460505
      8.30992106     -0.02902011
      1.52061317     -0.13302217
      0.42244299     -0.27246858
      0.14020503     -0.14912142
p              4   1.000000
      0.64737396      0.05713170
      0.16785440      0.28574555
      0.05917387      0.55178731
      0.02355814      0.26323150
 
          59   0
s              4   1.000000
      8.30955010      0.05675242
      1.52054529      0.26014135
      0.42242413      0.53284611
      0.14019877      0.29162544
s              7   1.000000
      0.92936822     -0.06732765
      0.05643440      0.66944769
      0.02166600      0.51460871
      8.30955010     -0.02902110
      1.52054529     -0.13302672
      0.42242413     -0.27247790
      0.14019877     -0.14912652
p              4   1.000000
      0.64737396      0.05713170
      0.16785440      0.28574555
      0.05917387      0.55178731
      0.02355814      0.26323150
 
 [MO]
 Sym= Hole
 Ene=  -1.045089    
 Spin= Alpha
 Occup= 0
           1  3.0350097E-04
           2  5.5687517E-05
           3  1.6769327E-02
           4 -5.2983209E-02
           5 -9.3324714E-05
           6  2.1807477E-05
           7 -1.2671865E-03
           8  3.8167420E-03
           9 -9.8647946E-04
          10 -1.3516513E-03
          11 -4.8818432E-02
          12  0.1602508    
          13  1.3065735E-04
          14  3.9085976E-04
          15  1.1695395E-03
          16 -3.7647940E-03
          17 -3.1500225E-04
          18 -3.2250073E-03
          19 -0.1100652    
          20  0.3539834    
          21 -8.1776379E-05
          22  1.4476973E-04
          23 -4.7442067E-04
          24  3.4749031E-04
          25  6.1362726E-04
          26 -1.4876548E-03
          27 -1.9677628E-02
          28  6.7741424E-02
          29 -2.6442771E-04
          30 -1.5702378E-04
          31 -4.4767872E-05
          32 -7.6096412E-04
          33 -5.7725334E-03
          34  4.7490164E-03
          35  9.6134931E-02
          36 -0.3250789    
          37  1.6948491E-03
          38 -1.9502050E-04
          39 -1.4180435E-03
          40  1.9295155E-03
          41 -8.0179767E-04
          42 -5.0382032E-03
          43  8.8279642E-02
          44 -0.3239112    
          45 -4.0187198E-04
          46  9.9246937E-04
          47  4.8449077E-04
          48 -3.2738287E-03
          49  1.2715238E-03
          50 -1.8079070E-03
          51  7.0812292E-02
          52 -0.2342414    
          53 -9.8783302E-04
          54  6.1611511E-04
          55  6.5716560E-04
          56 -1.7598927E-03
          57 -7.9965405E-04
          58 -6.1289347E-03
          59 -8.8331074E-02
          60  0.3238733    
          61 -4.0518731E-04
          62  9.8006090E-04
          63 -4.7807331E-04
          64  3.2789216E-03
          65  1.2767126E-03
          66 -2.5460923E-03
          67 -7.0857584E-02
          68  0.2341185    
          69 -9.8929892E-04
          70  6.0994196E-04
          71 -6.5467297E-04
          72  1.7617632E-03
          73 -1.0002550E-03
          74 -8.6273556E-04
          75  4.8875026E-02
          76 -0.1603103    
          77  1.3572849E-04
          78  3.8037309E-04
          79 -1.1688371E-03
          80  3.7676988E-03
          81  3.0727853E-04
          82 -1.0547860E-04
          83 -1.6797129E-02
          84  5.3009685E-02
          85 -9.2570699E-05
          86  3.2022170E-05
          87  1.2694909E-03
          88 -3.8180004E-03
          89 -2.8517449E-04
          90 -2.1710407E-03
          91  0.1101514    
          92 -0.3539470    
          93 -9.0858353E-05
          94  1.4490575E-04
          95  4.7796816E-04
          96 -3.4651777E-04
          97  5.9111841E-04
          98 -1.2900888E-03
          99  1.9707778E-02
         100 -6.7672655E-02
         101 -2.5429419E-04
         102 -1.5863766E-04
         103  4.2099658E-05
         104  7.6125789E-04
         105 -5.7621673E-03
         106  3.7347965E-03
         107 -9.6292913E-02
         108  0.3251173    
         109  1.6882981E-03
         110 -1.9115757E-04
         111  1.4211074E-03
         112 -1.9286659E-03
         113  9.0654509E-04
         114  1.7149090E-03
         115  3.0061379E-05
         116  4.0158802E-06
         117 -7.6798175E-04
         118 -1.3545388E-03
         119 -6.1939886E-07
         120 -3.6472827E-06
         121  1.5329192E-03
         122  1.4155892E-03
         123  1.5646049E-06
         124 -6.0515795E-06
         125 -1.0100148E-03
         126 -8.0930762E-04
         127 -1.5381526E-07
         128 -4.5243341E-06
         129  1.4862359E-03
         130  2.1180923E-03
         131  3.0181196E-03
         132 -1.2370473E-03
         133 -4.9384328E-04
         134  5.1347428E-04
         135 -2.3770594E-04
         136 -1.7014351E-04
         137 -8.6950004E-04
         138 -1.5879776E-03
         139  2.6669021E-04
         140  1.5654386E-03
         141  6.1436911E-04
         142  4.7771906E-04
         143 -1.9626037E-04
         144  8.5920386E-05
         145  1.0180827E-03
         146  1.2915137E-03
         147  1.1699071E-05
         148  1.1513504E-05
         149 -2.1276282E-05
         150  1.4565923E-04
         151 -3.3714613E-07
         152  1.6769177E-06
         153 -5.7773915E-04
         154 -9.9344982E-04
         155  5.6059439E-06
         156 -1.0656863E-06
         157  2.4901569E-04
         158  3.4977857E-05
         159 -1.5419878E-06
         160  4.4839376E-07
         161  2.8868136E-04
         162  3.4779901E-04
         163 -1.3550756E-05
         164  9.3052313E-06
         165 -1.0980717E-04
         166 -5.1361058E-05
         167  2.8900402E-06
         168 -4.1231510E-06
         169 -9.0716167E-05
         170 -2.7907430E-04
         171 -2.3417292E-06
         172 -1.4051832E-05
         173  5.1664010E-05
         174  9.4783783E-05
         175  6.2114130E-05
         176 -2.9254041E-05
         177  7.3126357E-05
         178  9.2465831E-05
         179 -6.3811822E-05
         180  5.6757668E-05
         181 -1.4111174E-05
         182  3.2609285E-05
         183  2.1862141E-05
         184 -1.1278987E-05
         185 -5.7894988E-05
         186 -7.7641525E-05
         187  3.9009559E-05
         188  4.5220226E-05
         189 -7.4854006E-06
         190 -1.0790641E-05
         191  8.6184054E-06
         192 -4.4621834E-06
         193  4.2024640E-05
         194 -4.3627206E-05
         195 -1.3902772E-05
         196  5.5748933E-05
         197 -4.5468223E-06
         198 -2.4598473E-06
         199 -8.1926519E-06
         200  6.4001460E-06
         201 -2.8659300E-05
         202  2.7071415E-05
         203 -1.1918547E-05
         204 -1.2209620E-05
         205 -3.8626736E-06
         206  2.0065041E-05
         207  9.6104368E-06
         208 -3.6449112E-06
         209  3.1789281E-05
         210 -2.7562078E-06
         211 -1.8970901E-05
         212 -5.0030689E-05
         213  7.1726713E-06
         214 -5.1738184E-06
         215  1.7458342E-06
         216 -2.2396263E-07
         217 -2.0078054E-05
         218 -6.4806169E-05
         219 -3.6412173E-05
         220 -1.8985171E-05
         221  1.3996061E-05
         222  1.5786540E-05
         223 -1.4104638E-05
         224  7.5104635E-06
         225 -6.5719469E-05
         226  1.5228071E-04
         227 -3.7177726E-06
         228  1.7016575E-06
         229  3.4685007E-05
         230 -5.4261418E-05
         231  5.6032371E-07
         232  1.3457138E-07
         233 -9.3623479E-05
         234 -2.8309747E-04
         235  6.2021149E-06
         236  1.4166680E-05
         237  5.2924810E-05
         238  9.6413067E-05
         239 -6.2791180E-05
         240  2.8738861E-05
         241  6.9655573E-05
         242  9.0537222E-05
         243  6.8832327E-05
         244 -4.2406144E-05
         245 -1.2896587E-05
         246  3.2917953E-05
         247 -2.0916765E-05
         248  1.0885837E-05
         249 -1.8678384E-05
         250 -6.1650404E-05
         251  5.9423481E-05
         252  5.8339294E-05
         253  1.4330184E-05
         254  1.6226648E-05
         255  1.4368023E-05
         256 -6.2282934E-06
         257  3.0375797E-05
         258 -1.5965987E-06
         259  3.3811273E-05
         260  7.5277057E-05
         261  6.8893387E-06
         262 -5.5784080E-06
         263 -1.6370713E-06
         264  1.1544636E-06
         265 -2.7258573E-05
         266  2.5948872E-05
         267  3.8281905E-06
         268 -9.3748224E-07
         269 -3.7481784E-06
         270  1.9806543E-05
         271 -9.7305283E-06
         272  2.8913255E-06
         273  4.0646133E-05
         274 -4.3931694E-05
         275 -7.8278663E-06
         276 -9.2192946E-05
         277 -4.7733470E-06
         278 -2.4131716E-06
         279  7.1790346E-06
         280 -7.2328980E-06
         281 -5.6370012E-05
         282 -7.9580146E-05
         283 -5.0167033E-05
         284 -6.8938265E-05
         285 -7.4891982E-06
         286 -1.1295628E-05
         287 -9.0692856E-06
         288  3.7881166E-06
         289  3.0012376E-04
         290  3.5622498E-04
         291 -1.0651065E-05
         292 -9.2020082E-06
         293 -1.1412339E-04
         294 -5.1260322E-05
         295 -2.9542180E-06
         296  2.0571495E-06
         297 -8.6012320E-04
         298 -1.5707090E-03
         299 -2.5569601E-04
         300 -1.5550175E-03
         301  6.1147840E-04
         302  4.7531642E-04
         303  1.9652923E-04
         304 -8.3565930E-05
         305  1.4690600E-03
         306  2.0951843E-03
         307 -3.0166621E-03
         308  1.2175337E-03
         309 -4.8676573E-04
         310  5.0875131E-04
         311  2.3858943E-04
         312  1.7028915E-04
         313  9.2888973E-04
         314 -1.9593048E-05
         315 -1.1468458E-04
         316 -8.7875134E-04
         317  2.8834136E-03
         318  8.3571696E-04
         319 -1.6739292E-04
         320 -5.3094752E-04
         321 -6.3341641E-04
         322  1.0390980E-03
         323  1.8709755E-03
         324 -2.0991356E-05
         325 -2.2117789E-04
         326  1.5052545E-04
         327 -5.5009488E-04
         328  1.8851970E-03
         329 -2.2581427E-05
         330 -2.2177937E-04
         331 -1.5187442E-04
         332  5.5149943E-04
         333  9.0928836E-04
         334 -1.9818935E-05
         335 -1.0320351E-04
         336  8.7556522E-04
         337 -2.8815463E-03
         338  8.3996810E-04
         339 -1.6342901E-04
         340 -5.3135492E-04
         341  6.3244812E-04
         342 -1.0458329E-03
         343  2.4335363E-03
         344 -2.1468244E-04
         345 -3.9336274E-04
         346 -5.9633673E-04
         347 -5.3204698E-05
         348 -6.2404678E-04
         349  8.5307838E-05
         350 -6.6416607E-05
         351 -3.7781909E-05
         352  5.2789041E-05
         353 -2.6576852E-05
         354 -1.5970312E-05
         355 -1.9485502E-05
         356  8.4872357E-07
         357 -5.1825614E-06
         358  4.3041575E-05
         359  2.8918272E-05
         360  1.7820548E-05
         361  6.1097612E-06
         362 -5.4947163E-06
         363 -2.8589726E-05
         364 -1.0629653E-05
         365 -3.4207590E-06
         366  1.4475902E-06
         367 -7.9389844E-07
         368  2.5108073E-05
         369  7.2941452E-07
         370 -3.5767630E-06
         371 -5.1952861E-06
         372  7.1085623E-07
         373 -8.3905958E-05
         374 -9.6302656E-06
         375  1.2774352E-05
         376 -4.3886099E-05
         377  1.5502508E-05
         378 -8.0694146E-05
         379 -7.7714358E-06
         380  1.2861139E-05
         381  4.4174412E-05
         382 -1.7699949E-05
         383  2.4174034E-05
         384  1.1993080E-07
         385 -3.3780650E-06
         386  4.0038531E-06
         387 -1.7691723E-06
         388 -2.7168577E-05
         389 -1.0150099E-05
         390 -3.2047060E-06
         391 -1.0140483E-06
         392  1.1912293E-06
         393  4.1083964E-05
         394  2.8081096E-05
         395  1.7534883E-05
         396 -5.3890994E-06
         397  6.6591692E-06
         398 -2.3677143E-05
         399 -1.5317308E-05
         400 -1.9788355E-05
         401  6.3986874E-09
         402  6.4385022E-06
         403 -6.2423368E-04
         404  8.5403728E-05
         405 -6.7802655E-05
         406  3.8593949E-05
         407 -5.3971653E-05
         408  2.4172161E-03
         409 -2.1207634E-04
         410 -3.9426971E-04
         411  5.9401331E-04
         412  5.2154348E-05
 Sym= Particle
 Ene=  -1.045089    
 Spin= Alpha
 Occup= 2
           1  3.2362607E-04
           2 -4.6971193E-04
           3  1.0896884E-03
           4 -2.0614332E-03
           5  3.5782511E-04
           6 -4.6053177E-04
           7 -5.6253129E-04
           8 -2.7204762E-05
           9 -3.5168792E-04
          10  9.7717112E-04
          11 -3.8465606E-03
          12  1.8705904E-02
          13  6.5973290E-04
          14 -8.6470548E-04
          15  1.3948905E-03
          16 -8.3140163E-03
          17  3.3610448E-04
          18 -4.4772653E-03
          19 -0.1047510    
          20  0.3443667    
          21  1.0046081E-03
          22  3.0467968E-04
          23  2.5981896E-02
          24 -8.5164033E-02
          25 -1.8835234E-04
          26  7.1768658E-03
          27  9.1986626E-02
          28 -0.2832993    
          29  1.2415120E-03
          30 -4.0486874E-03
          31 -2.4296137E-02
          32  7.1586251E-02
          33  2.7427165E-04
          34 -4.1090036E-03
          35  4.3637712E-02
          36 -0.1351663    
          37  4.5601264E-04
          38  1.1321139E-03
          39 -1.8073658E-02
          40  5.5860605E-02
          41  1.1979854E-03
          42  4.7797486E-03
          43 -8.1567757E-02
          44  0.2975492    
          45 -9.8178163E-04
          46 -2.0063997E-03
          47  1.8695816E-02
          48 -7.1314871E-02
          49  7.6941296E-04
          50 -1.7142140E-03
          51  0.1062384    
          52 -0.3588173    
          53 -6.3392508E-04
          54  5.6650686E-07
          55 -2.8836614E-02
          56  9.6960999E-02
          57 -1.1859023E-03
          58 -5.7899137E-03
          59 -8.1625096E-02
          60  0.2974921    
          61  9.5297495E-04
          62  2.2604067E-03
          63  1.8736146E-02
          64 -7.1298912E-02
          65 -7.6187577E-04
          66  2.8653105E-03
          67  0.1063212    
          68 -0.3587564    
          69  6.1441830E-04
          70 -3.0921662E-04
          71 -2.8840296E-02
          72  9.6930526E-02
          73  3.6329121E-04
          74 -1.0615051E-03
          75 -3.8376085E-03
          76  1.8717067E-02
          77 -6.7133928E-04
          78  9.1297465E-04
          79  1.3796653E-03
          80 -8.3221747E-03
          81 -3.2713200E-04
          82  4.7938441E-04
          83  1.1008914E-03
          84 -2.0593021E-03
          85 -3.5749393E-04
          86  4.7384514E-04
          87 -5.6207814E-04
          88 -2.2937771E-05
          89 -3.5743747E-04
          90  3.4370585E-03
          91 -0.1048422    
          92  0.3443422    
          93 -9.9774357E-04
          94 -3.8661485E-05
          95  2.6002824E-02
          96 -8.5143439E-02
          97  1.7976732E-04
          98 -6.3666003E-03
          99  9.2083350E-02
         100 -0.2832698    
         101 -1.2401971E-03
         102  3.8564252E-03
         103 -2.4327677E-02
         104  7.1581453E-02
         105 -2.7047310E-04
         106  4.5252973E-03
         107  4.3717701E-02
         108 -0.1351584    
         109 -4.8297481E-04
         110 -1.3095174E-03
         111 -1.8097268E-02
         112  5.5850495E-02
         113  3.5335004E-05
         114 -2.7810270E-04
         115 -3.7737302E-02
         116  0.1296193    
         117 -2.9255085E-05
         118  9.1991176E-05
         119  1.1668689E-02
         120 -4.1836921E-02
         121 -2.9098446E-05
         122 -1.4659791E-04
         123  2.6949806E-02
         124  3.9749738E-02
         125  1.9824098E-05
         126  4.8596859E-05
         127 -1.0598538E-02
         128 -1.6039999E-02
         129  6.7538922E-03
         130  4.9097892E-03
         131 -4.3281890E-02
         132 -3.0030711E-02
         133 -2.6951605E-03
         134 -1.5646337E-03
         135  1.4849903E-02
         136  6.5023005E-03
         137 -1.9673831E-03
         138 -1.6674655E-03
         139 -1.0079093E-02
         140 -1.3810426E-02
         141  1.5806180E-03
         142  5.5211037E-04
         143 -2.0762038E-05
         144  1.4831246E-03
         145 -2.7553728E-05
         146  1.1882628E-05
         147  2.6885450E-02
         148  4.6797920E-02
         149  1.7405830E-05
         150 -1.3048876E-06
         151 -4.8362482E-03
         152 -1.0841017E-02
         153  1.4989469E-05
         154  3.3405886E-05
         155  5.1642642E-03
         156  8.7059196E-03
         157 -5.5488404E-06
         158 -1.5491187E-05
         159  8.6072733E-04
         160  1.3712954E-03
         161 -3.3591135E-04
         162 -3.7533461E-04
         163 -8.9707403E-03
         164 -1.4181825E-02
         165  1.8595110E-04
         166 -7.3551064E-06
         167  1.8215944E-03
         168  3.2538015E-03
         169  1.7985477E-04
         170  1.6705386E-04
         171  1.2701396E-03
         172  1.9485659E-03
         173 -2.5888177E-04
         174 -1.3725518E-04
         175 -1.4525566E-03
         176 -1.9876906E-03
         177  8.3996929E-05
         178 -4.1725361E-05
         179  5.2815638E-03
         180  9.1128880E-03
         181 -2.4181443E-04
         182 -1.4210549E-04
         183 -1.5988438E-03
         184 -2.9150930E-03
         185 -2.0721043E-05
         186  2.4445055E-04
         187 -2.5243287E-03
         188 -4.4381656E-03
         189 -4.1236886E-05
         190 -2.7054860E-04
         191  8.9416065E-04
         192  1.6827948E-03
         193  7.0834591E-05
         194  2.2781971E-05
         195 -1.9523271E-03
         196 -3.4560021E-03
         197 -6.1556391E-05
         198  5.9628117E-05
         199  3.6914079E-04
         200  8.2560978E-04
         201 -1.0224201E-04
         202 -1.4305318E-04
         203  4.1158088E-03
         204  7.0623960E-03
         205  1.4154834E-04
         206  6.8701069E-05
         207 -9.9474553E-04
         208 -1.8119811E-03
         209  1.7385419E-04
         210  1.4204049E-04
         211 -1.9626808E-03
         212 -3.5925405E-03
         213 -8.3478306E-05
         214 -4.3996381E-05
         215  5.2769785E-04
         216  1.3036990E-03
         217 -8.5693820E-05
         218 -1.0509708E-05
         219 -2.2814975E-03
         220 -3.7063672E-03
         221  9.9278310E-05
         222  1.6722319E-05
         223  8.4554020E-04
         224  8.3655550E-04
         225  1.0977693E-05
         226  2.1531441E-05
         227  1.9459992E-03
         228  3.3821582E-03
         229 -1.3023906E-05
         230  5.7555758E-06
         231  7.5106445E-04
         232  1.3996287E-03
         233 -1.8147826E-04
         234 -1.4957879E-04
         235  1.2595729E-03
         236  1.9480522E-03
         237  2.5768878E-04
         238  1.4764770E-04
         239 -1.4360754E-03
         240 -1.9680944E-03
         241 -8.4490086E-05
         242  1.9575474E-04
         243  5.2605048E-03
         244  9.1490392E-03
         245  2.3533733E-04
         246  8.9866073E-05
         247 -1.5923153E-03
         248 -2.9132366E-03
         249  8.3957762E-05
         250 -6.0689552E-05
         251 -2.2799515E-03
         252 -3.7422355E-03
         253 -1.0143525E-04
         254 -1.2364052E-06
         255  8.4990088E-04
         256  8.6331274E-04
         257 -1.7012734E-04
         258 -1.9702260E-04
         259 -1.9332017E-03
         260 -3.5770375E-03
         261  8.3195329E-05
         262  6.2185783E-05
         263  5.0599902E-04
         264  1.2769741E-03
         265  1.0154308E-04
         266  2.6114876E-04
         267  4.0832027E-03
         268  7.0705493E-03
         269 -1.3799466E-04
         270 -9.6020711E-05
         271 -9.9106622E-04
         272 -1.8254642E-03
         273 -6.9599133E-05
         274 -8.4358348E-05
         275 -1.9320035E-03
         276 -3.4504014E-03
         277  6.3060812E-05
         278 -4.2936743E-05
         279  3.7105608E-04
         280  8.2183228E-04
         281  2.3830320E-05
         282 -3.2130352E-04
         283 -2.5144813E-03
         284 -4.4739814E-03
         285  3.2878448E-05
         286  2.9288017E-04
         287  9.0120680E-04
         288  1.7193281E-03
         289  3.2218196E-04
         290  2.8690087E-04
         291 -8.9801522E-03
         292 -1.4184843E-02
         293 -1.7120429E-04
         294  3.1556250E-05
         295  1.8410503E-03
         296  3.2555698E-03
         297  1.9609262E-03
         298  1.6704068E-03
         299 -1.0014077E-02
         300 -1.3751054E-02
         301 -1.5626901E-03
         302 -5.2150007E-04
         303 -2.6149863E-05
         304  1.4896707E-03
         305 -6.7760623E-03
         306 -4.7943406E-03
         307 -4.3247823E-02
         308 -3.0123338E-02
         309  2.7359729E-03
         310  1.5587260E-03
         311  1.4799204E-02
         312  6.5180520E-03
         313  1.5925774E-03
         314  9.1886657E-05
         315 -1.5021177E-03
         316 -2.2545915E-02
         317  7.3683359E-02
         318  6.5992435E-04
         319  2.2102778E-03
         320 -2.5197871E-03
         321  1.8158112E-02
         322 -5.5152193E-02
         323 -2.2759708E-03
         324  9.6175855E-04
         325 -1.1815900E-03
         326  2.1736437E-02
         327 -7.4823990E-02
         328  2.2866032E-03
         329 -9.6248847E-04
         330  1.4127117E-03
         331  2.1778885E-02
         332 -7.4818403E-02
         333 -1.5808921E-03
         334 -9.8101118E-05
         335  1.2794667E-03
         336 -2.2553639E-02
         337  7.3703676E-02
         338 -6.5333070E-04
         339 -2.2110743E-03
         340  2.6748865E-03
         341  1.8185131E-02
         342 -5.5114273E-02
         343 -1.9891327E-03
         344  5.0427602E-03
         345  1.0205364E-02
         346  3.8953959E-03
         347  1.1141306E-03
         348  5.4937270E-03
         349 -2.0425997E-03
         350 -9.9399209E-04
         351 -1.9884834E-03
         352 -2.1812997E-03
         353  1.0902849E-04
         354 -7.5737400E-05
         355 -1.7433023E-04
         356 -6.0995523E-04
         357 -9.8357128E-04
         358 -9.6994758E-05
         359  6.1663559E-05
         360  1.5847008E-04
         361 -7.1699929E-04
         362 -9.2311337E-04
         363  5.1482202E-05
         364  5.9799277E-05
         365 -1.0437713E-04
         366  1.3741901E-03
         367  1.8971519E-03
         368 -3.1581242E-04
         369  2.6600235E-04
         370 -5.5734363E-05
         371 -7.2581222E-04
         372 -3.7892471E-04
         373  1.1103383E-04
         374 -8.4046413E-05
         375  1.6518887E-04
         376 -8.2650816E-04
         377 -1.9588813E-03
         378 -1.1793875E-04
         379  9.1312839E-05
         380 -1.9143026E-04
         381 -7.9746352E-04
         382 -1.9658990E-03
         383  3.1362864E-04
         384 -2.6082541E-04
         385  4.3826509E-05
         386 -7.3419075E-04
         387 -4.0177268E-04
         388 -5.1678573E-05
         389 -5.6233308E-05
         390  1.4010191E-04
         391  1.3472330E-03
         392  1.8712854E-03
         393  9.1089867E-05
         394 -5.2541865E-05
         395 -1.7175941E-04
         396 -7.0046977E-04
         397 -9.1741589E-04
         398 -1.1384339E-04
         399  7.7772493E-05
         400  1.5425691E-04
         401 -6.0552882E-04
         402 -9.7092363E-04
         403 -5.4417117E-03
         404  2.0330118E-03
         405  1.0088637E-03
         406 -1.9694269E-03
         407 -2.1366687E-03
         408  2.0338276E-03
         409 -5.0371224E-03
         410 -1.0227113E-02
         411  3.7993765E-03
         412  1.0038285E-03
