 [Molden Format]
 [Atoms] Angs
C       1      6     -7.95777930     -5.00644864     -0.41977994
C       2      6     -6.81227416     -5.11517678     -1.19155974
C       3      6     -5.81884093     -4.16043049     -1.09743080
C       4      6     -5.95929277     -3.07671896     -0.23135523
C       5      6     -4.88958518     -2.09346597     -0.15703252
N       6      7     -3.60638447     -2.44556453     -0.45984348
C       7      6     -2.86587289     -1.38621484     -0.27519439
C       8      6     -1.41973082     -1.31665557     -0.44820301
C       9      6     -0.62921632     -2.25202265      0.17829101
C      10      6      0.76054735     -2.12527321      0.17565896
C      11      6      1.37898293     -1.05319600     -0.42736733
C      12      6      2.83350709     -0.89074659     -0.28519047
C      13      6      3.38124918      0.29761695      0.19588837
C      14      6      4.74348987      0.43566506      0.35804761
C      15      6      5.60495465     -0.61269144      0.03208992
N      16      7      6.98732536     -0.46962892      0.18121461
C      17      6      7.59884180      0.75546135     -0.10679284
C      18      6      8.67351961      1.20767837      0.65875579
C      19      6      9.27801863      2.41445579      0.36567466
C      20      6      8.81941863      3.19334432     -0.68412239
C      21      6      7.74906090      2.75152568     -1.44437798
C      22      6      7.14356895      1.54205168     -1.16496881
C      23      6      7.75990265     -1.55429250      0.61240463
C      24      6      9.03361621     -1.76992990      0.08693029
C      25      6      9.79326017     -2.83896495      0.52035264
C      26      6      9.29657796     -3.71295183      1.47347862
C      27      6      8.03006363     -3.50605340      1.99505397
C      28      6      7.26609787     -2.43498413      1.57460166
C      29      6      5.06021842     -1.80642876     -0.44223111
C      30      6      3.69566280     -1.94228008     -0.58749742
C      31      6      0.59713433     -0.12696526     -1.17215301
C      32      6      1.18114770      0.91039934     -1.92982398
C      33      6      0.41350080      1.75977066     -2.67648721
C      34      6     -0.97513159      1.58548018     -2.73868088
C      35      6     -1.57100832      0.57907469     -2.03270399
C      36      6     -0.81458874     -0.27869686     -1.20767219
N      37      7     -3.61953353     -0.32336766      0.15911190
C      38      6     -3.13967330      0.96532735      0.44555898
C      39      6     -2.03767502      1.12384151      1.28015094
C      40      6     -1.51619696      2.38218641      1.49515254
C      41      6     -2.09454843      3.49777025      0.90382002
C      42      6     -3.23817273      3.34380593      0.11279158
C      43      6     -3.74488141      2.07551412     -0.12559516
O      44      8     -3.88119816      4.41105870     -0.45415572
C      45      6     -3.48529645      5.65332399      0.08409026
C      46      6     -1.96390691      5.70998047      0.21181859
O      47      8     -1.51608185      4.72248188      1.11348064
C      48      6     -4.92390085     -0.76272651      0.22576387
C      49      6     -6.02384173      0.10135769      0.63110461
C      50      6     -5.92476361      0.89691379      1.77127560
C      51      6     -6.97141373      1.72155696      2.13864972
C      52      6     -8.12691728      1.76480924      1.37680520
C      53      6     -8.23446556      0.97378968      0.24413127
C      54      6     -7.19166992      0.14846334     -0.12939751
C      55      6     -7.10488619     -2.98523550      0.55692014
C      56      6     -8.09622094     -3.94303998      0.45716998
H      57      1     -8.73674349     -5.75127661     -0.49516809
H      58      1     -6.69531301     -5.94875291     -1.86925028
H      59      1     -4.91832535     -4.23377031     -1.68729159
H      60      1     -1.09863003     -3.06527530      0.71068292
H      61      1      1.35753943     -2.85012979      0.71015995
H      62      1      2.72529228      1.11063276      0.47228852
H      63      1      5.15261035      1.35770882      0.74468114
H      64      1      9.02724303      0.60727265      1.48414758
H      65      1     10.10867826      2.75296130      0.96746309
H      66      1      9.29288993      4.13711206     -0.90831348
H      67      1      7.38799529      3.34910383     -2.26865174
H      68      1      6.31690144      1.19454628     -1.76732601
H      69      1      9.41948784     -1.09584420     -0.66384248
H      70      1     10.77748416     -2.99541316      0.10376713
H      71      1      9.89208506     -4.54906029      1.80720071
H      72      1      7.63639121     -4.17919547      2.74248422
H      73      1      6.28290362     -2.26981760      1.99050020
H      74      1      5.71723710     -2.62384587     -0.70084456
H      75      1      3.28834185     -2.86717794     -0.96895386
H      76      1      2.25598305      1.01184755     -1.93362666
H      77      1      0.87790308      2.54983137     -3.24874585
H      78      1     -1.56874681      2.23452497     -3.36570055
H      79      1     -2.63206843      0.40859453     -2.13213191
H      80      1     -1.58386311      0.26187384      1.74328528
H      81      1     -0.64935821      2.52618595      2.11926733
H      82      1     -4.60952945      1.97777113     -0.76218010
H      83      1     -3.85675345      6.41918271     -0.59803919
H      84      1     -3.93661267      5.79179203      1.07611109
H      85      1     -1.51212932      5.54586907     -0.77620261
H      86      1     -1.63366506      6.66912834      0.61279609
H      87      1     -5.03003343      0.85769421      2.37615392
H      88      1     -6.88552130      2.33106198      3.02657634
H      89      1     -8.94255126      2.41102724      1.66571652
H      90      1     -9.13411670      1.00385165     -0.35291914
H      91      1     -7.27071263     -0.46726675     -1.01345477
H      92      1     -7.21265048     -2.17034483      1.25729873
H      93      1     -8.98124236     -3.86218259      1.07215932
 [GTO]
           1   0
s              4   1.000000
     34.91901485     -0.01198412
      6.01334330     -0.05472052
      0.48319779      0.58055871
      0.18415864      0.47700799
p              4   1.000000
      5.62811149      0.05713170
      1.45928527      0.28574555
      0.51444321      0.55178731
      0.20480871      0.26323149
s              7   1.000000
      0.38350848     -0.19624622
      0.04707223      0.94818961
      0.02222627      0.24900899
     34.91901485      0.00551801
      6.01334330      0.02519571
      0.48319779     -0.26731444
      0.18415864     -0.21963519
p              7   1.000000
      1.83062075     -0.01161239
      0.10124670      0.57065065
      0.03901771      0.59595984
      5.62811149     -0.02527682
      1.45928527     -0.12642262
      0.51444321     -0.24412768
      0.20480871     -0.11646171
 
           2   0
s              4   1.000000
     34.91688277     -0.01198412
      6.01297614     -0.05472052
      0.48316829      0.58055871
      0.18414739      0.47700799
p              4   1.000000
      5.62776785      0.05713170
      1.45919617      0.28574555
      0.51441180      0.55178731
      0.20479620      0.26323149
s              7   1.000000
      0.38350848     -0.19624822
      0.04707223      0.94819928
      0.02222627      0.24901152
     34.91688277      0.00551833
      6.01297614      0.02519717
      0.48316829     -0.26733002
      0.18414739     -0.21964799
p              7   1.000000
      1.83062075     -0.01161250
      0.10124670      0.57065611
      0.03901771      0.59596555
      5.62776785     -0.02527830
      1.45919617     -0.12643002
      0.51441180     -0.24414197
      0.20479620     -0.11646853
 
           3   0
s              4   1.000000
     35.03159528     -0.01198412
      6.03273058     -0.05472053
      0.48475564      0.58055871
      0.18475237      0.47700800
p              4   1.000000
      5.64625677      0.05713170
      1.46399007      0.28574555
      0.51610180      0.55178731
      0.20546902      0.26323149
s              7   1.000000
      0.38350848     -0.19614099
      0.04707223      0.94768120
      0.02222627      0.24887546
     35.03159528      0.00550107
      6.03273058      0.02511837
      0.48475564     -0.26649399
      0.18475237     -0.21896108
p              7   1.000000
      1.83062075     -0.01160654
      0.10124670      0.57036321
      0.03901771      0.59565966
      5.64625677     -0.02519894
      1.46399007     -0.12603311
      0.51610180     -0.24337552
      0.20546902     -0.11610289
 
           4   0
s              4   1.000000
     35.06332547     -0.01198412
      6.03819478     -0.05472052
      0.48519471      0.58055871
      0.18491972      0.47700799
p              4   1.000000
      5.65137092      0.05713170
      1.46531609      0.28574555
      0.51656927      0.55178731
      0.20565513      0.26323149
s              7   1.000000
      0.38350848     -0.19611150
      0.04707223      0.94753868
      0.02222627      0.24883805
     35.06332547      0.00549632
      6.03819478      0.02509666
      0.48519471     -0.26626364
      0.18491972     -0.21877182
p              7   1.000000
      1.83062075     -0.01160490
      0.10124670      0.57028264
      0.03901771      0.59557551
      5.65137092     -0.02517708
      1.46531609     -0.12592375
      0.51656927     -0.24316434
      0.20565513     -0.11600214
 
           5   0
s              4   1.000000
     35.70628503     -0.01198412
      6.14891774     -0.05472052
      0.49409178      0.58055871
      0.18831061      0.47700799
p              4   1.000000
      5.75500065      0.05713170
      1.49218573      0.28574555
      0.52604165      0.55178731
      0.20942624      0.26323149
s              7   1.000000
      0.38350848     -0.19552880
      0.04707223      0.94472333
      0.02222627      0.24809869
     35.70628503      0.00540167
      6.14891774      0.02466451
      0.49409178     -0.26167868
      0.18831061     -0.21500465
p              7   1.000000
      1.83062075     -0.01157251
      0.10124670      0.56869097
      0.03901771      0.59391326
      5.75500065     -0.02474182
      1.49218573     -0.12374677
      0.52604165     -0.23896050
      0.20942624     -0.11399669
 
           6   0
s              4   1.000000
     57.57654441     -0.01198412
      9.91515737     -0.05472052
      0.79672520      0.58055871
      0.30365169      0.47700799
p              4   1.000000
      6.78666106      0.05713170
      1.75967987      0.28574555
      0.62034161      0.55178731
      0.24696868      0.26323149
s              7   1.000000
      0.47894987     -0.18896933
      0.05878681      0.91303039
      0.02775758      0.23977565
     57.57654441      0.00421649
      9.91515737      0.01925285
      0.79672520     -0.20426358
      0.30365169     -0.16783033
p              7   1.000000
      2.28619608     -0.01167815
      0.12644335      0.57388219
      0.04872781      0.59933468
      6.78666106     -0.02613899
      1.75967987     -0.13073479
      0.62034161     -0.25245466
      0.24696868     -0.12043412
 
           7   0
s              4   1.000000
     35.86675133     -0.01198412
      6.17655136     -0.05472052
      0.49631226      0.58055871
      0.18915689      0.47700799
p              4   1.000000
      5.78086398      0.05713170
      1.49889171      0.28574555
      0.52840571      0.55178731
      0.21036742      0.26323149
s              7   1.000000
      0.38350848     -0.19538771
      0.04707223      0.94404159
      0.02222627      0.24791966
     35.86675133      0.00537855
      6.17655136      0.02455891
      0.49631226     -0.26055838
      0.18915689     -0.21408417
p              7   1.000000
      1.83062075     -0.01156467
      0.10124670      0.56830557
      0.03901771      0.59351076
      5.78086398     -0.02463545
      1.49889171     -0.12321479
      0.52840571     -0.23793321
      0.21036742     -0.11350662
 
           8   0
s              4   1.000000
     35.13904077     -0.01198412
      6.05123359     -0.05472052
      0.48624244      0.58055871
      0.18531903      0.47700799
p              4   1.000000
      5.66357442      0.05713170
      1.46848027      0.28574555
      0.51768474      0.55178731
      0.20609922      0.26323149
s              7   1.000000
      0.38350848     -0.19604140
      0.04707223      0.94720001
      0.02222627      0.24874911
     35.13904077      0.00548500
      6.05123359      0.02504500
      0.48624244     -0.26571556
      0.18531903     -0.21832149
p              7   1.000000
      1.83062075     -0.01160101
      0.10124670      0.57009116
      0.03901771      0.59537554
      5.66357442     -0.02512505
      1.46848027     -0.12566354
      0.51768474     -0.24266186
      0.20609922     -0.11576243
 
           9   0
s              4   1.000000
     35.01115883     -0.01198412
      6.02921126     -0.05472052
      0.48447285      0.58055871
      0.18464459      0.47700799
p              4   1.000000
      5.64296290      0.05713170
      1.46313602      0.28574555
      0.51580072      0.55178731
      0.20534916      0.26323149
s              7   1.000000
      0.38350848     -0.19616003
      0.04707223      0.94777317
      0.02222627      0.24889962
     35.01115883      0.00550414
      6.02921126      0.02513238
      0.48447285     -0.26664256
      0.18464459     -0.21908315
p              7   1.000000
      1.83062075     -0.01160760
      0.10124670      0.57041520
      0.03901771      0.59571395
      5.64296290     -0.02521305
      1.46313602     -0.12610365
      0.51580072     -0.24351172
      0.20534916     -0.11616786
 
          10   0
s              4   1.000000
     35.01169108     -0.01198412
      6.02930291     -0.05472053
      0.48448021      0.58055871
      0.18464740      0.47700799
p              4   1.000000
      5.64304869      0.05713170
      1.46315826      0.28574555
      0.51580856      0.55178731
      0.20535228      0.26323149
s              7   1.000000
      0.38350848     -0.19615953
      0.04707223      0.94777077
      0.02222627      0.24889899
     35.01169108      0.00550406
      6.02930291      0.02513201
      0.48448021     -0.26663868
      0.18464740     -0.21907997
p              7   1.000000
      1.83062075     -0.01160757
      0.10124670      0.57041385
      0.03901771      0.59571254
      5.64304869     -0.02521268
      1.46315826     -0.12610181
      0.51580856     -0.24350817
      0.20535228     -0.11616617
 
          11   0
s              4   1.000000
     35.14767924     -0.01198412
      6.05272120     -0.05472052
      0.48636197      0.58055871
      0.18536459      0.47700799
p              4   1.000000
      5.66496673      0.05713170
      1.46884128      0.28574555
      0.51781201      0.55178731
      0.20614988      0.26323149
s              7   1.000000
      0.38350848     -0.19603343
      0.04707223      0.94716149
      0.02222627      0.24873899
     35.14767924      0.00548372
      6.05272120      0.02503912
      0.48636197     -0.26565317
      0.18536459     -0.21827023
p              7   1.000000
      1.83062075     -0.01160056
      0.10124670      0.57006939
      0.03901771      0.59535280
      5.66496673     -0.02511913
      1.46884128     -0.12563392
      0.51781201     -0.24260466
      0.20614988     -0.11573515
 
          12   0
s              4   1.000000
     35.10467876     -0.01198412
      6.04531616     -0.05472052
      0.48576695      0.58055871
      0.18513781      0.47700799
p              4   1.000000
      5.65803608      0.05713170
      1.46704427      0.28574555
      0.51717850      0.55178731
      0.20589767      0.26323149
s              7   1.000000
      0.38350848     -0.19607316
      0.04707223      0.94735347
      0.02222627      0.24878940
     35.10467876      0.00549013
      6.04531616      0.02506842
      0.48576695     -0.26596402
      0.18513781     -0.21852564
p              7   1.000000
      1.83062075     -0.01160277
      0.10124670      0.57017792
      0.03901771      0.59546616
      5.65803608     -0.02514864
      1.46704427     -0.12578150
      0.51717850     -0.24288965
      0.20589767     -0.11587110
 
          13   0
s              4   1.000000
     35.01701592     -0.01198412
      6.03021990     -0.05472052
      0.48455390      0.58055871
      0.18467548      0.47700799
p              4   1.000000
      5.64390692      0.05713170
      1.46338079      0.28574555
      0.51588701      0.55178731
      0.20538351      0.26323149
s              7   1.000000
      0.38350848     -0.19615457
      0.04707223      0.94774679
      0.02222627      0.24889270
     35.01701592      0.00550326
      6.03021990      0.02512836
      0.48455390     -0.26659996
      0.18467548     -0.21904815
p              7   1.000000
      1.83062075     -0.01160730
      0.10124670      0.57040029
      0.03901771      0.59569838
      5.64390692     -0.02520900
      1.46338079     -0.12608342
      0.51588701     -0.24347267
      0.20538351     -0.11614924
 
          14   0
s              4   1.000000
     35.01843512     -0.01198412
      6.03046429     -0.05472053
      0.48457354      0.58055871
      0.18468297      0.47700799
p              4   1.000000
      5.64413566      0.05713170
      1.46344010      0.28574555
      0.51590792      0.55178731
      0.20539183      0.26323149
s              7   1.000000
      0.38350848     -0.19615325
      0.04707223      0.94774040
      0.02222627      0.24889102
     35.01843512      0.00550305
      6.03046429      0.02512739
      0.48457354     -0.26658964
      0.18468297     -0.21903967
p              7   1.000000
      1.83062075     -0.01160722
      0.10124670      0.57039668
      0.03901771      0.59569462
      5.64413566     -0.02520802
      1.46344010     -0.12607852
      0.51590792     -0.24346321
      0.20539183     -0.11614472
 
          15   0
s              4   1.000000
     35.20108477     -0.01198412
      6.06191808     -0.05472053
      0.48710098      0.58055871
      0.18564624      0.47700799
p              4   1.000000
      5.67357443      0.05713170
      1.47107313      0.28574555
      0.51859880      0.55178731
      0.20646312      0.26323149
s              7   1.000000
      0.38350848     -0.19598426
      0.04707223      0.94692394
      0.02222627      0.24867659
     35.20108477      0.00547577
      6.06191808      0.02500283
      0.48710098     -0.26526808
      0.18564624     -0.21795383
p              7   1.000000
      1.83062075     -0.01159783
      0.10124670      0.56993508
      0.03901771      0.59521254
      5.67357443     -0.02508257
      1.47107313     -0.12545109
      0.51859880     -0.24225160
      0.20646312     -0.11556672
 
          16   0
s              4   1.000000
     61.15983100     -0.01198412
     10.53222897     -0.05472053
      0.84630954      0.58055871
      0.32254951      0.47700799
p              4   1.000000
      7.20903013      0.05713170
      1.86919386      0.28574555
      0.65894868      0.55178731
      0.26233882      0.26323149
s              7   1.000000
      0.47894987     -0.18779549
      0.05878681      0.90735880
      0.02775758      0.23828621
     61.15983100      0.00397239
     10.53222897      0.01813826
      0.84630954     -0.19243828
      0.32254951     -0.15811424
p              7   1.000000
      2.28619608     -0.01156720
      0.12644335      0.56843014
      0.04872781      0.59364083
      7.20903013     -0.02466987
      1.86919386     -0.12338694
      0.65894868     -0.23826564
      0.26233882     -0.11366521
 
          17   0
s              4   1.000000
     35.20069385     -0.01198412
      6.06185076     -0.05472053
      0.48709557      0.58055871
      0.18564418      0.47700799
p              4   1.000000
      5.67351142      0.05713170
      1.47105679      0.28574555
      0.51859304      0.55178731
      0.20646083      0.26323149
s              7   1.000000
      0.38350848     -0.19598462
      0.04707223      0.94692567
      0.02222627      0.24867705
     35.20069385      0.00547582
      6.06185076      0.02500309
      0.48709557     -0.26527090
      0.18564418     -0.21795615
p              7   1.000000
      1.83062075     -0.01159785
      0.10124670      0.56993606
      0.03901771      0.59521355
      5.67351142     -0.02508284
      1.47105679     -0.12545242
      0.51859304     -0.24225418
      0.20646083     -0.11556795
 
          18   0
s              4   1.000000
     35.02177263     -0.01198412
      6.03103904     -0.05472052
      0.48461972      0.58055871
      0.18470057      0.47700799
p              4   1.000000
      5.64467359      0.05713170
      1.46357957      0.28574555
      0.51595709      0.55178731
      0.20541141      0.26323149
s              7   1.000000
      0.38350848     -0.19615014
      0.04707223      0.94772538
      0.02222627      0.24888707
     35.02177263      0.00550255
      6.03103904      0.02512510
      0.48461972     -0.26656538
      0.18470057     -0.21901973
p              7   1.000000
      1.83062075     -0.01160705
      0.10124670      0.57038819
      0.03901771      0.59568576
      5.64467359     -0.02520572
      1.46357957     -0.12606700
      0.51595709     -0.24344097
      0.20541141     -0.11613411
 
          19   0
s              4   1.000000
     34.92186401     -0.01198412
      6.01383395     -0.05472052
      0.48323722      0.58055871
      0.18417366      0.47700799
p              4   1.000000
      5.62857070      0.05713170
      1.45940434      0.28574555
      0.51448519      0.55178731
      0.20482542      0.26323149
s              7   1.000000
      0.38350848     -0.19624355
      0.04707223      0.94817669
      0.02222627      0.24900560
     34.92186401      0.00551758
      6.01383395      0.02519374
      0.48323722     -0.26729361
      0.18417366     -0.21961808
p              7   1.000000
      1.83062075     -0.01161224
      0.10124670      0.57064335
      0.03901771      0.59595220
      5.62857070     -0.02527485
      1.45940434     -0.12641273
      0.51448519     -0.24410859
      0.20482542     -0.11645260
 
          20   0
s              4   1.000000
     34.91655110     -0.01198412
      6.01291902     -0.05472053
      0.48316370      0.58055871
      0.18414564      0.47700800
p              4   1.000000
      5.62771439      0.05713170
      1.45918231      0.28574555
      0.51440692      0.55178731
      0.20479426      0.26323149
s              7   1.000000
      0.38350848     -0.19624853
      0.04707223      0.94820078
      0.02222627      0.24901191
     34.91655110      0.00551838
      6.01291902      0.02519740
      0.48316370     -0.26733245
      0.18414564     -0.21964999
p              7   1.000000
      1.83062075     -0.01161252
      0.10124670      0.57065697
      0.03901771      0.59596644
      5.62771439     -0.02527853
      1.45918231     -0.12643117
      0.51440692     -0.24414419
      0.20479426     -0.11646958
 
          21   0
s              4   1.000000
     34.92179833     -0.01198412
      6.01382264     -0.05472053
      0.48323631      0.58055871
      0.18417332      0.47700800
p              4   1.000000
      5.62856012      0.05713170
      1.45940159      0.28574555
      0.51448422      0.55178731
      0.20482503      0.26323149
s              7   1.000000
      0.38350848     -0.19624361
      0.04707223      0.94817699
      0.02222627      0.24900567
     34.92179833      0.00551759
      6.01382264      0.02519379
      0.48323631     -0.26729409
      0.18417332     -0.21961847
p              7   1.000000
      1.83062075     -0.01161225
      0.10124670      0.57064351
      0.03901771      0.59595240
      5.62856012     -0.02527489
      1.45940159     -0.12641296
      0.51448422     -0.24410903
      0.20482503     -0.11645281
 
          22   0
s              4   1.000000
     35.02251717     -0.01198412
      6.03116726     -0.05472053
      0.48463002      0.58055871
      0.18470450      0.47700799
p              4   1.000000
      5.64479359      0.05713170
      1.46361069      0.28574555
      0.51596806      0.55178731
      0.20541577      0.26323149
s              7   1.000000
      0.38350848     -0.19614945
      0.04707223      0.94772203
      0.02222627      0.24888619
     35.02251717      0.00550243
      6.03116726      0.02512459
      0.48463002     -0.26655996
      0.18470450     -0.21901529
p              7   1.000000
      1.83062075     -0.01160701
      0.10124670      0.57038630
      0.03901771      0.59568377
      5.64479359     -0.02520521
      1.46361069     -0.12606443
      0.51596806     -0.24343600
      0.20541577     -0.11613174
 
          23   0
s              4   1.000000
     35.20134800     -0.01198412
      6.06196340     -0.05472053
      0.48710463      0.58055871
      0.18564763      0.47700799
p              4   1.000000
      5.67361685      0.05713170
      1.47108413      0.28574555
      0.51860268      0.55178731
      0.20646466      0.26323149
s              7   1.000000
      0.38350848     -0.19598402
      0.04707223      0.94692276
      0.02222627      0.24867630
     35.20134800      0.00547573
      6.06196340      0.02500265
      0.48710463     -0.26526619
      0.18564763     -0.21795227
p              7   1.000000
      1.83062075     -0.01159782
      0.10124670      0.56993441
      0.03901771      0.59521185
      5.67361685     -0.02508239
      1.47108413     -0.12545019
      0.51860268     -0.24224986
      0.20646466     -0.11556590
 
          24   0
s              4   1.000000
     35.02138150     -0.01198412
      6.03097168     -0.05472052
      0.48461431      0.58055871
      0.18469851      0.47700799
p              4   1.000000
      5.64461055      0.05713170
      1.46356323      0.28574555
      0.51595133      0.55178730
      0.20540911      0.26323149
s              7   1.000000
      0.38350848     -0.19615050
      0.04707223      0.94772714
      0.02222627      0.24888753
     35.02138150      0.00550260
      6.03097168      0.02512537
      0.48461431     -0.26656822
      0.18469851     -0.21902207
p              7   1.000000
      1.83062075     -0.01160707
      0.10124670      0.57038919
      0.03901771      0.59568677
      5.64461055     -0.02520599
      1.46356323     -0.12606835
      0.51595133     -0.24344357
      0.20540911     -0.11613536
 
          25   0
s              4   1.000000
     34.92190929     -0.01198412
      6.01384175     -0.05472053
      0.48323784      0.58055871
      0.18417390      0.47700799
p              4   1.000000
      5.62857800      0.05713170
      1.45940623      0.28574555
      0.51448586      0.55178730
      0.20482569      0.26323149
s              7   1.000000
      0.38350848     -0.19624350
      0.04707223      0.94817649
      0.02222627      0.24900553
     34.92190929      0.00551757
      6.01384175      0.02519371
      0.48323784     -0.26729328
      0.18417390     -0.21961781
p              7   1.000000
      1.83062075     -0.01161224
      0.10124670      0.57064323
      0.03901771      0.59595208
      5.62857800     -0.02527481
      1.45940623     -0.12641258
      0.51448586     -0.24410828
      0.20482569     -0.11645245
 
          26   0
s              4   1.000000
     34.91668406     -0.01198412
      6.01294192     -0.05472052
      0.48316554      0.58055871
      0.18414635      0.47700800
p              4   1.000000
      5.62773582      0.05713170
      1.45918786      0.28574555
      0.51440888      0.55178731
      0.20479504      0.26323149
s              7   1.000000
      0.38350848     -0.19624841
      0.04707223      0.94820019
      0.02222627      0.24901177
     34.91668406      0.00551836
      6.01294192      0.02519731
      0.48316554     -0.26733147
      0.18414635     -0.21964919
p              7   1.000000
      1.83062075     -0.01161251
      0.10124670      0.57065663
      0.03901771      0.59596607
      5.62773582     -0.02527844
      1.45918786     -0.12643071
      0.51440888     -0.24414330
      0.20479504     -0.11646916
 
          27   0
s              4   1.000000
     34.92183556     -0.01198412
      6.01382905     -0.05472052
      0.48323682      0.58055871
      0.18417352      0.47700799
p              4   1.000000
      5.62856612      0.05713170
      1.45940315      0.28574555
      0.51448477      0.55178731
      0.20482525      0.26323149
s              7   1.000000
      0.38350848     -0.19624357
      0.04707223      0.94817682
      0.02222627      0.24900563
     34.92183556      0.00551758
      6.01382905      0.02519376
      0.48323682     -0.26729382
      0.18417352     -0.21961825
p              7   1.000000
      1.83062075     -0.01161224
      0.10124670      0.57064342
      0.03901771      0.59595228
      5.62856612     -0.02527487
      1.45940315     -0.12641283
      0.51448477     -0.24410878
      0.20482525     -0.11645269
 
          28   0
s              4   1.000000
     35.02216151     -0.01198412
      6.03110601     -0.05472052
      0.48462510      0.58055871
      0.18470262      0.47700799
p              4   1.000000
      5.64473627      0.05713170
      1.46359583      0.28574555
      0.51596282      0.55178731
      0.20541369      0.26323149
s              7   1.000000
      0.38350848     -0.19614978
      0.04707223      0.94772363
      0.02222627      0.24888660
     35.02216151      0.00550249
      6.03110601      0.02512484
      0.48462510     -0.26656255
      0.18470262     -0.21901741
p              7   1.000000
      1.83062075     -0.01160703
      0.10124670      0.57038720
      0.03901771      0.59568470
      5.64473627     -0.02520545
      1.46359583     -0.12606566
      0.51596282     -0.24343837
      0.20541369     -0.11613287
 
          29   0
s              4   1.000000
     35.01740216     -0.01198412
      6.03028641     -0.05472052
      0.48455924      0.58055871
      0.18467752      0.47700799
p              4   1.000000
      5.64396917      0.05713170
      1.46339693      0.28574555
      0.51589270      0.55178731
      0.20538577      0.26323149
s              7   1.000000
      0.38350848     -0.19615421
      0.04707223      0.94774505
      0.02222627      0.24889223
     35.01740216      0.00550320
      6.03028641      0.02512810
      0.48455924     -0.26659715
      0.18467752     -0.21904584
p              7   1.000000
      1.83062075     -0.01160728
      0.10124670      0.57039931
      0.03901771      0.59569737
      5.64396917     -0.02520874
      1.46339693     -0.12608209
      0.51589270     -0.24347010
      0.20538577     -0.11614801
 
          30   0
s              4   1.000000
     35.01513698     -0.01198412
      6.02989633     -0.05472052
      0.48452790      0.58055871
      0.18466557      0.47700800
p              4   1.000000
      5.64360408      0.05713170
      1.46330227      0.28574555
      0.51585933      0.55178731
      0.20537249      0.26323149
s              7   1.000000
      0.38350848     -0.19615632
      0.04707223      0.94775526
      0.02222627      0.24889492
     35.01513698      0.00550354
      6.02989633      0.02512965
      0.48452790     -0.26661362
      0.18466557     -0.21905937
p              7   1.000000
      1.83062075     -0.01160739
      0.10124670      0.57040507
      0.03901771      0.59570335
      5.64360408     -0.02521030
      1.46330227     -0.12608991
      0.51585933     -0.24348520
      0.20537249     -0.11615521
 
          31   0
s              4   1.000000
     35.22371838     -0.01198412
      6.06581577     -0.05472053
      0.48741418      0.58055871
      0.18576561      0.47700799
p              4   1.000000
      5.67722242      0.05713170
      1.47201900      0.28574555
      0.51893225      0.55178731
      0.20659587      0.26323149
s              7   1.000000
      0.38350848     -0.19596348
      0.04707223      0.94682354
      0.02222627      0.24865024
     35.22371838      0.00547240
      6.06581577      0.02498747
      0.48741418     -0.26510521
      0.18576561     -0.21782001
p              7   1.000000
      1.83062075     -0.01159667
      0.10124670      0.56987831
      0.03901771      0.59515323
      5.67722242     -0.02506711
      1.47201900     -0.12537376
      0.51893225     -0.24210228
      0.20659587     -0.11549548
 
          32   0
s              4   1.000000
     35.00674962     -0.01198412
      6.02845195     -0.05472052
      0.48441184      0.58055871
      0.18462134      0.47700799
p              4   1.000000
      5.64225224      0.05713170
      1.46295175      0.28574555
      0.51573576      0.55178731
      0.20532329      0.26323149
s              7   1.000000
      0.38350848     -0.19616414
      0.04707223      0.94779302
      0.02222627      0.24890484
     35.00674962      0.00550480
      6.02845195      0.02513540
      0.48441184     -0.26667463
      0.18462134     -0.21910950
p              7   1.000000
      1.83062075     -0.01160783
      0.10124670      0.57042643
      0.03901771      0.59572569
      5.64225224     -0.02521609
      1.46295175     -0.12611887
      0.51573576     -0.24354113
      0.20532329     -0.11618189
 
          33   0
s              4   1.000000
     34.90983706     -0.01198412
      6.01176281     -0.05472052
      0.48307079      0.58055871
      0.18411024      0.47700799
p              4   1.000000
      5.62663225      0.05713170
      1.45890172      0.28574555
      0.51430800      0.55178731
      0.20475488      0.26323149
s              7   1.000000
      0.38350848     -0.19625484
      0.04707223      0.94823126
      0.02222627      0.24901993
     34.90983706      0.00551939
      6.01176281      0.02520203
      0.48307079     -0.26738154
      0.18411024     -0.21969033
p              7   1.000000
      1.83062075     -0.01161287
      0.10124670      0.57067420
      0.03901771      0.59598444
      5.62663225     -0.02528319
      1.45890172     -0.12645448
      0.51430800     -0.24418919
      0.20475488     -0.11649105
 
          34   0
s              4   1.000000
     34.91194789     -0.01198412
      6.01212631     -0.05472052
      0.48310000      0.58055871
      0.18412137      0.47700799
p              4   1.000000
      5.62697246      0.05713170
      1.45898994      0.28574555
      0.51433910      0.55178731
      0.20476726      0.26323149
s              7   1.000000
      0.38350848     -0.19625286
      0.04707223      0.94822168
      0.02222627      0.24901740
     34.91194789      0.00551907
      6.01212631      0.02520058
      0.48310000     -0.26736610
      0.18412137     -0.21967764
p              7   1.000000
      1.83062075     -0.01161276
      0.10124670      0.57066878
      0.03901771      0.59597878
      5.62697246     -0.02528173
      1.45898994     -0.12644715
      0.51433910     -0.24417504
      0.20476726     -0.11648430
 
          35   0
s              4   1.000000
     35.02779071     -0.01198412
      6.03207540     -0.05472053
      0.48470300      0.58055871
      0.18473231      0.47700799
p              4   1.000000
      5.64564356      0.05713170
      1.46383107      0.28574555
      0.51604575      0.55178731
      0.20544671      0.26323149
s              7   1.000000
      0.38350848     -0.19614453
      0.04707223      0.94769830
      0.02222627      0.24887997
     35.02779071      0.00550164
      6.03207540      0.02512098
      0.48470300     -0.26652164
      0.18473231     -0.21898380
p              7   1.000000
      1.83062075     -0.01160674
      0.10124670      0.57037289
      0.03901771      0.59566973
      5.64564356     -0.02520157
      1.46383107     -0.12604624
      0.51604575     -0.24340086
      0.20544671     -0.11611498
 
          36   0
s              4   1.000000
     35.24374861     -0.01198412
      6.06926514     -0.05472053
      0.48769135      0.58055871
      0.18587124      0.47700800
p              4   1.000000
      5.68045082      0.05713170
      1.47285607      0.28574555
      0.51922734      0.55178731
      0.20671335      0.26323149
s              7   1.000000
      0.38350848     -0.19594513
      0.04707223      0.94673483
      0.02222627      0.24862694
     35.24374861      0.00546943
      6.06926514      0.02497390
      0.48769135     -0.26496124
      0.18587124     -0.21770172
p              7   1.000000
      1.83062075     -0.01159565
      0.10124670      0.56982817
      0.03901771      0.59510088
      5.68045082     -0.02505345
      1.47285607     -0.12530540
      0.51922734     -0.24197028
      0.20671335     -0.11543252
 
          37   0
s              4   1.000000
     61.67160447     -0.01198412
     10.62036060     -0.05472052
      0.85339129      0.58055871
      0.32524854      0.47700799
p              4   1.000000
      7.26935388      0.05713170
      1.88483491      0.28574555
      0.66446263      0.55178731
      0.26453402      0.26323149
s              7   1.000000
      0.47894987     -0.18764297
      0.05878681      0.90662186
      0.02775758      0.23809267
     61.67160447      0.00393967
     10.62036060      0.01798889
      0.85339129     -0.19085361
      0.32524854     -0.15681221
p              7   1.000000
      2.28619608     -0.01155275
      0.12644335      0.56771981
      0.04872781      0.59289902
      7.26935388     -0.02447304
      1.88483491     -0.12240251
      0.66446263     -0.23636466
      0.26453402     -0.11275834
 
          38   0
s              4   1.000000
     35.16742844     -0.01198412
      6.05612217     -0.05472052
      0.48663526      0.58055871
      0.18546874      0.47700799
p              4   1.000000
      5.66814983      0.05713170
      1.46966661      0.28574555
      0.51810296      0.55178731
      0.20626572      0.26323149
s              7   1.000000
      0.38350848     -0.19601522
      0.04707223      0.94707354
      0.02222627      0.24871588
     35.16742844      0.00548077
      6.05612217      0.02502569
      0.48663526     -0.26551064
      0.18546874     -0.21815312
p              7   1.000000
      1.83062075     -0.01159955
      0.10124670      0.57001965
      0.03901771      0.59530086
      5.66814983     -0.02510560
      1.46966661     -0.12556625
      0.51810296     -0.24247398
      0.20626572     -0.11567281
 
          39   0
s              4   1.000000
     35.02742643     -0.01198412
      6.03201267     -0.05472053
      0.48469796      0.58055871
      0.18473039      0.47700799
p              4   1.000000
      5.64558485      0.05713170
      1.46381585      0.28574555
      0.51604038      0.55178731
      0.20544457      0.26323149
s              7   1.000000
      0.38350848     -0.19614487
      0.04707223      0.94769994
      0.02222627      0.24888039
     35.02742643      0.00550170
      6.03201267      0.02512123
      0.48469796     -0.26652428
      0.18473039     -0.21898597
p              7   1.000000
      1.83062075     -0.01160676
      0.10124670      0.57037381
      0.03901771      0.59567071
      5.64558485     -0.02520182
      1.46381585     -0.12604749
      0.51604038     -0.24340329
      0.20544457     -0.11611614
 
          40   0
s              4   1.000000
     34.97376236     -0.01198412
      6.02277127     -0.05472053
      0.48395537      0.58055871
      0.18444737      0.47700799
p              4   1.000000
      5.63693548      0.05713170
      1.46157320      0.28574555
      0.51524978      0.55178731
      0.20512982      0.26323149
s              7   1.000000
      0.38350848     -0.19619494
      0.04707223      0.94794183
      0.02222627      0.24894391
     34.97376236      0.00550976
      6.02277127      0.02515804
      0.48395537     -0.26691484
      0.18444737     -0.21930687
p              7   1.000000
      1.83062075     -0.01160954
      0.10124670      0.57051056
      0.03901771      0.59581352
      5.63693548     -0.02523889
      1.46157320     -0.12623291
      0.51524978     -0.24376134
      0.20512982     -0.11628695
 
          41   0
s              4   1.000000
     35.20043246     -0.01198412
      6.06180574     -0.05472053
      0.48709196      0.58055871
      0.18564280      0.47700799
p              4   1.000000
      5.67346929      0.05713170
      1.47104587      0.28574555
      0.51858919      0.55178731
      0.20645929      0.26323149
s              7   1.000000
      0.38350848     -0.19598486
      0.04707223      0.94692682
      0.02222627      0.24867737
     35.20043246      0.00547586
      6.06180574      0.02500327
      0.48709196     -0.26527278
      0.18564280     -0.21795769
p              7   1.000000
      1.83062075     -0.01159786
      0.10124670      0.56993671
      0.03901771      0.59521424
      5.67346929     -0.02508302
      1.47104587     -0.12545332
      0.51858919     -0.24225591
      0.20645929     -0.11556878
 
          42   0
s              4   1.000000
     35.20348371     -0.01198412
      6.06233119     -0.05472053
      0.48713418      0.58055871
      0.18565889      0.47700800
p              4   1.000000
      5.67396108      0.05713170
      1.47117338      0.28574555
      0.51863414      0.55178731
      0.20647719      0.26323149
s              7   1.000000
      0.38350848     -0.19598206
      0.04707223      0.94691329
      0.02222627      0.24867381
     35.20348371      0.00547541
      6.06233119      0.02500120
      0.48713418     -0.26525081
      0.18565889     -0.21793964
p              7   1.000000
      1.83062075     -0.01159771
      0.10124670      0.56992906
      0.03901771      0.59520623
      5.67396108     -0.02508094
      1.47117338     -0.12544289
      0.51863414     -0.24223577
      0.20647719     -0.11555917
 
          43   0
s              4   1.000000
     35.07693255     -0.01198412
      6.04053803     -0.05472052
      0.48538300      0.58055871
      0.18499148      0.47700799
p              4   1.000000
      5.65356405      0.05713170
      1.46588474      0.28574555
      0.51676973      0.55178731
      0.20573494      0.26323149
s              7   1.000000
      0.38350848     -0.19609887
      0.04707223      0.94747767
      0.02222627      0.24882201
     35.07693255      0.00549428
      6.04053803      0.02508736
      0.48538300     -0.26616498
      0.18499148     -0.21869076
p              7   1.000000
      1.83062075     -0.01160420
      0.10124670      0.57024814
      0.03901771      0.59553947
      5.65356405     -0.02516771
      1.46588474     -0.12587691
      0.51676973     -0.24307389
      0.20573494     -0.11595900
 
          44   0
s              4   1.000000
     77.92929328     -0.01198412
     13.42006914     -0.05472052
      1.07835982      0.58055871
      0.41098962      0.47700799
p              4   1.000000
      8.03628529      0.05713170
      2.08368878      0.28574555
      0.73456477      0.55178731
      0.29244289      0.26323149
s              7   1.000000
      0.57971233     -0.18688973
      0.07115450      0.90298247
      0.03359728      0.23713690
     77.92929328      0.00377438
     13.42006914      0.01723415
      1.07835982     -0.18284613
      0.41098962     -0.15023298
p              7   1.000000
      2.76717072     -0.01172128
      0.15304476      0.57600167
      0.05897927      0.60154818
      8.03628529     -0.02669189
      2.08368878     -0.13350013
      0.73456477     -0.25779466
      0.29244289     -0.12298158
 
          45   0
s              4   1.000000
     37.05251927     -0.01198412
      6.38075042     -0.05472052
      0.51272052      0.58055871
      0.19541048      0.47700799
p              4   1.000000
      5.97198146      0.05713170
      1.54844562      0.28574555
      0.54587500      0.55178731
      0.21732224      0.26323149
s              7   1.000000
      0.38350848     -0.19439521
      0.04707223      0.93924623
      0.02222627      0.24666031
     37.05251927      0.00521347
      6.38075042      0.02380516
      0.51272052     -0.25256140
      0.19541048     -0.20751356
p              7   1.000000
      1.83062075     -0.01150951
      0.10124670      0.56559483
      0.03901771      0.59067977
      5.97198146     -0.02387605
      1.54844562     -0.11941663
      0.54587500     -0.23059879
      0.21732224     -0.11000772
 
          46   0
s              4   1.000000
     37.05450262     -0.01198412
      6.38109197     -0.05472052
      0.51274797      0.58055871
      0.19542094      0.47700799
p              4   1.000000
      5.97230113      0.05713170
      1.54852850      0.28574555
      0.54590422      0.55178731
      0.21733388      0.26323149
s              7   1.000000
      0.38350848     -0.19439362
      0.04707223      0.93923856
      0.02222627      0.24665831
     37.05450262      0.00521320
      6.38109197      0.02380394
      0.51274797     -0.25254842
      0.19542094     -0.20750290
p              7   1.000000
      1.83062075     -0.01150942
      0.10124670      0.56559048
      0.03901771      0.59067524
      5.97230113     -0.02387482
      1.54852850     -0.11941046
      0.54590422     -0.23058689
      0.21733388     -0.11000205
 
          47   0
s              4   1.000000
     77.92218009     -0.01198412
     13.41884419     -0.05472052
      1.07826139      0.58055871
      0.41095210      0.47700799
p              4   1.000000
      8.03555176      0.05713170
      2.08349858      0.28574555
      0.73449772      0.55178731
      0.29241620      0.26323149
s              7   1.000000
      0.57971233     -0.18689126
      0.07115450      0.90298990
      0.03359728      0.23713885
     77.92218009      0.00377472
     13.41884419      0.01723572
      1.07826139     -0.18286280
      0.41095210     -0.15024667
p              7   1.000000
      2.76717072     -0.01172146
      0.15304476      0.57601065
      0.05897927      0.60155757
      8.03555176     -0.02669422
      2.08349858     -0.13351175
      0.73449772     -0.25781711
      0.29241620     -0.12299229
 
          48   0
s              4   1.000000
     35.59164451     -0.01198412
      6.12917569     -0.05472053
      0.49250542      0.58055871
      0.18770601      0.47700799
p              4   1.000000
      5.73652333      0.05713170
      1.48739484      0.28574555
      0.52435271      0.55178731
      0.20875385      0.26323149
s              7   1.000000
      0.38350848     -0.19563065
      0.04707223      0.94521539
      0.02222627      0.24822790
     35.59164451      0.00541831
      6.12917569      0.02474049
      0.49250542     -0.26248483
      0.18770601     -0.21566701
p              7   1.000000
      1.83062075     -0.01157817
      0.10124670      0.56896915
      0.03901771      0.59420377
      5.73652333     -0.02481835
      1.48739484     -0.12412957
      0.52435271     -0.23969969
      0.20875385     -0.11434932
 
          49   0
s              4   1.000000
     35.06570479     -0.01198412
      6.03860452     -0.05472053
      0.48522764      0.58055871
      0.18493226      0.47700799
p              4   1.000000
      5.65175441      0.05713170
      1.46541552      0.28574555
      0.51660432      0.55178731
      0.20566908      0.26323149
s              7   1.000000
      0.38350848     -0.19610929
      0.04707223      0.94752802
      0.02222627      0.24883525
     35.06570479      0.00549596
      6.03860452      0.02509504
      0.48522764     -0.26624639
      0.18493226     -0.21875764
p              7   1.000000
      1.83062075     -0.01160478
      0.10124670      0.57027660
      0.03901771      0.59556920
      5.65175441     -0.02517544
      1.46541552     -0.12591556
      0.51660432     -0.24314852
      0.20566908     -0.11599460
 
          50   0
s              4   1.000000
     35.02747993     -0.01198412
      6.03202188     -0.05472053
      0.48469870      0.58055871
      0.18473067      0.47700800
p              4   1.000000
      5.64559347      0.05713170
      1.46381808      0.28574555
      0.51604117      0.55178731
      0.20544488      0.26323149
s              7   1.000000
      0.38350848     -0.19614483
      0.04707223      0.94769971
      0.02222627      0.24888034
     35.02747993      0.00550169
      6.03202188      0.02512119
      0.48469870     -0.26652390
      0.18473067     -0.21898565
p              7   1.000000
      1.83062075     -0.01160675
      0.10124670      0.57037367
      0.03901771      0.59567058
      5.64559347     -0.02520178
      1.46381808     -0.12604731
      0.51604117     -0.24340294
      0.20544488     -0.11611597
 
          51   0
s              4   1.000000
     34.92073063     -0.01198412
      6.01363877     -0.05472052
      0.48322153      0.58055871
      0.18416769      0.47700799
p              4   1.000000
      5.62838803      0.05713170
      1.45935697      0.28574555
      0.51446849      0.55178731
      0.20481877      0.26323149
s              7   1.000000
      0.38350848     -0.19624461
      0.04707223      0.94818183
      0.02222627      0.24900694
     34.92073063      0.00551775
      6.01363877      0.02519452
      0.48322153     -0.26730189
      0.18416769     -0.21962489
p              7   1.000000
      1.83062075     -0.01161230
      0.10124670      0.57064625
      0.03901771      0.59595523
      5.62838803     -0.02527563
      1.45935697     -0.12641667
      0.51446849     -0.24411618
      0.20481877     -0.11645622
 
          52   0
s              4   1.000000
     34.92040837     -0.01198412
      6.01358328     -0.05472052
      0.48321707      0.58055871
      0.18416599      0.47700800
p              4   1.000000
      5.62833609      0.05713170
      1.45934350      0.28574555
      0.51446374      0.55178731
      0.20481688      0.26323149
s              7   1.000000
      0.38350848     -0.19624491
      0.04707223      0.94818329
      0.02222627      0.24900733
     34.92040837      0.00551780
      6.01358328      0.02519475
      0.48321707     -0.26730425
      0.18416599     -0.21962682
p              7   1.000000
      1.83062075     -0.01161232
      0.10124670      0.57064707
      0.03901771      0.59595612
      5.62833609     -0.02527586
      1.45934350     -0.12641779
      0.51446374     -0.24411834
      0.20481688     -0.11645725
 
          53   0
s              4   1.000000
     34.91951425     -0.01198412
      6.01342930     -0.05472052
      0.48320470      0.58055871
      0.18416127      0.47700799
p              4   1.000000
      5.62819198      0.05713170
      1.45930614      0.28574555
      0.51445057      0.55178730
      0.20481164      0.26323149
s              7   1.000000
      0.38350848     -0.19624575
      0.04707223      0.94818734
      0.02222627      0.24900838
     34.91951425      0.00551793
      6.01342930      0.02519536
      0.48320470     -0.26731079
      0.18416127     -0.21963219
p              7   1.000000
      1.83062075     -0.01161236
      0.10124670      0.57064937
      0.03901771      0.59595851
      5.62819198     -0.02527648
      1.45930614     -0.12642089
      0.51445057     -0.24412433
      0.20481164     -0.11646011
 
          54   0
s              4   1.000000
     35.02442214     -0.01198412
      6.03149531     -0.05472052
      0.48465638      0.58055871
      0.18471454      0.47700799
p              4   1.000000
      5.64510063      0.05713170
      1.46369030      0.28574555
      0.51599612      0.55178731
      0.20542695      0.26323149
s              7   1.000000
      0.38350848     -0.19614767
      0.04707223      0.94771347
      0.02222627      0.24888395
     35.02442214      0.00550215
      6.03149531      0.02512329
      0.48465638     -0.26654612
      0.18471454     -0.21900391
p              7   1.000000
      1.83062075     -0.01160691
      0.10124670      0.57038145
      0.03901771      0.59567872
      5.64510063     -0.02520389
      1.46369030     -0.12605786
      0.51599612     -0.24342331
      0.20542695     -0.11612569
 
          55   0
s              4   1.000000
     35.01396149     -0.01198412
      6.02969390     -0.05472052
      0.48451163      0.58055871
      0.18465938      0.47700799
p              4   1.000000
      5.64341462      0.05713170
      1.46325314      0.28574555
      0.51584201      0.55178730
      0.20536559      0.26323149
s              7   1.000000
      0.38350848     -0.19615742
      0.04707223      0.94776055
      0.02222627      0.24889631
     35.01396149      0.00550372
      6.02969390      0.02513046
      0.48451163     -0.26662217
      0.18465938     -0.21906640
p              7   1.000000
      1.83062075     -0.01160745
      0.10124670      0.57040807
      0.03901771      0.59570651
      5.64341462     -0.02521111
      1.46325314     -0.12609397
      0.51584201     -0.24349303
      0.20536559     -0.11615895
 
          56   0
s              4   1.000000
     34.92073189     -0.01198412
      6.01363899     -0.05472052
      0.48322155      0.58055871
      0.18416769      0.47700800
p              4   1.000000
      5.62838824      0.05713170
      1.45935702      0.28574555
      0.51446851      0.55178731
      0.20481878      0.26323149
s              7   1.000000
      0.38350848     -0.19624461
      0.04707223      0.94818183
      0.02222627      0.24900694
     34.92073189      0.00551775
      6.01363899      0.02519452
      0.48322155     -0.26730188
      0.18416769     -0.21962488
p              7   1.000000
      1.83062075     -0.01161230
      0.10124670      0.57064625
      0.03901771      0.59595523
      5.62838824     -0.02527563
      1.45935702     -0.12641666
      0.51446851     -0.24411617
      0.20481878     -0.11645622
 
          57   0
s              4   1.000000
      8.30874106      0.05675242
      1.52039725      0.26014135
      0.42238300      0.53284611
      0.14018512      0.29162544
s              7   1.000000
      0.92936822     -0.06732869
      0.05643440      0.66945804
      0.02166600      0.51461666
      8.30874106     -0.02902326
      1.52039725     -0.13303664
      0.42238300     -0.27249822
      0.14018512     -0.14913764
p              4   1.000000
      0.64737396      0.05713170
      0.16785440      0.28574555
      0.05917387      0.55178731
      0.02355814      0.26323150
 
          58   0
s              4   1.000000
      8.30884634      0.05675242
      1.52041651      0.26014135
      0.42238835      0.53284611
      0.14018690      0.29162544
s              7   1.000000
      0.92936822     -0.06732856
      0.05643440      0.66945669
      0.02166600      0.51461564
      8.30884634     -0.02902298
      1.52041651     -0.13303535
      0.42238835     -0.27249557
      0.14018690     -0.14913619
p              4   1.000000
      0.64737396      0.05713170
      0.16785440      0.28574555
      0.05917387      0.55178731
      0.02355814      0.26323150
 
          59   0
s              4   1.000000
      8.30971561      0.05675242
      1.52057558      0.26014135
      0.42243255      0.53284611
      0.14020156      0.29162544
s              7   1.000000
      0.92936822     -0.06732744
      0.05643440      0.66944557
      0.02166600      0.51460709
      8.30971561     -0.02902066
      1.52057558     -0.13302469
      0.42243255     -0.27247374
      0.14020156     -0.14912424
p              4   1.000000
      0.64737396      0.05713170
      0.16785440      0.28574555
      0.05917387      0.55178731
      0.02355814      0.26323150
 
          60   0
s              4   1.000000
      8.30959787      0.05675242
      1.52055403      0.26014135
      0.42242656      0.53284611
      0.14019958      0.29162544
s              7   1.000000
      0.92936822     -0.06732759
      0.05643440      0.66944707
      0.02166600      0.51460823
      8.30959787     -0.02902097
      1.52055403     -0.13302613
      0.42242656     -0.27247670
      0.14019958     -0.14912586
p              4   1.000000
      0.64737396      0.05713170
      0.16785440      0.28574555
      0.05917387      0.55178731
      0.02355814      0.26323150
 
          61   0
s              4   1.000000
      8.30960536      0.05675242
      1.52055540      0.26014135
      0.42242694      0.53284611
      0.14019970      0.29162544
s              7   1.000000
      0.92936822     -0.06732758
      0.05643440      0.66944697
      0.02166600      0.51460816
      8.30960536     -0.02902095
      1.52055540     -0.13302604
      0.42242694     -0.27247651
      0.14019970     -0.14912576
p              4   1.000000
      0.64737396      0.05713170
      0.16785440      0.28574555
      0.05917387      0.55178731
      0.02355814      0.26323150
 
          62   0
s              4   1.000000
      8.30963772      0.05675242
      1.52056132      0.26014135
      0.42242859      0.53284611
      0.14020025      0.29162544
s              7   1.000000
      0.92936822     -0.06732754
      0.05643440      0.66944656
      0.02166600      0.51460786
      8.30963772     -0.02902087
      1.52056132     -0.13302564
      0.42242859     -0.27247569
      0.14020025     -0.14912531
p              4   1.000000
      0.64737396      0.05713170
      0.16785440      0.28574555
      0.05917387      0.55178731
      0.02355814      0.26323150
 
          63   0
s              4   1.000000
      8.30979491      0.05675242
      1.52059009      0.26014135
      0.42243658      0.53284611
      0.14020290      0.29162544
s              7   1.000000
      0.92936822     -0.06732733
      0.05643440      0.66944455
      0.02166600      0.51460630
      8.30979491     -0.02902044
      1.52059009     -0.13302372
      0.42243658     -0.27247175
      0.14020290     -0.14912316
p              4   1.000000
      0.64737396      0.05713170
      0.16785440      0.28574555
      0.05917387      0.55178731
      0.02355814      0.26323150
 
          64   0
s              4   1.000000
      8.30972430      0.05675242
      1.52057717      0.26014135
      0.42243299      0.53284611
      0.14020171      0.29162544
s              7   1.000000
      0.92936822     -0.06732743
      0.05643440      0.66944546
      0.02166600      0.51460699
      8.30972430     -0.02902063
      1.52057717     -0.13302458
      0.42243299     -0.27247352
      0.14020171     -0.14912412
p              4   1.000000
      0.64737396      0.05713170
      0.16785440      0.28574555
      0.05917387      0.55178731
      0.02355814      0.26323150
 
          65   0
s              4   1.000000
      8.30894428      0.05675242
      1.52043443      0.26014135
      0.42239333      0.53284611
      0.14018855      0.29162544
s              7   1.000000
      0.92936822     -0.06732843
      0.05643440      0.66945543
      0.02166600      0.51461467
      8.30894428     -0.02902272
      1.52043443     -0.13303415
      0.42239333     -0.27249311
      0.14018855     -0.14913484
p              4   1.000000
      0.64737396      0.05713170
      0.16785440      0.28574555
      0.05917387      0.55178731
      0.02355814      0.26323150
 
          66   0
s              4   1.000000
      8.30879999      0.05675242
      1.52040803      0.26014135
      0.42238600      0.53284611
      0.14018612      0.29162544
s              7   1.000000
      0.92936822     -0.06732861
      0.05643440      0.66945729
      0.02166600      0.51461609
      8.30879999     -0.02902311
      1.52040803     -0.13303591
      0.42238600     -0.27249674
      0.14018612     -0.14913683
p              4   1.000000
      0.64737396      0.05713170
      0.16785440      0.28574555
      0.05917387      0.55178731
      0.02355814      0.26323150
 
          67   0
s              4   1.000000
      8.30894676      0.05675242
      1.52043489      0.26014135
      0.42239346      0.53284611
      0.14018859      0.29162544
s              7   1.000000
      0.92936822     -0.06732842
      0.05643440      0.66945541
      0.02166600      0.51461464
      8.30894676     -0.02902271
      1.52043489     -0.13303412
      0.42239346     -0.27249305
      0.14018859     -0.14913481
p              4   1.000000
      0.64737396      0.05713170
      0.16785440      0.28574555
      0.05917387      0.55178731
      0.02355814      0.26323150
 
          68   0
s              4   1.000000
      8.30975616      0.05675242
      1.52058300      0.26014135
      0.42243461      0.53284611
      0.14020225      0.29162543
s              7   1.000000
      0.92936822     -0.06732738
      0.05643440      0.66944505
      0.02166600      0.51460669
      8.30975616     -0.02902055
      1.52058300     -0.13302419
      0.42243461     -0.27247272
      0.14020225     -0.14912369
p              4   1.000000
      0.64737396      0.05713170
      0.16785440      0.28574555
      0.05917387      0.55178731
      0.02355814      0.26323150
 
          69   0
s              4   1.000000
      8.30971537      0.05675242
      1.52057553      0.26014135
      0.42243253      0.53284611
      0.14020156      0.29162544
s              7   1.000000
      0.92936822     -0.06732744
      0.05643440      0.66944557
      0.02166600      0.51460709
      8.30971537     -0.02902066
      1.52057553     -0.13302469
      0.42243253     -0.27247374
      0.14020156     -0.14912425
p              4   1.000000
      0.64737396      0.05713170
      0.16785440      0.28574555
      0.05917387      0.55178731
      0.02355814      0.26323150
 
          70   0
s              4   1.000000
      8.30894173      0.05675242
      1.52043397      0.26014135
      0.42239320      0.53284611
      0.14018851      0.29162544
s              7   1.000000
      0.92936822     -0.06732843
      0.05643440      0.66945547
      0.02166600      0.51461469
      8.30894173     -0.02902273
      1.52043397     -0.13303418
      0.42239320     -0.27249318
      0.14018851     -0.14913489
p              4   1.000000
      0.64737396      0.05713170
      0.16785440      0.28574555
      0.05917387      0.55178731
      0.02355814      0.26323150
 
          71   0
s              4   1.000000
      8.30880224      0.05675242
      1.52040844      0.26014135
      0.42238611      0.53284611
      0.14018615      0.29162544
s              7   1.000000
      0.92936822     -0.06732861
      0.05643440      0.66945725
      0.02166600      0.51461606
      8.30880224     -0.02902310
      1.52040844     -0.13303589
      0.42238611     -0.27249668
      0.14018615     -0.14913680
p              4   1.000000
      0.64737396      0.05713170
      0.16785440      0.28574555
      0.05917387      0.55178731
      0.02355814      0.26323150
 
          72   0
s              4   1.000000
      8.30894552      0.05675242
      1.52043466      0.26014135
      0.42239340      0.53284611
      0.14018857      0.29162544
s              7   1.000000
      0.92936822     -0.06732843
      0.05643440      0.66945542
      0.02166600      0.51461467
      8.30894552     -0.02902272
      1.52043466     -0.13303413
      0.42239340     -0.27249308
      0.14018857     -0.14913483
p              4   1.000000
      0.64737396      0.05713170
      0.16785440      0.28574555
      0.05917387      0.55178731
      0.02355814      0.26323150
 
          73   0
s              4   1.000000
      8.30973198      0.05675242
      1.52057857      0.26014135
      0.42243338      0.53284611
      0.14020184      0.29162543
s              7   1.000000
      0.92936822     -0.06732742
      0.05643440      0.66944536
      0.02166600      0.51460692
      8.30973198     -0.02902061
      1.52057857     -0.13302449
      0.42243338     -0.27247333
      0.14020184     -0.14912402
p              4   1.000000
      0.64737396      0.05713170
      0.16785440      0.28574555
      0.05917387      0.55178731
      0.02355814      0.26323150
 
          74   0
s              4   1.000000
      8.30979807      0.05675242
      1.52059067      0.26014135
      0.42243674      0.53284611
      0.14020296      0.29162544
s              7   1.000000
      0.92936822     -0.06732733
      0.05643440      0.66944451
      0.02166600      0.51460627
      8.30979807     -0.02902044
      1.52059067     -0.13302368
      0.42243674     -0.27247167
      0.14020296     -0.14912311
p              4   1.000000
      0.64737396      0.05713170
      0.16785440      0.28574555
      0.05917387      0.55178731
      0.02355814      0.26323150
 
          75   0
s              4   1.000000
      8.30951146      0.05675242
      1.52053822      0.26014135
      0.42242217      0.53284611
      0.14019812      0.29162544
s              7   1.000000
      0.92936822     -0.06732770
      0.05643440      0.66944818
      0.02166600      0.51460910
      8.30951146     -0.02902120
      1.52053822     -0.13302719
      0.42242217     -0.27247887
      0.14019812     -0.14912705
p              4   1.000000
      0.64737396      0.05713170
      0.16785440      0.28574555
      0.05917387      0.55178731
      0.02355814      0.26323150
 
          76   0
s              4   1.000000
      8.31039779      0.05675242
      1.52070041      0.26014135
      0.42246723      0.53284611
      0.14021307      0.29162544
s              7   1.000000
      0.92936822     -0.06732656
      0.05643440      0.66943684
      0.02166600      0.51460038
      8.31039779     -0.02901883
      1.52070041     -0.13301632
      0.42246723     -0.27245661
      0.14021307     -0.14911487
p              4   1.000000
      0.64737396      0.05713170
      0.16785440      0.28574555
      0.05917387      0.55178731
      0.02355814      0.26323150
 
          77   0
s              4   1.000000
      8.30893693      0.05675242
      1.52043309      0.26014135
      0.42239296      0.53284611
      0.14018843      0.29162544
s              7   1.000000
      0.92936822     -0.06732844
      0.05643440      0.66945553
      0.02166600      0.51461474
      8.30893693     -0.02902274
      1.52043309     -0.13303424
      0.42239296     -0.27249330
      0.14018843     -0.14913495
p              4   1.000000
      0.64737396      0.05713170
      0.16785440      0.28574555
      0.05917387      0.55178731
      0.02355814      0.26323150
 
          78   0
s              4   1.000000
      8.30900409      0.05675242
      1.52044538      0.26014135
      0.42239637      0.53284611
      0.14018956      0.29162544
s              7   1.000000
      0.92936822     -0.06732835
      0.05643440      0.66945467
      0.02166600      0.51461407
      8.30900409     -0.02902256
      1.52044538     -0.13303341
      0.42239637     -0.27249161
      0.14018956     -0.14913403
p              4   1.000000
      0.64737396      0.05713170
      0.16785440      0.28574555
      0.05917387      0.55178731
      0.02355814      0.26323150
 
          79   0
s              4   1.000000
      8.31074466      0.05675242
      1.52076388      0.26014135
      0.42248486      0.53284611
      0.14021893      0.29162544
s              7   1.000000
      0.92936822     -0.06732611
      0.05643440      0.66943241
      0.02166600      0.51459698
      8.31074466     -0.02901790
      1.52076388     -0.13301207
      0.42248486     -0.27244790
      0.14021893     -0.14911010
p              4   1.000000
      0.64737396      0.05713170
      0.16785440      0.28574555
      0.05917387      0.55178731
      0.02355814      0.26323150
 
          80   0
s              4   1.000000
      8.31002152      0.05675242
      1.52063156      0.26014135
      0.42244810      0.53284611
      0.14020673      0.29162544
s              7   1.000000
      0.92936822     -0.06732704
      0.05643440      0.66944165
      0.02166600      0.51460409
      8.31002152     -0.02901984
      1.52063156     -0.13302094
      0.42244810     -0.27246606
      0.14020673     -0.14912004
p              4   1.000000
      0.64737396      0.05713170
      0.16785440      0.28574555
      0.05917387      0.55178731
      0.02355814      0.26323150
 
          81   0
s              4   1.000000
      8.30942967      0.05675242
      1.52052325      0.26014135
      0.42241801      0.53284611
      0.14019674      0.29162544
s              7   1.000000
      0.92936822     -0.06732780
      0.05643440      0.66944923
      0.02166600      0.51460990
      8.30942967     -0.02902142
      1.52052325     -0.13302819
      0.42241801     -0.27248092
      0.14019674     -0.14912818
p              4   1.000000
      0.64737396      0.05713170
      0.16785440      0.28574555
      0.05917387      0.55178731
      0.02355814      0.26323150
 
          82   0
s              4   1.000000
      8.31018425      0.05675242
      1.52066133      0.26014135
      0.42245637      0.53284611
      0.14020947      0.29162544
s              7   1.000000
      0.92936822     -0.06732683
      0.05643440      0.66943958
      0.02166600      0.51460247
      8.31018425     -0.02901940
      1.52066133     -0.13301894
      0.42245637     -0.27246197
      0.14020947     -0.14911781
p              4   1.000000
      0.64737396      0.05713170
      0.16785440      0.28574555
      0.05917387      0.55178731
      0.02355814      0.26323150
 
          83   0
s              4   1.000000
      8.30660154      0.05675242
      1.52000574      0.26014135
      0.42227424      0.53284611
      0.14014902      0.29162544
s              7   1.000000
      0.92936822     -0.06733144
      0.05643440      0.66948541
      0.02166600      0.51463773
      8.30660154     -0.02902899
      1.52000574     -0.13306288
      0.42227424     -0.27255197
      0.14014902     -0.14916706
p              4   1.000000
      0.64737396      0.05713170
      0.16785440      0.28574555
      0.05917387      0.55178731
      0.02355814      0.26323150
 
          84   0
s              4   1.000000
      8.30635908      0.05675242
      1.51996137      0.26014135
      0.42226191      0.53284611
      0.14014493      0.29162544
s              7   1.000000
      0.92936822     -0.06733176
      0.05643440      0.66948851
      0.02166600      0.51464011
      8.30635908     -0.02902964
      1.51996137     -0.13306586
      0.42226191     -0.27255807
      0.14014493     -0.14917040
p              4   1.000000
      0.64737396      0.05713170
      0.16785440      0.28574555
      0.05917387      0.55178731
      0.02355814      0.26323150
 
          85   0
s              4   1.000000
      8.30638544      0.05675242
      1.51996620      0.26014135
      0.42226325      0.53284611
      0.14014538      0.29162544
s              7   1.000000
      0.92936822     -0.06733172
      0.05643440      0.66948819
      0.02166600      0.51463984
      8.30638544     -0.02902957
      1.51996620     -0.13306553
      0.42226325     -0.27255740
      0.14014538     -0.14917003
p              4   1.000000
      0.64737396      0.05713170
      0.16785440      0.28574555
      0.05917387      0.55178731
      0.02355814      0.26323150
 
          86   0
s              4   1.000000
      8.30660250      0.05675242
      1.52000592      0.26014135
      0.42227429      0.53284611
      0.14014904      0.29162544
s              7   1.000000
      0.92936822     -0.06733144
      0.05643440      0.66948540
      0.02166600      0.51463770
      8.30660250     -0.02902899
      1.52000592     -0.13306287
      0.42227429     -0.27255195
      0.14014904     -0.14916705
p              4   1.000000
      0.64737396      0.05713170
      0.16785440      0.28574555
      0.05917387      0.55178731
      0.02355814      0.26323150
 
          87   0
s              4   1.000000
      8.30976353      0.05675242
      1.52058435      0.26014135
      0.42243498      0.53284611
      0.14020237      0.29162544
s              7   1.000000
      0.92936822     -0.06732738
      0.05643440      0.66944496
      0.02166600      0.51460662
      8.30976353     -0.02902053
      1.52058435     -0.13302410
      0.42243498     -0.27247254
      0.14020237     -0.14912358
p              4   1.000000
      0.64737396      0.05713170
      0.16785440      0.28574555
      0.05917387      0.55178731
      0.02355814      0.26323150
 
          88   0
s              4   1.000000
      8.30892771      0.05675242
      1.52043140      0.26014135
      0.42239249      0.53284611
      0.14018827      0.29162544
s              7   1.000000
      0.92936822     -0.06732845
      0.05643440      0.66945565
      0.02166600      0.51461484
      8.30892771     -0.02902276
      1.52043140     -0.13303435
      0.42239249     -0.27249353
      0.14018827     -0.14913507
p              4   1.000000
      0.64737396      0.05713170
      0.16785440      0.28574555
      0.05917387      0.55178731
      0.02355814      0.26323150
 
          89   0
s              4   1.000000
      8.30880971      0.05675242
      1.52040981      0.26014135
      0.42238649      0.53284611
      0.14018628      0.29162544
s              7   1.000000
      0.92936822     -0.06732860
      0.05643440      0.66945715
      0.02166600      0.51461599
      8.30880971     -0.02902308
      1.52040981     -0.13303580
      0.42238649     -0.27249649
      0.14018628     -0.14913670
p              4   1.000000
      0.64737396      0.05713170
      0.16785440      0.28574555
      0.05917387      0.55178731
      0.02355814      0.26323150
 
          90   0
s              4   1.000000
      8.30892185      0.05675242
      1.52043033      0.26014135
      0.42239219      0.53284611
      0.14018817      0.29162544
s              7   1.000000
      0.92936822     -0.06732846
      0.05643440      0.66945572
      0.02166600      0.51461489
      8.30892185     -0.02902278
      1.52043033     -0.13303442
      0.42239219     -0.27249368
      0.14018817     -0.14913516
p              4   1.000000
      0.64737396      0.05713170
      0.16785440      0.28574555
      0.05917387      0.55178731
      0.02355814      0.26323150
 
          91   0
s              4   1.000000
      8.30959494      0.05675242
      1.52055350      0.26014135
      0.42242641      0.53284611
      0.14019953      0.29162544
s              7   1.000000
      0.92936822     -0.06732759
      0.05643440      0.66944711
      0.02166600      0.51460826
      8.30959494     -0.02902098
      1.52055350     -0.13302617
      0.42242641     -0.27247677
      0.14019953     -0.14912590
p              4   1.000000
      0.64737396      0.05713170
      0.16785440      0.28574555
      0.05917387      0.55178731
      0.02355814      0.26323150
 
          92   0
s              4   1.000000
      8.31005780      0.05675242
      1.52063819      0.26014135
      0.42244994      0.53284611
      0.14020734      0.29162544
s              7   1.000000
      0.92936822     -0.06732700
      0.05643440      0.66944119
      0.02166600      0.51460371
      8.31005780     -0.02901974
      1.52063819     -0.13302049
      0.42244994     -0.27246515
      0.14020734     -0.14911954
p              4   1.000000
      0.64737396      0.05713170
      0.16785440      0.28574555
      0.05917387      0.55178731
      0.02355814      0.26323150
 
          93   0
s              4   1.000000
      8.30888356      0.05675242
      1.52042332      0.26014135
      0.42239025      0.53284611
      0.14018753      0.29162544
s              7   1.000000
      0.92936822     -0.06732851
      0.05643440      0.66945621
      0.02166600      0.51461527
      8.30888356     -0.02902288
      1.52042332     -0.13303489
      0.42239025     -0.27249464
      0.14018753     -0.14913568
p              4   1.000000
      0.64737396      0.05713170
      0.16785440      0.28574555
      0.05917387      0.55178731
      0.02355814      0.26323150
 
 [MO]
 Sym= Hole
 Ene= -0.6953214    
 Spin= Alpha
 Occup= 0
           1 -6.0322020E-07
           2 -1.0006564E-02
           3  1.2561485E-02
           4 -1.7815206E-02
           5  7.2839262E-05
           6  2.0704980E-04
           7 -1.2637893E-04
           8  7.3409372E-04
           9  1.0521902E-03
          10 -6.8178604E-04
          11  3.3015003E-03
          12 -2.3593404E-03
          13 -3.0304276E-04
          14  2.1464573E-05
          15 -4.2655788E-04
          16  5.0268916E-04
          17 -2.5656577E-03
          18  1.0805716E-02
          19 -1.6985321E-02
          20  1.4676934E-02
          21  9.9589734E-04
          22 -2.9670828E-04
          23  2.6670852E-04
          24  4.5252909E-05
          25  1.3565605E-03
          26  8.3278567E-03
          27 -5.2585029E-03
          28  1.4437290E-02
          29 -8.2151516E-04
          30 -9.9259708E-04
          31  1.0257812E-03
          32 -8.2968746E-04
          33  8.0816069E-04
          34 -1.0163168E-02
          35  1.3523372E-02
          36 -5.5601615E-02
          37 -7.1696483E-04
          38 -3.6995084E-04
          39  2.8294508E-04
          40 -3.4605767E-04
          41 -1.2127670E-03
          42  2.2521212E-03
          43  1.1734238E-02
          44 -6.7365458E-03
          45 -3.8114950E-04
          46 -3.4349971E-04
          47 -1.5641566E-03
          48  1.7212894E-03
          49  1.2701433E-03
          50  1.2598157E-02
          51 -2.1880548E-02
          52  5.8911085E-02
          53 -1.1464907E-03
          54 -3.7709335E-04
          55  3.4720153E-03
          56  5.6778197E-04
          57 -7.7337679E-04
          58 -7.2805706E-04
          59  3.5530012E-02
          60  4.4444513E-02
          61 -3.4155694E-04
          62 -5.2928686E-04
          63 -1.0896882E-03
          64 -6.8650451E-03
          65  1.8566665E-03
          66  1.9000065E-02
          67 -1.2768649E-02
          68 -9.2403237E-03
          69 -7.5264665E-04
          70 -1.2874157E-03
          71 -9.9167507E-04
          72 -6.4948772E-04
          73 -1.7839892E-02
          74 -1.8337067E-02
          75 -5.9359025E-02
          76 -5.0882980E-02
          77  1.1515149E-02
          78  1.4089583E-03
          79  7.1202307E-03
          80  3.1863556E-03
          81 -1.8679591E-05
          82  3.4025873E-03
          83  1.4476599E-02
          84 -3.8626869E-03
          85  4.9071194E-04
          86 -1.2987118E-03
          87  1.9030954E-03
          88  4.7279568E-03
          89 -1.0938025E-03
          90 -2.5851686E-02
          91 -7.7108167E-02
          92  0.2602027    
          93 -1.3036627E-05
          94  2.1474266E-03
          95  4.9685282E-03
          96 -1.8294493E-02
          97  8.1982454E-03
          98  1.6224599E-02
          99 -1.1949687E-02
         100  1.3584869E-02
         101 -2.3458728E-03
         102 -3.1361496E-04
         103  3.3088832E-03
         104 -7.0180795E-03
         105 -3.1420469E-02
         106 -2.4718557E-02
         107  0.1515496    
         108 -0.2431138    
         109  1.6189691E-02
         110  8.6397445E-03
         111 -8.9738192E-03
         112  1.2934105E-02
         113 -1.0584076E-03
         114  1.2172317E-02
         115  5.5745766E-03
         116 -0.1361758    
         117  6.7360641E-04
         118 -2.5347336E-03
         119  2.0675641E-03
         120  2.4064828E-02
         121  8.6182618E-04
         122 -7.5932272E-02
         123  0.1659518    
         124  0.5564952    
         125 -3.4381525E-04
         126  7.7257012E-03
         127 -1.7304499E-02
         128 -5.3759672E-02
         129 -1.5463345E-03
         130  2.6844736E-02
         131 -2.6358685E-02
         132 -7.1885064E-02
         133  1.0719282E-03
         134 -6.2843813E-03
         135  8.2172332E-03
         136  2.4156446E-02
         137 -3.0932121E-02
         138  0.1933927    
         139 -8.4389344E-02
         140 -0.1042069    
         141  1.6220026E-02
         142 -1.8925823E-02
         143 -1.7844756E-03
         144  6.7295982E-03
         145  8.7994738E-03
         146 -1.5628034E-02
         147 -5.1581366E-03
         148  6.9659138E-03
         149 -3.1662949E-03
         150  6.4695287E-03
         151 -3.2620721E-03
         152 -3.7766781E-03
         153 -1.9344514E-04
         154 -0.1275432    
         155  9.8193437E-02
         156  0.1410040    
         157  1.5675509E-05
         158  7.9413224E-03
         159 -7.1548149E-03
         160 -1.3566837E-02
         161 -9.0949265E-03
         162 -3.4735124E-03
         163  1.7213538E-02
         164 -1.9823245E-04
         165  3.0212887E-03
         166  5.7162968E-03
         167 -4.3449569E-03
         168 -3.6740736E-03
         169  3.0623712E-02
         170  0.1669258    
         171 -0.1421377    
         172 -8.9309320E-02
         173 -1.5827158E-02
         174 -9.0459362E-03
         175  1.7965756E-02
         176  2.2172327E-03
         177  2.3290943E-03
         178 -1.2090363E-02
         179 -4.2763073E-02
         180 -9.8058693E-02
         181 -9.5592637E-04
         182  5.1463809E-04
         183  8.9139622E-03
         184  2.2632379E-02
         185  3.1997036E-02
         186 -0.1634133    
         187 -0.1337223    
         188 -0.1569623    
         189 -1.6264737E-02
         190  1.5111597E-02
         191  2.1105804E-03
         192  1.0005534E-02
         193 -9.2988871E-03
         194  1.6649896E-02
         195 -5.2056960E-03
         196  4.0695635E-03
         197  2.9656743E-03
         198 -4.2270902E-03
         199 -4.3938197E-03
         200 -5.5287220E-03
         201  3.8120971E-04
         202  7.9907574E-02
         203  0.1293289    
         204  0.1789312    
         205 -3.8186405E-05
         206 -4.2259274E-03
         207 -8.1442203E-03
         208 -1.3299608E-02
         209  9.4498629E-03
         210  1.3459348E-02
         211  3.4155652E-02
         212  1.7526267E-02
         213 -3.0316568E-03
         214 -2.6697684E-03
         215 -5.2432464E-03
         216 -4.5813741E-03
         217 -3.1822365E-02
         218 -0.1150807    
         219 -0.1701876    
         220 -0.1113061    
         221  1.6353684E-02
         222  4.2743539E-03
         223  1.8726716E-02
         224  4.0906994E-03
         225  3.1707764E-02
         226  4.0864188E-02
         227  0.1398516    
         228 -0.1846689    
         229 -1.6539488E-02
         230 -1.0361467E-02
         231 -1.1114109E-02
         232  1.2361033E-02
         233 -7.4087428E-03
         234 -1.9024843E-02
         235 -3.3795580E-02
         236  6.2862806E-02
         237  2.1086009E-03
         238  1.8426982E-03
         239  2.9312449E-03
         240 -5.7299370E-03
         241  1.3739799E-02
         242  2.5951063E-02
         243 -5.5315927E-02
         244 -3.3751354E-02
         245 -9.4649298E-03
         246 -3.7874288E-03
         247  4.9282978E-03
         248 -4.9336857E-05
         249  3.9805574E-03
         250  1.1538853E-02
         251 -2.5230905E-03
         252 -7.1150949E-03
         253 -4.1169240E-03
         254 -2.3200342E-03
         255 -1.6888358E-03
         256 -5.9731727E-05
         257  6.1443273E-04
         258 -5.2231476E-03
         259  2.5542520E-02
         260  3.2287911E-02
         261  6.0949023E-06
         262 -8.7521694E-06
         263 -3.1226825E-03
         264 -5.5965339E-04
         265  1.8589736E-03
         266 -1.5256611E-04
         267  1.1851431E-02
         268  1.6619045E-02
         269 -4.2590927E-04
         270  2.4004649E-04
         271 -5.6900247E-04
         272  1.3478880E-03
         273  3.4915521E-03
         274  3.9430880E-03
         275 -1.3650790E-02
         276 -1.2406804E-02
         277 -1.4980017E-03
         278  1.0523106E-03
         279  1.8486953E-03
         280  8.0655079E-04
         281 -4.0290091E-04
         282 -8.5600642E-03
         283 -2.1293463E-02
         284 -1.5601873E-02
         285 -2.6753408E-04
         286  2.7962662E-03
         287 -2.1766059E-04
         288 -7.8040233E-04
         289 -4.1921283E-03
         290 -5.3781914E-03
         291 -3.8817039E-04
         292  2.5453677E-02
         293  2.6055858E-03
         294  7.2568277E-04
         295 -9.0708211E-04
         296 -1.1631299E-03
         297  3.8164237E-04
         298  1.3276103E-02
         299 -2.0194515E-03
         300 -2.1556914E-02
         301 -3.6536081E-04
         302 -7.3759607E-04
         303  1.7876712E-04
         304  2.0057976E-03
         305 -2.1438170E-03
         306  1.6836626E-02
         307  6.9291527E-05
         308 -1.8236782E-02
         309  8.0923823E-04
         310  1.3818149E-05
         311 -8.6231926E-04
         312  8.5859658E-04
         313  7.9558644E-04
         314 -7.2303806E-03
         315 -1.1204496E-03
         316  8.8658789E-03
         317 -5.7540851E-04
         318  2.9758801E-04
         319  1.2966693E-05
         320 -1.5289266E-05
         321 -2.4908010E-04
         322 -1.4836611E-02
         323  4.1617658E-03
         324  2.1595342E-02
         325 -3.0959252E-04
         326  5.4551713E-04
         327 -6.7201618E-04
         328 -1.4146245E-03
         329 -3.2881138E-04
         330 -9.6760048E-03
         331  1.2721212E-03
         332  1.4250463E-02
         333 -3.1435117E-04
         334  2.7301989E-04
         335  1.6110927E-04
         336 -1.2192024E-03
         337  2.0510613E-03
         338  6.6181743E-03
         339 -2.7197339E-03
         340 -6.5318891E-03
         341 -1.2622239E-03
         342 -3.0964913E-04
         343  4.3057365E-04
         344  4.5221546E-04
         345  8.1942731E-04
         346  7.0188753E-03
         347  1.7432841E-04
         348 -8.5934121E-03
         349 -2.5163643E-04
         350 -7.1520207E-04
         351 -4.6703988E-04
         352  9.9377462E-04
         353  9.0208196E-04
         354  2.8546941E-03
         355  1.0123403E-03
         356  1.2154772E-03
         357 -5.2672357E-04
         358 -2.7592675E-04
         359 -1.5294419E-04
         360 -1.5347481E-03
         361 -1.6290664E-04
         362  1.2605397E-03
         363 -7.0582808E-04
         364  2.0839018E-03
         365  6.2110528E-05
         366  1.3913504E-04
         367 -4.1881891E-04
         368 -1.5862886E-03
         369 -7.4217969E-04
         370  1.1660580E-02
         371 -5.0029191E-03
         372 -1.3497545E-02
         373  5.8170804E-04
         374 -1.3362623E-03
         375  5.2332692E-04
         376  1.3700903E-03
         377  1.1778536E-03
         378 -1.5872493E-04
         379  1.5196220E-02
         380 -4.1673727E-02
         381 -1.1683278E-03
         382 -5.0198048E-04
         383 -4.3149531E-04
         384  4.4765431E-04
         385 -9.5638906E-04
         386 -4.6203798E-03
         387 -4.6302648E-03
         388  8.0419565E-03
         389  3.8071742E-04
         390  6.3477107E-04
         391  6.3330145E-04
         392 -2.7112599E-05
         393  3.1767320E-03
         394 -5.0999178E-03
         395 -1.4058349E-02
         396  4.5057712E-03
         397 -1.3535715E-03
         398  8.4959477E-04
         399  1.3340874E-04
         400  2.9712023E-06
         401 -1.1753669E-03
         402  6.2464463E-04
         403  4.0188469E-03
         404 -8.6438959E-04
         405  4.2911840E-04
         406  6.2570430E-04
         407 -5.3387386E-04
         408  2.4233249E-04
         409  9.4273288E-05
         410  5.0202571E-03
         411  1.1116353E-02
         412 -8.9675402E-03
         413 -4.1693416E-05
         414 -2.2689383E-04
         415 -2.8217086E-04
         416  4.0248688E-04
         417  5.3087721E-04
         418  1.1582500E-03
         419  1.0532960E-03
         420 -6.3454185E-04
         421 -3.6234397E-04
         422 -4.8197177E-04
         423  9.0167969E-06
         424  2.0426056E-04
         425 -2.0930804E-03
         426 -8.7803276E-03
         427 -1.1056897E-02
         428  6.8385550E-03
         429  1.1599634E-03
         430  7.3920225E-04
         431  3.5296066E-04
         432  5.2167010E-04
         433  1.7156219E-03
         434  1.3511656E-02
         435 -1.3065618E-02
         436  1.4657646E-02
         437 -7.1235717E-04
         438  4.2828196E-05
         439  3.0949936E-04
         440  3.0158256E-04
         441 -2.7794542E-04
         442 -2.6582070E-03
         443  2.5471083E-03
         444 -3.2235242E-03
         445  3.2512707E-04
         446  4.9406773E-04
         447 -1.4538385E-04
         448  2.6386898E-04
         449 -2.7580472E-05
         450  1.8348946E-05
         451 -5.3413503E-04
         452  7.9145236E-04
         453 -9.5723337E-04
         454 -1.5496735E-03
         455  1.7359554E-04
         456 -4.2883458E-04
         457  2.3265601E-04
         458 -1.8277501E-04
         459  8.6478109E-04
         460  3.1573919E-04
         461  7.0547598E-04
         462  1.8804666E-04
         463 -2.7877185E-04
         464 -5.2016177E-03
         465 -9.1185484E-06
         466 -8.6955121E-04
         467  7.3316172E-05
         468  6.7644729E-04
         469 -8.4176526E-04
         470  2.3578058E-03
         471  5.8825933E-03
         472 -4.0712757E-03
         473 -2.7427513E-03
         474 -2.6392007E-02
         475  1.0259949E-03
         476 -3.6008991E-03
         477 -1.0620337E-03
         478  2.3542328E-03
         479  2.1758860E-02
         480  1.8688256E-03
         481  1.0812233E-02
         482 -3.5816149E-03
         483 -8.9134118E-03
         484  1.7471677E-02
         485  1.0354645E-03
         486 -1.9684280E-03
         487 -1.2183448E-02
         488 -1.0061761E-02
         489 -1.8710442E-02
         490  1.6978777E-03
         491  1.2484954E-04
         492  3.3619308E-03
         493  1.0083157E-03
         494  4.8491010E-04
         495  6.6996843E-05
         496 -1.2199781E-02
         497  9.6494732E-03
         498  1.4760857E-02
         499  2.0199524E-02
         500 -1.8126273E-03
         501 -2.4213940E-03
         502 -1.6443142E-03
         503  2.0684758E-03
         504 -1.7114190E-02
         505 -1.1549157E-03
         506  6.1126105E-03
         507  4.2539043E-03
         508 -1.4107105E-02
         509 -2.0988679E-02
         510 -1.6657802E-03
         511  7.3284628E-03
         512 -9.9275876E-03
         513 -8.0042109E-03
         514  2.3761148E-02
         515 -9.2489837E-04
         516 -1.2561245E-03
         517  3.3945777E-03
         518  1.1358889E-03
         519 -7.3638145E-04
         520 -4.4221859E-05
         521  6.6304612E-03
         522  1.1044095E-02
         523  1.5628202E-02
         524 -2.3993654E-02
         525  1.2109567E-03
         526  1.5446498E-03
         527 -1.8313831E-03
         528  1.9454992E-03
         529  2.1774547E-02
         530  2.4824259E-03
         531 -3.3005772E-03
         532  4.0195179E-03
         533 -1.4995821E-02
         534 -2.3632124E-02
         535 -2.8574411E-03
         536 -7.5992541E-03
         537 -4.5274626E-03
         538 -1.3611156E-02
         539  2.5129454E-02
         540 -6.5003993E-04
         541  2.6326438E-03
         542  1.1508015E-03
         543  6.7365210E-04
         544 -6.3494500E-04
         545 -3.4595942E-04
         546 -2.6868565E-03
         547  5.2599167E-03
         548 -9.5893029E-04
         549 -4.2716283E-03
         550  9.5736183E-04
         551 -6.3685194E-04
         552  1.2325251E-03
         553  2.4118256E-03
         554 -2.2110443E-03
         555 -3.0509071E-04
         556 -1.4903441E-04
         557 -5.9489522E-04
         558 -6.9030008E-04
         559 -3.9978344E-03
         560  1.0104256E-04
         561  9.6449815E-04
         562  1.5784256E-04
         563 -2.5515037E-03
         564 -3.6382818E-04
         565  1.1485355E-03
         566 -6.6217047E-04
         567 -1.9799462E-03
         568 -1.6635515E-03
         569 -7.1658660E-04
         570  2.4365811E-04
         571 -2.9499424E-04
         572  7.6166703E-04
         573  9.6533092E-04
         574 -4.9824017E-04
         575 -2.0850138E-04
         576  5.0432351E-04
         577  5.8658450E-04
         578 -1.6563198E-04
         579 -1.1185237E-03
         580  2.8329174E-04
         581  5.9017318E-04
         582 -6.8947527E-04
         583  5.4092150E-05
         584  2.2965434E-03
         585 -6.6693412E-04
         586 -5.1504938E-04
         587  1.3546402E-03
         588  2.4763987E-04
         589 -5.0245612E-03
         590  1.2758608E-03
         591 -1.3446642E-04
         592 -1.3370531E-03
         593  1.6903934E-03
         594  1.4010749E-03
         595 -2.7321317E-04
         596  4.5366373E-04
         597  5.7705125E-04
         598 -6.4770499E-04
         599 -5.8773963E-04
         600  3.3232456E-05
         601 -6.7393610E-04
         602 -1.0931688E-04
         603 -5.7826063E-04
         604  1.8343901E-03
         605  2.8447140E-04
         606  4.1739029E-04
         607  2.8402882E-04
         608 -2.0102164E-04
         609  2.8712730E-04
         610  3.4489462E-04
         611  5.2266777E-04
         612  5.3459534E-04
         613 -3.8413954E-04
         614 -9.2759635E-04
         615  1.6245418E-04
         616  1.5769407E-04
         617  1.7753213E-04
         618 -1.0572789E-04
         619  1.2557167E-03
         620  1.0088989E-04
         621 -8.6328191E-06
         622 -2.7272626E-04
         623 -3.2747831E-04
         624 -1.5409380E-03
         625  4.2094247E-04
         626  5.4069073E-04
         627 -7.3341111E-04
         628  8.2999264E-05
         629  1.0979577E-03
         630  7.5182477E-05
         631 -1.4468082E-04
         632  4.6381046E-04
         633 -4.4360306E-04
 Sym= Particle
 Ene= -0.6953214    
 Spin= Alpha
 Occup= 2
           1  6.2097024E-05
           2  1.9213201E-03
           3 -2.6594084E-03
           4  3.7377425E-03
           5 -6.6636198E-06
           6 -1.3560454E-04
           7  6.7546446E-04
           8 -5.7624909E-04
           9  1.8143951E-04
          10  1.3258505E-04
          11 -1.8833413E-04
          12 -2.7021488E-05
          13 -2.0612968E-04
          14 -7.3830975E-05
          15  6.6601111E-05
          16  1.6938351E-04
          17  7.1812118E-04
          18 -2.3112423E-03
          19  3.1461420E-03
          20 -3.0789888E-03
          21 -7.0274202E-04
          22 -9.0587237E-05
          23 -3.7496237E-04
          24 -3.8333663E-05
          25  1.9181522E-03
          26  3.9820154E-03
          27  5.5429834E-04
          28  2.2391840E-03
          29 -1.0523045E-03
          30 -1.5758005E-03
          31  5.6216645E-04
          32 -3.4722744E-04
          33 -1.7333437E-03
          34 -1.2295162E-03
          35 -2.3916729E-03
          36  1.4260581E-02
          37  1.8042642E-04
          38 -9.6107229E-05
          39  6.2596460E-04
          40 -4.4852989E-03
          41  6.3929823E-03
          42  2.1689553E-03
          43  2.0516984E-02
          44 -3.4402560E-02
          45 -4.6666735E-03
          46 -1.8889671E-03
          47 -5.2729966E-03
          48  7.5959601E-03
          49  2.7314757E-03
          50  2.7460319E-03
          51 -2.1144815E-03
          52  1.9878551E-02
          53 -2.0864136E-03
          54  6.0522690E-04
          55  6.6037429E-03
          56 -1.0391362E-03
          57 -1.6060056E-03
          58  8.2358019E-03
          59  8.1734300E-02
          60  0.1168405    
          61  9.6524257E-04
          62  1.3980221E-03
          63 -2.0715667E-02
          64 -2.7635714E-02
          65  5.9086205E-03
          66  9.0227090E-03
          67 -4.4203181E-02
          68 -6.4353630E-02
          69 -2.5333206E-03
          70  2.2730870E-04
          71  7.2232122E-03
          72  1.2662435E-02
          73 -1.7092889E-02
          74 -4.2978711E-03
          75 -6.6031501E-02
          76 -8.1471436E-02
          77  1.6870696E-02
          78  1.3097825E-02
          79  1.1088803E-02
          80  2.2618804E-02
          81  2.5574982E-04
          82 -1.8082002E-02
          83  7.5383678E-02
          84  0.1122131    
          85 -1.0613521E-03
          86 -5.0155807E-04
          87 -2.8176418E-02
          88 -1.2406026E-02
          89 -3.7549157E-03
          90 -1.9785151E-02
          91 -7.5851388E-02
          92  0.2020484    
          93  8.1884448E-04
          94  8.5996501E-03
          95  2.1191182E-02
          96 -4.8828300E-02
          97 -6.8373377E-03
          98  2.9444281E-02
          99  0.1550881    
         100 -0.3712226    
         101  4.4618868E-03
         102 -7.4470104E-03
         103 -4.7451876E-02
         104  0.1105314    
         105  6.6931630E-03
         106 -9.1314092E-03
         107 -6.3403323E-02
         108  0.1377349    
         109  7.0009037E-04
         110  3.7977141E-03
         111  1.8829977E-02
         112 -3.2218628E-02
         113 -2.0317819E-02
         114 -5.3420845E-02
         115 -9.7824723E-02
         116  0.2591088    
         117  2.7311265E-02
         118  2.7454412E-02
         119  3.0461924E-02
         120 -9.3828671E-02
         121  1.0025537E-03
         122 -1.0081280E-03
         123 -9.4535295E-03
         124 -2.0354321E-02
         125  5.7763583E-03
         126 -1.3635376E-02
         127 -1.3919865E-02
         128  9.9884523E-03
         129  2.9438967E-02
         130 -5.9726734E-02
         131 -8.3582709E-03
         132  4.7404874E-02
         133 -2.0778809E-02
         134  2.2854721E-02
         135  9.4883982E-04
         136 -1.8821100E-02
         137 -3.1571982E-03
         138 -6.4770752E-03
         139  1.1311348E-02
         140  1.8840356E-02
         141  1.5650339E-03
         142 -1.9311002E-03
         143  4.4350540E-03
         144 -9.2885764E-03
         145  8.3519495E-04
         146  4.4877790E-02
         147 -3.4731030E-02
         148 -4.3694191E-02
         149 -3.1875006E-03
         150 -1.1965462E-02
         151  1.1110139E-02
         152  9.3009360E-03
         153  2.0694202E-03
         154 -2.7763443E-02
         155  1.8478595E-02
         156  2.6308287E-02
         157 -6.5051974E-03
         158  7.0116813E-03
         159 -7.5189408E-04
         160 -7.3112086E-03
         161  1.8196033E-03
         162 -2.1717593E-02
         163  1.3204694E-02
         164  1.9624062E-02
         165 -5.7847211E-03
         166  6.2477440E-03
         167 -4.4348103E-04
         168 -3.2956202E-03
         169 -4.1957092E-03
         170  3.5562873E-02
         171 -2.6432434E-02
         172 -5.4147348E-02
         173 -5.4651638E-04
         174 -7.2793919E-04
         175  1.0973740E-02
         176  1.7705843E-02
         177 -1.1924565E-02
         178 -0.1096002    
         179 -0.1912545    
         180 -0.2120069    
         181  1.9061062E-02
         182  3.4992594E-02
         183  7.3288143E-02
         184  7.9133436E-02
         185 -1.4134472E-04
         186 -3.8596736E-03
         187 -1.1228033E-03
         188  4.9478589E-03
         189  8.2298033E-03
         190 -9.1635360E-04
         191 -5.0775544E-03
         192 -5.8134072E-03
         193 -2.0480521E-03
         194  0.1071937    
         195  0.1544217    
         196  0.2001255    
         197  5.1497230E-03
         198 -2.9230330E-02
         199 -4.5032822E-02
         200 -5.3725693E-02
         201 -3.2792581E-04
         202 -9.6055679E-02
         203 -0.1392035    
         204 -0.1767910    
         205  1.9279250E-03
         206  1.8500680E-02
         207  3.0460350E-02
         208  4.0789373E-02
         209 -3.9702779E-04
         210 -3.0726751E-02
         211 -4.6225011E-02
         212 -5.3758726E-02
         213 -2.2722136E-03
         214  8.7931259E-03
         215  1.3659864E-02
         216  1.9791296E-02
         217  4.0764073E-03
         218  0.1263889    
         219  0.1892447    
         220  0.2390671    
         221 -4.8773787E-03
         222 -3.3332236E-02
         223 -5.3673279E-02
         224 -6.3164935E-02
         225 -1.7101041E-03
         226  3.1385373E-02
         227  0.1391120    
         228 -0.3767892    
         229  1.4184922E-03
         230 -3.8276112E-03
         231 -4.0976200E-02
         232  0.1051949    
         233  1.1743004E-02
         234 -2.4467682E-02
         235 -4.7205344E-02
         236  0.1648160    
         237 -1.1087039E-02
         238  1.3392788E-02
         239  1.5383272E-02
         240 -5.4736752E-02
         241  1.1136694E-02
         242  2.3982890E-02
         243 -5.5878837E-02
         244 -4.8249885E-02
         245 -1.0186116E-02
         246 -1.4622602E-02
         247  1.9505944E-02
         248  1.4322571E-02
         249 -6.4172167E-03
         250 -9.1772908E-03
         251 -4.3953218E-02
         252 -5.2398905E-02
         253  6.4338930E-03
         254  4.8920275E-03
         255  1.0229811E-02
         256  1.1874207E-02
         257  2.3848165E-03
         258 -2.7109170E-03
         259  3.9403465E-02
         260  5.8121845E-02
         261  1.8950657E-03
         262 -1.4901388E-04
         263 -1.2637445E-02
         264 -1.5141304E-02
         265 -2.1175030E-03
         266 -6.0788142E-03
         267  1.7579529E-02
         268  2.2088157E-02
         269  2.7320224E-03
         270  1.8437688E-03
         271 -4.3013645E-03
         272 -3.5112584E-03
         273  3.1161136E-03
         274  1.3629423E-02
         275 -4.4619996E-02
         276 -4.5864128E-02
         277 -2.2926342E-04
         278 -6.3462358E-04
         279  6.3697244E-03
         280  5.9165508E-03
         281 -4.5916559E-03
         282 -8.3102537E-03
         283 -7.4153584E-03
         284 -7.4836588E-03
         285  3.4514219E-03
         286  5.6824079E-03
         287 -2.1013154E-03
         288  1.4583318E-04
         289 -1.0986274E-02
         290 -1.7824445E-02
         291  2.0023283E-02
         292 -3.0678753E-02
         293  7.6758899E-03
         294  9.3882047E-03
         295 -7.1331658E-03
         296  7.3998370E-03
         297  1.7388245E-03
         298  4.2887097E-03
         299 -3.6988531E-03
         300 -7.8226309E-03
         301 -5.9400691E-04
         302 -9.7590295E-04
         303  3.1042768E-04
         304  3.2110985E-03
         305  1.7760771E-03
         306 -7.7567920E-03
         307  1.1855223E-03
         308  1.5705941E-03
         309 -1.5407883E-03
         310  3.6392272E-03
         311 -2.9607867E-03
         312  5.4576615E-04
         313  7.0218928E-04
         314 -4.3863407E-03
         315  7.1533868E-04
         316  7.1844929E-03
         317 -1.0569908E-03
         318 -2.5661630E-04
         319 -1.0472046E-03
         320  8.1345247E-04
         321 -5.7622278E-04
         322  6.5770885E-03
         323 -1.2151150E-03
         324 -1.0979129E-02
         325  7.0553028E-04
         326 -2.3063070E-03
         327  2.3769776E-04
         328  4.1416679E-03
         329  1.5400324E-03
         330  8.0082222E-04
         331 -1.7875865E-03
         332 -2.8835644E-03
         333  2.0550293E-04
         334 -7.5425243E-04
         335  7.8596175E-05
         336  8.1238733E-04
         337 -3.4285297E-03
         338 -8.8283084E-03
         339  5.3176493E-03
         340  6.8807458E-03
         341  1.6820627E-03
         342  6.9374172E-04
         343 -2.1203642E-03
         344 -1.1264528E-03
         345 -9.2409481E-04
         346 -1.0400555E-03
         347  7.0732075E-04
         348  5.1447272E-04
         349  1.0849322E-03
         350  3.6012917E-04
         351 -9.5751381E-04
         352  4.9138689E-05
         353 -4.0478972E-05
         354 -5.3811207E-04
         355 -1.0371434E-03
         356 -2.7647021E-04
         357  7.2224968E-04
         358  6.4640440E-04
         359  2.2684928E-04
         360 -3.7610064E-08
         361 -9.3635888E-04
         362 -9.9595345E-04
         363  7.8236719E-04
         364 -1.6983884E-04
         365  1.7651976E-03
         366  2.0478465E-04
         367 -7.8629813E-04
         368  2.3965524E-04
         369  5.6708313E-04
         370 -3.1662562E-03
         371  9.4804552E-04
         372  2.9970135E-03
         373 -1.1614539E-04
         374  1.5400006E-03
         375 -8.4394804E-04
         376 -1.2509855E-03
         377  1.6141698E-03
         378  9.9259103E-03
         379 -6.3184910E-03
         380  3.3082914E-02
         381 -6.8441604E-04
         382 -2.8968288E-03
         383  8.1388024E-04
         384 -9.1577731E-03
         385 -1.8815179E-03
         386 -6.7397822E-03
         387 -6.8433676E-03
         388  6.4840182E-03
         389  1.0176072E-03
         390  2.6428890E-03
         391  2.3331011E-03
         392 -1.0364334E-03
         393 -2.1793107E-03
         394  4.6371515E-03
         395  1.0692024E-02
         396 -3.5714123E-03
         397  1.8394243E-03
         398 -5.0199672E-04
         399 -3.0759652E-03
         400 -1.5469818E-04
         401  4.4353673E-04
         402  1.5023230E-03
         403  1.8777138E-03
         404 -1.7775329E-03
         405 -1.2424465E-04
         406 -1.6803798E-04
         407 -4.9021200E-04
         408  2.9298675E-04
         409  8.1246304E-05
         410 -5.0107534E-03
         411 -9.5190629E-03
         412  7.9356991E-03
         413 -2.4382623E-04
         414  1.1152868E-03
         415  1.6493661E-03
         416 -1.6255522E-03
         417 -1.5034848E-03
         418  7.6053012E-04
         419  4.4125929E-03
         420 -1.8081167E-03
         421  6.1576749E-04
         422 -3.5913882E-04
         423 -5.8586826E-04
         424  1.9166427E-04
         425  2.9528609E-03
         426  7.9611763E-03
         427  7.1654790E-03
         428 -3.3331388E-03
         429 -2.0447043E-03
         430 -1.4979605E-03
         431 -1.1450791E-03
         432  1.4320558E-03
         433 -1.0103538E-03
         434 -3.7255806E-03
         435  2.1988738E-03
         436 -1.6236999E-03
         437  3.2205615E-04
         438  1.1303114E-03
         439 -9.0995905E-05
         440  8.1645593E-04
         441  7.8509306E-04
         442 -3.1385099E-04
         443  1.6884654E-03
         444 -1.3734667E-03
         445 -4.8841425E-04
         446  2.0777245E-05
         447  2.6712032E-05
         448  3.0492601E-04
         449  1.6651110E-04
         450  2.5559263E-04
         451  5.0168025E-04
         452 -2.6155711E-04
         453  7.4582186E-04
         454  1.1144464E-04
         455  1.6980588E-04
         456  9.3012086E-06
         457 -2.1793214E-06
         458  4.8552451E-04
         459 -8.2462892E-04
         460  5.6784030E-04
         461 -4.2057529E-04
         462  1.9312126E-03
         463 -9.6264586E-04
         464  4.0454557E-04
         465  2.5975358E-05
         466  4.7144196E-03
         467 -6.2930132E-03
         468 -1.2433494E-02
         469  6.2992717E-03
         470  1.1373355E-02
         471  2.5118206E-02
         472 -8.9237541E-03
         473 -1.4033394E-02
         474  1.2212150E-03
         475 -1.1983373E-04
         476  8.8588623E-03
         477  2.7555158E-02
         478 -7.5368576E-02
         479  1.8021489E-03
         480 -9.3124341E-04
         481  2.9557687E-03
         482 -1.4975091E-02
         483  3.7414704E-02
         484 -7.7262777E-03
         485  2.1897694E-03
         486  7.2267679E-03
         487  6.8744831E-03
         488  8.5168453E-03
         489 -5.0495993E-03
         490 -5.1916870E-03
         491  1.4551955E-02
         492 -7.0803980E-03
         493 -9.5981685E-03
         494 -2.0112314E-03
         495 -7.0229387E-03
         496 -6.0401279E-03
         497  9.7894892E-03
         498  6.5798177E-03
         499 -6.5719746E-03
         500 -5.7670861E-03
         501 -5.5671893E-03
         502  5.8935331E-03
         503  4.1317628E-03
         504 -4.7982186E-03
         505 -1.7045778E-03
         506  1.7228395E-02
         507 -6.1207036E-03
         508 -2.6723761E-02
         509  4.8006037E-03
         510  4.4939332E-04
         511 -6.9639506E-04
         512  8.6884317E-04
         513 -3.7583350E-03
         514  2.4930835E-03
         515  1.1636431E-04
         516  2.6092924E-02
         517  3.5583355E-02
         518  4.6337295E-02
         519 -9.0424722E-04
         520  1.9565411E-03
         521 -2.6346276E-02
         522 -3.4256823E-02
         523 -4.5631260E-02
         524  1.1362896E-03
         525  6.7791971E-04
         526 -8.7960800E-03
         527 -1.0317311E-02
         528 -1.7097760E-02
         529  5.9231371E-03
         530 -4.7893943E-03
         531  4.2513903E-02
         532  6.5705866E-02
         533  7.4256867E-02
         534  1.4559539E-02
         535 -4.3660658E-03
         536  2.0293109E-02
         537  4.7456495E-02
         538 -0.1102513    
         539 -4.4769915E-03
         540  8.8250608E-04
         541  3.5810857E-03
         542 -1.2035310E-02
         543  4.4102110E-02
         544 -7.3148933E-04
         545  7.8784516E-03
         546  1.5954623E-02
         547  8.3695501E-03
         548  1.5315771E-02
         549  1.9416738E-03
         550  1.9856713E-04
         551 -7.3658355E-04
         552  6.3042575E-03
         553  9.0030478E-03
         554  3.7423056E-03
         555 -3.0005549E-04
         556 -8.9939300E-04
         557  3.2151504E-03
         558  3.5379480E-03
         559 -3.6723029E-03
         560  1.7549525E-03
         561  5.4144097E-04
         562 -3.7958745E-03
         563 -4.1631944E-03
         564 -2.8172769E-03
         565  1.6905311E-03
         566 -3.9811549E-04
         567 -1.7693288E-03
         568 -3.5575205E-03
         569  1.2271281E-03
         570 -8.4236421E-04
         571 -2.7686954E-03
         572  1.0588826E-04
         573  3.0382904E-03
         574  3.7342170E-04
         575  8.1221847E-04
         576 -1.1555903E-03
         577 -9.1331149E-04
         578  2.1357373E-03
         579 -3.0306473E-04
         580 -9.5855095E-05
         581  1.5373618E-04
         582 -1.3149987E-04
         583  2.0783056E-04
         584 -5.0085335E-04
         585  4.1991909E-04
         586  2.8784547E-04
         587  7.3195748E-05
         588 -2.6633017E-04
         589  1.4669315E-03
         590  3.0453200E-04
         591 -8.7891836E-05
         592 -1.6490597E-03
         593 -1.4208782E-03
         594  6.7975844E-04
         595 -2.6554891E-04
         596 -4.3137700E-04
         597 -1.6164541E-04
         598  6.2896486E-04
         599  9.3038508E-04
         600  3.3628481E-04
         601  1.0499003E-03
         602  9.3630975E-04
         603 -7.1689830E-04
         604 -9.6745283E-04
         605 -1.2999911E-05
         606 -1.6705705E-04
         607  9.5370024E-06
         608 -1.6580654E-04
         609 -4.0435960E-04
         610 -2.9156354E-04
         611 -6.9013529E-04
         612 -2.3929251E-03
         613  1.7541759E-03
         614  2.0042625E-03
         615 -1.2216680E-03
         616 -6.3889293E-04
         617  1.2828181E-03
         618 -8.5245178E-04
         619 -2.6381420E-04
         620 -1.2313166E-03
         621 -8.7443950E-05
         622  1.8141946E-03
         623  5.8530475E-04
         624 -2.7607524E-04
         625  8.2803494E-04
         626  1.7474254E-03
         627  2.1857963E-04
         628  1.0114480E-04
         629 -6.3890620E-04
         630  3.5197331E-04
         631 -3.5110454E-05
         632  2.2251070E-04
         633 -4.9563090E-04
 Sym= Hole
 Ene= -0.2088552    
 Spin= Alpha
 Occup= 0
           1 -7.8116405E-05
           2 -7.0904799E-02
           3  8.6955234E-02
           4 -0.1264203    
           5 -2.5157513E-05
           6  2.3044085E-03
           7 -3.1361035E-03
           8  6.4350180E-03
           9  6.5262308E-03
          10 -5.3694262E-03
          11  2.0969035E-02
          12 -1.4348718E-02
          13 -2.2254151E-03
          14  5.3466391E-04
          15 -2.8391897E-03
          16  2.6188428E-03
          17 -1.8776622E-02
          18  7.4265547E-02
          19 -0.1164611    
          20  0.1027885    
          21  8.8422941E-03
          22 -3.0911164E-03
          23  4.1995146E-03
          24 -5.9849751E-04
          25  1.4312711E-03
          26  3.5132535E-02
          27 -3.5758518E-02
          28  8.0404177E-02
          29 -1.6342048E-03
          30 -4.6329102E-03
          31  4.4821552E-03
          32 -6.9366908E-03
          33  8.1073502E-03
          34 -5.8594689E-02
          35  9.7407825E-02
          36 -0.4141532    
          37 -3.4869269E-03
          38 -1.9565949E-03
          39  1.2039973E-03
          40  1.5835755E-02
          41 -2.7705323E-02
          42 -1.9127296E-03
          43  7.6087895E-03
          44  5.4863617E-02
          45  1.0341169E-02
          46 -1.6911238E-03
          47  3.3288246E-03
          48  4.2229085E-03
          49 -2.8513465E-03
          50  7.5504400E-02
          51 -0.1322628    
          52  0.3631542    
          53  1.4571940E-03
          54 -3.4727720E-03
          55  1.0084925E-02
          56 -1.1952250E-02
          57  3.5999243E-03
          58 -2.8952081E-02
          59 -5.0342314E-02
          60 -0.1367563    
          61 -1.2148184E-03
          62  2.4074607E-03
          63  8.5913278E-03
          64  8.6932303E-03
          65 -3.3120152E-02
          66  5.1896594E-02
          67 -0.1003546    
          68 -7.0154704E-02
          69  1.6693527E-02
          70  4.6013726E-04
          71  6.8761106E-03
          72  2.7090462E-03
          73  1.0246454E-02
          74 -3.4868252E-02
          75  5.7978027E-02
          76  8.6346909E-02
          77 -4.1811387E-03
          78  9.5435127E-04
          79 -2.6099866E-03
          80 -2.4632839E-03
          81 -2.2178206E-03
          82 -1.4165134E-02
          83  7.1986891E-02
          84  0.1270865    
          85  2.1247346E-04
          86  4.1091600E-03
          87  7.5273152E-04
          88 -9.1557158E-03
          89  2.9829929E-03
          90 -4.4862540E-03
          91 -6.3016778E-03
          92 -1.7871376E-02
          93 -1.4606678E-03
          94 -8.9567032E-04
          95 -4.0258557E-04
          96  7.2890795E-03
          97 -9.7994646E-03
          98  1.1109159E-02
          99  4.1062351E-02
         100 -5.4002073E-02
         101  5.9328596E-03
         102 -5.8342022E-04
         103 -3.1616127E-03
         104  1.5386955E-03
         105  8.0925710E-03
         106  1.9941335E-03
         107 -3.1312858E-03
         108 -1.9514125E-02
         109 -3.6746094E-03
         110  1.8870366E-04
         111  2.5999562E-03
         112 -4.4950293E-03
         113  2.4280378E-03
         114 -7.2950573E-04
         115 -7.1618706E-04
         116  2.6665201E-02
         117 -8.4909913E-04
         118  1.9569004E-04
         119  3.8298388E-04
         120 -7.7072112E-03
         121 -1.3836259E-04
         122  9.6683875E-03
         123 -2.3231104E-02
         124 -8.0166496E-02
         125  2.2145655E-04
         126 -2.8671690E-03
         127  2.8411231E-03
         128  9.6273609E-03
         129  4.2234693E-04
         130  9.0907225E-03
         131 -6.2700449E-03
         132 -1.2635398E-03
         133 -7.8361103E-04
         134  1.6508532E-03
         135 -1.4666566E-03
         136 -2.5124068E-03
         137  4.7342768E-03
         138 -2.6504412E-02
         139  9.9606225E-03
         140  1.3857491E-02
         141 -2.3772600E-03
         142  2.5368866E-03
         143 -6.3747924E-04
         144 -1.6197375E-03
         145 -1.5024235E-03
         146 -7.5510396E-03
         147  8.6566051E-03
         148  7.3719951E-03
         149  2.2875449E-04
         150 -1.0324975E-03
         151  1.0091912E-03
         152  3.0754399E-04
         153  3.8845665E-05
         154  1.0048955E-02
         155 -6.4504696E-03
         156 -9.1637205E-03
         157 -1.5333884E-04
         158 -1.0569126E-03
         159  1.2894080E-03
         160  3.0108157E-03
         161  1.6693173E-03
         162 -2.1401835E-03
         163 -3.1829360E-03
         164  1.5773064E-04
         165 -7.1673450E-04
         166 -1.1848907E-03
         167  2.7628677E-04
         168  3.9082632E-04
         169 -5.2474858E-03
         170 -1.2775954E-02
         171  1.5270012E-02
         172  3.5012511E-03
         173  2.1999346E-03
         174  3.1336336E-03
         175 -1.8765453E-03
         176 -5.3825229E-04
         177 -1.5799581E-03
         178  2.5793952E-03
         179  5.5391151E-03
         180  2.0697515E-02
         181  1.2656134E-03
         182 -1.7938083E-03
         183 -1.3888392E-03
         184 -2.0980185E-03
         185 -5.1914579E-03
         186  2.8129797E-02
         187  2.2228509E-02
         188  2.7874552E-02
         189  2.2321332E-03
         190 -8.9950248E-04
         191 -1.1252037E-03
         192 -2.1013638E-03
         193  1.3768842E-03
         194 -2.7917721E-03
         195  2.8590444E-03
         196  1.1950269E-03
         197 -1.9566985E-04
         198  4.4973471E-04
         199  1.0307229E-03
         200  5.2545028E-04
         201 -5.9012364E-04
         202 -1.2912299E-02
         203 -2.0484697E-02
         204 -2.8646477E-02
         205  2.9837145E-04
         206  4.8626421E-04
         207  1.1057114E-03
         208  2.1942439E-03
         209 -1.2719177E-03
         210 -3.1555998E-03
         211 -7.6390118E-03
         212 -4.1921078E-03
         213  5.7298463E-04
         214  4.4546759E-04
         215 -1.3104461E-04
         216  7.1822177E-04
         217  3.9501810E-03
         218  1.9522857E-02
         219  2.6278393E-02
         220  1.3021707E-02
         221 -1.5220084E-03
         222 -8.6882955E-04
         223 -1.7443874E-03
         224 -1.5443420E-03
         225 -7.8380890E-03
         226 -3.5753786E-03
         227 -3.2287773E-02
         228  5.8067176E-02
         229  3.8620995E-03
         230 -4.1830711E-04
         231  2.3736637E-03
         232 -2.1081369E-03
         233  1.2198073E-02
         234 -1.1038780E-02
         235  4.0390883E-03
         236  1.5722549E-02
         237 -7.4656657E-03
         238  1.7956147E-03
         239 -4.5030918E-03
         240  3.8064329E-03
         241 -3.1888487E-03
         242  6.5754256E-03
         243 -3.9405145E-02
         244 -6.7121372E-02
         245  2.1227710E-03
         246 -1.2720943E-03
         247 -1.7793468E-03
         248 -1.3830548E-03
         249  4.4651176E-03
         250 -1.9645388E-03
         251 -6.5505244E-02
         252 -6.2903091E-02
         253 -6.8124523E-04
         254 -1.3916972E-03
         255  1.8099637E-03
         256  3.0244335E-03
         257  2.7111266E-03
         258 -7.9895426E-03
         259  1.5948234E-02
         260  1.7823746E-02
         261 -2.1730908E-03
         262  4.7935007E-04
         263  1.3964769E-03
         264  3.0511385E-03
         265  2.6269930E-03
         266 -1.8475004E-02
         267  8.4433079E-02
         268  0.1150550    
         269 -1.0429318E-03
         270  1.9887888E-03
         271 -2.7152938E-03
         272  7.8169466E-04
         273 -1.7193818E-03
         274 -3.4306657E-02
         275  4.9805161E-02
         276  3.2761835E-02
         277 -3.6327427E-03
         278  5.4586958E-03
         279 -2.4715257E-03
         280 -4.7510769E-03
         281  1.9627089E-02
         282 -1.1980347E-03
         283 -0.1449177    
         284 -9.4664447E-02
         285 -1.1950115E-02
         286  4.1345288E-03
         287  9.8874897E-04
         288 -2.7981627E-04
         289  9.6704066E-03
         290  2.3278676E-02
         291 -6.1328314E-02
         292  0.2182528    
         293 -4.8056850E-03
         294 -6.0574906E-03
         295  9.5631285E-03
         296 -1.3300465E-02
         297 -3.6982337E-03
         298  7.9570889E-02
         299 -1.9597525E-03
         300 -0.1266161    
         301  1.0724639E-03
         302 -4.5449794E-03
         303 -3.6629620E-03
         304  1.2535697E-02
         305 -1.3362173E-02
         306  0.1188013    
         307 -9.2431717E-03
         308 -0.1024833    
         309  8.4234281E-03
         310 -5.8471481E-03
         311 -3.7257832E-03
         312  1.8611382E-03
         313  1.8841863E-03
         314 -3.1549241E-02
         315 -5.5375653E-03
         316  3.5999876E-02
         317  1.8542555E-04
         318  2.5460590E-03
         319 -8.1879064E-04
         320 -2.0491832E-03
         321  8.5177162E-04
         322 -8.9265220E-02
         323  2.3160689E-02
         324  0.1346690    
         325 -1.0073634E-03
         326  4.5895483E-03
         327 -3.5286611E-03
         328 -1.2513889E-02
         329 -6.8630674E-03
         330 -6.0876567E-02
         331  1.3018779E-02
         332  9.4725430E-02
         333  1.3170778E-03
         334  4.6065017E-03
         335 -2.3104112E-04
         336 -1.0521242E-02
         337  2.1541750E-02
         338  4.9976282E-02
         339 -2.9579548E-02
         340 -3.8973592E-02
         341 -1.0142256E-02
         342 -1.7836347E-04
         343  5.5765212E-03
         344  2.3147485E-03
         345  6.9721420E-03
         346  4.3241605E-02
         347 -1.6517021E-03
         348 -4.9593445E-02
         349 -3.9094016E-03
         350 -6.3501913E-03
         351 -9.8457246E-04
         352  7.0876251E-03
         353  3.8103135E-03
         354  1.7089795E-02
         355  8.8915024E-03
         356  6.9853212E-03
         357 -2.8429350E-03
         358 -2.2158271E-03
         359 -1.2019362E-03
         360 -8.7274238E-03
         361 -4.2170065E-04
         362  9.4036842E-03
         363 -4.9993070E-03
         364  1.1270654E-02
         365 -1.2329707E-04
         366  5.1087467E-04
         367 -1.6013875E-03
         368 -9.5869303E-03
         369 -5.2774749E-03
         370  6.7698292E-02
         371 -2.7506676E-02
         372 -7.7171631E-02
         373  3.8428260E-03
         374 -8.7501649E-03
         375  2.8486985E-03
         376  9.9449698E-03
         377  3.6917333E-03
         378 -3.6473218E-02
         379  0.1104289    
         380 -0.3478509    
         381 -5.0965175E-03
         382  2.2692068E-03
         383 -3.4854594E-03
         384  2.1991838E-02
         385  1.2243263E-05
         386 -1.1233252E-02
         387 -3.2029621E-02
         388  4.6835277E-02
         389 -1.8809336E-04
         390  2.2066045E-03
         391  3.3077421E-03
         392 -2.3516195E-03
         393  2.5802340E-02
         394 -3.7343301E-02
         395 -0.1076471    
         396  3.1384453E-02
         397 -1.2784842E-02
         398  4.9860133E-03
         399  5.4197107E-03
         400  6.2349997E-04
         401 -8.6556869E-03
         402  4.5186278E-04
         403  2.4795720E-02
         404 -5.4020896E-03
         405  3.4714276E-03
         406  1.1869083E-03
         407 -3.0372497E-03
         408  4.0990437E-04
         409  8.6033647E-04
         410  4.1627992E-02
         411  8.1229903E-02
         412 -6.7437530E-02
         413  1.6624131E-04
         414 -1.2053747E-03
         415 -4.0793987E-03
         416  4.4485638E-03
         417  7.8901369E-03
         418  1.3726688E-02
         419 -2.4904322E-04
         420 -3.3683039E-03
         421 -3.5907927E-03
         422 -3.3465214E-03
         423  4.6280431E-04
         424  1.5464838E-03
         425 -2.2783747E-02
         426 -7.8325659E-02
         427 -7.9994060E-02
         428  4.5631420E-02
         429  1.2459634E-02
         430  5.9606638E-03
         431  3.8080653E-03
         432  3.7099031E-04
         433  1.6155163E-02
         434  0.1008439    
         435 -9.1020025E-02
         436  0.1010015    
         437 -7.8903697E-03
         438 -4.0814234E-03
         439  3.1255467E-03
         440 -1.1223162E-03
         441 -4.9796738E-03
         442 -1.7910561E-02
         443  1.0647659E-02
         444 -1.5360974E-02
         445  2.4911149E-03
         446  3.0926776E-03
         447 -4.2350875E-04
         448  2.2573958E-03
         449  3.4590284E-04
         450 -2.9089372E-04
         451 -5.1230839E-03
         452  6.0284170E-03
         453 -8.3537456E-03
         454 -1.0769371E-02
         455  4.5058184E-04
         456 -2.1964752E-03
         457  1.5053841E-03
         458 -1.6486619E-03
         459  7.1139666E-03
         460  3.6626894E-04
         461  6.3479496E-03
         462 -3.2865817E-03
         463  1.6955889E-04
         464  5.6940424E-03
         465  2.3715647E-03
         466 -6.7126304E-03
         467 -6.9242828E-03
         468 -4.4038137E-03
         469 -2.0156007E-02
         470 -1.4090188E-03
         471  2.7763483E-03
         472  2.0196876E-03
         473  3.5472075E-03
         474  7.0789671E-03
         475  1.1976825E-03
         476 -2.0239796E-03
         477  7.3373562E-04
         478 -6.4429425E-04
         479 -1.0237522E-02
         480  1.0847676E-04
         481 -7.7507726E-04
         482 -7.7823474E-04
         483  3.3661544E-03
         484 -1.6879735E-03
         485  1.3728427E-04
         486  6.5429305E-04
         487  2.1767942E-03
         488  1.2539948E-03
         489  1.8461038E-03
         490 -5.0635345E-04
         491  3.8962238E-04
         492 -9.1048708E-04
         493  2.5930805E-05
         494  7.1251224E-04
         495 -5.0169252E-05
         496  2.0559255E-03
         497 -1.5772772E-03
         498 -2.8588038E-03
         499 -2.3037661E-03
         500  1.9428690E-04
         501  3.8942980E-04
         502  7.5322262E-04
         503 -9.8000724E-05
         504  5.7289354E-04
         505 -1.6136892E-04
         506 -9.1717683E-04
         507  5.1555404E-04
         508  2.0532834E-03
         509  4.0323357E-03
         510  4.9136230E-05
         511 -1.6900748E-03
         512  1.2961354E-03
         513  6.0482498E-04
         514 -4.6434235E-03
         515 -8.8088811E-05
         516  1.8247047E-04
         517 -8.0329279E-04
         518  1.6955484E-05
         519 -1.1137065E-04
         520 -4.1094725E-05
         521 -8.6098723E-04
         522 -1.5658572E-03
         523 -2.4493143E-03
         524  5.3296569E-03
         525  6.8948066E-05
         526 -5.7519926E-04
         527  7.2509400E-04
         528 -2.2515137E-04
         529 -6.0007973E-03
         530 -7.8081095E-04
         531  4.6230044E-04
         532 -8.9229077E-05
         533  2.3007863E-03
         534  6.6669192E-03
         535  4.9325643E-04
         536  5.6672998E-04
         537  1.0461827E-03
         538  1.0814191E-03
         539 -5.9625800E-03
         540 -9.9920842E-04
         541  3.2892255E-03
         542  3.0746139E-03
         543 -4.0762527E-03
         544 -3.8453410E-03
         545  5.0438195E-04
         546  7.1173994E-04
         547 -2.0910189E-03
         548 -2.1257394E-03
         549  2.5642095E-03
         550 -2.0928551E-03
         551  2.0033997E-03
         552 -3.2213458E-03
         553 -4.3685082E-03
         554 -1.2833843E-02
         555  5.4751395E-04
         556 -3.7831047E-05
         557  1.3709228E-03
         558  1.4230872E-03
         559  8.7343930E-04
         560 -1.5416447E-03
         561  4.4207959E-03
         562  7.6149693E-03
         563 -6.8415874E-03
         564  8.6553171E-03
         565  3.6165519E-03
         566 -4.6333415E-03
         567 -5.0919019E-03
         568 -5.7104426E-03
         569 -1.0650119E-02
         570  1.6460286E-03
         571 -7.7216455E-04
         572  2.9550169E-03
         573  2.6150800E-03
         574 -5.7841535E-03
         575 -2.8853705E-03
         576  4.1721608E-03
         577  5.6819865E-03
         578 -1.7415398E-03
         579 -4.0916367E-03
         580  9.1436057E-04
         581  3.5593668E-03
         582 -3.0957689E-03
         583  2.1557108E-04
         584  1.3454366E-02
         585 -4.6325647E-03
         586 -2.7527655E-03
         587  7.8241387E-03
         588  2.8304937E-03
         589 -2.7149906E-02
         590  7.0520658E-03
         591 -2.5976545E-04
         592 -7.1137110E-03
         593  9.7527672E-03
         594  6.8690507E-03
         595 -1.8546541E-03
         596  2.7322040E-03
         597  3.5663678E-03
         598 -3.6167772E-03
         599 -6.3102329E-03
         600  7.8005873E-04
         601 -7.7900751E-03
         602 -8.3066267E-04
         603 -3.5410349E-03
         604  1.2309557E-02
         605  1.0607786E-03
         606  2.4504652E-03
         607  1.8707165E-03
         608 -8.3471014E-04
         609 -6.6105369E-04
         610  1.3228181E-03
         611  3.7976815E-03
         612  5.0736615E-03
         613 -4.9396604E-03
         614 -1.2493275E-02
         615  1.4622587E-03
         616  1.2925549E-03
         617  1.3618431E-03
         618  4.3180407E-04
         619  9.0027405E-03
         620  2.9574502E-03
         621  3.4171236E-03
         622 -5.6204554E-03
         623 -4.3378072E-03
         624 -8.3429199E-03
         625  4.7519359E-05
         626  2.6322794E-04
         627 -6.0810931E-03
         628  6.3762651E-04
         629  1.0900853E-02
         630 -6.7267352E-04
         631 -1.4450384E-03
         632  2.2528239E-03
         633 -1.6135495E-03
 Sym= Particle
 Ene= -0.2088552    
 Spin= Alpha
 Occup= 2
           1  3.5838972E-04
           2 -1.6745289E-03
           3  1.4622157E-03
           4 -2.4314984E-03
           5  2.1696433E-04
           6  8.0011622E-04
           7  7.1075972E-04
           8  1.4451507E-03
           9  1.1707393E-03
          10  7.1824291E-03
          11 -5.4296851E-03
          12  8.3700269E-03
          13 -3.8401049E-04
          14 -2.9098794E-03
          15  1.0712021E-03
          16 -1.2883104E-03
          17 -1.3138891E-04
          18 -2.7301137E-03
          19  2.3168842E-03
          20 -3.7016650E-03
          21 -7.2610751E-04
          22 -1.8835972E-03
          23 -2.8003650E-04
          24 -1.7155514E-03
          25  7.1654376E-03
          26  6.5397560E-03
          27  8.8421078E-03
          28 -1.8883650E-03
          29 -5.6016380E-03
          30 -6.1345268E-03
          31 -6.6022365E-04
          32  1.0606422E-03
          33 -7.6312157E-03
          34 -5.6975842E-03
          35 -3.7451643E-03
          36  9.2671122E-03
          37  1.4118538E-03
          38 -4.3417849E-03
          39  5.2300175E-03
          40 -7.4282736E-03
          41  1.8391430E-02
          42  1.2134706E-03
          43  6.8345539E-02
          44 -0.1191028    
          45 -1.6166845E-02
          46 -9.7895619E-03
          47 -1.6973961E-02
          48  3.0145396E-02
          49  7.5265272E-03
          50  2.0186832E-02
          51 -2.4270758E-02
          52  0.1256461    
          53 -1.0510687E-02
          54 -1.1005804E-02
          55  2.9732816E-02
          56 -3.8673360E-02
          57 -2.4395515E-03
          58  2.2722231E-02
          59  0.2428367    
          60  0.3391688    
          61  4.2390020E-04
          62 -3.4134462E-03
          63 -6.9693409E-02
          64 -9.5775932E-02
          65 -8.2244882E-03
          66  6.7692669E-03
          67 -0.1689502    
          68 -0.2357212    
          69  4.4321506E-03
          70  1.9585693E-03
          71  4.5030639E-02
          72  6.5017246E-02
          73  3.7552360E-03
          74  2.1547021E-02
          75 -0.1031183    
          76 -0.1602882    
          77 -2.0377014E-03
          78 -1.1653399E-02
          79  1.9550644E-02
          80  3.2261070E-02
          81  1.2159051E-03
          82 -5.2078798E-02
          83  0.1973244    
          84  0.3020467    
          85  2.0294972E-03
          86  1.2496603E-02
          87 -3.9504815E-02
          88 -6.5697566E-02
          89 -2.4266086E-05
          90  4.4519305E-03
          91 -2.3564531E-03
          92 -9.4149290E-03
          93  1.0344469E-03
          94 -5.7955030E-03
          95  1.3028495E-02
          96  1.8272992E-02
          97 -2.2510607E-02
          98  1.1733070E-02
          99  1.5861593E-02
         100  5.9294544E-02
         101  1.6209723E-02
         102 -1.1597185E-02
         103 -3.4288412E-03
         104 -2.2569735E-02
         105  9.3335118E-03
         106  2.4890102E-04
         107  3.3277318E-02
         108 -9.0196438E-02
         109 -7.9837106E-03
         110 -3.1463376E-03
         111 -6.2824436E-03
         112  2.0486826E-02
         113  7.6713241E-03
         114  9.5533859E-03
         115 -4.6063419E-03
         116  3.7491091E-02
         117 -1.0353891E-02
         118 -6.9673900E-03
         119 -2.5493726E-03
         120 -2.1600849E-03
         121 -6.5094314E-04
         122  7.6587177E-03
         123 -1.1260726E-02
         124 -4.3905038E-02
         125 -2.3118425E-03
         126  3.1676902E-03
         127  8.6441850E-03
         128  1.3888658E-02
         129 -2.5831237E-03
         130  2.9922452E-02
         131 -1.9038636E-02
         132 -2.7939899E-02
         133  1.9306483E-04
         134 -8.6513599E-03
         135  5.9280847E-03
         136  7.6462822E-03
         137  2.2737621E-03
         138 -1.8198892E-02
         139  9.4838077E-03
         140  1.1588892E-02
         141 -2.0105655E-03
         142  5.6843106E-03
         143 -4.0880213E-03
         144 -1.5979392E-03
         145 -9.7792843E-05
         146 -2.0717602E-02
         147  1.5592273E-02
         148  2.0413876E-02
         149  7.4959703E-04
         150  4.2515681E-03
         151 -4.7534690E-03
         152 -3.9874357E-03
         153 -3.9521721E-04
         154  3.0336348E-02
         155 -2.2228997E-02
         156 -3.0950759E-02
         157  1.4030461E-03
         158 -5.8273165E-03
         159  3.5906797E-03
         160  6.9121891E-03
         161  6.9635385E-04
         162  1.3000428E-03
         163 -1.3583822E-03
         164 -1.6895852E-03
         165  8.4862369E-04
         166 -1.3127418E-03
         167 -9.8502240E-04
         168  1.4601384E-03
         169 -1.2694661E-03
         170 -3.4123033E-02
         171  2.5376873E-02
         172  3.0401014E-02
         173  1.2321306E-03
         174  5.1304586E-03
         175 -7.2288099E-03
         176 -5.9142984E-03
         177 -3.6584747E-03
         178  3.8918275E-02
         179  4.7286034E-02
         180  6.5728538E-02
         181  4.4368682E-04
         182 -1.3745684E-02
         183 -2.0905143E-02
         184 -2.6837273E-02
         185 -1.6684532E-03
         186  1.4060679E-02
         187  1.6263153E-02
         188  1.9394187E-02
         189 -5.9694587E-04
         190 -2.6095880E-03
         191 -8.0998056E-04
         192 -4.0136143E-03
         193  6.9751649E-04
         194 -3.6767382E-02
         195 -5.2794937E-02
         196 -6.8289995E-02
         197 -1.1333122E-03
         198  1.1069335E-02
         199  1.6051643E-02
         200  1.9603277E-02
         201 -6.5552094E-04
         202  2.4169909E-02
         203  3.3857640E-02
         204  4.1899715E-02
         205  8.3533826E-04
         206 -5.4895678E-03
         207 -8.2810381E-03
         208 -1.1125633E-02
         209 -9.8793150E-04
         210  1.4219541E-02
         211  1.9371422E-02
         212  2.3576941E-02
         213  2.2515254E-03
         214 -3.6798718E-03
         215 -4.7827344E-03
         216 -6.2812003E-03
         217  8.3461573E-04
         218 -2.9137246E-02
         219 -4.7698747E-02
         220 -7.0674784E-02
         221  1.5721839E-03
         222  6.2789638E-03
         223  1.4161502E-02
         224  2.0946452E-02
         225 -1.1322719E-02
         226 -2.9687549E-03
         227 -5.3448331E-02
         228  0.1355338    
         229  6.5271524E-03
         230  5.0457061E-04
         231  1.8815661E-02
         232 -3.9513245E-02
         233  2.2305150E-02
         234 -8.5125463E-03
         235  9.1967054E-02
         236 -0.1712018    
         237 -1.5473653E-02
         238  8.3140237E-03
         239 -2.0578755E-02
         240  4.7233794E-02
         241 -1.1339557E-02
         242  1.6299799E-02
         243  1.2214005E-02
         244  9.3662292E-03
         245  1.1033947E-02
         246 -4.8074177E-03
         247 -1.0868724E-02
         248 -3.7373411E-03
         249  6.5983669E-03
         250  1.7758908E-02
         251 -0.1967534    
         252 -0.2339632    
         253 -4.1064890E-03
         254 -3.5837232E-03
         255  4.1224275E-02
         256  4.4108357E-02
         257 -2.0629717E-03
         258 -1.2631210E-02
         259  0.1023677    
         260  0.1307377    
         261  2.1698661E-03
         262  2.7045491E-04
         263 -1.7766370E-02
         264 -2.4514971E-02
         265 -9.4392413E-04
         266 -3.4845565E-02
         267  0.1587124    
         268  0.1998044    
         269  3.3565334E-03
         270  8.6150570E-03
         271 -3.9091472E-02
         272 -4.9041741E-02
         273  1.0954525E-03
         274  6.0676701E-02
         275 -0.2107787    
         276 -0.2475994    
         277  1.0189902E-03
         278 -1.8482368E-02
         279  5.0219342E-02
         280  5.4166704E-02
         281  3.4634813E-03
         282 -4.2448048E-03
         283 -5.4676622E-02
         284 -5.2427404E-02
         285  4.4313955E-04
         286  3.1982535E-03
         287  2.0114591E-02
         288  2.0516478E-02
         289 -2.8180499E-02
         290 -6.3466758E-02
         291  7.2781160E-02
         292 -0.1351541    
         293  1.7624324E-02
         294  3.2440279E-02
         295 -3.0576827E-02
         296  4.3600749E-02
         297  4.8791319E-03
         298  2.1725263E-02
         299 -1.0398637E-02
         300 -3.9633639E-02
         301 -7.0323437E-03
         302 -1.0010245E-02
         303  1.8004958E-03
         304  2.1273699E-02
         305  1.1562610E-02
         306 -3.6646117E-02
         307  1.7837973E-03
         308  1.0940878E-02
         309 -1.1336094E-02
         310  1.7090458E-02
         311 -6.4298874E-03
         312  7.4477436E-04
         313 -1.4055845E-03
         314 -1.4977553E-02
         315  5.4704407E-03
         316  1.9303398E-02
         317  8.3131297E-04
         318 -1.8087927E-04
         319 -4.5012766E-03
         320  1.4156963E-03
         321 -2.5518585E-03
         322  2.4403017E-02
         323 -4.7756205E-03
         324 -3.9224051E-02
         325  4.3566264E-03
         326 -7.0765549E-03
         327  6.1331625E-04
         328  1.1438296E-02
         329  6.6200844E-03
         330  1.2693425E-03
         331 -5.4093646E-03
         332 -1.0351907E-02
         333  7.7742239E-04
         334 -1.8492966E-03
         335  1.6384273E-03
         336  4.2238669E-03
         337 -1.3568347E-02
         338 -3.6916640E-02
         339  1.8452628E-02
         340  3.0543366E-02
         341  7.1144383E-03
         342  3.3279702E-03
         343 -6.4116223E-03
         344 -4.3516210E-03
         345 -4.7324733E-03
         346 -3.6335995E-03
         347  4.1443319E-03
         348  1.8343600E-03
         349  5.4718540E-03
         350  1.2304455E-03
         351 -5.1529589E-03
         352 -1.2430376E-04
         353 -1.4199934E-03
         354 -2.2587623E-03
         355 -3.6892572E-03
         356 -2.1844686E-03
         357  5.3696856E-03
         358  2.1374640E-03
         359  1.8014137E-03
         360  1.1774177E-03
         361 -3.2653210E-03
         362 -4.9360320E-03
         363  2.2897071E-03
         364  6.5305975E-04
         365  7.0692650E-03
         366  2.5407430E-03
         367 -1.8262443E-03
         368 -5.7289377E-04
         369  1.2506620E-03
         370 -1.2011160E-02
         371  3.6659609E-03
         372  1.1343232E-02
         373 -7.4724376E-04
         374  5.7301703E-03
         375 -1.4807417E-03
         376 -5.5323965E-03
         377  5.5632405E-03
         378  3.6443841E-02
         379 -2.8793313E-02
         380  0.1403607    
         381 -5.7873861E-03
         382 -1.5829278E-02
         383  3.7626543E-03
         384 -4.2903930E-02
         385 -4.9214344E-03
         386 -4.2204890E-02
         387 -6.4382814E-02
         388  5.2666418E-02
         389  1.9635609E-03
         390  1.6868042E-02
         391  2.0741912E-02
         392 -1.3066389E-02
         393 -8.8549452E-03
         394  2.8191825E-02
         395  5.8587909E-02
         396 -2.4793297E-02
         397  6.7536626E-03
         398 -5.9482888E-03
         399 -1.8497212E-02
         400  4.1467864E-03
         401  2.6031875E-03
         402  1.3667703E-02
         403  2.1779258E-02
         404 -1.8098727E-02
         405 -1.4153896E-03
         406 -1.6637278E-03
         407 -4.4123712E-03
         408  3.5646872E-03
         409 -2.4304916E-04
         410 -3.2718323E-02
         411 -6.4095840E-02
         412  5.0218582E-02
         413  1.8454630E-04
         414  6.1966823E-03
         415  1.3463119E-02
         416 -1.0024747E-02
         417 -4.9490249E-03
         418  4.9572038E-03
         419  2.2536650E-02
         420 -1.1610943E-02
         421  2.9022859E-03
         422 -2.9244827E-04
         423 -4.5223832E-03
         424  2.4023319E-03
         425  1.1599828E-02
         426  4.3955307E-02
         427  5.2991766E-02
         428 -3.1538326E-02
         429 -7.6847328E-03
         430 -1.2409147E-02
         431 -1.2233215E-02
         432  1.1764507E-02
         433 -2.0021568E-03
         434  1.0668312E-03
         435 -4.5794728E-03
         436  8.3262036E-03
         437 -5.6168984E-04
         438  9.0814132E-04
         439  1.3178054E-03
         440  2.6484402E-03
         441  2.4636479E-03
         442 -2.5722026E-03
         443  7.1296277E-03
         444 -4.9312250E-03
         445 -1.8297668E-03
         446  1.6060747E-03
         447 -2.0531232E-03
         448  1.7214080E-03
         449  1.2665421E-04
         450  1.3920816E-03
         451  5.0409755E-04
         452  2.2331043E-03
         453 -6.2828226E-04
         454 -2.8560305E-04
         455  1.0739698E-03
         456  1.3060574E-03
         457 -6.3091313E-04
         458  2.4095869E-03
         459 -1.3430064E-03
         460  1.5298510E-03
         461 -2.8162746E-04
         462  6.6325269E-03
         463 -5.5452972E-03
         464  1.2190346E-02
         465 -8.1546064E-03
         466  8.1682252E-03
         467 -3.5911899E-02
         468 -4.7115590E-02
         469  1.8390621E-03
         470 -5.3041694E-03
         471 -8.4424056E-03
         472 -1.8961055E-02
         473 -2.7728153E-02
         474  8.6667808E-03
         475 -2.5281377E-04
         476 -9.0967044E-03
         477 -1.3345114E-02
         478  2.9323189E-02
         479 -1.4457280E-02
         480  2.1019061E-03
         481 -3.7906589E-03
         482  8.9495946E-03
         483 -2.4513682E-02
         484 -8.1644350E-05
         485 -1.5550753E-04
         486 -2.4410095E-03
         487 -2.7907268E-05
         488 -2.9557658E-04
         489  1.1348599E-03
         490  1.4378623E-03
         491 -5.9750900E-03
         492  3.1089170E-03
         493  4.5471531E-03
         494  4.5406978E-04
         495  1.4327198E-03
         496  6.9247573E-03
         497 -5.4345722E-03
         498 -6.4617353E-03
         499 -1.2295636E-03
         500  1.8861810E-03
         501  7.5001037E-04
         502 -1.3994946E-03
         503  2.6859291E-04
         504 -9.7916243E-05
         505  1.5792089E-03
         506 -9.5605245E-03
         507  8.2254307E-03
         508  1.3223268E-02
         509  1.8170857E-03
         510 -6.8616075E-04
         511 -4.3269526E-04
         512  2.6808626E-03
         513  2.6090555E-03
         514 -4.7122504E-04
         515  8.2110916E-04
         516 -9.5561165E-03
         517 -1.2307840E-02
         518 -1.5807778E-02
         519  1.0348894E-03
         520  2.8841899E-04
         521  7.2531812E-03
         522  9.7773047E-03
         523  1.1980687E-02
         524  3.0123985E-03
         525 -1.7070374E-04
         526  3.2807072E-03
         527  4.6860576E-03
         528  6.9286763E-03
         529 -8.4233686E-04
         530  1.8406719E-03
         531 -1.5032423E-02
         532 -1.8116439E-02
         533 -2.4254292E-02
         534  7.2306697E-03
         535 -1.0255281E-03
         536 -3.5701573E-03
         537 -1.6396780E-02
         538  3.7331544E-02
         539 -7.2974996E-03
         540 -4.0129232E-03
         541  7.9928311E-03
         542  1.3266370E-02
         543 -2.8034680E-02
         544 -3.3734760E-03
         545 -1.5214690E-03
         546  1.9118487E-03
         547 -3.3300914E-02
         548 -4.7414269E-02
         549  3.5512191E-03
         550 -1.2519372E-03
         551 -3.6347143E-03
         552  2.0273920E-02
         553  2.5689201E-02
         554  5.6645917E-03
         555 -1.0066396E-03
         556 -7.8786099E-03
         557  3.4566652E-02
         558  4.2703871E-02
         559  2.0033603E-04
         560  1.7679672E-03
         561 -4.5809447E-04
         562 -2.9873811E-02
         563 -3.3405598E-02
         564 -9.0756007E-03
         565  9.5061224E-04
         566  1.7222387E-03
         567  2.3862419E-03
         568 -1.3634710E-02
         569  5.6119296E-03
         570 -7.8863418E-04
         571 -2.5639744E-03
         572 -1.5447502E-03
         573  6.4494219E-03
         574  3.3482981E-03
         575  8.5122115E-04
         576 -7.9382472E-03
         577 -1.3611632E-03
         578  5.3912993E-03
         579 -8.6135202E-04
         580  1.3135639E-03
         581 -5.6508090E-04
         582  1.2435357E-03
         583 -6.3121831E-04
         584 -2.5392344E-04
         585  6.7829271E-04
         586  3.3075231E-04
         587  1.4721140E-03
         588  1.1392795E-03
         589  5.5511803E-03
         590  2.4826315E-03
         591  9.1803487E-04
         592 -7.6544089E-03
         593 -6.6865725E-03
         594  2.2657965E-03
         595  5.2939157E-04
         596 -1.4184343E-03
         597  1.9966147E-03
         598  2.5413828E-03
         599  3.7454178E-03
         600 -4.9409200E-04
         601  4.8025632E-03
         602  1.0632093E-02
         603 -3.6908083E-03
         604 -4.6983832E-03
         605  5.0700986E-04
         606  2.5247417E-03
         607  4.1410252E-03
         608 -4.5410800E-03
         609 -3.2528760E-04
         610 -5.2265800E-04
         611 -8.0888327E-03
         612 -1.2778579E-02
         613  1.1577551E-02
         614  5.2970350E-03
         615 -1.3404053E-03
         616 -6.7841244E-04
         617  3.2728543E-03
         618 -3.8645149E-03
         619 -2.5448382E-03
         620 -1.9685363E-03
         621  8.4579899E-04
         622  1.4722433E-02
         623 -4.5961472E-03
         624 -1.0693404E-04
         625  1.4201369E-03
         626  1.0301968E-02
         627 -6.6027360E-04
         628  4.8790863E-03
         629 -1.6002932E-03
         630  1.1029388E-03
         631  1.1798512E-03
         632  5.9451355E-04
         633 -2.4949582E-03
