 [Molden Format]
 [Atoms] Angs
N       1      7     -0.00398641     -1.24791728      0.47002479
C       2      6     -0.00179658     -0.10552100      0.34855124
C       3      6     -0.00046964      1.30090858      0.29402740
C       4      6     -1.20332526      2.03915340      0.33645580
C       5      6     -2.52023220      1.42194671      0.20354512
C       6      6     -3.60198369      1.98680627      0.88188759
C       7      6     -4.85649946      1.42568237      0.79507719
C       8      6     -5.06542632      0.29532767      0.00381602
N       9      7     -6.33126765     -0.28223239     -0.08412050
C      10      6     -7.51946096      0.39117671     -0.30773576
C      11      6     -7.74062492      1.73776606     -0.55705586
C      12      6     -9.04122024      2.14709803     -0.78411324
C      13      6    -10.10066911      1.24331205     -0.77618951
C      14      6     -9.88277861     -0.10262411     -0.55857238
C      15      6     -8.58463292     -0.53719802     -0.32771365
C      16      6     -8.00519896     -1.83165323     -0.09659581
C      17      6     -8.53982780     -3.10811860      0.01501862
C      18      6     -7.68600673     -4.16190827      0.27343822
C      19      6     -6.31920693     -3.95143520      0.43795215
C      20      6     -5.76424114     -2.68992327      0.33177127
C      21      6     -6.61357112     -1.63175077      0.04328697
C      22      6     -3.99462880     -0.24935561     -0.70478640
C      23      6     -2.73666336      0.30439588     -0.60235940
N      24      7     -1.17738600      3.35739428      0.52281398
C      25      6     -0.00135594      3.93740347      0.63737089
N      26      7      1.17483635      3.35819910      0.52159670
C      27      6      1.20204439      2.03971930      0.33600140
C      28      6      2.51979796      1.42426268      0.20401085
C      29      6      2.73663773      0.29988336     -0.59228270
C      30      6      3.99546046     -0.25220466     -0.69273840
C      31      6      5.06714562      0.30170816      0.00730414
N      32      7      6.33379713     -0.27428632     -0.07938276
C      33      6      7.51958220      0.39811196     -0.31806488
C      34      6      7.73760579      1.74254863     -0.58131905
C      35      6      9.03606550      2.15088678     -0.82198425
C      36      6     10.09635124      1.24808100     -0.81400805
C      37      6      9.88140523     -0.09593612     -0.58211292
C      38      6      8.58549312     -0.52947945     -0.33718034
C      39      6      8.00912246     -1.82218698     -0.08920235
C      40      6      8.54563713     -3.09715679      0.03067205
C      41      6      7.69469504     -4.14893443      0.30603631
C      42      6      6.32898330     -3.93794196      0.47912803
C      43      6      5.77213840     -2.67804583      0.36458871
C      44      6      6.61843101     -1.62218675      0.05907752
C      45      6      4.85812804      1.43928719      0.78809555
C      46      6      3.60241941      1.99790195      0.87379878
H      47      1     -3.43095246      2.85882755      1.49366138
H      48      1     -5.67941571      1.84268975      1.35530330
H      49      1     -6.92596148      2.44520784     -0.58871378
H      50      1     -9.23884115      3.19127354     -0.97638266
H      51      1    -11.10296048      1.60312658     -0.95456385
H      52      1    -10.70041704     -0.80726291     -0.57219097
H      53      1     -9.60205193     -3.26695847     -0.09323620
H      54      1     -8.08040693     -5.16322586      0.36116196
H      55      1     -5.67751780     -4.79160021      0.65795238
H      56      1     -4.70640881     -2.53812847      0.48339272
H      57      1     -4.16165734     -1.09593366     -1.35291522
H      58      1     -1.92797346     -0.11456901     -1.18153835
H      59      1     -0.00166481      5.00343145      0.82706885
H      60      1      1.92759801     -0.12622055     -1.16563667
H      61      1      4.16244944     -1.10485297     -1.33287682
H      62      1      6.92207474      2.44897848     -0.61317609
H      63      1      9.23124543      3.19342098     -1.02533208
H      64      1     11.09689048      1.60707335     -1.00353511
H      65      1     10.69955285     -0.79999159     -0.59541920
H      66      1      9.60711267     -3.25620181     -0.08437085
H      67      1      8.09042248     -5.14911885      0.40048172
H      68      1      5.68990552     -4.77644266      0.71265385
H      69      1      4.71539702     -2.52525952      0.52276434
H      70      1      5.68192462      1.86376486      1.34138461
H      71      1      3.43106851      2.87525671      1.47779575
 [GTO]
           1   0
s              4   1.000000
     53.07900665     -0.01198412
      9.14064416     -0.05472052
      0.73448976      0.58055871
      0.27993223      0.47700800
p              4   1.000000
      6.25652740      0.05713170
      1.62222413      0.28574555
      0.57188421      0.55178731
      0.22767696      0.26323149
s              7   1.000000
      0.47894987     -0.19075730
      0.05878681      0.92166915
      0.02775758      0.24204431
     53.07900665      0.00456589
      9.14064416      0.02084827
      0.73448976     -0.22119026
      0.27993223     -0.18173790
p              7   1.000000
      2.28619608     -0.01184629
      0.12644335      0.58214494
      0.04872781      0.60796393
      6.25652740     -0.02824413
      1.62222413     -0.14126369
      0.57188421     -0.27278645
      0.22767696     -0.13013344
 
           2   0
s              4   1.000000
     32.74906681     -0.01198412
      5.63966029     -0.05472053
      0.45317077      0.58055871
      0.17271460      0.47700799
p              4   1.000000
      5.27836767      0.05713170
      1.36860192      0.28574555
      0.48247453      0.55178731
      0.19208142      0.26323149
s              7   1.000000
      0.38350848     -0.19846509
      0.04707223      0.95891037
      0.02222627      0.25182442
     32.74906681      0.00586574
      5.63966029      0.02678347
      0.45317077     -0.28415984
      0.17271460     -0.23347598
p              7   1.000000
      1.83062075     -0.01173575
      0.10124670      0.57671252
      0.03901771      0.60229056
      5.27836767     -0.02687523
      1.36860192     -0.13441711
      0.48247453     -0.25956539
      0.19208142     -0.12382631
 
           3   0
s              4   1.000000
     35.08361601     -0.01198412
      6.04168898     -0.05472053
      0.48547549      0.58055871
      0.18502673      0.47700799
p              4   1.000000
      5.65464127      0.05713170
      1.46616404      0.28574555
      0.51686820      0.55178731
      0.20577413      0.26323149
s              7   1.000000
      0.38350848     -0.19609267
      0.04707223      0.94744774
      0.02222627      0.24881416
     35.08361601      0.00549328
      6.04168898      0.02508280
      0.48547549     -0.26611655
      0.18502673     -0.21865096
p              7   1.000000
      1.83062075     -0.01160386
      0.10124670      0.57023122
      0.03901771      0.59552179
      5.65464127     -0.02516312
      1.46616404     -0.12585392
      0.51686820     -0.24302948
      0.20577413     -0.11593781
 
           4   0
s              4   1.000000
     35.34580442     -0.01198412
      6.08684000     -0.05472053
      0.48910357      0.58055871
      0.18640947      0.47700800
p              4   1.000000
      5.69689978      0.05713170
      1.47712104      0.28574555
      0.52073088      0.55178731
      0.20731194      0.26323149
s              7   1.000000
      0.38350848     -0.19585202
      0.04707223      0.94628498
      0.02222627      0.24850880
     35.34580442      0.00545434
      6.08684000      0.02490499
      0.48910357     -0.26423005
      0.18640947     -0.21710095
p              7   1.000000
      1.83062075     -0.01159048
      0.10124670      0.56957383
      0.03901771      0.59483525
      5.69689978     -0.02498403
      1.47712104     -0.12495823
      0.52073088     -0.24129988
      0.20731194     -0.11511271
 
           5   0
s              4   1.000000
     35.11788813     -0.01198412
      6.04759092     -0.05472052
      0.48594973      0.58055871
      0.18520747      0.47700800
p              4   1.000000
      5.66016511      0.05713170
      1.46759629      0.28574555
      0.51737311      0.55178731
      0.20597515      0.26323149
s              7   1.000000
      0.38350848     -0.19606095
      0.04707223      0.94729443
      0.02222627      0.24877390
     35.11788813      0.00548816
      6.04759092      0.02505941
      0.48594973     -0.26586845
      0.18520747     -0.21844712
p              7   1.000000
      1.83062075     -0.01160209
      0.10124670      0.57014454
      0.03901771      0.59543129
      5.66016511     -0.02513957
      1.46759629     -0.12573613
      0.51737311     -0.24280203
      0.20597515     -0.11582931
 
           6   0
s              4   1.000000
     35.02808042     -0.01198412
      6.03212529     -0.05472053
      0.48470701      0.58055871
      0.18473384      0.47700799
p              4   1.000000
      5.64569026      0.05713170
      1.46384318      0.28574555
      0.51605002      0.55178731
      0.20544841      0.26323149
s              7   1.000000
      0.38350848     -0.19614426
      0.04707223      0.94769700
      0.02222627      0.24887961
     35.02808042      0.00550160
      6.03212529      0.02512078
      0.48470701     -0.26651953
      0.18473384     -0.21898207
p              7   1.000000
      1.83062075     -0.01160672
      0.10124670      0.57037215
      0.03901771      0.59566897
      5.64569026     -0.02520137
      1.46384318     -0.12604524
      0.51605002     -0.24339894
      0.20544841     -0.11611406
 
           7   0
s              4   1.000000
     35.00576503     -0.01198412
      6.02828240     -0.05472052
      0.48439821      0.58055871
      0.18461615      0.47700799
p              4   1.000000
      5.64209355      0.05713170
      1.46291061      0.28574555
      0.51572126      0.55178731
      0.20531752      0.26323149
s              7   1.000000
      0.38350848     -0.19616506
      0.04707223      0.94779746
      0.02222627      0.24890601
     35.00576503      0.00550495
      6.02828240      0.02513608
      0.48439821     -0.26668179
      0.18461615     -0.21911539
p              7   1.000000
      1.83062075     -0.01160788
      0.10124670      0.57042894
      0.03901771      0.59572827
      5.64209355     -0.02521677
      1.46291061     -0.12612227
      0.51572126     -0.24354770
      0.20531752     -0.11618502
 
           8   0
s              4   1.000000
     35.13339869     -0.01198412
      6.05026197     -0.05472052
      0.48616436      0.58055871
      0.18528927      0.47700800
p              4   1.000000
      5.66266505      0.05713170
      1.46824449      0.28574555
      0.51760162      0.55178731
      0.20606612      0.26323149
s              7   1.000000
      0.38350848     -0.19604661
      0.04707223      0.94722518
      0.02222627      0.24875571
     35.13339869      0.00548584
      6.05026197      0.02504885
      0.48616436     -0.26575632
      0.18528927     -0.21835499
p              7   1.000000
      1.83062075     -0.01160129
      0.10124670      0.57010539
      0.03901771      0.59539039
      5.66266505     -0.02512892
      1.46824449     -0.12568289
      0.51760162     -0.24269923
      0.20606612     -0.11578027
 
           9   0
s              4   1.000000
     61.42083205     -0.01198412
     10.57717551     -0.05472052
      0.84992118      0.58055871
      0.32392600      0.47700799
p              4   1.000000
      7.23979484      0.05713170
      1.87717069      0.28574555
      0.66176076      0.55178731
      0.26345836      0.26323149
s              7   1.000000
      0.47894987     -0.18771727
      0.05878681      0.90698085
      0.02775758      0.23818694
     61.42083205      0.00395564
     10.57717551      0.01806179
      0.84992118     -0.19162704
      0.32392600     -0.15744770
p              7   1.000000
      2.28619608     -0.01155979
      0.12644335      0.56806590
      0.04872781      0.59326046
      7.23979484     -0.02456911
      1.87717069     -0.12288298
      0.66176076     -0.23729247
      0.26345836     -0.11320096
 
          10   0
s              4   1.000000
     35.61709417     -0.01198412
      6.13355834     -0.05472052
      0.49285758      0.58055871
      0.18784022      0.47700799
p              4   1.000000
      5.74062521      0.05713170
      1.48845840      0.28574555
      0.52472765      0.55178730
      0.20890312      0.26323149
s              7   1.000000
      0.38350848     -0.19560796
      0.04707223      0.94510579
      0.02222627      0.24819914
     35.61709417      0.00541461
      6.13355834      0.02472358
      0.49285758     -0.26230544
      0.18784022     -0.21551962
p              7   1.000000
      1.83062075     -0.01157691
      0.10124670      0.56890719
      0.03901771      0.59413904
      5.74062521     -0.02480132
      1.48845840     -0.12404439
      0.52472765     -0.23953521
      0.20890312     -0.11427086
 
          11   0
s              4   1.000000
     34.94248190     -0.01198412
      6.01738452     -0.05472052
      0.48352252      0.58055871
      0.18428240      0.47700799
p              4   1.000000
      5.63189382      0.05713170
      1.46026597      0.28574555
      0.51478894      0.55178731
      0.20494635      0.26323149
s              7   1.000000
      0.38350848     -0.19622421
      0.04707223      0.94808327
      0.02222627      0.24898106
     34.94248190      0.00551447
      6.01738452      0.02517955
      0.48352252     -0.26714301
      0.18428240     -0.21949434
p              7   1.000000
      1.83062075     -0.01161117
      0.10124670      0.57059053
      0.03901771      0.59589706
      5.63189382     -0.02526055
      1.46026597     -0.12634124
      0.51478894     -0.24397052
      0.20494635     -0.11638674
 
          12   0
s              4   1.000000
     34.93569576     -0.01198412
      6.01621589     -0.05472052
      0.48342862      0.58055871
      0.18424661      0.47700799
p              4   1.000000
      5.63080005      0.05713170
      1.45998237      0.28574555
      0.51468897      0.55178731
      0.20490655      0.26323149
s              7   1.000000
      0.38350848     -0.19623057
      0.04707223      0.94811401
      0.02222627      0.24898912
     34.93569576      0.00551549
      6.01621589      0.02518422
      0.48342862     -0.26719256
      0.18424661     -0.21953505
p              7   1.000000
      1.83062075     -0.01161152
      0.10124670      0.57060790
      0.03901771      0.59591518
      5.63080005     -0.02526525
      1.45998237     -0.12636476
      0.51468897     -0.24401595
      0.20490655     -0.11640841
 
          13   0
s              4   1.000000
     34.92211619     -0.01198412
      6.01387738     -0.05472052
      0.48324071      0.58055871
      0.18417500      0.47700799
p              4   1.000000
      5.62861135      0.05713170
      1.45941488      0.28574555
      0.51448890      0.55178731
      0.20482690      0.26323149
s              7   1.000000
      0.38350848     -0.19624331
      0.04707223      0.94817554
      0.02222627      0.24900528
     34.92211619      0.00551754
      6.01387738      0.02519357
      0.48324071     -0.26729177
      0.18417500     -0.21961656
p              7   1.000000
      1.83062075     -0.01161223
      0.10124670      0.57064270
      0.03901771      0.59595155
      5.62861135     -0.02527467
      1.45941488     -0.12641186
      0.51448890     -0.24410690
      0.20482690     -0.11645180
 
          14   0
s              4   1.000000
     34.93832741     -0.01198412
      6.01666908     -0.05472052
      0.48346503      0.58055871
      0.18426049      0.47700800
p              4   1.000000
      5.63122421      0.05713170
      1.46009235      0.28574555
      0.51472774      0.55178731
      0.20492198      0.26323149
s              7   1.000000
      0.38350848     -0.19622810
      0.04707223      0.94810208
      0.02222627      0.24898600
     34.93832741      0.00551510
      6.01666908      0.02518241
      0.48346503     -0.26717334
      0.18426049     -0.21951926
p              7   1.000000
      1.83062075     -0.01161138
      0.10124670      0.57060117
      0.03901771      0.59590814
      5.63122421     -0.02526343
      1.46009235     -0.12635564
      0.51472774     -0.24399833
      0.20492198     -0.11640000
 
          15   0
s              4   1.000000
     35.41723715     -0.01198412
      6.09914130     -0.05472052
      0.49009203      0.58055871
      0.18678620      0.47700799
p              4   1.000000
      5.70841303      0.05713170
      1.48010626      0.28574555
      0.52178326      0.55178731
      0.20773091      0.26323149
s              7   1.000000
      0.38350848     -0.19578727
      0.04707223      0.94597216
      0.02222627      0.24842665
     35.41723715      0.00544382
      6.09914130      0.02485697
      0.49009203     -0.26372061
      0.18678620     -0.21668237
p              7   1.000000
      1.83062075     -0.01158688
      0.10124670      0.56939698
      0.03901771      0.59465057
      5.70841303     -0.02493567
      1.48010626     -0.12471635
      0.52178326     -0.24083279
      0.20773091     -0.11488987
 
          16   0
s              4   1.000000
     35.41681931     -0.01198412
      6.09906935     -0.05472052
      0.49008625      0.58055871
      0.18678400      0.47700800
p              4   1.000000
      5.70834568      0.05713170
      1.48008880      0.28574555
      0.52177710      0.55178731
      0.20772846      0.26323149
s              7   1.000000
      0.38350848     -0.19578765
      0.04707223      0.94597397
      0.02222627      0.24842712
     35.41681931      0.00544388
      6.09906935      0.02485725
      0.49008625     -0.26372358
      0.18678400     -0.21668482
p              7   1.000000
      1.83062075     -0.01158690
      0.10124670      0.56939802
      0.03901771      0.59465166
      5.70834568     -0.02493595
      1.48008880     -0.12471776
      0.52177710     -0.24083552
      0.20772846     -0.11489118
 
          17   0
s              4   1.000000
     34.93827626     -0.01198412
      6.01666027     -0.05472052
      0.48346432      0.58055871
      0.18426022      0.47700800
p              4   1.000000
      5.63121597      0.05713170
      1.46009021      0.28574555
      0.51472698      0.55178731
      0.20492168      0.26323149
s              7   1.000000
      0.38350848     -0.19622815
      0.04707223      0.94810232
      0.02222627      0.24898605
     34.93827626      0.00551510
      6.01666027      0.02518244
      0.48346432     -0.26717371
      0.18426022     -0.21951957
p              7   1.000000
      1.83062075     -0.01161139
      0.10124670      0.57060129
      0.03901771      0.59590830
      5.63121597     -0.02526347
      1.46009021     -0.12635581
      0.51472698     -0.24399867
      0.20492168     -0.11640016
 
          18   0
s              4   1.000000
     34.92219382     -0.01198412
      6.01389075     -0.05472052
      0.48324178      0.58055871
      0.18417540      0.47700799
p              4   1.000000
      5.62862386      0.05713170
      1.45941812      0.28574555
      0.51449005      0.55178731
      0.20482735      0.26323149
s              7   1.000000
      0.38350848     -0.19624324
      0.04707223      0.94817519
      0.02222627      0.24900521
     34.92219382      0.00551753
      6.01389075      0.02519352
      0.48324178     -0.26729120
      0.18417540     -0.21961610
p              7   1.000000
      1.83062075     -0.01161222
      0.10124670      0.57064250
      0.03901771      0.59595131
      5.62862386     -0.02527462
      1.45941812     -0.12641159
      0.51449005     -0.24410638
      0.20482735     -0.11645155
 
          19   0
s              4   1.000000
     34.93614636     -0.01198412
      6.01629349     -0.05472052
      0.48343485      0.58055871
      0.18424899      0.47700799
p              4   1.000000
      5.63087268      0.05713170
      1.46000120      0.28574555
      0.51469560      0.55178731
      0.20490919      0.26323149
s              7   1.000000
      0.38350848     -0.19623015
      0.04707223      0.94811197
      0.02222627      0.24898859
     34.93614636      0.00551542
      6.01629349      0.02518391
      0.48343485     -0.26718927
      0.18424899     -0.21953235
p              7   1.000000
      1.83062075     -0.01161150
      0.10124670      0.57060674
      0.03901771      0.59591401
      5.63087268     -0.02526494
      1.46000120     -0.12636320
      0.51469560     -0.24401293
      0.20490919     -0.11640697
 
          20   0
s              4   1.000000
     34.94259090     -0.01198412
      6.01740329     -0.05472053
      0.48352403      0.58055871
      0.18428298      0.47700799
p              4   1.000000
      5.63191139      0.05713170
      1.46027052      0.28574555
      0.51479055      0.55178731
      0.20494699      0.26323149
s              7   1.000000
      0.38350848     -0.19622411
      0.04707223      0.94808278
      0.02222627      0.24898093
     34.94259090      0.00551445
      6.01740329      0.02517947
      0.48352403     -0.26714221
      0.18428298     -0.21949368
p              7   1.000000
      1.83062075     -0.01161116
      0.10124670      0.57059025
      0.03901771      0.59589677
      5.63191139     -0.02526047
      1.46027052     -0.12634086
      0.51479055     -0.24396979
      0.20494699     -0.11638639
 
          21   0
s              4   1.000000
     35.61986315     -0.01198412
      6.13403518     -0.05472052
      0.49289590      0.58055871
      0.18785483      0.47700800
p              4   1.000000
      5.74107150      0.05713170
      1.48857411      0.28574555
      0.52476844      0.55178731
      0.20891936      0.26323149
s              7   1.000000
      0.38350848     -0.19560550
      0.04707223      0.94509388
      0.02222627      0.24819599
     35.61986315      0.00541421
      6.13403518      0.02472174
      0.49289590     -0.26228594
      0.18785483     -0.21550360
p              7   1.000000
      1.83062075     -0.01157677
      0.10124670      0.56890046
      0.03901771      0.59413204
      5.74107150     -0.02479947
      1.48857411     -0.12403513
      0.52476844     -0.23951733
      0.20891936     -0.11426233
 
          22   0
s              4   1.000000
     35.01231893     -0.01198412
      6.02941103     -0.05472052
      0.48448890      0.58055871
      0.18465071      0.47700799
p              4   1.000000
      5.64314988      0.05713170
      1.46318450      0.28574555
      0.51581781      0.55178731
      0.20535596      0.26323149
s              7   1.000000
      0.38350848     -0.19615895
      0.04707223      0.94776793
      0.02222627      0.24889826
     35.01231893      0.00550396
      6.02941103      0.02513158
      0.48448890     -0.26663412
      0.18465071     -0.21907621
p              7   1.000000
      1.83062075     -0.01160754
      0.10124670      0.57041224
      0.03901771      0.59571088
      5.64314988     -0.02521225
      1.46318450     -0.12609964
      0.51581781     -0.24350399
      0.20535596     -0.11616417
 
          23   0
s              4   1.000000
     35.01608124     -0.01198412
      6.03005894     -0.05472053
      0.48454096      0.58055871
      0.18467055      0.47700800
p              4   1.000000
      5.64375628      0.05713170
      1.46334173      0.28574555
      0.51587324      0.55178731
      0.20537803      0.26323149
s              7   1.000000
      0.38350848     -0.19615544
      0.04707223      0.94775099
      0.02222627      0.24889379
     35.01608124      0.00550340
      6.03005894      0.02512900
      0.48454096     -0.26660676
      0.18467055     -0.21905373
p              7   1.000000
      1.83062075     -0.01160734
      0.10124670      0.57040267
      0.03901771      0.59570085
      5.64375628     -0.02520965
      1.46334173     -0.12608665
      0.51587324     -0.24347890
      0.20537803     -0.11615221
 
          24   0
s              4   1.000000
     57.17026605     -0.01198412
      9.84519288     -0.05472053
      0.79110326      0.58055871
      0.30150903      0.47700800
p              4   1.000000
      6.73877223      0.05713170
      1.74726301      0.28574555
      0.61596428      0.55178731
      0.24522599      0.26323149
s              7   1.000000
      0.47894987     -0.18911525
      0.05878681      0.91373539
      0.02775758      0.23996079
     57.17026605      0.00424595
      9.84519288      0.01938739
      0.79110326     -0.20569097
      0.30150903     -0.16900313
p              7   1.000000
      2.28619608     -0.01169191
      0.12644335      0.57455823
      0.04872781      0.60004074
      6.73877223     -0.02631639
      1.74726301     -0.13162205
      0.61596428     -0.25416800
      0.24522599     -0.12125147
 
          25   0
s              4   1.000000
     35.21047689     -0.01198412
      6.06353548     -0.05472053
      0.48723095      0.58055871
      0.18569577      0.47700799
p              4   1.000000
      5.67508821      0.05713170
      1.47146563      0.28574555
      0.51873717      0.55178731
      0.20651821      0.26323149
s              7   1.000000
      0.38350848     -0.19597564
      0.04707223      0.94688226
      0.02222627      0.24866565
     35.21047689      0.00547437
      6.06353548      0.02499645
      0.48723095     -0.26520047
      0.18569577     -0.21789828
p              7   1.000000
      1.83062075     -0.01159735
      0.10124670      0.56991150
      0.03901771      0.59518790
      5.67508821     -0.02507616
      1.47146563     -0.12541899
      0.51873717     -0.24218962
      0.20651821     -0.11553715
 
          26   0
s              4   1.000000
     57.17121618     -0.01198412
      9.84535650     -0.05472052
      0.79111640      0.58055871
      0.30151404      0.47700799
p              4   1.000000
      6.73888422      0.05713170
      1.74729205      0.28574555
      0.61597452      0.55178731
      0.24523007      0.26323149
s              7   1.000000
      0.47894987     -0.18911490
      0.05878681      0.91373372
      0.02775758      0.23996035
     57.17121618      0.00424588
      9.84535650      0.01938707
      0.79111640     -0.20568762
      0.30151404     -0.16900037
p              7   1.000000
      2.28619608     -0.01169187
      0.12644335      0.57455664
      0.04872781      0.60003905
      6.73888422     -0.02631597
      1.74729205     -0.13161996
      0.61597452     -0.25416396
      0.24523007     -0.12124954
 
          27   0
s              4   1.000000
     35.34430478     -0.01198412
      6.08658175     -0.05472053
      0.48908281      0.58055871
      0.18640157      0.47700800
p              4   1.000000
      5.69665807      0.05713170
      1.47705837      0.28574555
      0.52070878      0.55178731
      0.20730314      0.26323149
s              7   1.000000
      0.38350848     -0.19585338
      0.04707223      0.94629156
      0.02222627      0.24851053
     35.34430478      0.00545456
      6.08658175      0.02490600
      0.48908281     -0.26424077
      0.18640157     -0.21710975
p              7   1.000000
      1.83062075     -0.01159055
      0.10124670      0.56957756
      0.03901771      0.59483917
      5.69665807     -0.02498505
      1.47705837     -0.12496332
      0.52070878     -0.24130971
      0.20730314     -0.11511739
 
          28   0
s              4   1.000000
     35.11743753     -0.01198412
      6.04751333     -0.05472052
      0.48594350      0.58055871
      0.18520510      0.47700799
p              4   1.000000
      5.66009249      0.05713170
      1.46757746      0.28574555
      0.51736647      0.55178731
      0.20597251      0.26323149
s              7   1.000000
      0.38350848     -0.19606136
      0.04707223      0.94729644
      0.02222627      0.24877443
     35.11743753      0.00548823
      6.04751333      0.02505972
      0.48594350     -0.26587171
      0.18520510     -0.21844980
p              7   1.000000
      1.83062075     -0.01160211
      0.10124670      0.57014568
      0.03901771      0.59543246
      5.66009249     -0.02513988
      1.46757746     -0.12573768
      0.51736647     -0.24280502
      0.20597251     -0.11583073
 
          29   0
s              4   1.000000
     35.01595253     -0.01198412
      6.03003677     -0.05472052
      0.48453918      0.58055871
      0.18466988      0.47700800
p              4   1.000000
      5.64373553      0.05713170
      1.46333635      0.28574555
      0.51587135      0.55178731
      0.20537727      0.26323149
s              7   1.000000
      0.38350848     -0.19615556
      0.04707223      0.94775158
      0.02222627      0.24889394
     35.01595253      0.00550342
      6.03003677      0.02512909
      0.48453918     -0.26660769
      0.18466988     -0.21905450
p              7   1.000000
      1.83062075     -0.01160735
      0.10124670      0.57040299
      0.03901771      0.59570121
      5.64373553     -0.02520974
      1.46333635     -0.12608709
      0.51587135     -0.24347976
      0.20537727     -0.11615262
 
          30   0
s              4   1.000000
     35.01252772     -0.01198412
      6.02944699     -0.05472052
      0.48449179      0.58055871
      0.18465181      0.47700799
p              4   1.000000
      5.64318353      0.05713170
      1.46319322      0.28574555
      0.51582089      0.55178731
      0.20535718      0.26323149
s              7   1.000000
      0.38350848     -0.19615875
      0.04707223      0.94776700
      0.02222627      0.24889801
     35.01252772      0.00550393
      6.02944699      0.02513144
      0.48449179     -0.26663260
      0.18465181     -0.21907497
p              7   1.000000
      1.83062075     -0.01160753
      0.10124670      0.57041171
      0.03901771      0.59571031
      5.64318353     -0.02521210
      1.46319322     -0.12609892
      0.51582089     -0.24350259
      0.20535718     -0.11616351
 
          31   0
s              4   1.000000
     35.13348936     -0.01198412
      6.05027759     -0.05472052
      0.48616562      0.58055871
      0.18528975      0.47700799
p              4   1.000000
      5.66267966      0.05713170
      1.46824828      0.28574555
      0.51760295      0.55178731
      0.20606665      0.26323149
s              7   1.000000
      0.38350848     -0.19604653
      0.04707223      0.94722478
      0.02222627      0.24875561
     35.13348936      0.00548583
      6.05027759      0.02504878
      0.48616562     -0.26575567
      0.18528975     -0.21835445
p              7   1.000000
      1.83062075     -0.01160129
      0.10124670      0.57010516
      0.03901771      0.59539014
      5.66267966     -0.02512886
      1.46824828     -0.12568258
      0.51760295     -0.24269863
      0.20606665     -0.11577998
 
          32   0
s              4   1.000000
     61.42111326     -0.01198412
     10.57722394     -0.05472052
      0.84992508      0.58055871
      0.32392748      0.47700799
p              4   1.000000
      7.23982799      0.05713170
      1.87717929      0.28574555
      0.66176379      0.55178730
      0.26345957      0.26323149
s              7   1.000000
      0.47894987     -0.18771718
      0.05878681      0.90698045
      0.02775758      0.23818684
     61.42111326      0.00395562
     10.57722394      0.01806171
      0.84992508     -0.19162617
      0.32392748     -0.15744698
p              7   1.000000
      2.28619608     -0.01155978
      0.12644335      0.56806550
      0.04872781      0.59326003
      7.23982799     -0.02456900
      1.87717929     -0.12288244
      0.66176379     -0.23729143
      0.26345957     -0.11320046
 
          33   0
s              4   1.000000
     35.61693254     -0.01198412
      6.13353050     -0.05472052
      0.49285535      0.58055871
      0.18783937      0.47700799
p              4   1.000000
      5.74059916      0.05713170
      1.48845164      0.28574555
      0.52472526      0.55178731
      0.20890217      0.26323149
s              7   1.000000
      0.38350848     -0.19560811
      0.04707223      0.94510649
      0.02222627      0.24819931
     35.61693254      0.00541463
      6.13353050      0.02472369
      0.49285535     -0.26230658
      0.18783937     -0.21552055
p              7   1.000000
      1.83062075     -0.01157692
      0.10124670      0.56890758
      0.03901771      0.59413949
      5.74059916     -0.02480143
      1.48845164     -0.12404493
      0.52472526     -0.23953625
      0.20890217     -0.11427136
 
          34   0
s              4   1.000000
     34.94240467     -0.01198412
      6.01737122     -0.05472052
      0.48352145      0.58055871
      0.18428199      0.47700799
p              4   1.000000
      5.63188137      0.05713170
      1.46026274      0.28574555
      0.51478780      0.55178731
      0.20494589      0.26323149
s              7   1.000000
      0.38350848     -0.19622428
      0.04707223      0.94808363
      0.02222627      0.24898115
     34.94240467      0.00551448
      6.01737122      0.02517960
      0.48352145     -0.26714357
      0.18428199     -0.21949480
p              7   1.000000
      1.83062075     -0.01161117
      0.10124670      0.57059073
      0.03901771      0.59589726
      5.63188137     -0.02526060
      1.46026274     -0.12634150
      0.51478780     -0.24397104
      0.20494589     -0.11638698
 
          35   0
s              4   1.000000
     34.93570085     -0.01198412
      6.01621677     -0.05472052
      0.48342869      0.58055871
      0.18424664      0.47700799
p              4   1.000000
      5.63080087      0.05713170
      1.45998259      0.28574555
      0.51468904      0.55178731
      0.20490658      0.26323149
s              7   1.000000
      0.38350848     -0.19623057
      0.04707223      0.94811398
      0.02222627      0.24898912
     34.93570085      0.00551549
      6.01621677      0.02518421
      0.48342869     -0.26719252
      0.18424664     -0.21953502
p              7   1.000000
      1.83062075     -0.01161152
      0.10124670      0.57060789
      0.03901771      0.59591518
      5.63080087     -0.02526525
      1.45998259     -0.12636474
      0.51468904     -0.24401591
      0.20490658     -0.11640839
 
          36   0
s              4   1.000000
     34.92210326     -0.01198412
      6.01387515     -0.05472053
      0.48324053      0.58055871
      0.18417493      0.47700799
p              4   1.000000
      5.62860927      0.05713170
      1.45941433      0.28574555
      0.51448871      0.55178731
      0.20482682      0.26323149
s              7   1.000000
      0.38350848     -0.19624332
      0.04707223      0.94817561
      0.02222627      0.24900531
     34.92210326      0.00551754
      6.01387515      0.02519358
      0.48324053     -0.26729186
      0.18417493     -0.21961664
p              7   1.000000
      1.83062075     -0.01161223
      0.10124670      0.57064274
      0.03901771      0.59595155
      5.62860927     -0.02527468
      1.45941433     -0.12641190
      0.51448871     -0.24410698
      0.20482682     -0.11645183
 
          37   0
s              4   1.000000
     34.93832078     -0.01198412
      6.01666794     -0.05472053
      0.48346494      0.58055871
      0.18426046      0.47700799
p              4   1.000000
      5.63122314      0.05713170
      1.46009207      0.28574555
      0.51472764      0.55178731
      0.20492194      0.26323149
s              7   1.000000
      0.38350848     -0.19622811
      0.04707223      0.94810212
      0.02222627      0.24898600
     34.93832078      0.00551510
      6.01666794      0.02518241
      0.48346494     -0.26717339
      0.18426046     -0.21951930
p              7   1.000000
      1.83062075     -0.01161138
      0.10124670      0.57060118
      0.03901771      0.59590818
      5.63122314     -0.02526343
      1.46009207     -0.12635566
      0.51472764     -0.24399837
      0.20492194     -0.11640002
 
          38   0
s              4   1.000000
     35.41734630     -0.01198412
      6.09916010     -0.05472052
      0.49009354      0.58055871
      0.18678678      0.47700799
p              4   1.000000
      5.70843062      0.05713170
      1.48011082      0.28574555
      0.52178487      0.55178731
      0.20773155      0.26323149
s              7   1.000000
      0.38350848     -0.19578718
      0.04707223      0.94597167
      0.02222627      0.24842653
     35.41734630      0.00544381
      6.09916010      0.02485690
      0.49009354     -0.26371983
      0.18678678     -0.21668173
p              7   1.000000
      1.83062075     -0.01158687
      0.10124670      0.56939671
      0.03901771      0.59465028
      5.70843062     -0.02493560
      1.48011082     -0.12471598
      0.52178487     -0.24083208
      0.20773155     -0.11488954
 
          39   0
s              4   1.000000
     35.41670093     -0.01198412
      6.09904896     -0.05472053
      0.49008461      0.58055871
      0.18678338      0.47700799
p              4   1.000000
      5.70832660      0.05713170
      1.48008385      0.28574555
      0.52177536      0.55178731
      0.20772776      0.26323149
s              7   1.000000
      0.38350848     -0.19578776
      0.04707223      0.94597449
      0.02222627      0.24842726
     35.41670093      0.00544390
      6.09904896      0.02485733
      0.49008461     -0.26372443
      0.18678338     -0.21668551
p              7   1.000000
      1.83062075     -0.01158691
      0.10124670      0.56939831
      0.03901771      0.59465194
      5.70832660     -0.02493603
      1.48008385     -0.12471816
      0.52177536     -0.24083629
      0.20772776     -0.11489154
 
          40   0
s              4   1.000000
     34.93823671     -0.01198412
      6.01665346     -0.05472052
      0.48346378      0.58055871
      0.18426001      0.47700799
p              4   1.000000
      5.63120959      0.05713170
      1.46008856      0.28574555
      0.51472640      0.55178731
      0.20492145      0.26323149
s              7   1.000000
      0.38350848     -0.19622819
      0.04707223      0.94810250
      0.02222627      0.24898610
     34.93823671      0.00551511
      6.01665346      0.02518247
      0.48346378     -0.26717400
      0.18426001     -0.21951981
p              7   1.000000
      1.83062075     -0.01161139
      0.10124670      0.57060140
      0.03901771      0.59590838
      5.63120959     -0.02526349
      1.46008856     -0.12635595
      0.51472640     -0.24399893
      0.20492145     -0.11640029
 
          41   0
s              4   1.000000
     34.92224512     -0.01198412
      6.01389958     -0.05472052
      0.48324249      0.58055871
      0.18417568      0.47700799
p              4   1.000000
      5.62863213      0.05713170
      1.45942026      0.28574555
      0.51449080      0.55178731
      0.20482765      0.26323149
s              7   1.000000
      0.38350848     -0.19624319
      0.04707223      0.94817496
      0.02222627      0.24900514
     34.92224512      0.00551752
      6.01389958      0.02519348
      0.48324249     -0.26729083
      0.18417568     -0.21961579
p              7   1.000000
      1.83062075     -0.01161222
      0.10124670      0.57064237
      0.03901771      0.59595119
      5.62863213     -0.02527458
      1.45942026     -0.12641141
      0.51449080     -0.24410603
      0.20482765     -0.11645138
 
          42   0
s              4   1.000000
     34.93615559     -0.01198412
      6.01629508     -0.05472052
      0.48343498      0.58055871
      0.18424904      0.47700799
p              4   1.000000
      5.63087417      0.05713170
      1.46000159      0.28574555
      0.51469574      0.55178731
      0.20490924      0.26323149
s              7   1.000000
      0.38350848     -0.19623014
      0.04707223      0.94811192
      0.02222627      0.24898859
     34.93615559      0.00551542
      6.01629508      0.02518390
      0.48343498     -0.26718920
      0.18424904     -0.21953229
p              7   1.000000
      1.83062075     -0.01161150
      0.10124670      0.57060673
      0.03901771      0.59591397
      5.63087417     -0.02526494
      1.46000159     -0.12636317
      0.51469574     -0.24401287
      0.20490924     -0.11640694
 
          43   0
s              4   1.000000
     34.94261549     -0.01198412
      6.01740753     -0.05472052
      0.48352437      0.58055871
      0.18428311      0.47700799
p              4   1.000000
      5.63191535      0.05713170
      1.46027155      0.28574555
      0.51479091      0.55178731
      0.20494713      0.26323149
s              7   1.000000
      0.38350848     -0.19622409
      0.04707223      0.94808267
      0.02222627      0.24898091
     34.94261549      0.00551445
      6.01740753      0.02517946
      0.48352437     -0.26714203
      0.18428311     -0.21949354
p              7   1.000000
      1.83062075     -0.01161116
      0.10124670      0.57059019
      0.03901771      0.59589669
      5.63191535     -0.02526046
      1.46027155     -0.12634077
      0.51479091     -0.24396963
      0.20494713     -0.11638631
 
          44   0
s              4   1.000000
     35.62039717     -0.01198412
      6.13412714     -0.05472052
      0.49290329      0.58055871
      0.18785764      0.47700800
p              4   1.000000
      5.74115757      0.05713170
      1.48859643      0.28574555
      0.52477631      0.55178731
      0.20892249      0.26323149
s              7   1.000000
      0.38350848     -0.19560502
      0.04707223      0.94509159
      0.02222627      0.24819541
     35.62039717      0.00541413
      6.13412714      0.02472139
      0.49290329     -0.26228218
      0.18785764     -0.21550050
p              7   1.000000
      1.83062075     -0.01157675
      0.10124670      0.56889916
      0.03901771      0.59413067
      5.74115757     -0.02479911
      1.48859643     -0.12403334
      0.52477631     -0.23951388
      0.20892249     -0.11426068
 
          45   0
s              4   1.000000
     35.00533376     -0.01198412
      6.02820813     -0.05472052
      0.48439224      0.58055871
      0.18461387      0.47700800
p              4   1.000000
      5.64202404      0.05713170
      1.46289258      0.28574555
      0.51571490      0.55178731
      0.20531499      0.26323149
s              7   1.000000
      0.38350848     -0.19616546
      0.04707223      0.94779941
      0.02222627      0.24890652
     35.00533376      0.00550501
      6.02820813      0.02513637
      0.48439224     -0.26668493
      0.18461387     -0.21911797
p              7   1.000000
      1.83062075     -0.01160790
      0.10124670      0.57043004
      0.03901771      0.59572945
      5.64202404     -0.02521707
      1.46289258     -0.12612376
      0.51571490     -0.24355057
      0.20531499     -0.11618640
 
          46   0
s              4   1.000000
     35.02845801     -0.01198412
      6.03219032     -0.05472052
      0.48471223      0.58055871
      0.18473583      0.47700799
p              4   1.000000
      5.64575111      0.05713170
      1.46385896      0.28574555
      0.51605558      0.55178731
      0.20545062      0.26323149
s              7   1.000000
      0.38350848     -0.19614391
      0.04707223      0.94769531
      0.02222627      0.24887917
     35.02845801      0.00550154
      6.03219032      0.02512052
      0.48471223     -0.26651679
      0.18473583     -0.21897981
p              7   1.000000
      1.83062075     -0.01160670
      0.10124670      0.57037118
      0.03901771      0.59566800
      5.64575111     -0.02520111
      1.46385896     -0.12604394
      0.51605558     -0.24339642
      0.20545062     -0.11611286
 
          47   0
s              4   1.000000
      8.30981101      0.05675242
      1.52059303      0.26014135
      0.42243740      0.53284611
      0.14020317      0.29162544
s              7   1.000000
      0.92936822     -0.06732731
      0.05643440      0.66944434
      0.02166600      0.51460615
      8.30981101     -0.02902040
      1.52059303     -0.13302352
      0.42243740     -0.27247134
      0.14020317     -0.14912293
p              4   1.000000
      0.64737396      0.05713170
      0.16785440      0.28574555
      0.05917387      0.55178731
      0.02355814      0.26323150
 
          48   0
s              4   1.000000
      8.30960306      0.05675242
      1.52055498      0.26014135
      0.42242682      0.53284611
      0.14019967      0.29162543
s              7   1.000000
      0.92936822     -0.06732758
      0.05643440      0.66944701
      0.02166600      0.51460818
      8.30960306     -0.02902096
      1.52055498     -0.13302607
      0.42242682     -0.27247657
      0.14019967     -0.14912579
p              4   1.000000
      0.64737396      0.05713170
      0.16785440      0.28574555
      0.05917387      0.55178731
      0.02355814      0.26323150
 
          49   0
s              4   1.000000
      8.30928113      0.05675242
      1.52049607      0.26014135
      0.42241046      0.53284611
      0.14019423      0.29162544
s              7   1.000000
      0.92936822     -0.06732800
      0.05643440      0.66945113
      0.02166600      0.51461137
      8.30928113     -0.02902182
      1.52049607     -0.13303002
      0.42241046     -0.27248465
      0.14019423     -0.14913022
p              4   1.000000
      0.64737396      0.05713170
      0.16785440      0.28574555
      0.05917387      0.55178731
      0.02355814      0.26323150
 
          50   0
s              4   1.000000
      8.30900152      0.05675242
      1.52044491      0.26014135
      0.42239624      0.53284611
      0.14018952      0.29162544
s              7   1.000000
      0.92936822     -0.06732836
      0.05643440      0.66945470
      0.02166600      0.51461410
      8.30900152     -0.02902257
      1.52044491     -0.13303344
      0.42239624     -0.27249167
      0.14018952     -0.14913406
p              4   1.000000
      0.64737396      0.05713170
      0.16785440      0.28574555
      0.05917387      0.55178731
      0.02355814      0.26323150
 
          51   0
s              4   1.000000
      8.30893536      0.05675242
      1.52043280      0.26014135
      0.42239288      0.53284611
      0.14018840      0.29162544
s              7   1.000000
      0.92936822     -0.06732844
      0.05643440      0.66945555
      0.02166600      0.51461477
      8.30893536     -0.02902274
      1.52043280     -0.13303426
      0.42239288     -0.27249334
      0.14018840     -0.14913497
p              4   1.000000
      0.64737396      0.05713170
      0.16785440      0.28574555
      0.05917387      0.55178731
      0.02355814      0.26323150
 
          52   0
s              4   1.000000
      8.30892924      0.05675242
      1.52043168      0.26014135
      0.42239257      0.53284611
      0.14018830      0.29162544
s              7   1.000000
      0.92936822     -0.06732845
      0.05643440      0.66945563
      0.02166600      0.51461482
      8.30892924     -0.02902276
      1.52043168     -0.13303433
      0.42239257     -0.27249349
      0.14018830     -0.14913505
p              4   1.000000
      0.64737396      0.05713170
      0.16785440      0.28574555
      0.05917387      0.55178731
      0.02355814      0.26323150
 
          53   0
s              4   1.000000
      8.30892492      0.05675242
      1.52043089      0.26014135
      0.42239235      0.53284611
      0.14018822      0.29162544
s              7   1.000000
      0.92936822     -0.06732845
      0.05643440      0.66945569
      0.02166600      0.51461487
      8.30892492     -0.02902277
      1.52043089     -0.13303438
      0.42239235     -0.27249360
      0.14018822     -0.14913511
p              4   1.000000
      0.64737396      0.05713170
      0.16785440      0.28574555
      0.05917387      0.55178731
      0.02355814      0.26323150
 
          54   0
s              4   1.000000
      8.30893826      0.05675242
      1.52043333      0.26014135
      0.42239303      0.53284611
      0.14018845      0.29162544
s              7   1.000000
      0.92936822     -0.06732844
      0.05643440      0.66945552
      0.02166600      0.51461472
      8.30893826     -0.02902274
      1.52043333     -0.13303422
      0.42239303     -0.27249326
      0.14018845     -0.14913493
p              4   1.000000
      0.64737396      0.05713170
      0.16785440      0.28574555
      0.05917387      0.55178731
      0.02355814      0.26323150
 
          55   0
s              4   1.000000
      8.30901857      0.05675242
      1.52044803      0.26014135
      0.42239711      0.53284611
      0.14018980      0.29162544
s              7   1.000000
      0.92936822     -0.06732833
      0.05643440      0.66945449
      0.02166600      0.51461395
      8.30901857     -0.02902252
      1.52044803     -0.13303323
      0.42239711     -0.27249125
      0.14018980     -0.14913383
p              4   1.000000
      0.64737396      0.05713170
      0.16785440      0.28574555
      0.05917387      0.55178731
      0.02355814      0.26323150
 
          56   0
s              4   1.000000
      8.30931217      0.05675242
      1.52050175      0.26014135
      0.42241204      0.53284611
      0.14019476      0.29162544
s              7   1.000000
      0.92936822     -0.06732796
      0.05643440      0.66945073
      0.02166600      0.51461104
      8.30931217     -0.02902174
      1.52050175     -0.13302963
      0.42241204     -0.27248387
      0.14019476     -0.14912979
p              4   1.000000
      0.64737396      0.05713170
      0.16785440      0.28574555
      0.05917387      0.55178731
      0.02355814      0.26323150
 
          57   0
s              4   1.000000
      8.30966232      0.05675242
      1.52056583      0.26014135
      0.42242984      0.53284611
      0.14020067      0.29162544
s              7   1.000000
      0.92936822     -0.06732750
      0.05643440      0.66944625
      0.02166600      0.51460761
      8.30966232     -0.02902080
      1.52056583     -0.13302534
      0.42242984     -0.27247508
      0.14020067     -0.14912498
p              4   1.000000
      0.64737396      0.05713170
      0.16785440      0.28574555
      0.05917387      0.55178731
      0.02355814      0.26323150
 
          58   0
s              4   1.000000
      8.31029414      0.05675242
      1.52068144      0.26014135
      0.42246196      0.53284611
      0.14021132      0.29162544
s              7   1.000000
      0.92936822     -0.06732669
      0.05643440      0.66943818
      0.02166600      0.51460140
      8.31029414     -0.02901911
      1.52068144     -0.13301759
      0.42246196     -0.27245921
      0.14021132     -0.14911629
p              4   1.000000
      0.64737396      0.05713170
      0.16785440      0.28574555
      0.05917387      0.55178731
      0.02355814      0.26323150
 
          59   0
s              4   1.000000
      8.30911701      0.05675242
      1.52046604      0.26014135
      0.42240212      0.53284611
      0.14019146      0.29162544
s              7   1.000000
      0.92936822     -0.06732821
      0.05643440      0.66945323
      0.02166600      0.51461298
      8.30911701     -0.02902226
      1.52046604     -0.13303203
      0.42240212     -0.27248877
      0.14019146     -0.14913247
p              4   1.000000
      0.64737396      0.05713170
      0.16785440      0.28574555
      0.05917387      0.55178731
      0.02355814      0.26323150
 
          60   0
s              4   1.000000
      8.31032248      0.05675242
      1.52068663      0.26014135
      0.42246340      0.53284611
      0.14021180      0.29162544
s              7   1.000000
      0.92936822     -0.06732666
      0.05643440      0.66943781
      0.02166600      0.51460113
      8.31032248     -0.02901903
      1.52068663     -0.13301725
      0.42246340     -0.27245850
      0.14021180     -0.14911590
p              4   1.000000
      0.64737396      0.05713170
      0.16785440      0.28574555
      0.05917387      0.55178731
      0.02355814      0.26323150
 
          61   0
s              4   1.000000
      8.30966475      0.05675242
      1.52056627      0.26014135
      0.42242996      0.53284611
      0.14020071      0.29162544
s              7   1.000000
      0.92936822     -0.06732750
      0.05643440      0.66944622
      0.02166600      0.51460759
      8.30966475     -0.02902079
      1.52056627     -0.13302531
      0.42242996     -0.27247502
      0.14020071     -0.14912495
p              4   1.000000
      0.64737396      0.05713170
      0.16785440      0.28574555
      0.05917387      0.55178731
      0.02355814      0.26323150
 
          62   0
s              4   1.000000
      8.30927995      0.05675242
      1.52049586      0.26014135
      0.42241040      0.53284611
      0.14019421      0.29162544
s              7   1.000000
      0.92936822     -0.06732800
      0.05643440      0.66945114
      0.02166600      0.51461137
      8.30927995     -0.02902182
      1.52049586     -0.13303003
      0.42241040     -0.27248468
      0.14019421     -0.14913023
p              4   1.000000
      0.64737396      0.05713170
      0.16785440      0.28574555
      0.05917387      0.55178731
      0.02355814      0.26323150
 
          63   0
s              4   1.000000
      8.30900152      0.05675242
      1.52044491      0.26014135
      0.42239625      0.53284611
      0.14018952      0.29162544
s              7   1.000000
      0.92936822     -0.06732836
      0.05643440      0.66945470
      0.02166600      0.51461410
      8.30900152     -0.02902257
      1.52044491     -0.13303344
      0.42239625     -0.27249167
      0.14018952     -0.14913406
p              4   1.000000
      0.64737396      0.05713170
      0.16785440      0.28574555
      0.05917387      0.55178731
      0.02355814      0.26323150
 
          64   0
s              4   1.000000
      8.30893538      0.05675242
      1.52043280      0.26014135
      0.42239288      0.53284611
      0.14018840      0.29162544
s              7   1.000000
      0.92936822     -0.06732844
      0.05643440      0.66945555
      0.02166600      0.51461477
      8.30893538     -0.02902274
      1.52043280     -0.13303426
      0.42239288     -0.27249334
      0.14018840     -0.14913497
p              4   1.000000
      0.64737396      0.05713170
      0.16785440      0.28574555
      0.05917387      0.55178731
      0.02355814      0.26323150
 
          65   0
s              4   1.000000
      8.30892933      0.05675242
      1.52043170      0.26014135
      0.42239257      0.53284611
      0.14018830      0.29162544
s              7   1.000000
      0.92936822     -0.06732845
      0.05643440      0.66945563
      0.02166600      0.51461482
      8.30892933     -0.02902276
      1.52043170     -0.13303433
      0.42239257     -0.27249349
      0.14018830     -0.14913505
p              4   1.000000
      0.64737396      0.05713170
      0.16785440      0.28574555
      0.05917387      0.55178731
      0.02355814      0.26323150
 
          66   0
s              4   1.000000
      8.30892486      0.05675242
      1.52043088      0.26014135
      0.42239235      0.53284611
      0.14018822      0.29162544
s              7   1.000000
      0.92936822     -0.06732845
      0.05643440      0.66945569
      0.02166600      0.51461487
      8.30892486     -0.02902277
      1.52043088     -0.13303438
      0.42239235     -0.27249360
      0.14018822     -0.14913511
p              4   1.000000
      0.64737396      0.05713170
      0.16785440      0.28574555
      0.05917387      0.55178731
      0.02355814      0.26323150
 
          67   0
s              4   1.000000
      8.30893865      0.05675242
      1.52043340      0.26014135
      0.42239305      0.53284611
      0.14018846      0.29162544
s              7   1.000000
      0.92936822     -0.06732844
      0.05643440      0.66945550
      0.02166600      0.51461472
      8.30893865     -0.02902274
      1.52043340     -0.13303421
      0.42239305     -0.27249325
      0.14018846     -0.14913493
p              4   1.000000
      0.64737396      0.05713170
      0.16785440      0.28574555
      0.05917387      0.55178731
      0.02355814      0.26323150
 
          68   0
s              4   1.000000
      8.30901828      0.05675242
      1.52044797      0.26014135
      0.42239710      0.53284611
      0.14018980      0.29162544
s              7   1.000000
      0.92936822     -0.06732833
      0.05643440      0.66945449
      0.02166600      0.51461395
      8.30901828     -0.02902252
      1.52044797     -0.13303324
      0.42239710     -0.27249125
      0.14018980     -0.14913383
p              4   1.000000
      0.64737396      0.05713170
      0.16785440      0.28574555
      0.05917387      0.55178731
      0.02355814      0.26323150
 
          69   0
s              4   1.000000
      8.30931015      0.05675242
      1.52050138      0.26014135
      0.42241193      0.53284611
      0.14019472      0.29162544
s              7   1.000000
      0.92936822     -0.06732796
      0.05643440      0.66945075
      0.02166600      0.51461107
      8.30931015     -0.02902174
      1.52050138     -0.13302966
      0.42241193     -0.27248392
      0.14019472     -0.14912982
p              4   1.000000
      0.64737396      0.05713170
      0.16785440      0.28574555
      0.05917387      0.55178731
      0.02355814      0.26323150
 
          70   0
s              4   1.000000
      8.30959713      0.05675242
      1.52055390      0.26014135
      0.42242652      0.53284611
      0.14019956      0.29162544
s              7   1.000000
      0.92936822     -0.06732759
      0.05643440      0.66944708
      0.02166600      0.51460826
      8.30959713     -0.02902097
      1.52055390     -0.13302614
      0.42242652     -0.27247671
      0.14019956     -0.14912587
p              4   1.000000
      0.64737396      0.05713170
      0.16785440      0.28574555
      0.05917387      0.55178731
      0.02355814      0.26323150
 
          71   0
s              4   1.000000
      8.30982123      0.05675242
      1.52059490      0.26014135
      0.42243791      0.53284611
      0.14020335      0.29162544
s              7   1.000000
      0.92936822     -0.06732730
      0.05643440      0.66944422
      0.02166600      0.51460605
      8.30982123     -0.02902037
      1.52059490     -0.13302339
      0.42243791     -0.27247109
      0.14020335     -0.14912280
p              4   1.000000
      0.64737396      0.05713170
      0.16785440      0.28574555
      0.05917387      0.55178731
      0.02355814      0.26323150
 
 [MO]
 Sym= Hole
 Ene= -0.5175557    
 Spin= Alpha
 Occup= 0
           1 -6.8043458E-04
           2  1.9817527E-03
           3  3.8619610E-03
           4  4.9648751E-02
           5 -3.5600801E-04
           6  7.7595754E-04
           7 -1.6786421E-03
           8 -1.2817817E-03
           9  1.1583964E-03
          10  4.9557938E-04
          11 -3.9638660E-05
          12 -1.1958488E-02
          13  3.1815385E-03
          14 -9.8693743E-04
          15  1.3969754E-04
          16  2.2857606E-03
          17 -8.8959308E-03
          18  7.6784124E-03
          19 -5.2437405E-03
          20 -9.4554134E-02
          21  7.1657337E-03
          22 -1.7847799E-03
          23  1.1816066E-03
          24  8.4562637E-03
          25 -8.8632968E-04
          26 -1.8629677E-03
          27  3.4269483E-03
          28  1.9908505E-02
          29 -5.8559305E-04
          30  8.1656419E-04
          31 -2.9502069E-03
          32 -9.5200201E-04
          33 -5.2737219E-06
          34  2.7898805E-02
          35 -0.1003608    
          36  0.1488627    
          37  1.3517600E-04
          38  2.4512050E-05
          39  5.0209714E-03
          40 -1.2187597E-02
          41  8.7895915E-03
          42 -9.3392301E-03
          43 -1.9185996E-02
          44  1.1369757E-02
          45 -2.6739808E-03
          46  4.5763602E-05
          47  3.4191436E-03
          48 -1.4474386E-03
          49 -3.3680391E-02
          50 -2.2573084E-02
          51  0.1517007    
          52 -9.2620984E-02
          53  1.9514421E-02
          54 -6.9822203E-03
          55 -1.6659081E-02
          56  3.9271531E-03
          57  7.0385009E-05
          58 -2.7036828E-03
          59  1.6938712E-02
          60 -7.6964028E-02
          61 -1.3260075E-04
          62 -1.9244064E-03
          63  6.6767645E-04
          64  2.2896284E-02
          65 -3.7100964E-04
          66 -5.6916706E-02
          67  5.4503068E-02
          68  0.4739955    
          69  6.4108666E-05
          70  6.6283499E-03
          71 -9.8399604E-03
          72 -3.3905912E-02
          73 -2.5148529E-03
          74  6.2436052E-03
          75 -9.2809303E-03
          76 -8.6709522E-02
          77  1.8973030E-03
          78 -1.6307401E-03
          79 -1.5641267E-04
          80  1.9118659E-02
          81 -2.7039784E-03
          82  2.9995216E-02
          83 -5.6251105E-02
          84 -0.2847618    
          85  1.2632805E-03
          86 -3.0535655E-03
          87  2.9104427E-03
          88  1.0540162E-02
          89  3.8010580E-04
          90  4.8179356E-03
          91 -3.7224733E-03
          92 -3.1005945E-02
          93 -7.4774143E-04
          94 -1.1005532E-03
          95 -2.1030915E-04
          96 -3.2500641E-03
          97 -8.9977292E-04
          98 -3.7168901E-02
          99  4.1233368E-02
         100  0.2867846    
         101  5.7833884E-05
         102  7.8947126E-04
         103 -1.4037237E-03
         104 -9.3449252E-03
         105 -4.3208238E-05
         106 -2.1494800E-02
         107  2.0832999E-02
         108  0.1563636    
         109 -2.6610434E-05
         110  1.1759190E-03
         111 -1.8748012E-03
         112 -1.0391821E-02
         113 -2.9679572E-03
         114  3.0280383E-02
         115 -2.8388249E-02
         116 -0.2351653    
         117  1.1138758E-03
         118 -1.6125552E-03
         119 -4.0116496E-04
         120  1.0640947E-02
         121  2.8221542E-03
         122  2.6297592E-02
         123 -2.9730471E-02
         124 -0.2343465    
         125 -1.0594334E-03
         126  1.7140235E-04
         127  3.9587266E-04
         128  1.0642714E-02
         129  5.7902169E-05
         130 -1.8329551E-02
         131  2.2416592E-02
         132  0.1573889    
         133  7.8389075E-06
         134  1.8374962E-03
         135 -1.6077226E-03
         136 -1.0406606E-02
         137  1.0452511E-03
         138 -3.7479579E-02
         139  4.0812235E-02
         140  0.2852632    
         141 -4.8701604E-05
         142  1.5432191E-03
         143 -9.8825572E-04
         144 -9.1604386E-03
         145 -4.8079694E-04
         146  3.0707698E-03
         147 -4.6345466E-03
         148 -3.2194149E-02
         149  7.5050478E-04
         150  1.1626102E-03
         151  8.8810199E-04
         152 -3.1351112E-03
         153  2.9620635E-03
         154  5.3225026E-02
         155 -4.4829652E-02
         156 -0.2825361    
         157 -1.4564682E-03
         158 -1.2817287E-03
         159  3.5128437E-03
         160  1.0451912E-02
         161  2.5803661E-03
         162  1.2657062E-02
         163 -5.9936387E-03
         164 -8.6279057E-02
         165 -2.2546228E-03
         166 -1.0710163E-03
         167 -3.1685642E-05
         168  1.9385587E-02
         169  3.2474164E-02
         170 -8.7715074E-02
         171  0.1238249    
         172 -9.4787158E-02
         173 -1.9216374E-02
         174  1.6095510E-02
         175 -6.4080269E-03
         176  5.5008521E-03
         177 -8.6275013E-03
         178  1.9867158E-02
         179 -7.1876119E-03
         180  1.3111501E-02
         181  2.5199230E-03
         182 -3.1763725E-03
         183  2.2340291E-03
         184 -1.2690707E-03
         185  6.9066873E-03
         186  2.2940412E-03
         187 -1.1930536E-02
         188 -3.5892569E-02
         189 -3.9000150E-03
         190 -2.1473658E-03
         191  2.2791626E-03
         192  3.6066351E-03
         193 -3.2099101E-03
         194  1.9906668E-03
         195  5.5030091E-03
         196 -4.1183280E-03
         197  6.1969610E-04
         198 -5.5330200E-04
         199 -6.7767856E-04
         200 -1.0890092E-03
         201  1.5269817E-03
         202  1.0537432E-03
         203 -1.3687192E-02
         204  3.1377524E-02
         205 -1.0618109E-03
         206 -5.1113416E-04
         207  1.9149231E-03
         208 -2.7745303E-03
         209  2.1080954E-03
         210 -3.1181315E-03
         211  3.7369106E-03
         212 -1.1388335E-02
         213 -1.2968746E-03
         214  1.9592409E-04
         215 -1.4029504E-03
         216  1.0106738E-03
         217 -2.2742951E-03
         218 -5.9128129E-03
         219 -3.5591964E-02
         220  5.2740406E-02
         221  1.0246130E-03
         222  2.8534645E-05
         223  1.5441191E-03
         224 -3.3406320E-03
         225 -3.8807527E-03
         226 -7.2928555E-03
         227 -7.4110371E-03
         228  9.4880955E-03
         229  1.5093628E-03
         230  1.0046539E-03
         231  7.3914416E-04
         232 -1.1033295E-03
         233  1.0614839E-02
         234  2.8227195E-02
         235  4.0593669E-02
         236 -3.2239135E-02
         237 -6.2058601E-03
         238 -5.0109942E-03
         239 -2.2935166E-03
         240  1.6762206E-03
         241 -2.8624138E-04
         242  2.4294038E-03
         243  9.8811928E-03
         244 -3.1472348E-02
         245  2.6982574E-04
         246  6.6742941E-04
         247  3.4390707E-04
         248  7.7845985E-03
         249  2.3278296E-04
         250  1.8745918E-02
         251  1.8783718E-02
         252  0.1525895    
         253 -3.4023109E-05
         254 -2.3349752E-03
         255 -3.3599585E-03
         256 -1.1068452E-02
         257 -1.3800163E-03
         258 -8.3297904E-04
         259 -2.5308516E-03
         260 -2.5779795E-02
         261  1.0836349E-03
         262  2.0802944E-04
         263 -2.4008532E-05
         264  6.2216450E-03
         265 -8.9706789E-04
         266 -1.0186608E-02
         267 -1.8930903E-02
         268 -9.0316549E-02
         269  6.0586631E-04
         270  8.9111860E-04
         271  1.0585646E-03
         272  3.5491702E-03
         273  3.3602406E-05
         274 -1.5677450E-03
         275 -1.4492549E-03
         276 -1.0602102E-02
         277 -1.9556409E-04
         278  4.0578685E-04
         279 -5.0769595E-05
         280 -1.0767180E-03
         281 -3.1827262E-04
         282  1.2420145E-02
         283  1.3934636E-02
         284  9.0666302E-02
         285  6.7051275E-05
         286 -2.9971293E-04
         287 -4.8225830E-04
         288 -3.1186331E-03
         289 -1.4185601E-04
         290  7.2685662E-03
         291  7.1051097E-03
         292  4.9065266E-02
         293  4.2982283E-05
         294 -3.9278073E-04
         295 -6.5504364E-04
         296 -3.4126607E-03
         297 -8.4563933E-04
         298 -1.0456861E-02
         299 -9.5813358E-03
         300 -7.4973576E-02
         301  3.8191376E-04
         302  6.0336880E-04
         303 -2.0085055E-04
         304  3.5043384E-03
         305  9.5278426E-04
         306 -8.7372139E-03
         307 -1.0161646E-02
         308 -7.4771672E-02
         309 -3.2332310E-04
         310 -7.4013486E-05
         311  1.4539239E-04
         312  3.5107541E-03
         313  1.0700291E-05
         314  5.9406590E-03
         315  7.5760568E-03
         316  4.9017515E-02
         317  2.1395814E-05
         318 -6.5752631E-04
         319 -5.5155193E-04
         320 -3.4124455E-03
         321  4.3697664E-04
         322  1.2503657E-02
         323  1.3788823E-02
         324  8.9790747E-02
         325  1.1027718E-06
         326 -5.3543929E-04
         327 -3.5163446E-04
         328 -3.0518118E-03
         329 -1.5569675E-04
         330 -1.1475568E-03
         331 -1.5476325E-03
         332 -1.0909074E-02
         333  2.5553876E-04
         334 -3.8642288E-04
         335  2.9937190E-04
         336 -1.0060555E-03
         337  9.5606258E-04
         338 -1.7814361E-02
         339 -1.5289703E-02
         340 -8.9028552E-02
         341 -4.1960660E-04
         342  4.3262579E-04
         343  1.2804118E-03
         344  3.4223623E-03
         345  1.1793720E-03
         346 -4.2170407E-03
         347 -9.5131627E-04
         348 -2.5072169E-02
         349 -9.0327358E-04
         350  3.6710364E-04
         351  3.5162002E-06
         352  6.2072119E-03
         353 -1.1257432E-02
         354  7.4841166E-03
         355  4.9454425E-02
         356 -3.2089110E-02
         357  6.4938627E-03
         358  2.2121633E-03
         359 -5.0720898E-03
         360  1.3042429E-03
         361  3.6885915E-03
         362  8.4030562E-06
         363 -1.2146101E-02
         364  7.5434577E-03
         365 -1.1084345E-03
         366  1.9537285E-04
         367  1.9952231E-03
         368  4.5543452E-04
         369 -1.9505223E-02
         370  9.6962327E-04
         371  1.1062318E-03
         372  8.7202108E-04
         373  8.8617200E-04
         374  1.3959470E-02
         375  2.8448000E-03
         376 -1.0477277E-02
         377 -4.9780714E-03
         378 -9.2930561E-03
         379 -1.1025256E-03
         380  9.2038058E-04
         381  4.6000923E-03
         382  2.1088653E-04
         383 -1.3624589E-02
         384  4.7568860E-03
         385 -1.1615534E-03
         386  1.1400870E-04
         387 -5.5833452E-04
         388 -3.6587776E-03
         389  7.8614120E-04
         390 -4.0944298E-05
         391 -1.5381783E-03
         392  1.7304682E-03
         393  1.3027638E-02
         394  2.1966686E-03
         395 -3.8537683E-04
         396 -6.4645696E-04
         397  5.4774337E-05
         398  3.2571538E-03
         399 -2.5809628E-03
         400  3.3126961E-04
         401 -3.8959613E-05
         402  3.3324913E-04
         403  3.4397112E-03
         404 -8.0683274E-04
         405  6.4789259E-05
         406 -1.6912856E-03
         407  1.6454243E-03
         408  1.2856572E-02
         409 -4.7975583E-03
         410  1.1088066E-03
         411  7.1248878E-04
         412 -3.0361774E-04
         413 -3.6298574E-03
         414  1.2364986E-03
         415 -8.9131243E-04
         416 -1.7432739E-03
         417 -2.6741277E-03
         418 -1.3451459E-02
         419 -1.3649303E-02
         420 -3.3482637E-03
         421  1.1739675E-02
         422  4.4546006E-03
         423 -8.0658831E-03
         424  2.0665973E-02
         425 -2.5897424E-03
         426 -3.2837566E-03
         427  8.5696974E-04
         428 -1.4465918E-04
         429  9.4941333E-03
         430 -1.4988350E-03
         431  3.2484054E-04
         432  1.0303229E-03
         433  2.5725260E-04
         434  7.5210920E-03
         435 -1.1427277E-03
         436  7.1434031E-04
         437  1.7520654E-03
         438 -6.1282836E-04
         439 -4.2790580E-03
         440 -1.0332083E-03
         441 -3.8461876E-03
         442  1.4797715E-03
         443 -2.5571052E-03
         444 -1.3788368E-04
         445  4.4708696E-04
         446 -1.7336808E-03
         447 -4.0071769E-05
         448 -4.2930380E-03
         449  1.5766396E-03
         450 -3.9776147E-04
         451 -6.3457548E-05
         452 -1.9010919E-04
         453 -1.2104884E-03
         454  2.0291828E-04
         455  2.2515403E-06
         456  5.2331336E-04
         457  6.1024923E-04
         458  4.3214005E-03
         459  8.1251975E-04
         460 -1.4382217E-04
         461  2.2348367E-04
         462  2.6739875E-05
         463  1.0671705E-03
         464 -1.0565814E-03
         465  1.0237294E-04
         466  1.0292853E-05
         467  1.3613938E-04
         468  1.1393260E-03
         469 -2.2263678E-04
         470  4.8149272E-05
         471  5.8283645E-04
         472  6.1150297E-04
         473  4.2653922E-03
         474 -1.7444780E-03
         475  3.6303460E-04
         476 -2.2534891E-04
         477 -1.1125408E-04
         478 -1.1791792E-03
         479  3.8084842E-04
         480 -1.8954022E-04
         481  5.0818844E-04
         482 -8.9101051E-04
         483 -4.4881129E-03
         484  5.0854194E-03
         485  6.5371895E-04
         486  3.2534571E-03
         487 -1.3904226E-03
         488 -3.0788581E-03
         489 -6.4376225E-03
         490  5.7117076E-04
         491 -2.5923552E-03
         492  8.8368542E-04
         493  1.2474495E-03
 Sym= Particle
 Ene= -0.5175557    
 Spin= Alpha
 Occup= 2
           1  5.7710137E-04
           2 -2.9426257E-03
           3  3.6569091E-03
           4  3.1404562E-02
           5  3.9265757E-05
           6  2.0029598E-04
           7 -1.1420638E-03
           8 -2.9156103E-03
           9 -4.8913551E-04
          10 -7.0724532E-04
          11 -2.4559631E-03
          12 -1.6432822E-02
          13  1.8570998E-03
          14 -4.4776970E-03
          15  1.9836794E-03
          16  4.6881009E-03
          17 -3.5954895E-03
          18  1.3333362E-02
          19 -3.1086600E-03
          20 -5.7443425E-02
          21  4.3039410E-03
          22 -1.0228968E-02
          23 -1.1492390E-03
          24  1.3775342E-02
          25 -2.9024472E-03
          26 -6.3409475E-03
          27 -1.5296082E-02
          28  0.1169164    
          29  7.4261398E-04
          30  4.5481995E-03
          31 -5.9167468E-03
          32 -2.1981996E-02
          33  1.6416818E-03
          34  3.3385139E-02
          35 -0.1026443    
          36  0.1385077    
          37 -3.9861011E-04
          38 -7.2009373E-03
          39  2.7084468E-02
          40 -3.4693487E-02
          41 -2.9897424E-03
          42 -2.8375821E-02
          43  6.5357305E-02
          44 -7.3449418E-02
          45  1.1144392E-03
          46  5.8609843E-03
          47 -1.4236902E-02
          48  1.3874210E-02
          49 -3.4714250E-03
          50 -2.7038073E-02
          51  8.0566801E-02
          52 -7.8714214E-02
          53  1.4483754E-04
          54  1.1511056E-02
          55 -2.6816759E-02
          56  2.1924021E-02
          57  4.7362046E-04
          58  4.5159005E-02
          59 -0.1240900    
          60  0.1691659    
          61 -4.7832655E-04
          62 -1.4755259E-02
          63  3.9584689E-02
          64 -5.8298562E-02
          65  1.0733852E-04
          66 -1.3618763E-02
          67  1.4987842E-02
          68  0.1021245    
          69 -4.6504807E-04
          70  6.2951795E-03
          71 -1.0527778E-02
          72 -3.4202199E-02
          73  9.5760636E-03
          74  4.4540387E-02
          75 -3.1833455E-02
          76 -0.1693200    
          77 -8.8007636E-03
          78 -2.0604996E-02
          79  9.6680354E-03
          80  6.5331250E-02
          81 -1.5436616E-03
          82  2.3090275E-02
          83 -3.7516378E-02
          84 -0.2094821    
          85 -6.2325511E-05
          86 -7.4811932E-03
          87  1.1117076E-02
          88  5.3749844E-02
          89  2.0851484E-03
          90 -3.5816658E-02
          91  5.0439481E-02
          92  0.3203066    
          93 -9.8159118E-04
          94  8.9489445E-03
          95 -1.3294680E-02
          96 -7.9190969E-02
          97  1.2300818E-04
          98  3.2357050E-03
          99 -7.2161276E-03
         100 -3.3523440E-02
         101 -2.1817477E-04
         102 -4.4418146E-05
         103  1.9729226E-03
         104  5.2817632E-03
         105  2.0223814E-03
         106  4.1406903E-02
         107 -4.1686621E-02
         108 -0.2964356    
         109 -1.2970901E-03
         110 -9.6708722E-03
         111  1.0630363E-02
         112  7.9327568E-02
         113  8.7174354E-04
         114 -4.1143686E-02
         115  2.6939176E-02
         116  0.2863874    
         117 -1.8311837E-03
         118  1.0541062E-02
         119 -5.4857824E-03
         120 -7.0803262E-02
         121 -8.8842527E-04
         122 -2.4111213E-02
         123  3.4143496E-02
         124  0.2842377    
         125  1.8562230E-03
         126  4.6159658E-03
         127 -8.0177514E-03
         128 -7.0099786E-02
         129 -2.0443227E-03
         130  3.6078479E-02
         131 -4.3719888E-02
         132 -0.2945554    
         133  1.2710046E-03
         134 -1.0202211E-02
         135  1.0220108E-02
         136  7.8415737E-02
         137 -2.3285975E-04
         138  6.8515604E-03
         139 -5.3387764E-03
         140 -3.2860328E-02
         141  2.7266442E-04
         142 -2.1094498E-03
         143  8.1071933E-04
         144  4.9109561E-03
         145 -2.1328635E-03
         146 -4.8716750E-02
         147  4.3895461E-02
         148  0.3169920    
         149  9.9006179E-04
         150  1.2475388E-02
         151 -1.1592445E-02
         152 -7.7881150E-02
         153  1.3535366E-03
         154  3.4505941E-02
         155 -3.0905042E-02
         156 -0.2048539    
         157  9.1291731E-05
         158 -9.0277027E-03
         159  9.5625166E-03
         160  5.2509524E-02
         161 -9.7904392E-03
         162  1.3577675E-02
         163 -4.6782423E-02
         164 -0.1738778    
         165  8.7884432E-03
         166 -1.5546725E-03
         167  1.8602801E-02
         168  6.7467801E-02
         169  1.9261908E-03
         170 -3.2735635E-02
         171  7.8027353E-02
         172 -7.6393068E-02
         173  8.6896040E-04
         174  8.6378735E-03
         175 -2.7869312E-02
         176  2.1254016E-02
         177  9.9512981E-04
         178 -2.0976027E-02
         179  7.0607170E-02
         180 -7.3630959E-02
         181  5.1122525E-04
         182  3.1115129E-03
         183 -1.4345411E-02
         184  1.7522046E-02
         185  7.3305499E-03
         186  6.7485040E-03
         187  8.6961233E-04
         188 -0.1007573    
         189 -6.5580653E-03
         190  8.3612773E-04
         191  2.6030471E-03
         192  2.4118744E-02
         193 -1.5802782E-03
         194  2.8855237E-03
         195  4.6320157E-03
         196 -2.1394268E-02
         197  2.8062292E-05
         198  6.5723894E-04
         199 -1.6358210E-04
         200  1.3790985E-03
         201 -2.8773304E-03
         202  5.0307610E-03
         203 -1.3192668E-02
         204  0.1001606    
         205  1.7138617E-03
         206 -1.3787011E-03
         207  1.3673269E-03
         208 -1.8604569E-02
         209  3.9954856E-03
         210 -5.6620701E-03
         211  7.3415055E-03
         212 -6.3602783E-02
         213 -2.3106707E-03
         214  2.2935066E-03
         215 -1.0768003E-05
         216  1.1449096E-02
         217 -2.9894742E-03
         218  1.4522091E-02
         219  3.1522024E-02
         220 -4.4526018E-02
         221  1.6131428E-03
         222 -2.5973264E-03
         223 -9.3283756E-03
         224  1.0549617E-02
         225 -1.7625486E-03
         226 -7.2229090E-03
         227 -2.7840594E-02
         228  2.9276697E-02
         229  1.2047701E-03
         230  2.1355513E-04
         231  5.0723925E-03
         232 -7.5603365E-03
         233  1.8211179E-04
         234 -1.0379951E-02
         235 -2.3646379E-02
         236  2.4061361E-02
         237 -4.3014242E-04
         238  2.0450682E-03
         239  8.2829017E-03
         240 -6.6387625E-03
         241 -4.8125777E-04
         242  1.5586871E-02
         243  4.2208835E-02
         244 -5.9518181E-02
         245  6.1171368E-04
         246 -5.2395863E-03
         247 -1.2304058E-02
         248  1.9272437E-02
         249  4.5514465E-05
         250 -4.4144485E-03
         251 -4.7592949E-03
         252 -2.8629564E-02
         253  4.0350505E-04
         254  1.5764659E-03
         255  3.5470810E-03
         256  9.7214645E-03
         257 -3.4710711E-03
         258  1.5239143E-02
         259  1.0750048E-02
         260  5.3180549E-02
         261  3.3629106E-03
         262 -7.1667107E-03
         263 -3.1054879E-03
         264 -2.0058535E-02
         265  4.9176678E-04
         266  7.6307142E-03
         267  1.1986530E-02
         268  6.4248085E-02
         269  3.2981325E-04
         270 -2.7583817E-03
         271 -3.6267606E-03
         272 -1.6465902E-02
         273 -7.8271906E-04
         274 -1.1964823E-02
         275 -1.6827723E-02
         276 -0.1005170    
         277  5.1750307E-04
         278  2.9547357E-03
         279  4.5012766E-03
         280  2.4538929E-02
         281 -2.8077080E-05
         282  1.2175277E-03
         283  2.5120929E-03
         284  1.1406277E-02
         285  7.4222458E-05
         286 -7.7856566E-05
         287 -6.5452891E-04
         288 -1.6625104E-03
         289 -7.4804568E-04
         290  1.3794159E-02
         291  1.4131706E-02
         292  9.3358703E-02
         293  4.8320147E-04
         294 -3.0931295E-03
         295 -3.6523447E-03
         296 -2.4885282E-02
         297 -2.4877375E-04
         298 -1.3914132E-02
         299 -9.2526572E-03
         300 -9.1041766E-02
         301  6.3643901E-04
         302  3.4525988E-03
         303  1.8774351E-03
         304  2.2494799E-02
         305  2.8652939E-04
         306 -8.1666186E-03
         307 -1.1653318E-02
         308 -9.0332478E-02
         309 -6.0215627E-04
         310  1.4659698E-03
         311  2.7434975E-03
         312  2.2169588E-02
         313  7.5117609E-04
         314  1.2171173E-02
         315  1.4772992E-02
         316  9.2794515E-02
         317 -4.5007447E-04
         318 -3.6091064E-03
         319 -3.3928752E-03
         320 -2.4809323E-02
         321  1.1754983E-04
         322  2.3885430E-03
         323  1.8536327E-03
         324  1.1146288E-02
         325 -8.1770369E-05
         326 -7.5183314E-04
         327 -2.1426000E-04
         328 -1.5544725E-03
         329  8.0397760E-04
         330 -1.6221058E-02
         331 -1.4863942E-02
         332 -9.9349424E-02
         333 -3.8414166E-04
         334  4.2064851E-03
         335  4.1212179E-03
         336  2.4301983E-02
         337 -4.0288139E-04
         338  1.0839866E-02
         339  1.0069400E-02
         340  6.2831134E-02
         341 -5.2636889E-05
         342 -2.8958018E-03
         343 -3.0112676E-03
         344 -1.6409216E-02
         345  3.5075189E-03
         346  4.3622693E-03
         347  1.6015569E-02
         348  5.4708175E-02
         349 -3.0193299E-03
         350 -6.1111664E-04
         351 -6.1021908E-03
         352 -2.1001212E-02
         353  5.3497957E-04
         354 -8.0157826E-03
         355 -2.4345696E-02
         356  2.4477620E-02
         357  5.0154951E-04
         358  3.5733536E-03
         359  8.5301874E-03
         360 -6.9209593E-03
         361  1.9018974E-03
         362 -1.2230801E-02
         363 -2.7200196E-02
         364  2.6679777E-02
         365 -8.9211651E-04
         366  2.5299622E-03
         367  6.5799789E-03
         368 -2.7948173E-03
         369 -4.0069548E-03
         370  5.7334959E-04
         371 -9.2200665E-03
         372  6.4628916E-03
         373 -1.4706923E-02
         374 -2.7269749E-03
         375 -4.9759648E-03
         376  8.4708156E-03
         377  1.1521439E-02
         378 -1.3531967E-02
         379 -2.4018155E-03
         380  2.5941466E-03
         381  9.0318210E-03
         382 -2.0692465E-03
         383 -3.6505949E-02
         384 -7.7848259E-04
         385 -3.7938508E-04
         386 -8.1969770E-03
         387  1.0425379E-02
         388  6.8913959E-02
         389  3.3170488E-04
         390 -7.2990189E-04
         391 -8.4773528E-05
         392 -1.6754259E-04
         393 -5.9278193E-03
         394 -5.2004401E-03
         395  1.3172898E-03
         396  9.5055094E-03
         397 -8.5762795E-03
         398 -6.0983114E-02
         399  5.0641964E-03
         400 -1.3828439E-03
         401  6.7839399E-03
         402 -9.7815646E-03
         403 -6.0562406E-02
         404 -2.2191199E-04
         405  5.9833605E-04
         406  6.4390234E-04
         407 -7.1779810E-05
         408 -5.8431271E-03
         409  9.6175011E-04
         410  1.4076359E-04
         411 -9.5888451E-03
         412  9.2530912E-03
         413  6.7824349E-02
         414  2.7365831E-03
         415 -3.0906356E-03
         416 -9.5640404E-05
         417 -6.7903684E-03
         418 -3.4935582E-02
         419  4.5224526E-03
         420  3.0292976E-03
         421 -1.3403638E-02
         422  1.7243667E-04
         423 -1.5899248E-02
         424  4.7819563E-03
         425 -3.2857417E-03
         426 -3.0795834E-03
         427  1.0300644E-02
         428 -1.3611794E-02
         429  4.2453608E-03
         430 -1.7671806E-03
         431  1.6781937E-03
         432  1.7139033E-03
         433 -2.6138541E-03
         434 -5.3423498E-04
         435  1.6159542E-03
         436 -3.0009481E-03
         437 -4.6394009E-04
         438  4.5303674E-03
         439 -1.7090589E-03
         440 -3.8036035E-04
         441 -5.0253132E-03
         442  6.1667326E-04
         443  5.2996138E-03
         444  7.2949292E-04
         445 -3.8896641E-04
         446  2.6618037E-03
         447  3.0537686E-04
         448  1.1704993E-02
         449  4.7527390E-04
         450  2.0324925E-04
         451 -2.7602958E-03
         452 -3.3488234E-03
         453 -2.1792674E-02
         454 -1.0102786E-04
         455  2.4958220E-04
         456 -2.3239201E-04
         457  3.1297175E-05
         458  1.9338446E-03
         459  1.9079481E-03
         460 -4.6978984E-04
         461  3.2455276E-03
         462  2.8667732E-03
         463  1.9294575E-02
         464 -1.8136565E-03
         465  5.2993529E-04
         466  2.1169977E-03
         467  3.3790409E-03
         468  1.8897744E-02
         469 -2.6479131E-05
         470 -7.7228229E-05
         471  1.2883698E-04
         472  2.8850223E-05
         473  1.8150789E-03
         474 -5.9712981E-04
         475  1.7848477E-04
         476 -3.0301926E-03
         477 -2.8292995E-03
         478 -2.1058353E-02
         479 -1.0227096E-03
         480  1.4576219E-03
         481 -4.0968182E-04
         482  2.3158304E-03
         483  1.0538278E-02
         484  2.5198034E-03
         485  1.5650914E-03
         486  2.2678047E-03
         487 -3.2107567E-03
         488  3.9170245E-03
         489  1.6924536E-03
         490  3.3180520E-04
         491 -7.0210183E-03
         492 -1.0452275E-03
         493  7.3808385E-03
 Sym= Hole
 Ene= -0.4903125    
 Spin= Alpha
 Occup= 0
           1  3.4363530E-04
           2  3.8840501E-03
           3 -2.0305593E-03
           4 -2.5791451E-02
           5  1.9632705E-04
           6  1.5498567E-03
           7  8.5168373E-04
           8  6.6602486E-04
           9 -5.9695326E-04
          10  9.6845324E-04
          11  1.5675692E-05
          12  6.1813039E-03
          13 -1.6123499E-03
          14 -1.8524332E-03
          15 -6.6829183E-05
          16 -1.1765269E-03
          17  4.4876784E-03
          18  1.4621260E-02
          19  2.6582887E-03
          20  4.9153108E-02
          21 -3.6218620E-03
          22 -3.3784579E-03
          23 -6.0169591E-04
          24 -4.3612816E-03
          25 -3.1790242E-03
          26 -5.0603072E-03
          27 -2.2928647E-03
          28  2.8567126E-02
          29  1.1808559E-03
          30  8.0133247E-04
          31 -3.3059024E-04
          32 -1.9389724E-03
          33  2.7385086E-03
          34  1.2321718E-02
          35 -2.7512917E-02
          36  4.2068686E-02
          37 -1.1316756E-03
          38  1.0299897E-04
          39  1.6790247E-03
          40 -4.6616192E-03
          41  1.7510756E-03
          42 -6.7651598E-03
          43  1.3603949E-03
          44 -1.0582150E-03
          45 -5.4615107E-04
          46  3.0632646E-04
          47  7.8448520E-06
          48 -1.6076359E-03
          49 -1.0324379E-02
          50 -6.6541987E-03
          51  4.7494665E-02
          52 -2.7456904E-02
          53  6.0465829E-03
          54 -2.3287116E-03
          55 -5.6984005E-03
          56  1.2599840E-03
          57  3.4108278E-04
          58  1.4001853E-03
          59 -4.6662442E-04
          60 -1.6430071E-02
          61 -3.4922740E-04
          62 -6.7268289E-04
          63  1.2991969E-04
          64  6.8254285E-03
          65 -2.8147222E-04
          66 -1.8720876E-02
          67  1.8031586E-02
          68  0.1519144    
          69 -2.0042415E-05
          70  1.9126069E-03
          71 -3.0742760E-03
          72 -1.0651465E-02
          73 -1.5262184E-04
          74  3.5846552E-03
          75 -3.8960527E-03
          76 -3.0533457E-02
          77  7.8221565E-05
          78 -9.0517418E-04
          79 -5.5453547E-05
          80  6.0701524E-03
          81 -8.5288065E-04
          82  9.7993175E-03
          83 -1.7986147E-02
          84 -9.2933595E-02
          85  1.8781124E-04
          86 -1.1293675E-03
          87  8.2553137E-04
          88  3.1686006E-03
          89  2.1532453E-04
          90  1.6399875E-03
          91 -1.0339924E-03
          92 -9.1513013E-03
          93 -2.9575248E-04
          94 -2.8792836E-04
          95 -8.9982728E-05
          96 -1.0106383E-03
          97 -2.4450314E-04
          98 -1.2235106E-02
          99  1.3478560E-02
         100  9.3953773E-02
         101 -3.8034334E-05
         102  2.1463040E-04
         103 -4.6462202E-04
         104 -2.8537053E-03
         105  1.0460879E-04
         106 -6.9653089E-03
         107  6.8339044E-03
         108  5.1657282E-02
         109 -6.4305073E-05
         110  3.7447381E-04
         111 -5.6737266E-04
         112 -3.2459837E-03
         113 -1.0227992E-03
         114  9.6632037E-03
         115 -9.4137555E-03
         116 -7.6310508E-02
         117  3.2021347E-04
         118 -4.4440269E-04
         119  1.9343777E-06
         120  3.3222432E-03
         121  8.9013926E-04
         122  8.8787060E-03
         123 -9.7165192E-03
         124 -7.5973928E-02
         125 -3.6530066E-04
         126 -2.1773682E-05
         127  1.4744954E-04
         128  3.3135400E-03
         129  8.9942932E-06
         130 -6.3568819E-03
         131  7.3564271E-03
         132  5.2577183E-02
         133 -1.4577862E-05
         134  5.2467844E-04
         135 -5.1293575E-04
         136 -3.2533505E-03
         137  2.0951022E-04
         138 -1.2323977E-02
         139  1.3424300E-02
         140  9.4022468E-02
         141 -3.7469363E-05
         142  4.8792828E-04
         143 -3.2567445E-04
         144 -2.8007871E-03
         145 -1.6002465E-04
         146  8.4917434E-04
         147 -1.5765064E-03
         148 -9.6725486E-03
         149  2.2201422E-04
         150  3.4868848E-04
         151  2.2744432E-04
         152 -1.0100295E-03
         153  9.2862168E-04
         154  1.7119799E-02
         155 -1.4487972E-02
         156 -9.2931680E-02
         157 -4.9327256E-04
         158 -4.2873903E-04
         159  1.0120122E-03
         160  3.2572930E-03
         161  3.3067982E-04
         162  4.0927986E-03
         163 -3.6105488E-03
         164 -3.1151302E-02
         165 -4.3602151E-04
         166 -3.3556332E-04
         167  1.1019685E-04
         168  6.2582428E-03
         169  1.0231525E-02
         170 -2.8019862E-02
         171  3.8504180E-02
         172 -2.8755266E-02
         173 -6.1173500E-03
         174  5.3953612E-03
         175 -1.7541962E-03
         176  1.9290326E-03
         177 -1.4044127E-03
         178  5.2330778E-03
         179  4.2444365E-03
         180 -2.3225553E-03
         181 -3.4281802E-05
         182 -1.0160469E-03
         183  6.7485170E-04
         184  4.3102039E-04
         185  3.0768069E-03
         186  2.7368527E-03
         187  8.5418094E-03
         188 -6.4728305E-02
         189 -1.4742343E-03
         190 -2.1310705E-03
         191 -7.3309883E-04
         192  6.0106320E-03
         193  1.6329921E-03
         194  3.8817266E-03
         195 -2.7985489E-03
         196  2.0117552E-03
         197 -3.1355955E-04
         198 -1.0982919E-03
         199  3.4555461E-04
         200  5.5921485E-04
         201 -7.3484406E-03
         202  3.4772099E-03
         203  4.5822575E-03
         204  6.6975422E-02
         205  3.9952206E-03
         206 -2.9934377E-03
         207 -1.4017309E-03
         208 -6.4125014E-03
         209  2.5964030E-03
         210 -4.4201962E-03
         211 -1.4717822E-03
         212 -3.2693099E-02
         213 -2.4968284E-04
         214  1.1231882E-03
         215  2.5267284E-03
         216  1.8961332E-03
         217 -1.5523926E-03
         218  2.9195253E-02
         219  9.6533306E-02
         220 -0.1467293    
         221  5.3284463E-04
         222  1.6356971E-04
         223 -4.9257535E-03
         224  1.2626430E-02
         225  7.8963805E-03
         226  1.9247632E-02
         227  3.3371830E-03
         228 -9.3868319E-03
         229 -2.0681962E-03
         230 -3.1382195E-03
         231 -2.1678361E-03
         232  7.9115969E-04
         233 -3.2388650E-02
         234 -8.7220997E-02
         235 -0.1224597    
         236  9.5175348E-02
         237  1.9130627E-02
         238  1.6202355E-02
         239  6.1741471E-03
         240 -5.6964988E-03
         241 -1.0900414E-04
         242 -8.0840901E-04
         243 -1.3137363E-02
         244  7.2557524E-02
         245  1.1470591E-04
         246 -2.2204081E-03
         247 -7.9394068E-04
         248 -2.2515770E-02
         249 -2.0517271E-04
         250 -5.9502397E-02
         251 -5.9844218E-02
         252 -0.4727135    
         253  2.3330004E-04
         254  6.6086515E-03
         255  1.0201360E-02
         256  3.3632491E-02
         257  2.2912242E-03
         258  7.3795374E-03
         259  1.0651339E-02
         260  8.8049375E-02
         261 -1.7421230E-03
         262 -1.8383404E-03
         263  7.8433201E-05
         264 -1.9092131E-02
         265  2.7389065E-03
         266  3.2208886E-02
         267  5.8598977E-02
         268  0.2847602    
         269 -1.2015335E-03
         270 -3.2098456E-03
         271 -2.9214828E-03
         272 -1.0362648E-02
         273 -3.9196204E-04
         274  5.0659566E-03
         275  3.9363634E-03
         276  3.0493526E-02
         277  7.8473729E-04
         278 -1.0773013E-03
         279  2.2357475E-04
         280  3.2442012E-03
         281  8.6757477E-04
         282 -3.9507180E-02
         283 -4.4061817E-02
         284 -0.2869350    
         285 -2.7214754E-05
         286  8.1145682E-04
         287  1.5191549E-03
         288  9.2347581E-03
         289  6.3715503E-05
         290 -2.2779468E-02
         291 -2.2460205E-02
         292 -0.1566222    
         293  4.2195617E-05
         294  1.2262899E-03
         295  1.9513381E-03
         296  1.0311168E-02
         297  2.8400463E-03
         298  3.2260489E-02
         299  3.0621165E-02
         300  0.2350438    
         301 -1.0689268E-03
         302 -1.6526013E-03
         303  2.1886762E-04
         304 -1.0575295E-02
         305 -2.8783071E-03
         306  2.8507657E-02
         307  3.2054991E-02
         308  0.2341818    
         309  1.0880182E-03
         310  3.8703060E-05
         311 -5.2012078E-04
         312 -1.0571956E-02
         313 -2.7364105E-05
         314 -1.9939242E-02
         315 -2.3968702E-02
         316 -0.1580534    
         317 -7.0116234E-06
         318  1.8353449E-03
         319  1.7208860E-03
         320  1.0328638E-02
         321 -9.4533892E-04
         322 -3.9752252E-02
         323 -4.3783534E-02
         324 -0.2857220    
         325  7.2776311E-05
         326  1.6155011E-03
         327  1.1157013E-03
         328  9.0521742E-03
         329  4.6896236E-04
         330  3.2066631E-03
         331  5.0481176E-03
         332  3.1835813E-02
         333 -7.3390279E-04
         334  1.1618591E-03
         335 -7.7268790E-04
         336  3.1335221E-03
         337 -2.8706980E-03
         338  5.5332318E-02
         339  4.7811843E-02
         340  0.2827457    
         341  1.3849665E-03
         342 -1.3975673E-03
         343 -3.6118173E-03
         344 -1.0330985E-02
         345 -2.2145163E-03
         346  1.3173397E-02
         347  8.0949720E-03
         348  8.7962240E-02
         349  1.9360032E-03
         350 -1.1253280E-03
         351 -3.7122041E-04
         352 -1.9374494E-02
         353  3.3429481E-02
         354 -2.1521159E-02
         355 -0.1499915    
         356  9.2747636E-02
         357 -1.9461127E-02
         358 -7.1378038E-03
         359  1.6826222E-02
         360 -4.0476974E-03
         361 -8.1769675E-03
         362 -1.1392318E-02
         363  1.4829687E-02
         364 -9.0026073E-03
         365  2.5064866E-03
         366  2.8124492E-04
         367 -2.8011128E-03
         368  2.1095162E-03
         369 -6.0141240E-03
         370 -2.2072090E-05
         371 -2.3969864E-03
         372 -4.8718479E-04
         373 -8.6256105E-04
         374  3.7902084E-03
         375  1.2422520E-03
         376 -3.5218352E-03
         377 -1.8894779E-03
         378 -2.8805230E-03
         379 -5.5457104E-04
         380  1.0944841E-04
         381  1.2110465E-03
         382  1.4416443E-04
         383 -4.4825762E-03
         384  1.4254811E-03
         385 -3.5794152E-04
         386  2.8119464E-07
         387 -1.7289040E-04
         388 -1.1340966E-03
         389  3.0745700E-04
         390 -3.6182486E-05
         391 -4.9637532E-04
         392  5.4563920E-04
         393  4.0146164E-03
         394  5.6853628E-04
         395 -1.2064122E-04
         396 -1.9984145E-04
         397  8.9076930E-06
         398  1.0225269E-03
         399 -5.0277624E-04
         400  1.0947569E-04
         401 -2.7025319E-05
         402  8.4119391E-05
         403  1.0601315E-03
         404 -3.2812214E-04
         405 -1.9407713E-05
         406 -5.4152473E-04
         407  4.8256264E-04
         408  3.9559458E-03
         409 -1.3138828E-03
         410  3.3627573E-04
         411  2.5414402E-04
         412 -9.7586002E-05
         413 -1.1460657E-03
         414  4.6168803E-04
         415 -4.0358302E-04
         416 -5.6903338E-04
         417 -8.8186917E-04
         418 -4.1092159E-03
         419 -4.5269765E-03
         420 -1.1515077E-03
         421  3.7193312E-03
         422  1.3142830E-03
         423 -2.6441650E-03
         424  5.5931746E-03
         425 -4.6254916E-04
         426 -1.5075059E-03
         427 -1.5438489E-03
         428  6.5948069E-04
         429 -4.8590642E-03
         430  7.7168358E-04
         431  6.1377569E-04
         432 -5.2988657E-04
         433 -1.4614474E-04
         434 -2.0132737E-02
         435  2.4053336E-03
         436 -3.5659468E-03
         437  1.7616815E-04
         438 -2.4236683E-04
         439  1.3764341E-02
         440  3.4436912E-03
         441  1.1773454E-02
         442 -4.2330758E-03
         443  8.0995932E-03
         444  1.0231120E-03
         445 -8.0201268E-04
         446  4.5412667E-03
         447 -1.1198040E-04
         448  1.3670456E-02
         449 -4.6419920E-03
         450  1.1772487E-03
         451  1.0221859E-04
         452  5.6845456E-04
         453  3.6273296E-03
         454 -8.1276806E-04
         455  6.3037558E-05
         456 -1.6393741E-03
         457 -1.8453787E-03
         458 -1.2901793E-02
         459 -2.1530665E-03
         460  4.2916308E-04
         461 -6.6982023E-04
         462 -6.2558378E-05
         463 -3.2420876E-03
         464  2.2211897E-03
         465 -3.4600639E-04
         466 -6.8231988E-05
         467 -3.6738909E-04
         468 -3.4120942E-03
         469  8.9391402E-04
         470 -2.7451986E-05
         471 -1.7859050E-03
         472 -1.7500641E-03
         473 -1.2728155E-02
         474  4.6723550E-03
         475 -1.0829435E-03
         476  7.6529337E-04
         477  3.4555749E-04
         478  3.5999254E-03
         479 -1.2904963E-03
         480  9.8519551E-04
         481 -1.6249012E-03
         482  2.8087192E-03
         483  1.3292177E-02
         484 -1.3662482E-02
         485 -3.0466712E-03
         486 -1.0570860E-02
         487  5.2322391E-03
         488  9.1937585E-03
         489  1.9237302E-02
         490 -7.6580461E-04
         491 -5.0118682E-04
         492 -4.7245144E-04
         493 -1.5332073E-04
 Sym= Particle
 Ene= -0.4903125    
 Spin= Alpha
 Occup= 2
           1  1.1415458E-03
           2  1.5945780E-03
           3  7.2401492E-03
           4  6.1935697E-02
           5  1.6410720E-05
           6 -1.4723264E-04
           7 -2.3142630E-03
           8 -5.7601603E-03
           9 -9.8423986E-04
          10  3.2404502E-04
          11 -4.8375377E-03
          12 -3.2337107E-02
          13  3.5992365E-03
          14  2.2549515E-03
          15  3.8875691E-03
          16  9.1377860E-03
          17 -6.8444563E-03
          18 -6.7871446E-03
          19 -6.0314783E-03
          20 -0.1131263    
          21  8.2577635E-03
          22  5.1991013E-03
          23 -2.1711711E-03
          24  2.7127441E-02
          25  2.7972599E-03
          26  2.3455154E-03
          27 -1.8457226E-03
          28  5.5177906E-03
          29 -2.2746751E-03
          30  4.9455464E-04
          31 -4.2669708E-03
          32 -1.6136959E-03
          33 -2.5038826E-03
          34  5.8291797E-03
          35 -3.4437023E-02
          36  4.5068778E-02
          37  1.7023704E-03
          38 -1.9083240E-03
          39  7.7895443E-03
          40 -1.2000659E-02
          41  2.0765762E-04
          42 -5.0571542E-03
          43  1.3149395E-02
          44 -2.0318218E-02
          45 -3.0587937E-04
          46  1.0186153E-03
          47 -2.0353887E-03
          48  6.6214171E-03
          49 -1.8422944E-03
          50 -9.3509322E-03
          51  2.7571701E-02
          52 -2.6731262E-02
          53  7.4456783E-04
          54  3.7992434E-03
          55 -8.6774314E-03
          56  7.3602246E-03
          57 -3.2494555E-04
          58  1.3009182E-02
          59 -3.6467299E-02
          60  4.8835609E-02
          61  4.9834925E-04
          62 -4.0653609E-03
          63  1.3039469E-02
          64 -1.8314831E-02
          65  2.0741878E-04
          66 -4.5055537E-03
          67  5.2777706E-03
          68  3.7909403E-02
          69  1.1404730E-04
          70  2.6681239E-03
          71 -3.3083104E-03
          72 -1.2514669E-02
          73  2.6099342E-03
          74  1.3698986E-02
          75 -1.0219003E-02
          76 -5.5732574E-02
          77 -2.1607967E-03
          78 -6.1522569E-03
          79  3.3413232E-03
          80  2.2070732E-02
          81 -5.4206839E-04
          82  7.7425027E-03
          83 -1.2871271E-02
          84 -7.1009398E-02
          85  4.0037904E-04
          86 -2.1109104E-03
          87  3.7019604E-03
          88  1.8232998E-02
          89  5.4706697E-04
          90 -1.1896456E-02
          91  1.6607471E-02
          92  0.1057516    
          93 -7.7230063E-05
          94  2.9953802E-03
          95 -4.2662648E-03
          96 -2.6506439E-02
          97  3.8015427E-05
          98  9.2542515E-04
          99 -2.2052829E-03
         100 -9.9440692E-03
         101 -4.3212818E-05
         102  4.2502405E-05
         103  6.2381144E-04
         104  1.7128562E-03
         105  5.2193040E-04
         106  1.3574882E-02
         107 -1.3614119E-02
         108 -9.7476102E-02
         109 -3.1079064E-04
         110 -3.3338345E-03
         111  3.4325318E-03
         112  2.6189223E-02
         113  3.1670343E-04
         114 -1.3224224E-02
         115  9.0287933E-03
         116  9.3140826E-02
         117 -4.9810641E-04
         118  3.5056502E-03
         119 -1.8991019E-03
         120 -2.3047153E-02
         121 -2.7911217E-04
         122 -8.0469763E-03
         123  1.1234830E-02
         124  9.2551380E-02
         125  6.2188308E-04
         126  1.6875612E-03
         127 -2.6459508E-03
         128 -2.2956291E-02
         129 -5.6367560E-04
         130  1.1769965E-02
         131 -1.4329108E-02
         132 -9.6800290E-02
         133  3.9138473E-04
         134 -3.1002420E-03
         135  3.4678963E-03
         136  2.5672806E-02
         137 -3.8740414E-05
         138  2.0866278E-03
         139 -1.6945932E-03
         140 -9.8219113E-03
         141  1.1728010E-04
         142 -6.0128397E-04
         143  3.3606429E-04
         144  1.6027574E-03
         145 -5.3915550E-04
         146 -1.5924839E-02
         147  1.4450216E-02
         148  0.1047979    
         149  2.3769222E-04
         150  3.9999629E-03
         151 -3.5639568E-03
         152 -2.5895419E-02
         153  4.3961624E-04
         154  1.1979708E-02
         155 -1.0582225E-02
         156 -6.9388248E-02
         157  4.5816381E-05
         158 -3.0356979E-03
         159  3.3717030E-03
         160  1.7415449E-02
         161 -2.7348010E-03
         162  4.8665134E-03
         163 -1.4567936E-02
         164 -5.7183623E-02
         165  2.6384464E-03
         166 -5.4437236E-04
         167  6.1037345E-03
         168  2.2481706E-02
         169  1.6306182E-03
         170 -1.0531701E-02
         171  2.6623216E-02
         172 -2.5494482E-02
         173  1.0586639E-04
         174  3.6156077E-03
         175 -9.7338231E-03
         176  7.1826749E-03
         177 -1.5321861E-03
         178 -6.0889805E-03
         179  1.6176436E-02
         180 -1.7343894E-02
         181  1.8913435E-03
         182  1.9454620E-03
         183 -4.0062941E-03
         184  3.3806236E-03
         185  1.6836247E-03
         186 -1.2224832E-03
         187 -1.5750034E-02
         188  5.1683430E-02
         189 -2.5835647E-03
         190  2.2749326E-03
         191  3.5561917E-03
         192 -5.6986297E-03
         193 -3.0607085E-03
         194 -1.4969480E-03
         195  9.0946518E-03
         196 -4.2104930E-02
         197  7.4359530E-05
         198 -3.1421887E-04
         199 -3.4104267E-04
         200  2.7385352E-03
         201  6.8509276E-03
         202 -4.8565068E-03
         203 -8.2645100E-03
         204 -5.2678790E-02
         205 -6.7516854E-03
         206 -1.9438781E-03
         207  4.1174563E-03
         208  1.6471295E-02
         209 -7.1264361E-04
         210  3.8593097E-03
         211 -1.3583480E-02
         212  9.9375308E-02
         213 -7.0152828E-04
         214 -3.9676512E-03
         215 -7.1905823E-03
         216 -1.8983478E-02
         217 -1.4724677E-04
         218 -2.9962743E-02
         219 -0.1026574    
         220  0.1403001    
         221  7.0023694E-04
         222  6.8076644E-03
         223  2.6336320E-02
         224 -3.5540108E-02
         225 -1.2259562E-04
         226  2.0475311E-02
         227  6.6827238E-02
         228 -7.1375564E-02
         229  1.5818744E-03
         230 -3.6505903E-03
         231 -1.4019523E-02
         232  1.6519791E-02
         233  2.4615570E-03
         234  3.2347310E-02
         235  7.8249745E-02
         236 -7.7762596E-02
         237  9.0572820E-04
         238 -8.9844624E-03
         239 -2.8195648E-02
         240  2.1767648E-02
         241  1.2187958E-05
         242 -4.4004206E-02
         243 -0.1209765    
         244  0.1680659    
         245  1.4140463E-04
         246  1.4313297E-02
         247  3.9277662E-02
         248 -5.8696456E-02
         249  4.7406260E-04
         250  1.4155905E-02
         251  1.6351368E-02
         252  0.1044528    
         253 -4.9284304E-04
         254 -6.8458137E-03
         255 -1.0871113E-02
         256 -3.4811061E-02
         257  9.3555190E-03
         258 -4.5469169E-02
         259 -3.3413149E-02
         260 -0.1692758    
         261 -8.4316637E-03
         262  2.0820715E-02
         263  1.0396254E-02
         264  6.5620795E-02
         265 -1.6438592E-03
         266 -2.4758745E-02
         267 -3.9798949E-02
         268 -0.2107163    
         269  2.4917073E-04
         270  7.7108433E-03
         271  1.1644956E-02
         272  5.4047130E-02
         273  2.0447636E-03
         274  3.8403202E-02
         275  5.3547435E-02
         276  0.3207836    
         277 -8.6019834E-04
         278 -9.5633203E-03
         279 -1.3991491E-02
         280 -7.9522036E-02
         281  1.0988844E-04
         282 -3.4434546E-03
         283 -7.4642641E-03
         284 -3.2981995E-02
         285 -1.8971143E-04
         286  8.2177568E-05
         287  2.0160566E-03
         288  5.2704751E-03
         289  1.9185392E-03
         290 -4.3762602E-02
         291 -4.4584807E-02
         292 -0.2966093    
         293 -1.2136428E-03
         294  1.0406610E-02
         295  1.1385566E-02
         296  7.9450108E-02
         297  9.2252082E-04
         298  4.3253176E-02
         299  2.9893652E-02
         300  0.2861227    
         301 -1.8063090E-03
         302 -1.1110193E-02
         303 -6.2418631E-03
         304 -7.0755802E-02
         305 -8.2051859E-04
         306  2.6304325E-02
         307  3.7035607E-02
         308  0.2841516    
         309  1.8334724E-03
         310 -5.2199289E-03
         311 -8.7601328E-03
         312 -7.0161909E-02
         313 -2.0484654E-03
         314 -3.8390510E-02
         315 -4.6757717E-02
         316 -0.2945853    
         317  1.2950995E-03
         318  1.0697510E-02
         319  1.1059843E-02
         320  7.8371294E-02
         321 -2.2716368E-04
         322 -7.0551713E-03
         323 -5.6641535E-03
         324 -3.2426581E-02
         325  3.0198283E-04
         326  2.1094140E-03
         327  9.0016500E-04
         328  4.9114823E-03
         329 -2.0627847E-03
         330  5.1274728E-02
         331  4.7301073E-02
         332  0.3174207    
         333  9.5659395E-04
         334 -1.3049401E-02
         335 -1.2328857E-02
         336 -7.8042239E-02
         337  1.2998587E-03
         338 -3.6457945E-02
         339 -3.3351857E-02
         340 -0.2058611    
         341  1.7853793E-04
         342  9.4608190E-03
         343  1.0282653E-02
         344  5.2564472E-02
         345 -9.6625229E-03
         346 -1.5083258E-02
         347 -4.8419397E-02
         348 -0.1739547    
         349  8.8012535E-03
         350  2.0113778E-03
         351  1.9412724E-02
         352  6.7655332E-02
         353 -3.9102128E-03
         354  2.6919384E-02
         355  8.0865011E-02
         356 -8.0748044E-02
         357  6.4788881E-04
         358 -1.1359000E-02
         359 -2.6656942E-02
         360  2.2532888E-02
         361 -2.3493769E-03
         362  2.5680616E-02
         363  6.0541265E-02
         364 -7.2634578E-02
         365  7.8087521E-04
         366 -5.2755186E-03
         367 -1.2717503E-02
         368  1.5349360E-02
         369 -7.5368804E-04
         370  8.1117259E-04
         371  2.0824713E-03
         372  3.4283407E-03
         373 -1.5881343E-03
         374  1.1795372E-03
         375 -1.6525182E-03
         376  3.2964267E-03
         377  4.2750854E-03
         378 -4.9226745E-03
         379 -8.0562814E-04
         380  1.3482879E-03
         381  3.3446692E-03
         382 -1.2127220E-03
         383 -1.1763310E-02
         384  5.3211284E-06
         385 -4.1038515E-05
         386 -2.6928256E-03
         387  3.6082270E-03
         388  2.2583310E-02
         389  1.1088869E-04
         390 -2.2101907E-04
         391  2.1756087E-04
         392 -9.5760144E-05
         393 -1.8847027E-03
         394 -1.4116156E-03
         395  3.7668922E-04
         396  3.0283567E-03
         397 -2.8405460E-03
         398 -1.9964410E-02
         399  1.3993741E-03
         400 -3.4512329E-04
         401  2.4480140E-03
         402 -3.0820142E-03
         403 -2.0096261E-02
         404 -1.8560221E-04
         405  3.2613293E-04
         406  3.2235944E-04
         407 -5.7508667E-05
         408 -1.9516057E-03
         409 -4.9779264E-05
         410  3.1084026E-04
         411 -3.3473533E-03
         412  3.4174649E-03
         413  2.2635067E-02
         414  7.3346437E-04
         415 -4.3267771E-04
         416  5.9637270E-04
         417 -2.1123833E-03
         418 -1.2021812E-02
         419  1.1345854E-03
         420  1.7040737E-03
         421 -3.4237569E-03
         422  8.2924031E-04
         423 -4.8809820E-03
         424  2.7874790E-03
         425 -3.8150983E-04
         426  1.5466752E-03
         427  6.8488084E-03
         428 -4.2419224E-03
         429  8.2555562E-03
         430 -3.4456654E-03
         431 -8.4331067E-04
         432  3.3653970E-03
         433 -5.1326277E-03
         434  5.5395211E-03
         435 -2.9031211E-03
         436  1.6258536E-03
         437  1.2337231E-02
         438 -1.3756533E-02
         439  4.4306819E-03
         440  3.4332059E-03
         441  1.2829178E-02
         442  4.2918499E-04
         443 -1.5789233E-02
         444 -2.3967158E-03
         445  2.8685899E-03
         446 -9.6073700E-03
         447 -2.6530358E-03
         448 -3.6403026E-02
         449 -6.5963890E-04
         450 -3.4827541E-04
         451  8.7588094E-03
         452  1.1204725E-02
         453  6.8889104E-02
         454  3.5878661E-04
         455 -7.3945971E-04
         456 -7.1070099E-05
         457 -2.3796898E-04
         458 -5.9102336E-03
         459 -5.0097900E-03
         460  1.2547895E-03
         461 -9.9036936E-03
         462 -9.2107737E-03
         463 -6.0940374E-02
         464  5.0152210E-03
         465 -1.3667227E-03
         466 -7.3578432E-03
         467 -1.0358912E-02
         468 -6.0680009E-02
         469 -2.4498126E-04
         470  6.5519504E-04
         471 -7.5862516E-04
         472 -1.5398530E-04
         473 -5.8844057E-03
         474  8.0322986E-04
         475  2.7468169E-04
         476  1.0242002E-02
         477  1.0165083E-02
         478  6.8056345E-02
         479  2.7205602E-03
         480 -2.7631330E-03
         481 -6.1593612E-04
         482 -7.0218267E-03
         483 -3.5178412E-02
         484 -1.4587998E-03
         485 -5.0166482E-03
         486 -8.7593542E-03
         487  1.1771508E-02
         488 -1.3981180E-02
         489 -3.5949680E-03
         490  8.9944672E-04
         491  6.2961588E-03
         492  7.1817767E-03
         493 -1.3068971E-02
