 [Molden Format]
 [Atoms] Angs
C       1      6      2.35742978      3.84198299     -0.86559652
C       2      6      2.61009463      3.54058112      0.46297696
C       3      6      2.31368483      2.28293042      0.95085358
C       4      6      1.77654659      1.30826448      0.11328529
P       5     15      1.40243375     -0.30573577      0.89615965
C       6      6      3.03998209     -1.12494312      0.74823869
C       7      6      3.07923143     -2.46830113      1.11611335
C       8      6      4.26256457     -3.17772098      1.05706835
C       9      6      5.42555979     -2.54697984      0.64366308
C      10      6      5.39629568     -1.20798730      0.29402118
C      11      6      4.21085185     -0.49476157      0.34787504
C      12      6      0.56651442     -1.17448714     -0.46000219
C      13      6      1.06142266     -1.83734597     -1.53676612
S      14     16     -0.19640852     -2.51556873     -2.50213078
C      15      6     -1.40602714     -1.89303595     -1.43726448
C      16      6     -0.85995163     -1.20962902     -0.40018470
P      17     15     -1.58239156     -0.37983062      1.04718873
C      18      6     -1.47430726      1.33724197      0.41032578
C      19      6     -1.80055014      1.66365987     -0.90154596
C      20      6     -1.67427846      2.96766792     -1.34001711
C      21      6     -1.22138696      3.95260994     -0.47629167
C      22      6     -0.89936823      3.63326088      0.83101427
C      23      6     -1.02376258      2.32823632      1.27288221
C      24      6     -3.35584511     -0.74023072      0.75053141
C      25      6     -4.32660818      0.24686129      0.63089344
C      26      6     -5.65769818     -0.10224182      0.48374081
C      27      6     -6.03407870     -1.43439083      0.47001709
C      28      6     -5.07474713     -2.42343470      0.61982949
C      29      6     -3.74595251     -2.07779242      0.77112226
C      30      6      1.52326494      1.61741717     -1.21585702
C      31      6      1.81341465      2.88080331     -1.69966061
H      32      1      2.58232404      4.82633274     -1.24929893
H      33      1      3.03289230      4.28904101      1.11762598
H      34      1      2.49805705      2.04032551      1.98944193
H      35      1      2.16739655     -2.95105825      1.44370604
H      36      1      4.28187568     -4.22120522      1.33658547
H      37      1      6.35330778     -3.09821598      0.59780201
H      38      1      6.30251343     -0.71336645     -0.02530130
H      39      1      4.19824334      0.54978740      0.07160969
H      40      1      2.08456323     -1.98427932     -1.82410758
H      41      1     -2.43884428     -2.09042239     -1.64927771
H      42      1     -2.15415045      0.89351648     -1.57415717
H      43      1     -1.92661337      3.21858093     -2.36043966
H      44      1     -1.11842078      4.96956698     -0.82548633
H      45      1     -0.54542941      4.40017537      1.50437297
H      46      1     -0.76850657      2.06535314      2.29031483
H      47      1     -4.04139030      1.28944681      0.64789949
H      48      1     -6.40536659      0.67129242      0.38150934
H      49      1     -7.07380189     -1.70235912      0.35219374
H      50      1     -5.36596464     -3.46407751      0.62438712
H      51      1     -2.99406026     -2.84511487      0.90301662
H      52      1      1.09746020      0.87457856     -1.87493215
H      53      1      1.61321032      3.11485150     -2.73536041
 [GTO]
           1   0
s              4   1.000000
     34.92833702     -0.01198412
      6.01494866     -0.05472052
      0.48332679      0.58055871
      0.18420780      0.47700799
p              4   1.000000
      5.62961400      0.05713170
      1.45967485      0.28574555
      0.51458055      0.55178731
      0.20486339      0.26323149
s              7   1.000000
      0.38350848     -0.19623747
      0.04707223      0.94814734
      0.02222627      0.24899790
     34.92833702      0.00551660
      6.01494866      0.02518928
      0.48332679     -0.26724631
      0.18420780     -0.21957922
p              7   1.000000
      1.83062075     -0.01161190
      0.10124670      0.57062676
      0.03901771      0.59593488
      5.62961400     -0.02527036
      1.45967485     -0.12639028
      0.51458055     -0.24406523
      0.20486339     -0.11643192
 
           2   0
s              4   1.000000
     34.92433987     -0.01198412
      6.01426031     -0.05472053
      0.48327148      0.58055871
      0.18418672      0.47700800
p              4   1.000000
      5.62896976      0.05713170
      1.45950780      0.28574555
      0.51452166      0.55178731
      0.20483994      0.26323149
s              7   1.000000
      0.38350848     -0.19624122
      0.04707223      0.94816546
      0.02222627      0.24900265
     34.92433987      0.00551720
      6.01426031      0.02519204
      0.48327148     -0.26727552
      0.18418672     -0.21960321
p              7   1.000000
      1.83062075     -0.01161211
      0.10124670      0.57063700
      0.03901771      0.59594556
      5.62896976     -0.02527313
      1.45950780     -0.12640414
      0.51452166     -0.24409200
      0.20483994     -0.11644469
 
           3   0
s              4   1.000000
     35.28730534     -0.01198412
      6.07676597     -0.05472053
      0.48829407      0.58055871
      0.18610096      0.47700799
p              4   1.000000
      5.68747112      0.05713170
      1.47467633      0.28574555
      0.51986904      0.55178731
      0.20696882      0.26323149
s              7   1.000000
      0.38350848     -0.19590530
      0.04707223      0.94654242
      0.02222627      0.24857641
     35.28730534      0.00546298
      6.07676597      0.02494445
      0.48829407     -0.26464869
      0.18610096     -0.21744491
p              7   1.000000
      1.83062075     -0.01159344
      0.10124670      0.56971939
      0.03901771      0.59498728
      5.68747112     -0.02502378
      1.47467633     -0.12515700
      0.51986904     -0.24168372
      0.20696882     -0.11529581
 
           4   0
s              4   1.000000
     34.99401734     -0.01198412
      6.02625935     -0.05472053
      0.48423565      0.58055871
      0.18455419      0.47700799
p              4   1.000000
      5.64020010      0.05713170
      1.46241966      0.28574555
      0.51554819      0.55178731
      0.20524862      0.26323149
s              7   1.000000
      0.38350848     -0.19617602
      0.04707223      0.94785042
      0.02222627      0.24891990
     34.99401734      0.00550671
      6.02625935      0.02514413
      0.48423565     -0.26676729
      0.18455419     -0.21918564
p              7   1.000000
      1.83062075     -0.01160849
      0.10124670      0.57045887
      0.03901771      0.59575955
      5.64020010     -0.02522489
      1.46241966     -0.12616287
      0.51554819     -0.24362608
      0.20524862     -0.11622242
 
           5   0
s              4   1.000000
      4.30062986     -0.03295496
      1.21138181     -0.17245169
      0.21721960      0.75185111
      0.10687293      0.35896273
p              4   1.000000
      7.82958743     -0.01434249
      0.80910925      0.27551776
      0.36568974      0.58467508
      0.17678249      0.21449865
s              7   1.000000
      0.13262137     -0.35643065
      0.02601144      1.12466632
      0.01283734      0.13374329
      4.30062986      0.01200394
      1.21138181      0.06281601
      0.21721960     -0.27386387
      0.10687293     -0.13075318
p              7   1.000000
      0.28417832     -0.06306338
      0.04344939      0.67744531
      0.02136350      0.40340378
      7.82958743      0.00327790
      0.80910925     -0.06296802
      0.36568974     -0.13362417
      0.17678249     -0.04902245
 
           6   0
s              4   1.000000
     34.97693828     -0.01198412
      6.02331819     -0.05472052
      0.48399932      0.58055871
      0.18446412      0.47700799
p              4   1.000000
      5.63744736      0.05713170
      1.46170592      0.28574555
      0.51529657      0.55178731
      0.20514844      0.26323149
s              7   1.000000
      0.38350848     -0.19619197
      0.04707223      0.94792749
      0.02222627      0.24894016
     34.97693828      0.00550928
      6.02331819      0.02515586
      0.48399932     -0.26689169
      0.18446412     -0.21928785
p              7   1.000000
      1.83062075     -0.01160937
      0.10124670      0.57050245
      0.03901771      0.59580506
      5.63744736     -0.02523670
      1.46170592     -0.12622192
      0.51529657     -0.24374012
      0.20514844     -0.11627683
 
           7   0
s              4   1.000000
     35.27980701     -0.01198412
      6.07547469     -0.05472052
      0.48819031      0.58055871
      0.18606141      0.47700799
p              4   1.000000
      5.68626257      0.05713170
      1.47436298      0.28574555
      0.51975857      0.55178731
      0.20692484      0.26323149
s              7   1.000000
      0.38350848     -0.19591215
      0.04707223      0.94657550
      0.02222627      0.24858509
     35.27980701      0.00546409
      6.07547469      0.02494951
      0.48819031     -0.26470244
      0.18606141     -0.21748908
p              7   1.000000
      1.83062075     -0.01159382
      0.10124670      0.56973808
      0.03901771      0.59500678
      5.68626257     -0.02502888
      1.47436298     -0.12518253
      0.51975857     -0.24173300
      0.20692484     -0.11531932
 
           8   0
s              4   1.000000
     34.91900022     -0.01198412
      6.01334078     -0.05472052
      0.48319759      0.58055871
      0.18415856      0.47700799
p              4   1.000000
      5.62810913      0.05713170
      1.45928466      0.28574555
      0.51444300      0.55178731
      0.20480862      0.26323149
s              7   1.000000
      0.38350848     -0.19624623
      0.04707223      0.94818968
      0.02222627      0.24900901
     34.91900022      0.00551801
      6.01334078      0.02519572
      0.48319759     -0.26731454
      0.18415856     -0.21963528
p              7   1.000000
      1.83062075     -0.01161239
      0.10124670      0.57065068
      0.03901771      0.59595989
      5.62810913     -0.02527683
      1.45928466     -0.12642267
      0.51444300     -0.24412778
      0.20480862     -0.11646175
 
           9   0
s              4   1.000000
     34.92162327     -0.01198412
      6.01379249     -0.05472053
      0.48323389      0.58055871
      0.18417239      0.47700799
p              4   1.000000
      5.62853190      0.05713170
      1.45939427      0.28574555
      0.51448164      0.55178731
      0.20482401      0.26323149
s              7   1.000000
      0.38350848     -0.19624377
      0.04707223      0.94817778
      0.02222627      0.24900587
     34.92162327      0.00551761
      6.01379249      0.02519391
      0.48323389     -0.26729537
      0.18417239     -0.21961953
p              7   1.000000
      1.83062075     -0.01161225
      0.10124670      0.57064396
      0.03901771      0.59595285
      5.62853190     -0.02527501
      1.45939427     -0.12641357
      0.51448164     -0.24411020
      0.20482401     -0.11645337
 
          10   0
s              4   1.000000
     34.92558543     -0.01198412
      6.01447481     -0.05472052
      0.48328871      0.58055871
      0.18419329      0.47700799
p              4   1.000000
      5.62917051      0.05713170
      1.45955986      0.28574555
      0.51454002      0.55178731
      0.20484725      0.26323149
s              7   1.000000
      0.38350848     -0.19624005
      0.04707223      0.94815982
      0.02222627      0.24900117
     34.92558543      0.00551702
      6.01447481      0.02519118
      0.48328871     -0.26726642
      0.18419329     -0.21959574
p              7   1.000000
      1.83062075     -0.01161205
      0.10124670      0.57063381
      0.03901771      0.59594225
      5.62917051     -0.02527226
      1.45955986     -0.12639982
      0.51454002     -0.24408366
      0.20484725     -0.11644071
 
          11   0
s              4   1.000000
     35.13101618     -0.01198412
      6.04985168     -0.05472052
      0.48613140      0.58055871
      0.18527671      0.47700799
p              4   1.000000
      5.66228104      0.05713170
      1.46814492      0.28574555
      0.51756652      0.55178731
      0.20605215      0.26323149
s              7   1.000000
      0.38350848     -0.19604881
      0.04707223      0.94723581
      0.02222627      0.24875851
     35.13101618      0.00548620
      6.04985168      0.02505047
      0.48613140     -0.26577354
      0.18527671     -0.21836914
p              7   1.000000
      1.83062075     -0.01160142
      0.10124670      0.57011140
      0.03901771      0.59539666
      5.66228104     -0.02513056
      1.46814492     -0.12569107
      0.51756652     -0.24271502
      0.20605215     -0.11578780
 
          12   0
s              4   1.000000
     35.74501441     -0.01198412
      6.15558726     -0.05472052
      0.49462770      0.58055871
      0.18851486      0.47700799
p              4   1.000000
      5.76124290      0.05713170
      1.49380425      0.28574555
      0.52661223      0.55178731
      0.20965340      0.26323149
s              7   1.000000
      0.38350848     -0.19549459
      0.04707223      0.94455804
      0.02222627      0.24805528
     35.74501441      0.00539607
      6.15558726      0.02463894
      0.49462770     -0.26140743
      0.18851486     -0.21478178
p              7   1.000000
      1.83062075     -0.01157061
      0.10124670      0.56859753
      0.03901771      0.59381568
      5.76124290     -0.02471606
      1.49380425     -0.12361797
      0.52661223     -0.23871177
      0.20965340     -0.11387804
 
          13   0
s              4   1.000000
     35.11324813     -0.01198412
      6.04679188     -0.05472052
      0.48588553      0.58055871
      0.18518300      0.47700799
p              4   1.000000
      5.65941726      0.05713170
      1.46740239      0.28574555
      0.51730475      0.55178730
      0.20594793      0.26323149
s              7   1.000000
      0.38350848     -0.19606524
      0.04707223      0.94731516
      0.02222627      0.24877936
     35.11324813      0.00548885
      6.04679188      0.02506258
      0.48588553     -0.26590202
      0.18518300     -0.21847470
p              7   1.000000
      1.83062075     -0.01160233
      0.10124670      0.57015626
      0.03901771      0.59544351
      5.65941726     -0.02514275
      1.46740239     -0.12575206
      0.51730475     -0.24283280
      0.20594793     -0.11584398
 
          14   0
s              4   1.000000
     12.22354866     -0.03295496
      3.44307345     -0.17245169
      0.61739661      0.75185111
      0.30376165      0.35896273
p              4   1.000000
      7.05831879     -0.01434249
      0.72940638      0.27551776
      0.32966676      0.58467509
      0.15936819      0.21449865
s              7   1.000000
      0.16124732     -0.33763575
      0.03162593      1.06536168
      0.01560824      0.12669088
     12.22354866      0.00421709
      3.44307345      0.02206783
      0.61739661     -0.09621084
      0.30376165     -0.04593477
p              7   1.000000
      0.34551743     -0.06466335
      0.05282782      0.69463264
      0.02597475      0.41363846
      7.05831879      0.00467622
      0.72940638     -0.08982968
      0.32966676     -0.19062720
      0.15936819     -0.06993504
 
          15   0
s              4   1.000000
     35.10150444     -0.01198412
      6.04476952     -0.05472052
      0.48572302      0.58055871
      0.18512107      0.47700799
p              4   1.000000
      5.65752445      0.05713170
      1.46691161      0.28574555
      0.51713174      0.55178731
      0.20587906      0.26323149
s              7   1.000000
      0.38350848     -0.19607610
      0.04707223      0.94736767
      0.02222627      0.24879313
     35.10150444      0.00549061
      6.04476952      0.02507059
      0.48572302     -0.26598700
      0.18512107     -0.21854452
p              7   1.000000
      1.83062075     -0.01160293
      0.10124670      0.57018595
      0.03901771      0.59547453
      5.65752445     -0.02515082
      1.46691161     -0.12579241
      0.51713174     -0.24291071
      0.20587906     -0.11588115
 
          16   0
s              4   1.000000
     35.70931206     -0.01198412
      6.14943902     -0.05472052
      0.49413366      0.58055871
      0.18832657      0.47700799
p              4   1.000000
      5.75548853      0.05713170
      1.49231223      0.28574555
      0.52608624      0.55178730
      0.20944400      0.26323149
s              7   1.000000
      0.38350848     -0.19552613
      0.04707223      0.94471039
      0.02222627      0.24809530
     35.70931206      0.00540123
      6.14943902      0.02466251
      0.49413366     -0.26165746
      0.18832657     -0.21498721
p              7   1.000000
      1.83062075     -0.01157236
      0.10124670      0.56868366
      0.03901771      0.59390561
      5.75548853     -0.02473980
      1.49231223     -0.12373670
      0.52608624     -0.23894104
      0.20944400     -0.11398741
 
          17   0
s              4   1.000000
      4.29403625     -0.03295496
      1.20952455     -0.17245169
      0.21688656      0.75185111
      0.10670907      0.35896273
p              4   1.000000
      7.81758331     -0.01434249
      0.80786875      0.27551776
      0.36512907      0.58467508
      0.17651145      0.21449865
s              7   1.000000
      0.13262137     -0.35650344
      0.02601144      1.12489597
      0.01283734      0.13377059
      4.29403625      0.01202485
      1.20952455      0.06292543
      0.21688656     -0.27434091
      0.10670907     -0.13098094
p              7   1.000000
      0.28417832     -0.06306927
      0.04344939      0.67750858
      0.02136350      0.40344149
      7.81758331      0.00328406
      0.80786875     -0.06308635
      0.36512907     -0.13387529
      0.17651145     -0.04911457
 
          18   0
s              4   1.000000
     35.02524198     -0.01198412
      6.03163649     -0.05472053
      0.48466773      0.58055871
      0.18471887      0.47700799
p              4   1.000000
      5.64523277      0.05713170
      1.46372456      0.28574555
      0.51600820      0.55178731
      0.20543176      0.26323149
s              7   1.000000
      0.38350848     -0.19614691
      0.04707223      0.94770977
      0.02222627      0.24888297
     35.02524198      0.00550202
      6.03163649      0.02512273
      0.48466773     -0.26654016
      0.18471887     -0.21899902
p              7   1.000000
      1.83062075     -0.01160687
      0.10124670      0.57037936
      0.03901771      0.59567653
      5.64523277     -0.02520333
      1.46372456     -0.12605503
      0.51600820     -0.24341785
      0.20543176     -0.11612308
 
          19   0
s              4   1.000000
     35.18278187     -0.01198412
      6.05876616     -0.05472052
      0.48684771      0.58055871
      0.18554971      0.47700799
p              4   1.000000
      5.67062444      0.05713170
      1.47030824      0.28574555
      0.51832915      0.55178731
      0.20635577      0.26323149
s              7   1.000000
      0.38350848     -0.19600109
      0.04707223      0.94700524
      0.02222627      0.24869794
     35.18278187      0.00547849
      6.05876616      0.02501525
      0.48684771     -0.26539993
      0.18554971     -0.21806216
p              7   1.000000
      1.83062075     -0.01159876
      0.10124670      0.56998104
      0.03901771      0.59526052
      5.67062444     -0.02509509
      1.47030824     -0.12551369
      0.51832915     -0.24237249
      0.20635577     -0.11562439
 
          20   0
s              4   1.000000
     34.93195746     -0.01198412
      6.01557213     -0.05472053
      0.48337689      0.58055871
      0.18422690      0.47700799
p              4   1.000000
      5.63019753      0.05713170
      1.45982615      0.28574555
      0.51463389      0.55178731
      0.20488462      0.26323149
s              7   1.000000
      0.38350848     -0.19623408
      0.04707223      0.94813095
      0.02222627      0.24899358
     34.93195746      0.00551606
      6.01557213      0.02518679
      0.48337689     -0.26721986
      0.18422690     -0.21955748
p              7   1.000000
      1.83062075     -0.01161172
      0.10124670      0.57061748
      0.03901771      0.59592521
      5.63019753     -0.02526785
      1.45982615     -0.12637772
      0.51463389     -0.24404098
      0.20488462     -0.11642035
 
          21   0
s              4   1.000000
     34.93337128     -0.01198412
      6.01581560     -0.05472052
      0.48339645      0.58055871
      0.18423435      0.47700799
p              4   1.000000
      5.63042540      0.05713170
      1.45988523      0.28574555
      0.51465472      0.55178731
      0.20489291      0.26323149
s              7   1.000000
      0.38350848     -0.19623275
      0.04707223      0.94812453
      0.02222627      0.24899190
     34.93337128      0.00551584
      6.01581560      0.02518582
      0.48339645     -0.26720954
      0.18423435     -0.21954900
p              7   1.000000
      1.83062075     -0.01161164
      0.10124670      0.57061386
      0.03901771      0.59592141
      5.63042540     -0.02526687
      1.45988523     -0.12637282
      0.51465472     -0.24403151
      0.20489291     -0.11641583
 
          22   0
s              4   1.000000
     34.93228090     -0.01198412
      6.01562782     -0.05472052
      0.48338136      0.58055871
      0.18422860      0.47700799
p              4   1.000000
      5.63024966      0.05713170
      1.45983966      0.28574555
      0.51463866      0.55178731
      0.20488652      0.26323149
s              7   1.000000
      0.38350848     -0.19623377
      0.04707223      0.94812947
      0.02222627      0.24899319
     34.93228090      0.00551601
      6.01562782      0.02518657
      0.48338136     -0.26721750
      0.18422860     -0.21955555
p              7   1.000000
      1.83062075     -0.01161170
      0.10124670      0.57061665
      0.03901771      0.59592432
      5.63024966     -0.02526762
      1.45983966     -0.12637660
      0.51463866     -0.24403881
      0.20488652     -0.11641931
 
          23   0
s              4   1.000000
     35.25499776     -0.01198412
      6.07120234     -0.05472052
      0.48784701      0.58055871
      0.18593057      0.47700799
p              4   1.000000
      5.68226391      0.05713170
      1.47332618      0.28574555
      0.51939307      0.55178731
      0.20677933      0.26323149
s              7   1.000000
      0.38350848     -0.19593483
      0.04707223      0.94668507
      0.02222627      0.24861388
     35.25499776      0.00546776
      6.07120234      0.02496629
      0.48784701     -0.26488045
      0.18593057     -0.21763534
p              7   1.000000
      1.83062075     -0.01159508
      0.10124670      0.56980004
      0.03901771      0.59507151
      5.68226391     -0.02504578
      1.47332618     -0.12526704
      0.51939307     -0.24189621
      0.20677933     -0.11539718
 
          24   0
s              4   1.000000
     34.97065433     -0.01198412
      6.02223604     -0.05472052
      0.48391236      0.58055871
      0.18443098      0.47700800
p              4   1.000000
      5.63643454      0.05713170
      1.46144331      0.28574555
      0.51520399      0.55178731
      0.20511159      0.26323149
s              7   1.000000
      0.38350848     -0.19619784
      0.04707223      0.94795587
      0.02222627      0.24894761
     34.97065433      0.00551023
      6.02223604      0.02516018
      0.48391236     -0.26693749
      0.18443098     -0.21932548
p              7   1.000000
      1.83062075     -0.01160970
      0.10124670      0.57051850
      0.03901771      0.59582181
      5.63643454     -0.02524104
      1.46144331     -0.12624367
      0.51520399     -0.24378211
      0.20511159     -0.11629685
 
          25   0
s              4   1.000000
     35.15363242     -0.01198412
      6.05374639     -0.05472053
      0.48644435      0.58055871
      0.18539598      0.47700799
p              4   1.000000
      5.66592624      0.05713170
      1.46909007      0.28574555
      0.51789971      0.55178731
      0.20618480      0.26323149
s              7   1.000000
      0.38350848     -0.19602794
      0.04707223      0.94713496
      0.02222627      0.24873202
     35.15363242      0.00548283
      6.05374639      0.02503507
      0.48644435     -0.26561019
      0.18539598     -0.21823492
p              7   1.000000
      1.83062075     -0.01160026
      0.10124670      0.57005439
      0.03901771      0.59533715
      5.66592624     -0.02511505
      1.46909007     -0.12561351
      0.51789971     -0.24256525
      0.20618480     -0.11571635
 
          26   0
s              4   1.000000
     34.92394175     -0.01198412
      6.01419175     -0.05472052
      0.48326597      0.58055871
      0.18418462      0.47700799
p              4   1.000000
      5.62890559      0.05713170
      1.45949117      0.28574555
      0.51451580      0.55178731
      0.20483761      0.26323149
s              7   1.000000
      0.38350848     -0.19624160
      0.04707223      0.94816727
      0.02222627      0.24900312
     34.92394175      0.00551726
      6.01419175      0.02519231
      0.48326597     -0.26727843
      0.18418462     -0.21960560
p              7   1.000000
      1.83062075     -0.01161213
      0.10124670      0.57063802
      0.03901771      0.59594666
      5.62890559     -0.02527340
      1.45949117     -0.12640553
      0.51451580     -0.24409467
      0.20483761     -0.11644596
 
          27   0
s              4   1.000000
     34.92154956     -0.01198412
      6.01377980     -0.05472053
      0.48323287      0.58055871
      0.18417201      0.47700799
p              4   1.000000
      5.62852002      0.05713170
      1.45939120      0.28574555
      0.51448056      0.55178731
      0.20482358      0.26323149
s              7   1.000000
      0.38350848     -0.19624384
      0.04707223      0.94817812
      0.02222627      0.24900597
     34.92154956      0.00551763
      6.01377980      0.02519396
      0.48323287     -0.26729591
      0.18417201     -0.21961997
p              7   1.000000
      1.83062075     -0.01161226
      0.10124670      0.57064415
      0.03901771      0.59595305
      5.62852002     -0.02527506
      1.45939120     -0.12641383
      0.51448056     -0.24411069
      0.20482358     -0.11645361
 
          28   0
s              4   1.000000
     34.91923829     -0.01198412
      6.01338178     -0.05472052
      0.48320088      0.58055871
      0.18415982      0.47700800
p              4   1.000000
      5.62814750      0.05713170
      1.45929461      0.28574555
      0.51444651      0.55178731
      0.20481002      0.26323149
s              7   1.000000
      0.38350848     -0.19624601
      0.04707223      0.94818859
      0.02222627      0.24900872
     34.91923829      0.00551797
      6.01338178      0.02519555
      0.48320088     -0.26731280
      0.18415982     -0.21963385
p              7   1.000000
      1.83062075     -0.01161238
      0.10124670      0.57065008
      0.03901771      0.59595924
      5.62814750     -0.02527667
      1.45929461     -0.12642185
      0.51444651     -0.24412618
      0.20481002     -0.11646100
 
          29   0
s              4   1.000000
     35.25363893     -0.01198412
      6.07096833     -0.05472052
      0.48782821      0.58055871
      0.18592341      0.47700799
p              4   1.000000
      5.68204490      0.05713170
      1.47326940      0.28574555
      0.51937305      0.55178731
      0.20677136      0.26323149
s              7   1.000000
      0.38350848     -0.19593607
      0.04707223      0.94669109
      0.02222627      0.24861546
     35.25363893      0.00546797
      6.07096833      0.02496721
      0.48782821     -0.26489020
      0.18592341     -0.21764335
p              7   1.000000
      1.83062075     -0.01159515
      0.10124670      0.56980343
      0.03901771      0.59507503
      5.68204490     -0.02504670
      1.47326940     -0.12527167
      0.51937305     -0.24190515
      0.20677136     -0.11540145
 
          30   0
s              4   1.000000
     35.15623490     -0.01198412
      6.05419456     -0.05472053
      0.48648037      0.58055871
      0.18540971      0.47700799
p              4   1.000000
      5.66634570      0.05713170
      1.46919883      0.28574555
      0.51793805      0.55178731
      0.20620006      0.26323149
s              7   1.000000
      0.38350848     -0.19602554
      0.04707223      0.94712337
      0.02222627      0.24872897
     35.15623490      0.00548244
      6.05419456      0.02503330
      0.48648037     -0.26559140
      0.18540971     -0.21821948
p              7   1.000000
      1.83062075     -0.01160012
      0.10124670      0.57004783
      0.03901771      0.59533027
      5.66634570     -0.02511327
      1.46919883     -0.12560459
      0.51793805     -0.24254803
      0.20620006     -0.11570813
 
          31   0
s              4   1.000000
     34.93513128     -0.01198412
      6.01611868     -0.05472053
      0.48342081      0.58055871
      0.18424363      0.47700800
p              4   1.000000
      5.63070907      0.05713170
      1.45995878      0.28574555
      0.51468065      0.55178731
      0.20490323      0.26323149
s              7   1.000000
      0.38350848     -0.19623110
      0.04707223      0.94811656
      0.02222627      0.24898981
     34.93513128      0.00551558
      6.01611868      0.02518461
      0.48342081     -0.26719668
      0.18424363     -0.21953844
p              7   1.000000
      1.83062075     -0.01161155
      0.10124670      0.57060935
      0.03901771      0.59591672
      5.63070907     -0.02526565
      1.45995878     -0.12636672
      0.51468065     -0.24401973
      0.20490323     -0.11641021
 
          32   0
s              4   1.000000
      8.30886435      0.05675242
      1.52041981      0.26014135
      0.42238927      0.53284611
      0.14018720      0.29162544
s              7   1.000000
      0.92936822     -0.06732853
      0.05643440      0.66945646
      0.02166600      0.51461546
      8.30886435     -0.02902293
      1.52041981     -0.13303513
      0.42238927     -0.27249512
      0.14018720     -0.14913595
p              4   1.000000
      0.64737396      0.05713170
      0.16785440      0.28574555
      0.05917387      0.55178731
      0.02355814      0.26323150
 
          33   0
s              4   1.000000
      8.30888098      0.05675242
      1.52042285      0.26014135
      0.42239012      0.53284611
      0.14018748      0.29162544
s              7   1.000000
      0.92936822     -0.06732851
      0.05643440      0.66945624
      0.02166600      0.51461529
      8.30888098     -0.02902289
      1.52042285     -0.13303492
      0.42239012     -0.27249470
      0.14018748     -0.14913571
p              4   1.000000
      0.64737396      0.05713170
      0.16785440      0.28574555
      0.05917387      0.55178731
      0.02355814      0.26323150
 
          34   0
s              4   1.000000
      8.31182880      0.05675242
      1.52096227      0.26014135
      0.42253997      0.53284611
      0.14023722      0.29162544
s              7   1.000000
      0.92936822     -0.06732472
      0.05643440      0.66941854
      0.02166600      0.51458632
      8.31182880     -0.02901501
      1.52096227     -0.13299878
      0.42253997     -0.27242068
      0.14023722     -0.14909521
p              4   1.000000
      0.64737396      0.05713170
      0.16785440      0.28574555
      0.05917387      0.55178731
      0.02355814      0.26323150
 
          35   0
s              4   1.000000
      8.31189515      0.05675242
      1.52097441      0.26014135
      0.42254335      0.53284611
      0.14023834      0.29162544
s              7   1.000000
      0.92936822     -0.06732463
      0.05643440      0.66941770
      0.02166600      0.51458567
      8.31189515     -0.02901483
      1.52097441     -0.13299797
      0.42254335     -0.27241901
      0.14023834     -0.14909429
p              4   1.000000
      0.64737396      0.05713170
      0.16785440      0.28574555
      0.05917387      0.55178731
      0.02355814      0.26323150
 
          36   0
s              4   1.000000
      8.30883931      0.05675242
      1.52041523      0.26014135
      0.42238800      0.53284611
      0.14018678      0.29162544
s              7   1.000000
      0.92936822     -0.06732856
      0.05643440      0.66945678
      0.02166600      0.51461571
      8.30883931     -0.02902300
      1.52041523     -0.13303543
      0.42238800     -0.27249575
      0.14018678     -0.14913629
p              4   1.000000
      0.64737396      0.05713170
      0.16785440      0.28574555
      0.05917387      0.55178731
      0.02355814      0.26323150
 
          37   0
s              4   1.000000
      8.30879263      0.05675242
      1.52040668      0.26014135
      0.42238562      0.53284611
      0.14018599      0.29162544
s              7   1.000000
      0.92936822     -0.06732862
      0.05643440      0.66945737
      0.02166600      0.51461616
      8.30879263     -0.02902313
      1.52040668     -0.13303601
      0.42238562     -0.27249692
      0.14018599     -0.14913694
p              4   1.000000
      0.64737396      0.05713170
      0.16785440      0.28574555
      0.05917387      0.55178731
      0.02355814      0.26323150
 
          38   0
s              4   1.000000
      8.30888302      0.05675242
      1.52042322      0.26014135
      0.42239022      0.53284611
      0.14018752      0.29162544
s              7   1.000000
      0.92936822     -0.06732851
      0.05643440      0.66945622
      0.02166600      0.51461527
      8.30888302     -0.02902288
      1.52042322     -0.13303490
      0.42239022     -0.27249465
      0.14018752     -0.14913569
p              4   1.000000
      0.64737396      0.05713170
      0.16785440      0.28574555
      0.05917387      0.55178731
      0.02355814      0.26323150
 
          39   0
s              4   1.000000
      8.31106636      0.05675242
      1.52082275      0.26014135
      0.42250121      0.53284611
      0.14022435      0.29162544
s              7   1.000000
      0.92936822     -0.06732570
      0.05643440      0.66942830
      0.02166600      0.51459380
      8.31106636     -0.02901704
      1.52082275     -0.13300813
      0.42250121     -0.27243982
      0.14022435     -0.14910568
p              4   1.000000
      0.64737396      0.05713170
      0.16785440      0.28574555
      0.05917387      0.55178731
      0.02355814      0.26323150
 
          40   0
s              4   1.000000
      8.31460397      0.05675242
      1.52147009      0.26014135
      0.42268105      0.53284611
      0.14028404      0.29162544
s              7   1.000000
      0.92936822     -0.06732115
      0.05643440      0.66938309
      0.02166600      0.51455906
      8.31460397     -0.02900759
      1.52147009     -0.13296478
      0.42268105     -0.27235103
      0.14028404     -0.14905709
p              4   1.000000
      0.64737396      0.05713170
      0.16785440      0.28574555
      0.05917387      0.55178731
      0.02355814      0.26323150
 
          41   0
s              4   1.000000
      8.31470574      0.05675242
      1.52148871      0.26014135
      0.42268622      0.53284611
      0.14028576      0.29162544
s              7   1.000000
      0.92936822     -0.06732102
      0.05643440      0.66938179
      0.02166600      0.51455805
      8.31470574     -0.02900732
      1.52148871     -0.13296353
      0.42268622     -0.27234848
      0.14028576     -0.14905569
p              4   1.000000
      0.64737396      0.05713170
      0.16785440      0.28574555
      0.05917387      0.55178731
      0.02355814      0.26323150
 
          42   0
s              4   1.000000
      8.31116479      0.05675242
      1.52084076      0.26014135
      0.42250622      0.53284611
      0.14022602      0.29162544
s              7   1.000000
      0.92936822     -0.06732557
      0.05643440      0.66942704
      0.02166600      0.51459283
      8.31116479     -0.02901678
      1.52084076     -0.13300692
      0.42250622     -0.27243735
      0.14022602     -0.14910433
p              4   1.000000
      0.64737396      0.05713170
      0.16785440      0.28574555
      0.05917387      0.55178731
      0.02355814      0.26323150
 
          43   0
s              4   1.000000
      8.30894819      0.05675242
      1.52043515      0.26014135
      0.42239353      0.53284611
      0.14018862      0.29162544
s              7   1.000000
      0.92936822     -0.06732842
      0.05643440      0.66945538
      0.02166600      0.51461462
      8.30894819     -0.02902271
      1.52043515     -0.13303410
      0.42239353     -0.27249302
      0.14018862     -0.14913479
p              4   1.000000
      0.64737396      0.05713170
      0.16785440      0.28574555
      0.05917387      0.55178731
      0.02355814      0.26323150
 
          44   0
s              4   1.000000
      8.30894012      0.05675242
      1.52043367      0.26014135
      0.42239312      0.53284611
      0.14018848      0.29162544
s              7   1.000000
      0.92936822     -0.06732843
      0.05643440      0.66945549
      0.02166600      0.51461472
      8.30894012     -0.02902273
      1.52043367     -0.13303420
      0.42239312     -0.27249322
      0.14018848     -0.14913491
p              4   1.000000
      0.64737396      0.05713170
      0.16785440      0.28574555
      0.05917387      0.55178731
      0.02355814      0.26323150
 
          45   0
s              4   1.000000
      8.30902661      0.05675242
      1.52044950      0.26014135
      0.42239752      0.53284611
      0.14018994      0.29162544
s              7   1.000000
      0.92936822     -0.06732832
      0.05643440      0.66945438
      0.02166600      0.51461385
      8.30902661     -0.02902250
      1.52044950     -0.13303314
      0.42239752     -0.27249105
      0.14018994     -0.14913372
p              4   1.000000
      0.64737396      0.05713170
      0.16785440      0.28574555
      0.05917387      0.55178731
      0.02355814      0.26323150
 
          46   0
s              4   1.000000
      8.31170918      0.05675242
      1.52094038      0.26014135
      0.42253389      0.53284611
      0.14023520      0.29162544
s              7   1.000000
      0.92936822     -0.06732487
      0.05643440      0.66942008
      0.02166600      0.51458749
      8.31170918     -0.02901533
      1.52094038     -0.13300025
      0.42253389     -0.27242368
      0.14023520     -0.14909685
p              4   1.000000
      0.64737396      0.05713170
      0.16785440      0.28574555
      0.05917387      0.55178731
      0.02355814      0.26323150
 
          47   0
s              4   1.000000
      8.31107906      0.05675242
      1.52082507      0.26014135
      0.42250186      0.53284611
      0.14022457      0.29162544
s              7   1.000000
      0.92936822     -0.06732568
      0.05643440      0.66942813
      0.02166600      0.51459367
      8.31107906     -0.02901701
      1.52082507     -0.13300797
      0.42250186     -0.27243950
      0.14022457     -0.14910551
p              4   1.000000
      0.64737396      0.05713170
      0.16785440      0.28574555
      0.05917387      0.55178731
      0.02355814      0.26323150
 
          48   0
s              4   1.000000
      8.30887471      0.05675242
      1.52042170      0.26014135
      0.42238980      0.53284611
      0.14018738      0.29162544
s              7   1.000000
      0.92936822     -0.06732852
      0.05643440      0.66945633
      0.02166600      0.51461537
      8.30887471     -0.02902291
      1.52042170     -0.13303500
      0.42238980     -0.27249486
      0.14018738     -0.14913581
p              4   1.000000
      0.64737396      0.05713170
      0.16785440      0.28574555
      0.05917387      0.55178731
      0.02355814      0.26323150
 
          49   0
s              4   1.000000
      8.30878647      0.05675242
      1.52040556      0.26014135
      0.42238531      0.53284611
      0.14018589      0.29162544
s              7   1.000000
      0.92936822     -0.06732863
      0.05643440      0.66945746
      0.02166600      0.51461621
      8.30878647     -0.02902314
      1.52040556     -0.13303608
      0.42238531     -0.27249708
      0.14018589     -0.14913702
p              4   1.000000
      0.64737396      0.05713170
      0.16785440      0.28574555
      0.05917387      0.55178731
      0.02355814      0.26323150
 
          50   0
s              4   1.000000
      8.30883028      0.05675242
      1.52041357      0.26014135
      0.42238754      0.53284611
      0.14018663      0.29162544
s              7   1.000000
      0.92936822     -0.06732858
      0.05643440      0.66945690
      0.02166600      0.51461579
      8.30883028     -0.02902303
      1.52041357     -0.13303554
      0.42238754     -0.27249598
      0.14018663     -0.14913642
p              4   1.000000
      0.64737396      0.05713170
      0.16785440      0.28574555
      0.05917387      0.55178731
      0.02355814      0.26323150
 
          51   0
s              4   1.000000
      8.31158905      0.05675242
      1.52091840      0.26014135
      0.42252778      0.53284611
      0.14023317      0.29162544
s              7   1.000000
      0.92936822     -0.06732503
      0.05643440      0.66942161
      0.02166600      0.51458868
      8.31158905     -0.02901565
      1.52091840     -0.13300172
      0.42252778     -0.27242670
      0.14023317     -0.14909850
p              4   1.000000
      0.64737396      0.05713170
      0.16785440      0.28574555
      0.05917387      0.55178731
      0.02355814      0.26323150
 
          52   0
s              4   1.000000
      8.31147283      0.05675242
      1.52089713      0.26014135
      0.42252188      0.53284611
      0.14023121      0.29162544
s              7   1.000000
      0.92936822     -0.06732518
      0.05643440      0.66942310
      0.02166600      0.51458982
      8.31147283     -0.02901596
      1.52089713     -0.13300315
      0.42252188     -0.27242962
      0.14023121     -0.14910010
p              4   1.000000
      0.64737396      0.05713170
      0.16785440      0.28574555
      0.05917387      0.55178731
      0.02355814      0.26323150
 
          53   0
s              4   1.000000
      8.30902097      0.05675242
      1.52044847      0.26014135
      0.42239723      0.53284611
      0.14018984      0.29162544
s              7   1.000000
      0.92936822     -0.06732833
      0.05643440      0.66945445
      0.02166600      0.51461392
      8.30902097     -0.02902252
      1.52044847     -0.13303320
      0.42239723     -0.27249119
      0.14018984     -0.14913379
p              4   1.000000
      0.64737396      0.05713170
      0.16785440      0.28574555
      0.05917387      0.55178731
      0.02355814      0.26323150
 
 [MO]
 Sym= Hole
 Ene= -0.5444376    
 Spin= Alpha
 Occup= 0
           1 -8.0095092E-04
           2  5.2443609E-02
           3 -1.7165504E-02
           4 -1.3603547E-02
           5  2.5035406E-03
           6  6.0913777E-03
           7  4.9964746E-04
           8  5.6538050E-04
           9  1.1072830E-04
          10  9.9356435E-03
          11 -5.2380352E-03
          12 -3.1129944E-03
          13  1.3140494E-03
          14  1.9051991E-03
          15 -1.6771295E-03
          16  1.8288117E-03
          17 -2.1110452E-04
          18 -4.3255206E-02
          19  1.5935013E-02
          20  1.1211808E-02
          21  1.0862035E-03
          22 -3.8819162E-03
          23 -2.3821006E-03
          24 -1.6096556E-04
          25  3.1010453E-03
          26 -4.7105227E-02
          27  1.1802638E-02
          28  1.1123010E-02
          29  4.1091206E-04
          30 -9.9761579E-03
          31 -2.0354725E-03
          32  3.7794944E-03
          33  1.1841958E-02
          34 -7.1813380E-03
          35  1.0104808E-02
          36  1.9899290E-02
          37 -1.6741507E-04
          38 -4.5602140E-03
          39 -3.3002798E-03
          40 -2.5499125E-03
          41 -8.4889779E-04
          42  1.0918509E-03
          43 -1.8932645E-03
          44 -3.1454756E-03
          45  2.2782203E-04
          46  1.7692465E-03
          47  5.7880743E-06
          48 -4.2755451E-04
          49 -6.8323867E-04
          50 -5.6721602E-04
          51 -1.4855461E-03
          52 -8.1457626E-03
          53  1.0359772E-03
          54  8.4098376E-04
          55  4.4375117E-04
          56 -9.1029255E-04
          57  4.9170468E-04
          58 -4.7253765E-04
          59 -5.0635351E-04
          60 -2.6993807E-03
          61  3.8475712E-04
          62 -2.6558246E-04
          63  2.0102807E-04
          64 -1.8107702E-04
          65 -1.0805410E-04
          66  4.0427709E-04
          67  1.9504558E-03
          68  4.1714078E-03
          69 -5.9279828E-05
          70 -5.1763105E-05
          71 -4.4377168E-05
          72 -9.5232754E-05
          73 -6.0746202E-04
          74  3.4235853E-03
          75  3.7974960E-04
          76  4.0170299E-03
          77  6.5412739E-04
          78 -4.7227929E-04
          79  7.0779247E-04
          80 -2.0757440E-04
          81  1.6101509E-03
          82 -1.5085026E-03
          83  3.6449991E-03
          84 -1.5271552E-03
          85 -8.2634232E-04
          86 -5.0079433E-04
          87  5.3765782E-04
          88 -2.8886148E-05
          89 -1.1000062E-02
          90  1.5894817E-02
          91  8.4407199E-03
          92 -1.0167536E-02
          93  8.6813355E-03
          94 -9.3710497E-03
          95  5.8371457E-03
          96  3.1361354E-03
          97  7.8281453E-03
          98 -6.4081987E-03
          99 -2.9151337E-03
         100  8.4190322E-03
         101 -1.7285221E-03
         102 -2.2416126E-03
         103 -8.2387880E-04
         104  1.8353275E-03
         105 -1.7681544E-03
         106 -8.9931116E-03
         107 -1.8949419E-03
         108  2.5614645E-02
         109  1.2884010E-03
         110  5.5682479E-04
         111  1.5832701E-03
         112  1.5577905E-04
         113 -6.6729151E-03
         114 -1.7920188E-03
         115  1.7769258E-02
         116 -2.6979817E-02
         117  2.0502510E-03
         118  1.5737446E-03
         119  7.4320653E-04
         120  3.8953908E-03
         121  3.1286858E-02
         122 -3.7617255E-02
         123  4.4784948E-02
         124  3.8627233E-02
         125 -1.0018838E-02
         126  4.8043155E-03
         127  6.2104817E-03
         128  2.4546515E-03
         129  9.8935021E-03
         130  3.9813008E-02
         131 -1.1212279E-02
         132 -5.4118517E-03
         133 -5.5348623E-04
         134 -2.2982645E-03
         135  2.1222683E-03
         136  2.4905407E-03
         137  5.2848051E-04
         138 -0.4892849    
         139  9.1101579E-02
         140  0.1458524    
         141  1.9935383E-03
         142 -1.0941332E-02
         143 -4.8487165E-04
         144  2.3952255E-03
         145 -1.4581034E-03
         146 -0.1440852    
         147  2.9963890E-02
         148  4.2627685E-02
         149  1.4376085E-03
         150 -5.3239604E-03
         151  5.2899116E-04
         152 -6.3602645E-05
         153  1.9628623E-04
         154  0.3412613    
         155 -6.9099039E-02
         156 -0.1013903    
         157  3.6631935E-04
         158  8.2394192E-03
         159 -7.8801444E-04
         160 -3.0695416E-03
         161  6.9940470E-05
         162  0.4855378    
         163 -9.7229116E-02
         164 -0.1426386    
         165  2.2013501E-04
         166  1.2454310E-02
         167 -1.7668348E-03
         168 -4.7373306E-03
         169  6.2232888E-05
         170  0.1290154    
         171 -2.6864938E-02
         172 -3.8810946E-02
         173  6.1764277E-04
         174  2.0619985E-03
         175  1.1557440E-03
         176 -2.3230070E-03
         177 -1.7731800E-03
         178 -0.3614080    
         179  7.3145464E-02
         180  0.1081423    
         181  2.9697872E-03
         182 -1.1198360E-02
         183  2.4932567E-03
         184  2.1196459E-03
         185 -3.9585415E-02
         186 -8.1258766E-02
         187 -1.9942693E-02
         188  1.3142705E-02
         189  1.5904177E-02
         190  3.4990327E-03
         191 -1.0533363E-02
         192 -9.5114985E-04
         193 -7.5367908E-03
         194  9.3374483E-04
         195 -3.3209331E-02
         196  2.5678476E-02
         197  4.6747361E-04
         198 -1.2688775E-02
         199 -4.5601567E-03
         200 -4.9796619E-04
         201 -7.7022472E-04
         202 -4.5445859E-03
         203  1.7517178E-03
         204  4.2726737E-03
         205 -3.5834478E-03
         206 -5.4052798E-03
         207  3.8396599E-04
         208 -1.2880417E-04
         209 -4.1304729E-03
         210  2.0536880E-03
         211 -6.3858540E-03
         212 -1.9923652E-02
         213 -1.6902116E-03
         214 -2.4452570E-03
         215 -1.6556064E-03
         216 -2.9570691E-04
         217 -7.8748586E-03
         218 -1.3905475E-02
         219 -4.9331100E-03
         220 -1.9561211E-02
         221 -1.0287907E-03
         222 -1.9054159E-03
         223 -3.6523978E-03
         224 -1.5733555E-04
         225  8.5530542E-03
         226  1.0931318E-02
         227  1.6238345E-02
         228  8.6947437E-03
         229 -4.4908649E-03
         230  8.6005853E-04
         231 -4.8533413E-03
         232 -2.8083756E-04
         233  2.1958274E-03
         234 -1.7575925E-02
         235  6.3234731E-04
         236  7.1791541E-03
         237  5.8708439E-04
         238 -9.3710609E-04
         239 -7.3750070E-03
         240  6.2549850E-03
         241 -3.9363960E-03
         242  2.8162830E-02
         243 -7.2366786E-03
         244 -7.1077971E-03
         245  2.8113076E-03
         246  8.5071437E-03
         247 -3.4894671E-03
         248 -1.8335991E-03
         249  8.6555548E-04
         250  4.8969750E-04
         251 -2.5041532E-03
         252  2.6961981E-04
         253 -2.9632967E-04
         254 -1.2238394E-03
         255  1.8664205E-04
         256 -9.2798052E-04
         257  3.1972231E-04
         258 -7.3622377E-04
         259 -3.4756694E-04
         260  1.1492281E-03
         261  1.5432567E-04
         262  7.6340203E-04
         263 -1.7500089E-03
         264 -1.5298798E-03
         265 -3.8958545E-04
         266  7.7742181E-04
         267  2.0562777E-04
         268 -4.6383272E-04
         269  5.1913914E-05
         270 -5.2959716E-05
         271 -2.2479016E-05
         272  8.0865677E-05
         273  5.1696965E-04
         274 -1.4899754E-03
         275 -2.9271844E-04
         276  2.9290974E-04
         277 -1.4887509E-04
         278  2.5690932E-04
         279  8.1263593E-04
         280  6.4077746E-04
         281 -3.6579338E-04
         282  3.2157197E-05
         283  6.9523820E-05
         284  1.3655545E-03
         285 -1.0331059E-03
         286  2.7387953E-04
         287 -1.0203507E-03
         288  3.9652301E-04
         289 -7.2828783E-03
         290  7.8512088E-04
         291 -8.2767516E-04
         292 -2.6093868E-03
         293  1.5000982E-03
         294 -9.2805326E-03
         295  3.4384383E-03
         296  2.6902361E-03
         297  8.8002585E-04
         298 -9.1707858E-04
         299 -1.3664694E-03
         300  1.0750232E-03
         301  4.4443342E-03
         302 -2.9658349E-03
         303 -7.6111016E-04
         304  4.1410537E-04
         305  3.8328790E-04
         306 -1.1495139E-02
         307  2.2127118E-03
         308  4.0179826E-03
         309  7.6245097E-04
         310  5.8113184E-04
         311 -1.4870006E-02
         312  1.8785897E-03
         313  4.4628414E-03
         314 -1.0423164E-03
         315 -3.2498571E-04
         316 -4.1466472E-03
         317  9.8160084E-04
         318  1.1071333E-03
         319 -1.7578737E-03
         320  7.5805181E-04
         321  1.2680668E-02
         322 -4.0682969E-03
         323 -3.9789602E-03
         324 -2.3079489E-03
         325 -6.4868745E-03
         326 -8.6483136E-03
         327  7.9810219E-03
         328 -7.3659432E-04
         329  1.2052099E-02
         330 -5.5839620E-03
         331 -2.3759878E-03
         332  8.3535130E-04
         333 -3.4592208E-04
         334 -1.9585623E-03
         335 -2.9482131E-03
         336 -2.4923652E-03
         337 -9.6258073E-04
         338 -5.6870247E-04
         339  8.6402614E-03
         340 -3.5388707E-03
         341  1.9859615E-06
         342 -3.1945019E-03
         343  1.0984948E-04
         344  1.3869457E-02
         345 -5.7802661E-03
         346  3.0119885E-03
         347 -3.4254466E-03
         348 -3.0556912E-04
         349  2.0909924E-03
         350  2.1017671E-03
         351  2.5407205E-04
         352  1.4650876E-03
         353  1.5123651E-03
         354 -4.5506458E-04
         355 -2.7077837E-04
         356  5.3121918E-04
         357  9.4980921E-04
         358 -2.4365219E-03
 Sym= Particle
 Ene= -0.5444376    
 Spin= Alpha
 Occup= 2
           1  2.1216171E-03
           2 -1.0722549E-02
           3  2.6968101E-03
           4  4.4776527E-03
           5 -5.2840924E-03
           6  7.9864478E-03
           7 -9.9786476E-04
           8 -7.9607749E-03
           9  9.1288652E-04
          10  1.0135308E-02
          11 -5.4852141E-04
          12 -2.0294245E-03
          13 -1.0416539E-02
          14  1.6379185E-02
          15 -2.6446227E-03
          16  9.8191132E-04
          17  3.2087218E-03
          18 -1.3751729E-03
          19  1.6567768E-03
          20 -5.0775165E-04
          21 -3.1100288E-03
          22 -5.6598783E-03
          23 -8.1473319E-03
          24  1.8363784E-03
          25 -1.8328936E-03
          26 -1.1837617E-02
          27  7.8073968E-03
          28  1.7311443E-03
          29  4.5543709E-03
          30 -1.1124453E-02
          31 -3.0702571E-03
          32  9.5559396E-03
          33 -5.1977327E-03
          34 -1.7547800E-03
          35 -4.7371639E-03
          36 -1.3737389E-02
          37 -1.8769176E-03
          38 -1.1883152E-03
          39  9.8298546E-03
          40  4.9183196E-03
          41  4.5241225E-03
          42 -7.2310804E-03
          43  2.1898211E-03
          44 -4.1772556E-03
          45 -3.6750950E-03
          46  1.9300170E-03
          47 -2.6189378E-03
          48 -3.4096865E-03
          49  9.0672064E-04
          50 -1.3711824E-03
          51 -2.4658634E-04
          52  6.7813345E-03
          53 -2.0940036E-03
          54  6.2038080E-04
          55 -6.0933630E-04
          56 -3.6509212E-03
          57  1.1539991E-03
          58 -6.3049176E-04
          59 -1.1748137E-03
          60  2.3817741E-04
          61 -5.6851777E-04
          62 -1.1337288E-03
          63  1.8702303E-03
          64 -2.2847945E-04
          65  3.3628091E-04
          66 -4.0188598E-04
          67 -1.7210483E-03
          68 -4.7689918E-03
          69  4.4186844E-04
          70 -1.0482126E-03
          71  9.3017035E-04
          72  1.4144941E-03
          73  8.6302066E-04
          74  7.2609243E-04
          75  1.5602399E-03
          76  3.2314186E-03
          77 -7.1073395E-05
          78 -1.4036183E-03
          79 -1.8231462E-04
          80  4.1477758E-04
          81  2.5025290E-04
          82  7.8161299E-04
          83  1.9414712E-03
          84  2.0122195E-03
          85 -3.1491992E-04
          86 -4.6544636E-04
          87 -8.5950916E-04
          88 -1.4689723E-03
          89  1.2047921E-03
          90 -7.4365078E-03
          91  3.1319938E-05
          92 -4.5591383E-03
          93 -5.4798033E-03
          94  4.1101682E-03
          95 -4.0111491E-03
          96 -4.4107743E-05
          97  1.3763199E-03
          98  2.0479080E-03
          99  3.4477967E-03
         100 -5.6131935E-04
         101 -4.0146601E-03
         102 -3.4579902E-03
         103  2.7954386E-04
         104 -2.6456162E-03
         105  3.5097965E-03
         106  1.3441730E-03
         107 -5.6291861E-03
         108 -1.9101684E-03
         109 -7.9557933E-03
         110  1.4744452E-03
         111  4.4417958E-04
         112 -1.4535564E-03
         113  5.5363951E-03
         114  1.8205844E-04
         115  1.6876208E-02
         116 -2.9079204E-03
         117 -9.5460918E-03
         118  3.7894330E-03
         119 -1.0120696E-02
         120 -3.7606559E-03
         121 -7.7761658E-03
         122  1.1871102E-02
         123 -1.1044808E-02
         124 -1.2153171E-02
         125 -1.7433886E-03
         126 -5.0379155E-04
         127 -5.7954299E-03
         128  9.2006279E-03
         129  8.4238354E-04
         130  1.9441465E-02
         131 -5.3609209E-03
         132 -9.9832257E-03
         133 -1.3496673E-02
         134 -6.4806570E-04
         135 -2.5287352E-03
         136 -5.9235622E-03
         137  1.2821988E-03
         138  0.1319132    
         139 -2.7040832E-02
         140 -3.9346606E-02
         141 -4.6976260E-03
         142 -3.6935773E-02
         143  5.6925626E-03
         144  1.0890025E-02
         145  9.9969411E-04
         146 -0.5122194    
         147  0.1007520    
         148  0.1521426    
         149 -3.2554604E-03
         150  0.1618766    
         151 -3.3634067E-02
         152 -4.6560436E-02
         153  5.6262180E-04
         154  0.3819586    
         155 -7.5857520E-02
         156 -0.1140675    
         157 -3.4806340E-03
         158 -0.1126932    
         159  2.1440396E-02
         160  3.5591219E-02
         161  5.4401607E-04
         162  0.1287210    
         163 -2.5992826E-02
         164 -3.8839843E-02
         165 -1.5846275E-03
         166 -3.7061278E-02
         167  8.1740217E-03
         168  1.5867995E-02
         169  2.0788740E-03
         170 -0.5097782    
         171  0.1024577    
         172  0.1517906    
         173 -2.3268808E-03
         174  0.1557501    
         175 -2.8940944E-02
         176 -4.4335864E-02
         177  1.9311161E-03
         178  0.3787547    
         179 -7.5549871E-02
         180 -0.1097584    
         181 -5.8300826E-03
         182 -0.1128434    
         183  2.5218377E-02
         184  2.9836914E-02
         185  1.3044028E-02
         186  2.1359252E-02
         187  5.4650581E-03
         188  1.4922328E-02
         189 -6.8632672E-03
         190 -4.1212160E-03
         191 -2.0574075E-03
         192 -1.0444396E-02
         193 -4.9030618E-03
         194 -3.5061697E-03
         195 -1.8866984E-03
         196 -9.0535618E-03
         197  7.9553947E-03
         198  9.2776082E-03
         199  3.2731958E-03
         200 -7.1058418E-03
         201  2.1403630E-03
         202  3.6878200E-04
         203  1.5247886E-03
         204  2.3255987E-02
         205  1.1849122E-03
         206  1.1956794E-03
         207 -6.1495695E-04
         208  2.1597838E-03
         209  1.7561330E-04
         210  2.0171788E-04
         211 -1.2589208E-03
         212 -1.6912607E-03
         213 -2.1668094E-04
         214 -8.7114000E-05
         215 -6.2461349E-04
         216  4.1334988E-03
         217  2.2386601E-03
         218  5.2374122E-03
         219 -1.1838508E-03
         220 -2.0228345E-02
         221 -1.0385029E-03
         222  6.2036986E-04
         223 -3.2364888E-04
         224  6.3931537E-03
         225 -1.5994634E-03
         226 -2.0020828E-03
         227 -7.1252203E-03
         228  1.7378565E-02
         229  1.0615208E-03
         230  3.7681793E-03
         231  4.7834609E-03
         232 -6.6583051E-04
         233  2.7101506E-03
         234  2.0291416E-02
         235 -1.3464369E-02
         236 -1.1042475E-02
         237 -1.8586244E-03
         238  2.8079881E-03
         239  6.6959490E-03
         240  6.6082506E-03
         241 -6.0946390E-04
         242 -6.2621124E-03
         243  4.3664402E-03
         244  4.0796930E-03
         245  3.8269358E-03
         246 -1.0025379E-02
         247  1.5944189E-03
         248 -3.7198695E-03
         249  1.0472038E-03
         250 -3.1655375E-04
         251 -1.2419543E-03
         252  1.9791794E-05
         253  2.0321154E-04
         254  5.6116148E-03
         255 -5.4516071E-03
         256  9.2948824E-03
         257  2.5991693E-03
         258  2.5187901E-03
         259 -1.5961590E-03
         260  4.9747219E-03
         261 -7.9360679E-03
         262  2.6186234E-03
         263 -5.5799866E-03
         264 -1.5253800E-03
         265  5.0382077E-04
         266  3.0543893E-03
         267 -2.3465477E-04
         268 -9.1433630E-04
         269 -2.6854069E-03
         270  2.1865868E-03
         271 -7.2915584E-04
         272  1.8697261E-03
         273 -8.6279371E-04
         274 -1.0326763E-03
         275  1.2092519E-03
         276 -5.4322853E-04
         277 -3.5267189E-04
         278 -1.1931314E-03
         279 -1.6207624E-03
         280  1.0927203E-03
         281 -1.1144843E-03
         282  8.1876802E-05
         283  2.0709562E-03
         284 -7.5001316E-04
         285  1.3034417E-03
         286 -9.5452351E-04
         287 -6.8914349E-05
         288 -6.2044582E-04
         289  3.8685156E-03
         290  3.0782067E-03
         291 -6.1572241E-03
         292  3.7578498E-03
         293 -2.0725657E-04
         294  6.0864440E-03
         295 -1.1878237E-03
         296  4.5240410E-03
         297  3.8454384E-03
         298 -4.8076105E-03
         299  1.0343400E-03
         300  8.0674415E-04
         301 -0.1063973    
         302  1.8158359E-02
         303  3.2304533E-02
         304  1.1668727E-03
         305 -3.2860423E-03
         306  9.3199261E-02
         307 -2.0102417E-02
         308 -2.6507294E-02
         309  1.0707274E-04
         310  4.1479900E-04
         311  3.1620748E-02
         312 -6.6481363E-03
         313 -5.2299704E-03
         314 -6.6545815E-04
         315  4.1740453E-03
         316 -0.1182464    
         317  2.5451735E-02
         318  3.4370642E-02
         319 -1.0508158E-03
         320 -2.1581794E-03
         321  8.7487273E-02
         322 -1.3016539E-02
         323 -3.3375386E-02
         324 -5.2075400E-03
         325  4.7016451E-03
         326  4.0380973E-03
         327 -4.4788406E-03
         328 -3.8683552E-02
         329 -1.7149126E-03
         330 -5.0569099E-04
         331 -1.3830974E-03
         332 -1.5694607E-03
         333  1.0426006E-02
         334  2.5438739E-04
         335 -5.2424864E-04
         336  6.5319421E-04
         337  7.9209440E-06
         338 -1.2807621E-03
         339 -2.8373357E-03
         340  8.1805780E-04
         341  1.6787742E-03
         342  3.8079644E-04
         343 -6.7491587E-03
         344 -4.3065571E-03
         345  3.1203385E-03
         346 -2.3794330E-03
         347  5.6979805E-03
         348  3.1526014E-03
         349  1.9717952E-03
         350 -4.3519586E-03
         351  2.7338294E-02
         352 -1.2084170E-03
         353 -2.5156876E-03
         354 -2.5752666E-03
         355  1.0188061E-02
         356 -1.8158086E-02
         357  3.4389647E-03
         358  9.9818408E-03
 Sym= Hole
 Ene= -0.5227538    
 Spin= Alpha
 Occup= 0
           1  3.5992896E-04
           2  1.1659458E-03
           3  7.1689268E-05
           4  1.4172282E-04
           5 -1.1611293E-03
           6 -3.7973893E-03
           7 -1.3746152E-04
           8  3.1898143E-03
           9  1.1657672E-03
          10 -3.8665086E-02
          11  1.2634051E-02
          12  1.0255102E-02
          13 -2.1676116E-03
          14 -6.8506622E-03
          15 -1.2083589E-03
          16  1.4388577E-04
          17  2.0045326E-03
          18 -3.3724301E-02
          19  1.0882673E-02
          20  8.6242221E-03
          21 -1.8135433E-03
          22 -9.3178377E-03
          23  2.3081566E-03
          24 -8.6285797E-04
          25  2.7287009E-03
          26 -1.2542454E-04
          27  5.1453267E-04
          28  1.3829429E-04
          29 -1.4798688E-03
          30 -2.0919379E-03
          31  4.8634321E-03
          32  5.8169723E-03
          33  5.2989055E-03
          34 -5.1239305E-03
          35  1.4233335E-03
          36  5.5965171E-03
          37 -3.4374790E-03
          38  9.5876958E-04
          39 -1.8843858E-03
          40 -2.3963812E-03
          41 -1.6354087E-03
          42  1.8144577E-03
          43 -1.6811847E-03
          44 -1.7170110E-03
          45  6.0010445E-04
          46 -1.1398580E-04
          47  1.1193297E-03
          48  1.3849528E-04
          49  1.0906586E-04
          50 -7.7483518E-04
          51 -3.4393775E-04
          52 -2.2795261E-03
          53  1.8847430E-04
          54  3.9615546E-04
          55  2.4865670E-04
          56  2.1966371E-04
          57 -1.9945679E-04
          58  3.9082128E-04
          59 -3.3079443E-04
          60 -3.1051179E-04
          61 -4.1625553E-05
          62  3.9226512E-04
          63 -3.0389027E-04
          64 -1.5790202E-04
          65  1.9326848E-04
          66  2.6498511E-04
          67  8.1090763E-04
          68  1.8673837E-03
          69 -3.2843458E-05
          70  3.2446351E-05
          71 -7.9214122E-05
          72 -1.8259087E-04
          73 -3.3128736E-04
          74  6.8548601E-04
          75 -1.8864099E-04
          76  1.6409899E-03
          77  2.0561124E-04
          78 -2.5831824E-04
          79  3.7535376E-04
          80  2.0578039E-04
          81  8.8155718E-04
          82 -6.9886557E-04
          83  8.6716452E-04
          84 -9.3655312E-04
          85 -3.4859736E-04
          86  2.6551011E-04
          87  1.0970071E-03
          88  6.9965242E-04
          89  8.1814465E-04
          90 -2.4386432E-03
          91 -9.2388066E-03
          92  5.0802184E-03
          93 -6.5168896E-04
          94  4.9260445E-03
          95 -1.6511460E-03
          96  5.1726139E-04
          97 -1.3035812E-03
          98  7.5570645E-04
          99  2.8177989E-03
         100 -1.8548659E-03
         101  1.4902420E-03
         102  5.7247770E-04
         103  1.3261939E-03
         104 -7.6872454E-04
         105  3.8506178E-04
         106  1.0784677E-03
         107  7.8949435E-03
         108 -1.0643133E-02
         109  1.6749325E-03
         110 -2.4146945E-04
         111  1.0125273E-03
         112 -8.0968326E-05
         113  9.9557394E-04
         114  1.6228042E-03
         115 -1.1796528E-02
         116  1.1223237E-02
         117  2.7143070E-04
         118 -7.0938939E-04
         119 -4.6402364E-04
         120 -2.6454474E-03
         121 -9.6265441E-03
         122  8.3267242E-03
         123 -1.8135250E-02
         124 -6.3288636E-03
         125  4.3235980E-03
         126 -1.3063058E-03
         127 -3.5788105E-03
         128  7.8549929E-04
         129 -4.3752594E-03
         130 -1.0296283E-02
         131  3.5603871E-03
         132  2.9631117E-03
         133  3.2840201E-03
         134  1.7000122E-04
         135 -1.5094357E-04
         136  1.0251603E-04
         137 -2.0664764E-04
         138  0.1245337    
         139 -2.3833863E-02
         140 -3.7250951E-02
         141 -1.4170900E-04
         142  2.5184019E-03
         143 -3.1578567E-04
         144 -2.2839501E-03
         145  1.0429661E-03
         146  0.4920002    
         147 -9.7607255E-02
         148 -0.1465245    
         149 -4.0945856E-04
         150  1.5918899E-02
         151 -2.1857284E-03
         152 -5.5248966E-03
         153 -6.1282655E-04
         154  0.3714076    
         155 -7.2866142E-02
         156 -0.1103243    
         157 -7.7772114E-05
         158  1.2149652E-02
         159 -2.6394422E-03
         160 -4.4429600E-03
         161  4.6418255E-04
         162 -0.1242604    
         163  2.4552900E-02
         164  3.6811899E-02
         165 -8.1617420E-04
         166 -3.7615930E-03
         167  4.5898042E-04
         168 -8.8169810E-04
         169  8.4879424E-04
         170 -0.4869558    
         171  9.7219571E-02
         172  0.1436194    
         173 -1.0207641E-03
         174 -1.4924580E-02
         175  3.5858762E-03
         176  3.1422719E-03
         177  4.9768214E-04
         178 -0.3606333    
         179  6.9337010E-02
         180  0.1086587    
         181 -5.8088708E-04
         182 -1.0941137E-02
         183  1.1451142E-03
         184  2.5288526E-03
         185  9.6381214E-03
         186  2.0745695E-02
         187  3.6671525E-03
         188 -1.0615924E-02
         189 -3.7518167E-03
         190 -2.7308331E-03
         191  4.8831203E-03
         192  5.4169373E-06
         193  8.0500571E-03
         194  5.3628855E-03
         195  1.9798329E-02
         196 -5.3373110E-03
         197 -2.3426414E-03
         198  6.0188752E-03
         199  4.7247391E-03
         200 -2.1848483E-03
         201 -2.2979411E-03
         202 -3.6746850E-03
         203 -2.9043083E-03
         204  4.3863087E-04
         205  1.4481004E-03
         206  2.7265467E-03
         207  3.7906380E-04
         208  1.7096595E-03
         209  2.3828710E-03
         210 -2.6240447E-04
         211  4.2878794E-03
         212  9.1878017E-03
         213  1.5128282E-04
         214  8.1369811E-04
         215  3.2233866E-04
         216  4.7419471E-04
         217  2.0387247E-03
         218  3.2589845E-03
         219  1.1297588E-03
         220  3.9825137E-03
         221  4.6531099E-04
         222  6.8670709E-04
         223  1.1470530E-03
         224 -1.6557393E-05
         225 -1.7118244E-03
         226 -1.0349652E-03
         227 -2.9974517E-03
         228 -1.1198670E-02
         229  1.3137351E-03
         230 -9.2648144E-04
         231  1.6999313E-03
         232  5.2628113E-04
         233 -4.3760496E-03
         234  2.3429139E-02
         235  8.0787322E-05
         236  1.1651654E-03
         237  2.0804335E-03
         238  8.8656722E-03
         239  2.6138313E-03
         240  6.0069636E-03
         241  2.2529173E-04
         242  3.1921927E-02
         243 -1.1591689E-02
         244 -7.4365949E-03
         245  1.6485681E-04
         246  3.5029300E-03
         247  3.2719327E-03
         248  3.0501226E-03
         249  2.7550443E-04
         250  8.8430737E-05
         251  1.4409113E-03
         252  2.2155702E-05
         253 -1.9825625E-03
         254 -8.3791150E-04
         255 -1.4534654E-04
         256  3.9889389E-03
         257  2.4714225E-04
         258 -3.7080093E-04
         259  4.7226131E-05
         260  8.0903614E-04
         261  7.3921023E-04
         262 -5.1889982E-04
         263 -1.0240956E-03
         264  6.0957280E-04
         265 -1.4558273E-04
         266  3.8202360E-04
         267 -3.2119064E-05
         268  5.3897960E-04
         269  3.7440564E-04
         270 -2.4838429E-05
         271  5.6845550E-07
         272 -6.2541541E-05
         273 -1.5273232E-04
         274 -2.8561821E-04
         275  4.9623053E-05
         276 -5.1569499E-05
         277  8.0027487E-05
         278 -1.3535723E-04
         279 -1.4896758E-04
         280  1.1517282E-04
         281 -2.0314664E-04
         282  1.5723465E-04
         283  5.9123191E-05
         284  7.9658953E-04
         285 -2.0666013E-04
         286  1.1020439E-03
         287  5.9445883E-04
         288  6.9830148E-04
         289  9.5800223E-04
         290 -2.2716966E-04
         291 -4.9262925E-04
         292  2.1159258E-03
         293 -3.7804202E-04
         294  1.6982780E-03
         295 -1.5152374E-03
         296  5.9453858E-04
         297 -6.4699369E-04
         298  5.1883230E-04
         299 -2.6435542E-04
         300 -4.7182033E-04
         301 -1.8151464E-02
         302  5.3476719E-03
         303  5.6858836E-03
         304 -7.0996262E-05
         305  1.7379542E-04
         306 -1.2754558E-02
         307  2.5060794E-03
         308  4.0930612E-03
         309 -6.6814834E-04
         310 -5.1333755E-04
         311  3.7074194E-03
         312 -2.9425148E-04
         313 -1.2841126E-03
         314 -5.8732403E-04
         315 -7.1013597E-04
         316  1.7601492E-02
         317 -2.4881465E-03
         318 -4.4973521E-03
         319  7.1089366E-04
         320 -5.9076253E-04
         321  1.4022036E-02
         322 -2.6852642E-03
         323 -3.1986437E-03
         324  7.8674760E-03
         325  1.8395428E-03
         326  3.8751203E-03
         327 -2.1366875E-03
         328 -4.6640849E-03
         329 -4.5665344E-03
         330  2.0412956E-03
         331  6.2193791E-04
         332 -7.4231310E-04
         333  1.9087783E-03
         334 -1.2205262E-03
         335  1.3108909E-03
         336  9.2689152E-04
         337  1.7681955E-04
         338  2.0869535E-04
         339 -1.3741568E-03
         340  1.3449491E-03
         341  1.2878103E-04
         342  1.3597065E-03
         343  2.9252327E-04
         344 -3.9869971E-03
         345  1.7205619E-03
         346 -1.6187469E-03
         347  1.1943437E-03
         348  6.9091003E-04
         349 -8.5292486E-03
         350 -1.7403584E-03
         351  4.4184616E-03
         352 -3.8615009E-03
         353 -5.0501917E-03
         354  9.0697443E-04
         355 -3.0113012E-04
         356  3.7199922E-04
         357 -1.2936150E-03
         358 -3.9716735E-03
 Sym= Particle
 Ene= -0.5227538    
 Spin= Alpha
 Occup= 2
           1  1.1906098E-04
           2  3.9334800E-03
           3 -8.5991342E-04
           4  8.3386927E-04
           5  8.1738625E-03
           6 -1.5540242E-02
           7 -1.0727058E-03
           8  1.2813134E-03
           9  4.4469093E-04
          10 -2.9150180E-03
          11  1.7125749E-03
          12  3.2294428E-03
          13 -2.5125912E-03
          14  3.7039658E-03
          15  1.6273110E-03
          16 -4.4520879E-03
          17  5.0081625E-03
          18 -2.4424172E-03
          19 -3.2687720E-03
          20  3.4841148E-03
          21 -1.3054738E-02
          22  1.5031812E-02
          23 -3.9093434E-03
          24 -2.7832384E-03
          25 -3.8333799E-04
          26 -9.4670281E-03
          27  8.0024404E-03
          28  5.7810121E-03
          29 -1.4534793E-03
          30 -1.0385642E-02
          31 -1.3913319E-02
          32 -6.6510858E-03
          33 -1.5162787E-03
          34 -7.5767608E-03
          35 -5.5725966E-03
          36 -1.1464827E-02
          37 -9.1312174E-03
          38 -1.5394897E-03
          39  6.4427161E-04
          40 -6.4050364E-03
          41  4.3589850E-03
          42 -7.0167100E-03
          43  3.7032871E-03
          44 -1.2603691E-03
          45 -2.6200849E-03
          46 -1.3016976E-03
          47 -2.0644299E-03
          48  2.2649281E-03
          49  3.4873889E-04
          50 -8.1054587E-04
          51 -1.3345833E-03
          52  6.4935582E-03
          53 -4.8999209E-04
          54 -1.5622037E-03
          55  1.2695224E-03
          56 -2.3448120E-03
          57  7.3318934E-04
          58 -6.9446961E-04
          59 -5.1142322E-04
          60  1.6965609E-04
          61  4.3736518E-04
          62 -1.3866392E-03
          63  1.4434521E-03
          64  3.4267182E-04
          65  7.8144344E-04
          66 -4.2126700E-04
          67 -1.0564142E-03
          68 -3.8941379E-03
          69 -1.8515583E-04
          70 -9.1450993E-04
          71  6.0978229E-04
          72  1.2582219E-03
          73  5.6012970E-04
          74 -1.6341613E-04
          75  1.2197245E-03
          76  1.8466836E-03
          77 -4.9217115E-04
          78 -1.5932352E-04
          79 -8.5771468E-04
          80 -3.8754300E-04
          81  6.6064432E-04
          82  2.0107646E-03
          83  3.0500481E-03
          84  2.1223617E-03
          85 -1.5526915E-03
          86 -1.1642607E-03
          87 -2.3310976E-03
          88  1.3222720E-03
          89  1.2628397E-04
          90 -1.3544311E-02
          91 -7.8886375E-03
          92 -5.1635886E-03
          93  6.6697062E-03
          94 -3.1834429E-03
          95  1.8263597E-02
          96  4.0655686E-03
          97 -4.5796027E-03
          98  1.8050146E-03
          99 -1.5082329E-02
         100  7.8124143E-03
         101  4.7626304E-03
         102 -4.0697325E-03
         103  2.4468207E-03
         104 -4.0631234E-03
         105 -1.3503773E-04
         106  4.9145073E-03
         107  1.0662743E-02
         108 -2.3934942E-02
         109 -1.1907833E-03
         110  1.7063977E-04
         111 -5.6874095E-03
         112  4.9216920E-03
         113  1.0158050E-02
         114  7.1668425E-03
         115 -2.0957496E-02
         116  3.2609448E-02
         117 -4.0598875E-03
         118  7.8611751E-04
         119  5.5788313E-03
         120 -1.5589781E-02
         121 -3.7738483E-02
         122  3.1397402E-02
         123 -1.6918121E-02
         124 -5.5364888E-02
         125  3.1300277E-02
         126 -4.2175450E-03
         127  2.8185504E-02
         128  1.8388281E-02
         129 -2.5645983E-03
         130  4.8641056E-02
         131  1.1584818E-03
         132 -2.1133836E-02
         133 -7.6172766E-03
         134 -2.0136563E-03
         135  2.8922900E-03
         136 -3.3670031E-03
         137 -4.4708927E-03
         138  0.5228574    
         139 -9.3534604E-02
         140 -0.1587164    
         141  3.5221945E-03
         142 -0.1618047    
         143  3.0041076E-02
         144  5.1545359E-02
         145  2.4021182E-03
         146 -0.1458652    
         147  2.6186649E-02
         148  4.5862347E-02
         149 -1.0327771E-03
         150  4.5889288E-02
         151 -7.4636037E-03
         152 -1.2862973E-02
         153  3.3553955E-04
         154 -0.3643732    
         155  7.3613845E-02
         156  0.1069609    
         157 -2.2176915E-04
         158  0.1109143    
         159 -2.4923539E-02
         160 -3.2741901E-02
         161  2.9562117E-04
         162  0.5083873    
         163 -0.1016266    
         164 -0.1497884    
         165 -5.8054679E-06
         166 -0.1534631    
         167  2.5558058E-02
         168  4.5910209E-02
         169 -4.1785050E-04
         170 -0.1401335    
         171  3.0031083E-02
         172  4.1453827E-02
         173  1.9220026E-03
         174  4.6249021E-02
         175 -1.5139341E-02
         176 -8.9207832E-03
         177  3.5533872E-03
         178 -0.3737068    
         179  6.9293179E-02
         180  0.1126862    
         181 -6.7727501E-04
         182  0.1195816    
         183 -2.2202626E-02
         184 -3.3086095E-02
         185  4.9709786E-02
         186  8.0911510E-02
         187  2.0312211E-02
         188 -1.5157439E-03
         189 -4.5799203E-02
         190 -2.7534712E-02
         191 -2.9384091E-02
         192 -1.3146262E-03
         193  4.1267313E-03
         194 -5.6524980E-03
         195  2.5313595E-02
         196  1.5604557E-02
         197 -1.3207404E-02
         198 -7.6520843E-03
         199 -2.2299493E-02
         200 -6.8058874E-03
         201  3.2685525E-03
         202  2.4554804E-03
         203  3.0014380E-03
         204 -4.5360834E-05
         205 -5.9505729E-03
         206  1.4529225E-03
         207 -4.8631411E-03
         208  2.5944314E-03
         209  3.9836541E-03
         210  1.6643682E-03
         211  1.7695132E-03
         212 -1.3182247E-02
         213 -7.5761545E-03
         214 -1.0003750E-03
         215 -4.6171118E-03
         216  4.4471235E-03
         217  8.4918765E-03
         218  8.0743004E-03
         219 -3.1894085E-04
         220  1.1787661E-02
         221 -7.7066771E-03
         222  2.0392616E-03
         223 -1.5370980E-04
         224 -2.9851769E-03
         225 -7.5154621E-03
         226 -2.2023262E-03
         227 -1.9378783E-02
         228  5.3509125E-03
         229  3.3922543E-04
         230  7.9967650E-03
         231  9.2028705E-03
         232 -2.6042408E-03
         233  1.5724814E-03
         234 -1.2501528E-03
         235 -3.0563658E-03
         236 -3.4507299E-03
         237 -1.0623140E-03
         238 -9.6758601E-04
         239 -3.7111735E-03
         240  1.0239724E-02
         241  2.3439321E-04
         242  5.8979425E-03
         243 -3.1138957E-03
         244 -5.1968032E-03
         245  3.2280188E-03
         246 -1.1674289E-03
         247  6.4835404E-03
         248  6.2727765E-03
         249 -6.1011440E-03
         250  1.0269563E-02
         251 -9.2834868E-03
         252 -8.3698034E-03
         253  5.3181550E-03
         254 -6.4711865E-05
         255  1.0181989E-03
         256 -2.5333912E-04
         257  2.9794994E-04
         258  2.2802081E-04
         259  4.2072739E-03
         260 -8.2996367E-03
         261  1.1672449E-02
         262 -2.5448380E-03
         263  4.0370943E-03
         264 -2.6600612E-03
         265  3.0369486E-03
         266  1.2267095E-03
         267  1.8314911E-03
         268 -2.9044456E-03
         269 -1.8758250E-03
         270  1.7601964E-03
         271 -3.1294921E-04
         272  1.2218244E-03
         273 -3.2748881E-04
         274 -9.7125449E-04
         275  8.0769567E-04
         276 -1.2239906E-03
         277  5.6125346E-04
         278 -1.5572847E-04
         279 -7.5414806E-04
         280  1.8432998E-04
         281 -1.7612270E-05
         282 -7.1804464E-04
         283 -7.4563792E-04
         284 -1.6837943E-03
         285  1.2269481E-03
         286 -9.0217400E-05
         287 -1.2597058E-03
         288  2.9011114E-04
         289  7.2938134E-03
         290  1.3258003E-03
         291 -1.5677739E-03
         292 -6.9450205E-03
         293 -8.7082502E-04
         294  1.0582106E-02
         295 -4.4189403E-03
         296  5.4557440E-03
         297 -4.1925674E-03
         298 -4.4354142E-04
         299  3.2063839E-03
         300  6.5981410E-04
         301 -3.2709058E-02
         302  8.5703693E-03
         303  1.1259452E-02
         304  1.0507526E-03
         305  2.1176354E-03
         306 -8.6041622E-02
         307  1.6043093E-02
         308  2.6397949E-02
         309 -5.5312685E-04
         310 -7.2417193E-04
         311  0.1169232    
         312 -2.7607776E-02
         313 -3.4990389E-02
         314  1.1018660E-03
         315  3.3083705E-03
         316 -2.9728753E-02
         317  1.4969348E-03
         318  1.2044628E-02
         319  2.2980040E-03
         320  3.8001454E-03
         321 -7.7889167E-02
         322  1.8562628E-02
         323  2.1646479E-02
         324 -1.8134551E-02
         325  9.5427036E-04
         326 -2.9421337E-02
         327  1.6769639E-03
         328 -8.0342619E-03
         329 -1.2125548E-02
         330 -1.5629423E-03
         331 -2.7155984E-04
         332 -6.2841305E-04
         333  9.2658383E-04
         334 -2.1140780E-03
         335 -5.3176214E-03
         336 -2.3129578E-03
         337 -2.7372716E-03
         338 -3.0401899E-03
         339 -1.0152267E-02
         340 -1.4055301E-03
         341  7.6007243E-04
         342  1.3209725E-04
         343  1.5560432E-03
         344 -1.6120754E-02
         345  7.3244357E-03
         346  3.9838845E-04
         347  6.5297000E-03
         348 -4.2716870E-03
         349 -9.7733748E-04
         350  2.3351663E-03
         351  7.0761922E-03
         352 -7.6621650E-03
         353  1.1765053E-02
         354 -1.5791644E-03
         355  1.8952142E-03
         356  1.0841149E-02
         357  2.1930248E-03
         358  1.7248632E-03
