 [Molden Format]
 [Atoms] Angs
C       1      6     -5.61107890      1.84870115     -0.00307761
O       2      8     -4.21248630      1.66946201      0.00770650
C       3      6     -3.72719928      0.41397616     -0.01850589
C       4      6     -4.46862775     -0.72232022     -0.05333925
C       5      6     -3.86346944     -2.03109005     -0.08033392
O       6      8     -4.47005197     -3.07444408     -0.11202334
O       7      8     -2.49254489     -2.09008164     -0.06799976
C       8      6     -1.72329852     -0.97891886     -0.03202254
C       9      6     -0.34761314     -1.17191570     -0.02160384
C      10      6      0.46316939     -0.05124053      0.02183161
C      11      6     -0.08758398      1.26031366      0.02632621
C      12      6     -1.45458782      1.43765125      0.01469477
C      13      6     -2.28406914      0.31621914     -0.00746878
C      14      6      1.02787847      2.16699884      0.03261301
C      15      6      1.13294056      3.55095914      0.05476330
C      16      6      2.39268264      4.11669567      0.07792680
C      17      6      3.53533433      3.32085555      0.09313638
C      18      6      3.45495696      1.94073003      0.07143515
C      19      6      2.19308484      1.36809125      0.02580166
N      20      7      1.83265237      0.03166909      0.01912494
C      21      6      2.72254321     -1.05637161      0.00964475
C      22      6      3.73873134     -1.11603239     -0.93837513
C      23      6      4.61617126     -2.18485528     -0.94053829
C      24      6      4.48142317     -3.20074473     -0.00894085
C      25      6      3.46636337     -3.14395879      0.93160663
C      26      6      2.58995170     -2.07450963      0.94807222
H      27      1     -5.77061139      2.92517046      0.02233739
H      28      1     -6.05695082      1.43364807     -0.91132941
H      29      1     -6.07664745      1.38873628      0.87307792
H      30      1     -5.54525882     -0.72387383     -0.06355817
H      31      1      0.04535857     -2.17455959     -0.05779560
H      32      1     -1.89602922      2.42071598      0.01889508
H      33      1      0.24637698      4.16628970      0.05794087
H      34      1      2.49783413      5.19104194      0.09329609
H      35      1      4.50653084      3.79168562      0.12614928
H      36      1      4.34564553      1.33181907      0.10012819
H      37      1      3.82633268     -0.33221310     -1.67583787
H      38      1      5.40333499     -2.22805313     -1.67842099
H      39      1      5.16563085     -4.03550478     -0.01646344
H      40      1      3.35959422     -3.93278180      1.66098436
H      41      1      1.80920346     -2.01606535      1.69131864
 [GTO]
           1   0
s              4   1.000000
     36.92600030     -0.01198412
      6.35896280     -0.05472052
      0.51096979      0.58055871
      0.19474324      0.47700799
p              4   1.000000
      5.95158963      0.05713170
      1.54315832      0.28574555
      0.54401106      0.55178731
      0.21658018      0.26323149
s              7   1.000000
      0.38350848     -0.19449707
      0.04707223      0.93973835
      0.02222627      0.24678955
     36.92600030      0.00523061
      6.35896280      0.02388343
      0.51096979     -0.25339180
      0.19474324     -0.20819585
p              7   1.000000
      1.83062075     -0.01151517
      0.10124670      0.56587300
      0.03901771      0.59097029
      5.95158963     -0.02395492
      1.54315832     -0.11981108
      0.54401106     -0.23136050
      0.21658018     -0.11037110
 
           2   0
s              4   1.000000
     77.86317001     -0.01198412
     13.40868217     -0.05472052
      1.07744482      0.58055871
      0.41064089      0.47700799
p              4   1.000000
      8.02946648      0.05713170
      2.08192076      0.28574555
      0.73394149      0.55178731
      0.29219475      0.26323149
s              7   1.000000
      0.57971233     -0.18690404
      0.07115450      0.90305161
      0.03359728      0.23715507
     77.86317001      0.00377758
     13.40868217      0.01724877
      1.07744482     -0.18300121
      0.41064089     -0.15036040
p              7   1.000000
      2.76717072     -0.01172298
      0.15304476      0.57608527
      0.05897927      0.60163548
      8.02946648     -0.02671351
      2.08192076     -0.13360825
      0.73394149     -0.25800344
      0.29219475     -0.12308117
 
           3   0
s              4   1.000000
     35.10037703     -0.01198412
      6.04457537     -0.05472053
      0.48570742      0.58055871
      0.18511512      0.47700799
p              4   1.000000
      5.65734274      0.05713170
      1.46686450      0.28574555
      0.51711513      0.55178730
      0.20587244      0.26323149
s              7   1.000000
      0.38350848     -0.19607715
      0.04707223      0.94737271
      0.02222627      0.24879447
     35.10037703      0.00549077
      6.04457537      0.02507136
      0.48570742     -0.26599516
      0.18511512     -0.21855122
p              7   1.000000
      1.83062075     -0.01160299
      0.10124670      0.57018880
      0.03901771      0.59547749
      5.65734274     -0.02515159
      1.46686450     -0.12579629
      0.51711513     -0.24291820
      0.20587244     -0.11588472
 
           4   0
s              4   1.000000
     34.93194735     -0.01198412
      6.01557038     -0.05472052
      0.48337675      0.58055871
      0.18422684      0.47700800
p              4   1.000000
      5.63019590      0.05713170
      1.45982572      0.28574555
      0.51463374      0.55178731
      0.20488456      0.26323149
s              7   1.000000
      0.38350848     -0.19623409
      0.04707223      0.94813099
      0.02222627      0.24899358
     34.93194735      0.00551606
      6.01557038      0.02518680
      0.48337675     -0.26721994
      0.18422684     -0.21955755
p              7   1.000000
      1.83062075     -0.01161172
      0.10124670      0.57061751
      0.03901771      0.59592521
      5.63019590     -0.02526785
      1.45982572     -0.12637776
      0.51463374     -0.24404104
      0.20488456     -0.11642038
 
           5   0
s              4   1.000000
     34.88889676     -0.01198412
      6.00815672     -0.05472052
      0.48278103      0.58055871
      0.18399980      0.47700799
p              4   1.000000
      5.62325717      0.05713170
      1.45802662      0.28574555
      0.51399950      0.55178730
      0.20463206      0.26323149
s              7   1.000000
      0.38350848     -0.19627452
      0.04707223      0.94832636
      0.02222627      0.24904489
     34.88889676      0.00552256
      6.00815672      0.02521647
      0.48278103     -0.26753477
      0.18399980     -0.21981622
p              7   1.000000
      1.83062075     -0.01161396
      0.10124670      0.57072797
      0.03901771      0.59604059
      5.62325717     -0.02529774
      1.45802662     -0.12652722
      0.51399950     -0.24432967
      0.20463206     -0.11655807
 
           6   0
s              4   1.000000
     72.94212878     -0.01198412
     12.56123815     -0.05472052
      1.00934908      0.58055871
      0.38468792      0.47700799
p              4   1.000000
      7.52199503      0.05713170
      1.95034099      0.28574555
      0.68755555      0.55178731
      0.27372771      0.26323149
s              7   1.000000
      0.57971233     -0.18807117
      0.07115450      0.90869079
      0.03359728      0.23863599
     72.94212878      0.00403090
     12.56123815      0.01840546
      1.00934908     -0.19527312
      0.38468792     -0.16044345
p              7   1.000000
      2.76717072     -0.01186124
      0.15304476      0.58287962
      0.05897927      0.60873117
      7.52199503     -0.02842516
      1.95034099     -0.14216908
      0.68755555     -0.27453480
      0.27372771     -0.13096750
 
           7   0
s              4   1.000000
     78.07460181     -0.01198412
     13.44509247     -0.05472052
      1.08037055      0.58055871
      0.41175596      0.47700799
p              4   1.000000
      8.05126991      0.05713170
      2.08757406      0.28574555
      0.73593446      0.55178731
      0.29298819      0.26323149
s              7   1.000000
      0.57971233     -0.18685840
      0.07115450      0.90283111
      0.03359728      0.23709715
     78.07460181      0.00376736
     13.44509247      0.01720211
      1.08037055     -0.18250619
      0.41175596     -0.14995367
p              7   1.000000
      2.76717072     -0.01171756
      0.15304476      0.57581860
      0.05897927      0.60135699
      8.05126991     -0.02664451
      2.08757406     -0.13326315
      0.73593446     -0.25733704
      0.29298819     -0.12276327
 
           8   0
s              4   1.000000
     35.20867821     -0.01198412
      6.06322573     -0.05472052
      0.48720606      0.58055871
      0.18568629      0.47700800
p              4   1.000000
      5.67479831      0.05713170
      1.47139046      0.28574555
      0.51871067      0.55178731
      0.20650766      0.26323149
s              7   1.000000
      0.38350848     -0.19597729
      0.04707223      0.94689023
      0.02222627      0.24866774
     35.20867821      0.00547464
      6.06322573      0.02499767
      0.48720606     -0.26521342
      0.18568629     -0.21790892
p              7   1.000000
      1.83062075     -0.01159744
      0.10124670      0.56991602
      0.03901771      0.59519264
      5.67479831     -0.02507739
      1.47139046     -0.12542513
      0.51871067     -0.24220148
      0.20650766     -0.11554281
 
           9   0
s              4   1.000000
     34.99247073     -0.01198412
      6.02599301     -0.05472052
      0.48421425      0.58055871
      0.18454604      0.47700800
p              4   1.000000
      5.63995082      0.05713170
      1.46235503      0.28574555
      0.51552540      0.55178731
      0.20523954      0.26323149
s              7   1.000000
      0.38350848     -0.19617746
      0.04707223      0.94785739
      0.02222627      0.24892175
     34.99247073      0.00550695
      6.02599301      0.02514520
      0.48421425     -0.26677856
      0.18454604     -0.21919489
p              7   1.000000
      1.83062075     -0.01160857
      0.10124670      0.57046282
      0.03901771      0.59576367
      5.63995082     -0.02522596
      1.46235503     -0.12616821
      0.51552540     -0.24363640
      0.20523954     -0.11622735
 
          10   0
s              4   1.000000
     35.62030059     -0.01198412
      6.13411051     -0.05472052
      0.49290195      0.58055871
      0.18785713      0.47700799
p              4   1.000000
      5.74114201      0.05713170
      1.48859239      0.28574555
      0.52477488      0.55178731
      0.20892192      0.26323149
s              7   1.000000
      0.38350848     -0.19560511
      0.04707223      0.94509200
      0.02222627      0.24819551
     35.62030059      0.00541414
      6.13411051      0.02472145
      0.49290195     -0.26228286
      0.18785713     -0.21550107
p              7   1.000000
      1.83062075     -0.01157675
      0.10124670      0.56889939
      0.03901771      0.59413091
      5.74114201     -0.02479918
      1.48859239     -0.12403367
      0.52477488     -0.23951450
      0.20892192     -0.11426098
 
          11   0
s              4   1.000000
     35.40736083     -0.01198412
      6.09744052     -0.05472052
      0.48995536      0.58055871
      0.18673412      0.47700799
p              4   1.000000
      5.70682120      0.05713170
      1.47969352      0.28574555
      0.52163775      0.55178731
      0.20767298      0.26323149
s              7   1.000000
      0.38350848     -0.19579620
      0.04707223      0.94601531
      0.02222627      0.24843799
     35.40736083      0.00544527
      6.09744052      0.02486360
      0.48995536     -0.26379093
      0.18673412     -0.21674015
p              7   1.000000
      1.83062075     -0.01158738
      0.10124670      0.56942138
      0.03901771      0.59467606
      5.70682120     -0.02494235
      1.47969352     -0.12474974
      0.52163775     -0.24089727
      0.20767298     -0.11492063
 
          12   0
s              4   1.000000
     35.01689168     -0.01198412
      6.03019850     -0.05472053
      0.48455218      0.58055871
      0.18467483      0.47700799
p              4   1.000000
      5.64388690      0.05713170
      1.46337560      0.28574555
      0.51588518      0.55178730
      0.20538278      0.26323149
s              7   1.000000
      0.38350848     -0.19615469
      0.04707223      0.94774736
      0.02222627      0.24889284
     35.01689168      0.00550328
      6.03019850      0.02512845
      0.48455218     -0.26660086
      0.18467483     -0.21904889
p              7   1.000000
      1.83062075     -0.01160730
      0.10124670      0.57040061
      0.03901771      0.59569870
      5.64388690     -0.02520909
      1.46337560     -0.12608385
      0.51588518     -0.24347350
      0.20538278     -0.11614963
 
          13   0
s              4   1.000000
     35.15565335     -0.01198412
      6.05409441     -0.05472052
      0.48647232      0.58055871
      0.18540664      0.47700800
p              4   1.000000
      5.66625197      0.05713170
      1.46917452      0.28574555
      0.51792948      0.55178731
      0.20619665      0.26323149
s              7   1.000000
      0.38350848     -0.19602608
      0.04707223      0.94712596
      0.02222627      0.24872966
     35.15565335      0.00548253
      6.05409441      0.02503370
      0.48647232     -0.26559560
      0.18540664     -0.21822293
p              7   1.000000
      1.83062075     -0.01160015
      0.10124670      0.57004929
      0.03901771      0.59533181
      5.66625197     -0.02511367
      1.46917452     -0.12560658
      0.51792948     -0.24255188
      0.20619665     -0.11570997
 
          14   0
s              4   1.000000
     35.41231895     -0.01198412
      6.09829435     -0.05472052
      0.49002397      0.58055871
      0.18676027      0.47700799
p              4   1.000000
      5.70762033      0.05713170
      1.47990072      0.28574555
      0.52171080      0.55178731
      0.20770206      0.26323149
s              7   1.000000
      0.38350848     -0.19579172
      0.04707223      0.94599363
      0.02222627      0.24843228
     35.41231895      0.00544455
      6.09829435      0.02486027
      0.49002397     -0.26375562
      0.18676027     -0.21671114
p              7   1.000000
      1.83062075     -0.01158713
      0.10124670      0.56940913
      0.03901771      0.59466327
      5.70762033     -0.02493900
      1.47990072     -0.12473297
      0.52171080     -0.24086489
      0.20770206     -0.11490519
 
          15   0
s              4   1.000000
     34.93740958     -0.01198412
      6.01651102     -0.05472052
      0.48345233      0.58055871
      0.18425565      0.47700800
p              4   1.000000
      5.63107628      0.05713170
      1.46005399      0.28574555
      0.51471421      0.55178731
      0.20491660      0.26323149
s              7   1.000000
      0.38350848     -0.19622896
      0.04707223      0.94810625
      0.02222627      0.24898710
     34.93740958      0.00551523
      6.01651102      0.02518304
      0.48345233     -0.26718004
      0.18425565     -0.21952477
p              7   1.000000
      1.83062075     -0.01161143
      0.10124670      0.57060351
      0.03901771      0.59591061
      5.63107628     -0.02526407
      1.46005399     -0.12635882
      0.51471421     -0.24400447
      0.20491660     -0.11640293
 
          16   0
s              4   1.000000
     34.92282219     -0.01198412
      6.01399896     -0.05472052
      0.48325048      0.58055871
      0.18417872      0.47700799
p              4   1.000000
      5.62872514      0.05713170
      1.45944438      0.28574555
      0.51449931      0.55178731
      0.20483104      0.26323149
s              7   1.000000
      0.38350848     -0.19624265
      0.04707223      0.94817235
      0.02222627      0.24900446
     34.92282219      0.00551743
      6.01399896      0.02519308
      0.48325048     -0.26728661
      0.18417872     -0.21961233
p              7   1.000000
      1.83062075     -0.01161219
      0.10124670      0.57064089
      0.03901771      0.59594965
      5.62872514     -0.02527418
      1.45944438     -0.12640941
      0.51449931     -0.24410217
      0.20483104     -0.11644954
 
          17   0
s              4   1.000000
     34.93594387     -0.01198412
      6.01625862     -0.05472052
      0.48343205      0.58055871
      0.18424792      0.47700799
p              4   1.000000
      5.63084004      0.05713170
      1.45999274      0.28574555
      0.51469262      0.55178731
      0.20490800      0.26323149
s              7   1.000000
      0.38350848     -0.19623034
      0.04707223      0.94811288
      0.02222627      0.24898883
     34.93594387      0.00551545
      6.01625862      0.02518405
      0.48343205     -0.26719075
      0.18424792     -0.21953356
p              7   1.000000
      1.83062075     -0.01161151
      0.10124670      0.57060727
      0.03901771      0.59591453
      5.63084004     -0.02526508
      1.45999274     -0.12636390
      0.51469262     -0.24401429
      0.20490800     -0.11640761
 
          18   0
s              4   1.000000
     34.94197688     -0.01198412
      6.01729755     -0.05472052
      0.48351553      0.58055871
      0.18427974      0.47700799
p              4   1.000000
      5.63181242      0.05713170
      1.46024486      0.28574555
      0.51478150      0.55178730
      0.20494339      0.26323149
s              7   1.000000
      0.38350848     -0.19622468
      0.04707223      0.94808556
      0.02222627      0.24898167
     34.94197688      0.00551455
      6.01729755      0.02517989
      0.48351553     -0.26714669
      0.18427974     -0.21949737
p              7   1.000000
      1.83062075     -0.01161119
      0.10124670      0.57059182
      0.03901771      0.59589839
      5.63181242     -0.02526090
      1.46024486     -0.12634299
      0.51478150     -0.24397390
      0.20494339     -0.11638835
 
          19   0
s              4   1.000000
     35.62985779     -0.01198412
      6.13575634     -0.05472052
      0.49303420      0.58055871
      0.18790754      0.47700800
p              4   1.000000
      5.74268240      0.05713170
      1.48899179      0.28574555
      0.52491568      0.55178731
      0.20897798      0.26323149
s              7   1.000000
      0.38350848     -0.19559660
      0.04707223      0.94505091
      0.02222627      0.24818471
     35.62985779      0.00541276
      6.13575634      0.02471511
      0.49303420     -0.26221557
      0.18790754     -0.21544578
p              7   1.000000
      1.83062075     -0.01157628
      0.10124670      0.56887616
      0.03901771      0.59410664
      5.74268240     -0.02479279
      1.48899179     -0.12400171
      0.52491568     -0.23945280
      0.20897798     -0.11423155
 
          20   0
s              4   1.000000
     61.42624918     -0.01198412
     10.57810839     -0.05472052
      0.84999614      0.58055871
      0.32395457      0.47700799
p              4   1.000000
      7.24043337      0.05713170
      1.87733625      0.28574555
      0.66181912      0.55178731
      0.26348160      0.26323149
s              7   1.000000
      0.47894987     -0.18771565
      0.05878681      0.90697306
      0.02775758      0.23818490
     61.42624918      0.00395529
     10.57810839      0.01806021
      0.84999614     -0.19161027
      0.32395457     -0.15743392
p              7   1.000000
      2.28619608     -0.01155964
      0.12644335      0.56805838
      0.04872781      0.59325258
      7.24043337     -0.02456703
      1.87733625     -0.12287256
      0.66181912     -0.23727236
      0.26348160     -0.11319136
 
          21   0
s              4   1.000000
     35.13729205     -0.01198412
      6.05093244     -0.05472052
      0.48621824      0.58055871
      0.18530981      0.47700799
p              4   1.000000
      5.66329256      0.05713170
      1.46840719      0.28574555
      0.51765898      0.55178731
      0.20608896      0.26323149
s              7   1.000000
      0.38350848     -0.19604302
      0.04707223      0.94720781
      0.02222627      0.24875115
     35.13729205      0.00548526
      6.05093244      0.02504619
      0.48621824     -0.26572819
      0.18530981     -0.21833188
p              7   1.000000
      1.83062075     -0.01160109
      0.10124670      0.57009557
      0.03901771      0.59538015
      5.66329256     -0.02512625
      1.46840719     -0.12566954
      0.51765898     -0.24267344
      0.20608896     -0.11576796
 
          22   0
s              4   1.000000
     35.01004086     -0.01198412
      6.02901873     -0.05472052
      0.48445738      0.58055871
      0.18463870      0.47700799
p              4   1.000000
      5.64278271      0.05713170
      1.46308930      0.28574555
      0.51578425      0.55178731
      0.20534260      0.26323149
s              7   1.000000
      0.38350848     -0.19616107
      0.04707223      0.94777819
      0.02222627      0.24890094
     35.01004086      0.00550431
      6.02901873      0.02513314
      0.48445738     -0.26665069
      0.18463870     -0.21908983
p              7   1.000000
      1.83062075     -0.01160766
      0.10124670      0.57041805
      0.03901771      0.59571691
      5.64278271     -0.02521382
      1.46308930     -0.12610751
      0.51578425     -0.24351918
      0.20534260     -0.11617142
 
          23   0
s              4   1.000000
     34.92272516     -0.01198412
      6.01398225     -0.05472052
      0.48324913      0.58055871
      0.18417821      0.47700799
p              4   1.000000
      5.62870950      0.05713170
      1.45944032      0.28574555
      0.51449788      0.55178731
      0.20483047      0.26323149
s              7   1.000000
      0.38350848     -0.19624274
      0.04707223      0.94817279
      0.02222627      0.24900458
     34.92272516      0.00551745
      6.01398225      0.02519315
      0.48324913     -0.26728732
      0.18417821     -0.21961291
p              7   1.000000
      1.83062075     -0.01161220
      0.10124670      0.57064114
      0.03901771      0.59594989
      5.62870950     -0.02527425
      1.45944032     -0.12640975
      0.51449788     -0.24410282
      0.20483047     -0.11644985
 
          24   0
s              4   1.000000
     34.91921083     -0.01198412
      6.01337705     -0.05472052
      0.48320050      0.58055871
      0.18415967      0.47700799
p              4   1.000000
      5.62814308      0.05713170
      1.45929346      0.28574555
      0.51444610      0.55178731
      0.20480986      0.26323149
s              7   1.000000
      0.38350848     -0.19624603
      0.04707223      0.94818872
      0.02222627      0.24900875
     34.91921083      0.00551798
      6.01337705      0.02519557
      0.48320050     -0.26731300
      0.18415967     -0.21963401
p              7   1.000000
      1.83062075     -0.01161238
      0.10124670      0.57065014
      0.03901771      0.59595932
      5.62814308     -0.02527669
      1.45929346     -0.12642194
      0.51444610     -0.24412636
      0.20480986     -0.11646108
 
          25   0
s              4   1.000000
     34.92294805     -0.01198412
      6.01402063     -0.05472052
      0.48325222      0.58055871
      0.18417938      0.47700800
p              4   1.000000
      5.62874543      0.05713170
      1.45944964      0.28574555
      0.51450116      0.55178731
      0.20483178      0.26323149
s              7   1.000000
      0.38350848     -0.19624253
      0.04707223      0.94817178
      0.02222627      0.24900431
     34.92294805      0.00551741
      6.01402063      0.02519300
      0.48325222     -0.26728569
      0.18417938     -0.21961157
p              7   1.000000
      1.83062075     -0.01161218
      0.10124670      0.57064056
      0.03901771      0.59594933
      5.62874543     -0.02527409
      1.45944964     -0.12640897
      0.51450116     -0.24410132
      0.20483178     -0.11644914
 
          26   0
s              4   1.000000
     35.00971619     -0.01198412
      6.02896282     -0.05472053
      0.48445289      0.58055871
      0.18463699      0.47700799
p              4   1.000000
      5.64273038      0.05713170
      1.46307573      0.28574555
      0.51577947      0.55178731
      0.20534069      0.26323149
s              7   1.000000
      0.38350848     -0.19616137
      0.04707223      0.94777967
      0.02222627      0.24890133
     35.00971619      0.00550436
      6.02896282      0.02513337
      0.48445289     -0.26665305
      0.18463699     -0.21909177
p              7   1.000000
      1.83062075     -0.01160767
      0.10124670      0.57041888
      0.03901771      0.59571780
      5.64273038     -0.02521404
      1.46307573     -0.12610863
      0.51577947     -0.24352134
      0.20534069     -0.11617246
 
          27   0
s              4   1.000000
      8.30471163      0.05675242
      1.51965991      0.26014135
      0.42217816      0.53284611
      0.14011714      0.29162544
s              7   1.000000
      0.92936822     -0.06733388
      0.05643440      0.66950961
      0.02166600      0.51465631
      8.30471163     -0.02903405
      1.51965991     -0.13308607
      0.42217816     -0.27259948
      0.14011714     -0.14919306
p              4   1.000000
      0.64737396      0.05713170
      0.16785440      0.28574555
      0.05917387      0.55178731
      0.02355814      0.26323150
 
          28   0
s              4   1.000000
      8.30430678      0.05675242
      1.51958583      0.26014135
      0.42215758      0.53284611
      0.14011031      0.29162544
s              7   1.000000
      0.92936822     -0.06733440
      0.05643440      0.66951480
      0.02166600      0.51466031
      8.30430678     -0.02903513
      1.51958583     -0.13309104
      0.42215758     -0.27260965
      0.14011031     -0.14919863
p              4   1.000000
      0.64737396      0.05713170
      0.16785440      0.28574555
      0.05917387      0.55178731
      0.02355814      0.26323150
 
          29   0
s              4   1.000000
      8.30430770      0.05675242
      1.51958600      0.26014135
      0.42215763      0.53284611
      0.14011032      0.29162544
s              7   1.000000
      0.92936822     -0.06733440
      0.05643440      0.66951479
      0.02166600      0.51466029
      8.30430770     -0.02903513
      1.51958600     -0.13309103
      0.42215763     -0.27260963
      0.14011032     -0.14919862
p              4   1.000000
      0.64737396      0.05713170
      0.16785440      0.28574555
      0.05917387      0.55178731
      0.02355814      0.26323150
 
          30   0
s              4   1.000000
      8.30976278      0.05675242
      1.52058421      0.26014135
      0.42243494      0.53284611
      0.14020236      0.29162544
s              7   1.000000
      0.92936822     -0.06732738
      0.05643440      0.66944496
      0.02166600      0.51460662
      8.30976278     -0.02902053
      1.52058421     -0.13302411
      0.42243494     -0.27247255
      0.14020236     -0.14912359
p              4   1.000000
      0.64737396      0.05713170
      0.16785440      0.28574555
      0.05917387      0.55178731
      0.02355814      0.26323150
 
          31   0
s              4   1.000000
      8.30956714      0.05675242
      1.52054841      0.26014135
      0.42242500      0.53284611
      0.14019906      0.29162544
s              7   1.000000
      0.92936822     -0.06732763
      0.05643440      0.66944747
      0.02166600      0.51460853
      8.30956714     -0.02902105
      1.52054841     -0.13302651
      0.42242500     -0.27247747
      0.14019906     -0.14912628
p              4   1.000000
      0.64737396      0.05713170
      0.16785440      0.28574555
      0.05917387      0.55178731
      0.02355814      0.26323150
 
          32   0
s              4   1.000000
      8.30965211      0.05675242
      1.52056396      0.26014135
      0.42242932      0.53284611
      0.14020049      0.29162544
s              7   1.000000
      0.92936822     -0.06732752
      0.05643440      0.66944638
      0.02166600      0.51460771
      8.30965211     -0.02902083
      1.52056396     -0.13302547
      0.42242932     -0.27247534
      0.14020049     -0.14912511
p              4   1.000000
      0.64737396      0.05713170
      0.16785440      0.28574555
      0.05917387      0.55178731
      0.02355814      0.26323150
 
          33   0
s              4   1.000000
      8.30894067      0.05675242
      1.52043377      0.26014135
      0.42239315      0.53284611
      0.14018849      0.29162544
s              7   1.000000
      0.92936822     -0.06732843
      0.05643440      0.66945548
      0.02166600      0.51461469
      8.30894067     -0.02902273
      1.52043377     -0.13303419
      0.42239315     -0.27249320
      0.14018849     -0.14913490
p              4   1.000000
      0.64737396      0.05713170
      0.16785440      0.28574555
      0.05917387      0.55178731
      0.02355814      0.26323150
 
          34   0
s              4   1.000000
      8.30895031      0.05675242
      1.52043554      0.26014135
      0.42239364      0.53284611
      0.14018865      0.29162544
s              7   1.000000
      0.92936822     -0.06732842
      0.05643440      0.66945536
      0.02166600      0.51461462
      8.30895031     -0.02902270
      1.52043554     -0.13303407
      0.42239364     -0.27249296
      0.14018865     -0.14913476
p              4   1.000000
      0.64737396      0.05713170
      0.16785440      0.28574555
      0.05917387      0.55178731
      0.02355814      0.26323150
 
          35   0
s              4   1.000000
      8.30900103      0.05675242
      1.52044482      0.26014135
      0.42239622      0.53284611
      0.14018951      0.29162544
s              7   1.000000
      0.92936822     -0.06732836
      0.05643440      0.66945470
      0.02166600      0.51461412
      8.30900103     -0.02902257
      1.52044482     -0.13303345
      0.42239622     -0.27249169
      0.14018951     -0.14913407
p              4   1.000000
      0.64737396      0.05713170
      0.16785440      0.28574555
      0.05917387      0.55178731
      0.02355814      0.26323150
 
          36   0
s              4   1.000000
      8.30924013      0.05675242
      1.52048857      0.26014135
      0.42240838      0.53284611
      0.14019354      0.29162544
s              7   1.000000
      0.92936822     -0.06732805
      0.05643440      0.66945165
      0.02166600      0.51461176
      8.30924013     -0.02902193
      1.52048857     -0.13303052
      0.42240838     -0.27248568
      0.14019354     -0.14913078
p              4   1.000000
      0.64737396      0.05713170
      0.16785440      0.28574555
      0.05917387      0.55178731
      0.02355814      0.26323150
 
          37   0
s              4   1.000000
      8.30942330      0.05675242
      1.52052209      0.26014135
      0.42241769      0.53284611
      0.14019663      0.29162544
s              7   1.000000
      0.92936822     -0.06732781
      0.05643440      0.66944931
      0.02166600      0.51460995
      8.30942330     -0.02902144
      1.52052209     -0.13302827
      0.42241769     -0.27248108
      0.14019663     -0.14912826
p              4   1.000000
      0.64737396      0.05713170
      0.16785440      0.28574555
      0.05917387      0.55178731
      0.02355814      0.26323150
 
          38   0
s              4   1.000000
      8.30891016      0.05675242
      1.52042819      0.26014135
      0.42239160      0.53284611
      0.14018797      0.29162544
s              7   1.000000
      0.92936822     -0.06732847
      0.05643440      0.66945587
      0.02166600      0.51461502
      8.30891016     -0.02902281
      1.52042819     -0.13303456
      0.42239160     -0.27249397
      0.14018797     -0.14913532
p              4   1.000000
      0.64737396      0.05713170
      0.16785440      0.28574555
      0.05917387      0.55178731
      0.02355814      0.26323150
 
          39   0
s              4   1.000000
      8.30884695      0.05675242
      1.52041662      0.26014135
      0.42238839      0.53284611
      0.14018691      0.29162544
s              7   1.000000
      0.92936822     -0.06732855
      0.05643440      0.66945668
      0.02166600      0.51461564
      8.30884695     -0.02902298
      1.52041662     -0.13303534
      0.42238839     -0.27249556
      0.14018691     -0.14913619
p              4   1.000000
      0.64737396      0.05713170
      0.16785440      0.28574555
      0.05917387      0.55178731
      0.02355814      0.26323150
 
          40   0
s              4   1.000000
      8.30892684      0.05675242
      1.52043124      0.26014135
      0.42239245      0.53284611
      0.14018826      0.29162544
s              7   1.000000
      0.92936822     -0.06732845
      0.05643440      0.66945566
      0.02166600      0.51461484
      8.30892684     -0.02902277
      1.52043124     -0.13303436
      0.42239245     -0.27249355
      0.14018826     -0.14913509
p              4   1.000000
      0.64737396      0.05713170
      0.16785440      0.28574555
      0.05917387      0.55178731
      0.02355814      0.26323150
 
          41   0
s              4   1.000000
      8.30945267      0.05675242
      1.52052746      0.26014135
      0.42241918      0.53284611
      0.14019713      0.29162544
s              7   1.000000
      0.92936822     -0.06732777
      0.05643440      0.66944894
      0.02166600      0.51460968
      8.30945267     -0.02902136
      1.52052746     -0.13302791
      0.42241918     -0.27248034
      0.14019713     -0.14912786
p              4   1.000000
      0.64737396      0.05713170
      0.16785440      0.28574555
      0.05917387      0.55178731
      0.02355814      0.26323150
 
 [MO]
 Sym= Hole
 Ene= -0.9175079    
 Spin= Alpha
 Occup= 0
           1 -3.2884459E-04
           2 -2.9243180E-04
           3  9.2750284E-05
           4 -3.5616446E-03
           5  2.2207842E-04
           6  2.7926909E-04
           7 -1.1416584E-04
           8  2.1561913E-03
           9  4.1509722E-04
          10 -1.1972485E-04
          11 -7.6795724E-04
          12  1.3751989E-02
          13 -2.1479744E-04
          14  7.2892755E-05
          15  8.5747291E-05
          16 -1.2573614E-03
          17 -5.8433571E-04
          18 -6.4360368E-04
          19  1.2730993E-04
          20 -6.5688216E-03
          21  2.9117195E-04
          22  1.8062403E-04
          23 -8.4684216E-06
          24 -5.1149302E-03
          25 -1.3589578E-04
          26 -1.3670252E-03
          27 -2.9390270E-03
          28  0.1240770    
          29  3.8206630E-04
          30  1.7715621E-04
          31  2.3906096E-04
          32 -1.0592647E-02
          33  4.9303367E-04
          34  6.7244400E-04
          35 -5.9564220E-04
          36  1.8055748E-02
          37  2.0445001E-04
          38 -9.2760558E-05
          39 -4.6498109E-05
          40 -8.2212882E-03
          41 -2.5722000E-04
          42 -1.5534769E-03
          43  1.1708322E-03
          44 -2.3998691E-02
          45  3.7756722E-04
          46  6.0919684E-04
          47  7.6209384E-05
          48 -2.0057447E-03
          49 -9.6649909E-04
          50 -5.4871099E-04
          51 -9.4023632E-04
          52 -7.3919460E-02
          53  1.3093151E-03
          54  7.4057287E-04
          55  2.3064588E-04
          56  7.8475224E-03
          57  1.0149437E-03
          58 -1.2045867E-03
          59 -2.7034828E-03
          60  8.8431321E-02
          61  3.6469992E-04
          62  9.8045834E-04
          63 -2.2004041E-04
          64 -4.2658299E-03
          65  2.5194969E-03
          66 -3.0131738E-03
          67 -2.0004764E-02
          68  0.2832010    
          69 -1.8051873E-03
          70  4.0224232E-03
          71  1.1068521E-03
          72 -1.8433530E-02
          73  9.0271318E-03
          74  2.1169743E-02
          75 -1.6692195E-03
          76 -2.2444958E-02
          77 -5.6790654E-03
          78 -3.0583479E-03
          79 -2.4278203E-03
          80 -1.8329810E-02
          81  1.0401390E-03
          82 -1.2211401E-03
          83  4.2965203E-03
          84  0.1861859    
          85 -1.0753858E-03
          86 -8.4052508E-04
          87 -2.3172833E-03
          88 -9.7224396E-03
          89  1.7973637E-03
          90  3.1855828E-03
          91 -3.3343202E-04
          92 -0.1070472    
          93 -4.3998408E-04
          94 -3.9686209E-05
          95 -7.5075519E-04
          96  1.3136911E-02
          97  1.3581146E-03
          98  2.7834785E-03
          99  2.8290099E-03
         100 -0.1868680    
         101 -2.6602586E-04
         102  3.8359815E-04
         103 -3.4963454E-05
         104  1.3111250E-02
         105 -1.3605534E-03
         106  5.0909729E-03
         107 -4.4901930E-03
         108  0.2417146    
         109  6.9047569E-04
         110 -2.5502245E-03
         111 -4.1553132E-05
         112 -1.1143360E-02
         113 -1.3700834E-03
         114  9.1564644E-04
         115  4.8593339E-03
         116 -0.1495688    
         117 -6.6590474E-05
         118 -1.0032660E-03
         119  9.4957606E-05
         120  1.0645080E-02
         121 -1.6735845E-03
         122  3.8754155E-03
         123  4.9253623E-03
         124 -0.2986049    
         125  1.8574024E-04
         126 -4.2768079E-04
         127  3.3365435E-04
         128  1.0554415E-02
         129 -3.9303710E-04
         130  5.9526076E-04
         131  2.8303568E-04
         132  2.8228570E-02
         133 -5.9171766E-04
         134 -3.3614546E-05
         135  1.5982491E-03
         136  4.8865178E-03
         137 -2.9792397E-03
         138 -2.2933545E-02
         139 -2.4691583E-03
         140  0.3131672    
         141  1.4740094E-03
         142  1.2227404E-03
         143  3.9161616E-03
         144 -1.0591644E-02
         145 -1.0381103E-02
         146  1.2341749E-03
         147  2.0599486E-02
         148  0.1076846    
         149  5.7101813E-03
         150 -3.1841537E-03
         151 -1.6111983E-03
         152 -2.0776588E-02
         153 -3.8659069E-04
         154 -1.0804102E-02
         155 -4.4228225E-03
         156 -0.5111952    
         157  5.1121751E-06
         158 -8.5598445E-03
         159 -7.9351664E-03
         160  3.9560132E-02
         161  1.9867191E-04
         162  9.5033132E-02
         163  7.6875761E-02
         164  0.1602745    
         165 -1.2383278E-04
         166 -2.5769034E-03
         167 -2.5430301E-03
         168 -1.9518562E-02
         169 -3.6766179E-02
         170  0.1888840    
         171  0.1024933    
         172  7.9610467E-02
         173  1.9715000E-02
         174 -1.3305319E-02
         175  4.8809671E-03
         176 -1.4175198E-03
         177  1.1134384E-02
         178 -6.0206644E-02
         179 -2.7579905E-02
         180 -3.5945512E-02
         181 -2.6240132E-03
         182  2.9316097E-03
         183  1.2697569E-03
         184  1.7690707E-03
         185  2.3648748E-04
         186 -0.1509129    
         187 -0.1217292    
         188 -0.1782196    
         189  1.5010858E-04
         190  1.7586424E-03
         191  1.6175832E-03
         192  4.8581185E-03
         193 -1.1496997E-02
         194 -3.9499179E-02
         195 -5.4627467E-02
         196 -3.7611723E-02
         197  3.1393080E-03
         198  1.6162191E-03
         199  3.0048420E-03
         200  1.6257012E-03
         201  3.7919749E-02
         202  0.1349150    
         203  0.1635963    
         204  8.0609389E-02
         205 -1.9970866E-02
         206  1.0970344E-03
         207 -1.4091766E-02
         208 -8.7695208E-04
         209 -7.0629790E-07
         210  4.7481153E-05
         211  1.6728969E-05
         212 -3.3320895E-05
         213 -9.3090894E-05
         214  4.0782522E-03
         215 -1.5463264E-03
         216 -2.9993290E-03
         217  1.9974101E-03
         218  2.7668467E-04
         219 -4.0906738E-03
         220  1.8163534E-03
         221  3.0432157E-03
         222 -1.9600480E-03
         223  4.0085026E-05
         224  2.6758519E-04
         225  3.5610975E-04
         226  1.5452289E-04
         227 -5.9727079E-04
         228  1.2905872E-02
         229 -1.4154947E-03
         230 -3.0979392E-04
         231 -5.9934339E-04
         232  3.0230689E-03
         233  1.7833291E-02
         234 -3.5080251E-03
         235  6.0626346E-04
         236  2.8164539E-04
         237 -7.6115038E-04
         238 -8.6127538E-03
         239  3.3958240E-03
         240 -9.5238513E-04
         241 -8.0750615E-04
         242  2.9799977E-04
         243 -2.0195791E-03
         244  4.5775203E-04
         245 -3.7528179E-04
         246  4.4637734E-05
         247  5.4657157E-04
         248 -1.5017263E-02
         249  5.7703392E-03
         250 -1.5103808E-03
         251  1.4552081E-04
         252  8.7678018E-05
         253  9.9042139E-04
         254  1.2232481E-04
         255  7.6726246E-05
         256  3.4178707E-03
         257 -1.6018016E-03
         258  1.3217892E-02
         259  2.3145968E-02
         260  4.5437403E-03
         261 -1.1275116E-02
         262  9.3743335E-03
         263  7.7135498E-03
         264 -2.8068962E-02
         265  1.1035152E-03
         266  2.5646833E-03
         267 -1.3527130E-03
         268 -4.0208502E-04
         269 -3.0044431E-04
         270  2.3632198E-04
         271 -3.4837367E-03
         272 -2.5841938E-03
         273 -5.7249349E-03
         274  2.7843038E-02
         275 -6.5048831E-04
         276 -5.3387153E-04
         277  3.3178013E-03
         278 -4.4977287E-04
         279 -2.1452000E-02
         280 -3.9526136E-03
         281  5.4532927E-03
         282 -1.2135659E-02
         283  7.0389174E-03
 Sym= Particle
 Ene= -0.9175079    
 Spin= Alpha
 Occup= 2
           1 -1.6428479E-04
           2  7.3177076E-04
           3  5.6575096E-05
           4  5.2162335E-04
           5  1.1143257E-03
           6 -4.0009920E-04
           7 -5.6631269E-04
           8 -7.6488161E-04
           9 -7.3606806E-04
          10 -1.8612725E-04
          11 -6.7590689E-04
          12 -8.1077656E-03
          13  1.8594435E-03
          14  1.6412726E-03
          15  8.7281333E-05
          16  5.4549915E-03
          17  2.6964987E-04
          18  6.1140920E-04
          19 -7.8143994E-04
          20  1.9135350E-02
          21  1.8942395E-03
          22  2.7079901E-03
          23 -7.5409259E-04
          24 -3.7407007E-03
          25 -2.7142834E-05
          26  4.0556339E-04
          27 -3.1263437E-04
          28 -2.2805525E-02
          29  1.7104398E-03
          30  2.1332761E-03
          31 -7.6674134E-04
          32  5.9110327E-03
          33 -1.5086234E-03
          34 -2.7158475E-03
          35  3.2705770E-04
          36 -5.6940452E-03
          37  2.5856742E-03
          38  4.1906708E-03
          39  7.0225599E-04
          40  1.9309933E-03
          41  2.6644653E-04
          42  2.1097891E-03
          43 -8.2567724E-04
          44  6.5228608E-03
          45  8.8569231E-04
          46  4.9089635E-04
          47  6.8794179E-04
          48  5.4135220E-04
          49  2.6016037E-03
          50  1.7619106E-03
          51  1.7467459E-03
          52  1.1308379E-02
          53 -1.8542375E-04
          54  2.9793568E-03
          55 -1.6599915E-03
          56 -2.3490104E-03
          57 -5.1591010E-03
          58 -5.6712907E-03
          59  3.7089044E-03
          60 -1.6947860E-02
          61  3.1832361E-03
          62  3.6850502E-03
          63 -3.7796791E-03
          64  8.7707862E-03
          65  7.5627286E-03
          66  6.8214592E-03
          67  3.0587444E-03
          68 -1.4691114E-02
          69 -2.7165667E-03
          70  4.8835822E-03
          71 -5.1073921E-03
          72 -1.3788050E-03
          73 -3.2017495E-02
          74 -5.3396925E-02
          75  5.1971269E-03
          76  4.0859211E-02
          77  2.7450539E-02
          78  2.8605523E-02
          79 -1.6306335E-02
          80 -1.2435838E-02
          81  3.0327418E-03
          82 -1.6175517E-03
          83 -1.8528996E-02
          84  6.7128654E-04
          85 -6.9925567E-04
          86 -3.8046431E-04
          87  5.8114449E-03
          88  3.9141108E-03
          89 -2.9291546E-03
          90 -3.3194623E-03
          91 -1.3541331E-03
          92 -2.4312219E-02
          93  3.8479755E-04
          94 -1.6814689E-03
          95 -4.2850408E-04
          96  4.6940101E-03
          97 -8.6409802E-04
          98 -3.1756808E-04
          99 -2.4613605E-03
         100  2.6915032E-02
         101  1.5204321E-03
         102  1.8559933E-03
         103 -3.8684683E-04
         104 -6.8359203E-03
         105 -9.5800712E-04
         106 -1.5471825E-02
         107  8.8789791E-04
         108 -2.2802165E-02
         109 -4.4698687E-03
         110  3.4041726E-03
         111 -1.0414231E-03
         112  1.1034084E-02
         113  5.2746073E-03
         114 -8.1629975E-04
         115  5.9439050E-04
         116 -0.2695292    
         117 -5.1006954E-03
         118 -1.5748482E-03
         119 -4.3298672E-03
         120  8.1252672E-02
         121  8.0023974E-04
         122 -5.2625597E-03
         123 -1.5902558E-03
         124  0.2826259    
         125 -4.3776245E-03
         126 -3.7900757E-04
         127  3.9761883E-04
         128 -7.4228801E-02
         129  5.6251874E-03
         130  8.6244720E-04
         131 -6.2449430E-03
         132  8.3545921E-03
         133 -6.9003110E-03
         134 -3.9813281E-03
         135  4.0642791E-03
         136  7.4176997E-04
         137 -4.3092729E-03
         138  1.1010919E-02
         139  9.1952560E-03
         140 -0.2929414    
         141 -1.4827268E-03
         142 -6.9437567E-03
         143  3.6602800E-03
         144  8.8269345E-02
         145  2.7000174E-02
         146 -1.0907546E-02
         147 -5.7481889E-02
         148  0.3333468    
         149 -2.8031681E-02
         150 -7.8761997E-03
         151  3.2517686E-02
         152 -0.1323001    
         153  2.7272776E-03
         154 -4.1991770E-03
         155 -2.6348243E-03
         156 -4.1765090E-02
         157 -2.9525578E-03
         158 -1.8329883E-02
         159 -1.5432221E-02
         160  2.3464456E-02
         161  1.0261294E-03
         162 -0.2927954    
         163 -0.2369580    
         164 -0.3008908    
         165 -3.8408113E-03
         166  0.1054079    
         167  8.5553743E-02
         168  0.1121974    
         169 -5.1189843E-03
         170  0.1790287    
         171  0.1411420    
         172  0.1791557    
         173  4.5730495E-03
         174 -6.0218520E-02
         175 -4.6575401E-02
         176 -5.5516891E-02
         177  1.7030115E-03
         178  8.7011181E-02
         179  7.3980145E-02
         180  9.1818012E-02
         181 -9.9139265E-04
         182 -2.3481207E-02
         183 -2.1700414E-02
         184 -2.3078531E-02
         185 -3.0115244E-04
         186 -0.2470022    
         187 -0.2000938    
         188 -0.2558490    
         189 -3.9511186E-04
         190  6.2458437E-02
         191  5.0677836E-02
         192  6.6581942E-02
         193 -1.8275229E-03
         194  0.1274389    
         195  0.1005765    
         196  0.1293031    
         197  3.3372606E-04
         198 -3.4464329E-02
         199 -2.5949487E-02
         200 -3.4699734E-02
         201  3.0041584E-03
         202  0.1451944    
         203  0.1188807    
         204  0.1419843    
         205 -3.8388537E-03
         206 -4.8677698E-02
         207 -4.0031474E-02
         208 -4.6684667E-02
         209  1.7620351E-04
         210  7.0000102E-04
         211 -9.6496595E-05
         212 -3.1830560E-04
         213 -4.8209334E-04
         214 -1.6074415E-03
         215  1.7838560E-03
         216  1.3976285E-03
         217 -1.0814212E-03
         218 -2.2375623E-04
         219  1.9136764E-03
         220  2.0352709E-05
         221 -6.7812379E-04
         222 -7.4221207E-05
         223 -3.5295371E-04
         224 -1.0840224E-04
         225  1.5001347E-03
         226  1.0014302E-03
         227 -1.5833284E-04
         228 -4.8077321E-03
         229  8.3526783E-03
         230 -4.9869581E-03
         231 -8.4251323E-04
         232  1.5777210E-02
         233 -1.8061165E-02
         234  8.9218244E-03
         235 -2.4773714E-03
         236 -2.1445709E-03
         237 -1.7028832E-03
         238 -1.2730373E-02
         239 -9.2409365E-03
         240  1.5416921E-03
         241  4.8481463E-05
         242 -3.7357346E-03
         243 -6.5780066E-02
         244 -7.5452588E-04
         245 -3.9431811E-03
         246 -1.7564690E-03
         247  1.4740755E-04
         248  6.8890773E-02
         249 -6.3501289E-03
         250 -3.0898994E-03
         251 -2.4362782E-03
         252  6.5767550E-04
         253  5.1264195E-03
         254 -1.0361410E-02
         255  5.7656071E-03
         256  1.4574884E-02
         257 -4.7281585E-03
         258 -9.0092026E-02
         259  3.1579298E-04
         260  3.8680751E-03
         261  4.6076220E-02
         262  4.2280842E-02
         263  4.3950614E-02
         264 -9.6023717E-04
         265 -3.4431822E-04
         266  1.9321010E-02
         267  1.4417025E-02
         268  2.0040751E-02
         269  5.5869040E-04
         270  1.2161451E-04
         271 -5.8084670E-02
         272 -4.7499157E-02
         273 -5.9657812E-02
         274  2.2958624E-03
         275 -9.7698365E-05
         276  2.8034786E-02
         277  2.1829756E-02
         278  2.9249771E-02
         279  7.4451079E-04
         280  1.2035150E-03
         281  3.3240166E-02
         282  2.4418550E-02
         283  3.5343707E-02
 Sym= Hole
 Ene= -6.9019116E-02
 Spin= Alpha
 Occup= 0
           1 -2.4121680E-04
           2 -7.8014872E-04
           3  2.8168966E-04
           4  3.3704119E-04
           5  3.3012420E-04
           6  1.7859596E-04
           7  9.3824005E-05
           8 -2.2910154E-04
           9  5.3586351E-04
          10  8.9102215E-04
          11  7.0811209E-04
          12 -3.5541289E-04
          13  9.1615175E-06
          14  6.2436954E-04
          15 -1.2159160E-04
          16  6.5364008E-04
          17 -3.8513431E-04
          18 -5.6296971E-04
          19 -1.3615708E-04
          20  2.2361143E-03
          21  6.8170059E-04
          22  8.2184392E-04
          23 -1.6488157E-05
          24 -6.6929834E-04
          25 -4.8718084E-05
          26 -8.5872458E-04
          27  1.5750724E-03
          28 -2.3297293E-02
          29  9.6578582E-04
          30  3.8870584E-04
          31 -2.5487287E-04
          32  1.0759058E-04
          33  3.5428675E-04
          34  2.4224229E-03
          35  3.6493933E-04
          36 -2.0324288E-02
          37  2.9492445E-04
          38 -4.4880791E-05
          39 -5.0471244E-06
          40 -1.7788742E-03
          41  5.1901542E-04
          42 -4.8707500E-03
          43 -5.7830376E-04
          44  4.3550458E-02
          45  2.3607003E-04
          46  8.8174437E-04
          47 -1.3378498E-04
          48 -2.0390557E-04
          49 -1.2196214E-03
          50 -2.4053606E-03
          51 -1.0428078E-03
          52 -6.4763606E-02
          53  1.5848164E-03
          54  4.7860388E-04
          55  8.9322746E-04
          56  1.3260830E-03
          57  2.2735831E-03
          58  1.1827888E-03
          59 -3.6337471E-03
          60  9.2811272E-02
          61 -2.1616727E-04
          62  7.3936382E-05
          63  8.5412367E-04
          64 -4.3564844E-03
          65  1.5495759E-03
          66 -4.1832603E-03
          67 -1.8143199E-02
          68  0.1220259    
          69 -1.0036210E-03
          70  6.9069900E-03
          71 -3.5888626E-04
          72  1.6724856E-03
          73  2.2081768E-02
          74  4.6079446E-02
          75 -6.8917950E-03
          76  2.9682145E-02
          77 -1.0425072E-02
          78 -1.5878504E-03
          79 -3.0510954E-03
          80  2.5565021E-03
          81 -3.0212076E-03
          82 -3.7172860E-03
          83  1.1692221E-02
          84 -0.1080677    
          85  1.5373962E-04
          86 -9.2835812E-04
          87 -2.7225469E-03
          88  3.9945133E-03
          89  4.0751682E-03
          90  7.2026802E-03
          91 -1.7524306E-03
          92 -6.9240160E-02
          93 -2.9949367E-04
          94  4.0316631E-04
          95 -1.2591502E-03
          96 -8.3054678E-04
          97  1.9675139E-03
          98  1.6370056E-03
          99 -1.0920744E-03
         100  3.3938453E-02
         101 -3.7572559E-04
         102  9.0120599E-04
         103  4.0195114E-04
         104 -2.6646324E-03
         105  3.2794054E-03
         106  1.3534607E-02
         107 -4.5849001E-03
         108 -5.7454616E-02
         109  3.4736746E-04
         110 -1.7801671E-03
         111 -1.0289465E-03
         112  8.4565778E-04
         113 -4.1854819E-03
         114 -3.5656230E-03
         115  5.0380576E-04
         116  0.3315009    
         117  9.2820451E-04
         118 -1.1962563E-03
         119 -5.5779307E-04
         120  8.0020530E-03
         121 -2.7238226E-03
         122 -4.8846551E-03
         123 -3.7719442E-03
         124  0.3753845    
         125  8.3349680E-04
         126  3.3162552E-05
         127 -1.9405095E-04
         128  9.4674854E-03
         129 -2.2724459E-03
         130 -2.4478284E-03
         131  3.5386682E-03
         132  5.6830354E-02
         133  1.1800176E-03
         134 -7.5678741E-05
         135 -2.5743438E-04
         136  2.0674081E-03
         137 -1.4757755E-03
         138  1.0721270E-03
         139  2.3605539E-03
         140 -0.2863936    
         141  8.1207039E-04
         142  1.5869435E-03
         143  4.7388799E-03
         144 -8.0409478E-03
         145 -1.7782688E-02
         146  6.3616959E-03
         147  5.1324356E-02
         148 -0.3409751    
         149  9.3478272E-03
         150 -3.6813188E-03
         151 -1.9659977E-03
         152 -8.7945787E-03
         153  2.8284418E-04
         154 -2.2626596E-02
         155 -2.0429593E-02
         156 -1.2666535E-02
         157  3.5849051E-05
         158 -1.2545399E-02
         159 -8.8826017E-03
         160  1.4882501E-03
         161 -1.7368213E-04
         162  0.2081665    
         163  0.1671228    
         164  0.2541379    
         165 -2.4058904E-04
         166 -1.4697282E-03
         167  4.5528877E-04
         168  1.5411256E-02
         169 -3.0772325E-03
         170  0.1178384    
         171  8.0539405E-02
         172  8.9023873E-02
         173 -2.1166345E-03
         174  1.4138872E-02
         175 -6.3433120E-04
         176 -1.6225846E-03
         177  1.2610874E-03
         178 -0.1230397    
         179 -8.9182019E-02
         180 -0.1019454    
         181  9.1351138E-04
         182 -5.6330832E-03
         183 -1.4650454E-04
         184 -1.1854846E-03
         185 -1.6110933E-03
         186 -0.1949617    
         187 -0.1595740    
         188 -0.2181455    
         189 -2.7534200E-04
         190 -4.2878594E-03
         191 -4.0153735E-03
         192 -8.9548333E-03
         193  9.7187248E-04
         194 -9.2099629E-02
         195 -8.1789352E-02
         196 -7.7045843E-02
         197 -2.7530433E-03
         198 -6.1457616E-04
         199 -6.6924444E-03
         200 -3.9113633E-04
         201 -2.5896898E-03
         202  0.1316188    
         203  0.1142871    
         204  0.1024244    
         205  3.6345778E-03
         206  5.8059376E-03
         207  1.4995111E-02
         208 -3.0346892E-03
         209  2.4872288E-04
         210  2.4288212E-04
         211  1.9802529E-04
         212 -1.7153488E-04
         213 -1.2680115E-04
         214  6.5599938E-06
         215  1.3058449E-04
         216  4.2552158E-05
         217 -7.0859518E-05
         218  1.3730535E-04
         219  4.3544039E-04
         220  7.3018913E-05
         221  8.6128137E-05
         222  5.4760665E-05
         223 -2.5513981E-04
         224  1.2987822E-03
         225  6.8190141E-04
         226  2.9165371E-04
         227 -6.2388513E-04
         228  1.9012472E-03
         229 -2.9242663E-03
         230  2.1998319E-03
         231  3.5192973E-03
         232  2.1906097E-03
         233 -8.7082777E-03
         234 -5.8710882E-03
         235  8.4287632E-04
         236  2.3599801E-04
         237 -1.4820597E-03
         238  4.3623932E-03
         239  5.3629419E-03
         240 -1.0331561E-03
         241 -1.3481409E-03
         242  8.3218864E-04
         243 -1.2851079E-02
         244 -3.0386457E-04
         245 -7.2772452E-04
         246 -2.2253630E-04
         247  1.6590677E-03
         248 -1.6233642E-02
         249  2.3014317E-03
         250 -6.6108577E-04
         251  8.3582057E-04
         252 -7.6806749E-04
         253 -4.8383875E-03
         254  6.6477410E-03
         255 -2.0228522E-03
         256  1.1162717E-03
         257  2.3328736E-03
         258  1.1273585E-02
         259  1.6087260E-02
         260  1.1480607E-03
         261 -5.6764740E-03
         262 -6.3420259E-03
         263 -4.3988731E-03
         264 -1.8523244E-02
         265 -3.1905330E-03
         266  5.1208073E-03
         267  2.0189944E-03
         268  2.8935773E-03
         269  1.3021230E-03
         270 -8.0497487E-04
         271  8.6547425E-03
         272  6.0530403E-03
         273  8.0700321E-03
         274  2.0991711E-02
         275  2.4657359E-03
         276  1.3054005E-03
         277  3.2833216E-03
         278  2.8079499E-03
         279 -2.2449203E-02
         280 -2.0720556E-03
         281 -6.3366001E-03
         282 -9.1572329E-03
         283 -2.7948525E-03
 Sym= Particle
 Ene= -6.9019116E-02
 Spin= Alpha
 Occup= 2
           1  2.0236330E-04
           2  5.7732256E-04
           3 -7.2911714E-04
           4  5.6346878E-04
           5 -2.5878939E-05
           6 -3.7933074E-04
           7  3.3368470E-04
           8 -1.7138515E-03
           9 -5.9812830E-04
          10  4.8685692E-05
          11  4.3349620E-04
          12 -1.2719671E-02
          13  6.4337766E-04
          14 -8.0368103E-05
          15 -1.6497790E-03
          16  1.7380938E-03
          17  5.1807443E-04
          18  4.0949049E-04
          19 -2.5038994E-04
          20  1.8191094E-02
          21 -4.4431588E-05
          22  6.7784655E-04
          23 -9.0925209E-04
          24 -1.4697187E-04
          25  6.0346556E-06
          26  4.1282459E-04
          27  9.1061124E-04
          28 -5.5970199E-02
          29  4.4273958E-04
          30  9.1553130E-04
          31 -1.9751996E-04
          32  9.5719704E-03
          33 -1.0959635E-03
          34 -1.9036519E-03
          35  1.3578279E-04
          36  2.8290029E-03
          37  1.0971125E-03
          38  2.3158779E-03
          39 -2.0660646E-04
          40  2.8472380E-03
          41  2.0242538E-04
          42  1.3689270E-03
          43 -9.9000754E-05
          44 -2.0950304E-03
          45  4.7172012E-04
          46  9.7996010E-05
          47 -4.7539247E-04
          48  4.8121307E-03
          49  2.0062982E-03
          50  3.8980535E-04
          51  6.7185360E-04
          52  5.5013798E-02
          53 -1.5657839E-03
          54  6.7706004E-04
          55 -1.0990247E-03
          56 -2.1121388E-02
          57 -3.0922252E-03
          58 -1.9517234E-03
          59  5.6859800E-03
          60 -0.1202214    
          61  1.6309269E-03
          62  6.7321293E-04
          63 -3.2449171E-03
          64  3.3452667E-02
          65  1.1703447E-03
          66  1.2728033E-03
          67  3.8053649E-03
          68 -6.6838987E-02
          69  2.3490794E-03
          70  4.0885047E-03
          71 -5.7013636E-03
          72  2.3223884E-02
          73 -1.7344799E-02
          74 -3.4769505E-02
          75  1.3795203E-03
          76  0.1880260    
          77  2.0261755E-02
          78  2.0013496E-02
          79 -1.0467240E-02
          80 -6.0885791E-02
          81  4.7732034E-04
          82 -1.1014020E-03
          83 -9.5951399E-03
          84 -0.1414261    
          85  3.4661831E-03
          86 -4.3034655E-04
          87  3.9463406E-03
          88  3.2717589E-02
          89 -3.1480300E-03
          90 -4.1522891E-03
          91 -1.3377735E-03
          92  4.6969213E-02
          93  1.6316462E-03
          94 -1.2932738E-03
          95 -4.8103044E-04
          96 -1.5342985E-02
          97 -2.4180819E-04
          98 -2.6342054E-04
          99 -2.3770032E-03
         100  8.6531058E-02
         101 -4.3332289E-05
         102 -5.3893868E-04
         103 -5.7518302E-04
         104 -1.9288355E-02
         105 -3.8096004E-03
         106 -1.5091444E-02
         107  5.0365962E-03
         108 -0.1354222    
         109  3.9842161E-03
         110  6.7352992E-03
         111 -3.1362360E-03
         112  4.1785091E-02
         113 -4.9123616E-04
         114 -3.9514713E-03
         115 -1.1887966E-02
         116  0.4659370    
         117  4.7233878E-03
         118 -3.0167738E-04
         119  1.7332830E-03
         120 -0.1496981    
         121  6.3326617E-04
         122  3.4770749E-03
         123 -5.9072601E-05
         124 -0.3397680    
         125  2.5866858E-03
         126 -7.8871066E-04
         127  1.8838717E-03
         128  0.1067683    
         129  8.9993444E-04
         130  2.1521861E-03
         131 -5.9581129E-03
         132 -9.4649225E-02
         133  2.3794626E-03
         134 -1.2652724E-03
         135  2.4743699E-03
         136  1.0553643E-02
         137 -6.9972333E-03
         138 -7.8351488E-03
         139  3.1608788E-04
         140  0.3673849    
         141  4.4448534E-03
         142 -1.2264649E-03
         143  3.2532068E-03
         144 -0.1115382    
         145  2.5693316E-02
         146  2.6399863E-03
         147 -3.2451455E-02
         148 -0.2776381    
         149 -1.9117499E-02
         150 -7.6750792E-03
         151  1.9351894E-02
         152  0.1166271    
         153 -4.0930100E-03
         154 -3.5185998E-03
         155 -4.7694566E-03
         156  9.8277882E-02
         157  4.3449975E-03
         158 -8.8340444E-03
         159 -5.7738400E-03
         160 -7.7722952E-02
         161 -1.2524331E-03
         162 -0.1895391    
         163 -0.1542131    
         164 -0.1842516    
         165  3.9527821E-03
         166  6.9096163E-02
         167  5.5998873E-02
         168  7.8918427E-02
         169  1.2452721E-02
         170  8.5294522E-02
         171  8.3083130E-02
         172  9.3456104E-02
         173 -1.5668789E-02
         174 -1.6648909E-02
         175 -3.0309621E-02
         176 -3.0178387E-02
         177 -2.8969615E-03
         178  9.5144786E-02
         179  7.1993649E-02
         180  9.6441925E-02
         181 -3.0521990E-04
         182 -3.1832580E-02
         183 -2.3686247E-02
         184 -3.5766300E-02
         185  9.0015965E-04
         186 -0.1954217    
         187 -0.1580383    
         188 -0.2008777    
         189 -1.5510776E-03
         190  5.8167819E-02
         191  4.6409089E-02
         192  6.0575511E-02
         193  3.1127164E-03
         194  0.1071241    
         195  9.2567958E-02
         196  0.1139441    
         197 -1.5857689E-03
         198 -3.7936289E-02
         199 -3.5761666E-02
         200 -3.9970934E-02
         201 -9.1544269E-03
         202  7.4146010E-02
         203  4.9298987E-02
         204  7.6632693E-02
         205  1.2011572E-02
         206 -2.5939945E-02
         207 -7.3866686E-03
         208 -2.0131692E-02
         209  6.6845940E-04
         210 -4.5186581E-04
         211 -3.5207043E-04
         212  9.9857128E-04
         213 -8.9420436E-04
         214 -4.2757862E-03
         215  2.2219291E-03
         216  4.1498966E-03
         217 -1.2800024E-03
         218  1.1908640E-03
         219  3.6113013E-03
         220 -1.5583131E-03
         221 -3.4173259E-03
         222  3.4415044E-04
         223  4.4631535E-05
         224 -2.8857825E-04
         225  6.8880391E-04
         226  3.0986691E-04
         227  4.8394129E-04
         228 -9.2808576E-03
         229  6.1819614E-03
         230 -3.3541222E-03
         231  2.7290282E-03
         232  7.3681939E-03
         233 -1.4579578E-02
         234  5.4819970E-03
         235 -1.6532977E-03
         236 -9.0903108E-04
         237  2.0729691E-04
         238  1.5221143E-02
         239 -3.2233766E-03
         240  1.8169410E-03
         241 -5.5428362E-03
         242  7.0087340E-06
         243  0.1066073    
         244  1.5341365E-03
         245 -6.3337246E-04
         246  1.9629502E-03
         247  6.5703713E-03
         248 -8.7613143E-02
         249  2.3082156E-04
         250 -1.5245726E-03
         251  3.4906780E-03
         252  3.1714623E-03
         253 -1.3596728E-02
         254 -3.6326454E-03
         255  3.8134186E-03
         256  4.8751831E-03
         257 -4.3902961E-03
         258  8.1014827E-02
         259 -2.8888241E-03
         260 -1.2518383E-02
         261  2.1834958E-02
         262 -1.4410834E-05
         263  2.1159312E-02
         264  1.5985052E-03
         265 -1.9256338E-03
         266  2.4377145E-02
         267  2.1109534E-02
         268  2.2426134E-02
         269  3.5618900E-04
         270 -1.5662051E-03
         271 -5.2143935E-02
         272 -4.0065639E-02
         273 -4.7858879E-02
         274 -1.7962417E-04
         275 -1.2690127E-04
         276  2.7151950E-02
         277  2.1873085E-02
         278  2.5934044E-02
         279  1.9742360E-03
         280  4.4358405E-03
         281  1.2463568E-02
         282  2.6079942E-02
         283  1.8249150E-02
