 [Molden Format]
 [Atoms] Angs
C       1      6      5.87507511     -2.92451128      0.17712227
C       2      6      5.88132658     -1.85885128      1.06229933
C       3      6      4.88896740     -0.89701178      1.00283417
C       4      6      3.88601034     -0.99389049      0.04333353
N       5      7      2.88188425     -0.01167510     -0.02507205
C       6      6      3.09614023      1.35279340     -0.10249510
C       7      6      4.28806032      2.05672315     -0.18266224
C       8      6      4.21792182      3.43481710     -0.27608467
C       9      6      2.99426648      4.10009413     -0.29829794
C      10      6      1.80315706      3.40274510     -0.24088020
C      11      6      1.84952809      2.01787072     -0.14602251
C      12      6      0.84493360      0.99438190     -0.08676259
C      13      6     -0.54966056      1.00557033     -0.06629985
C      14      6     -1.25915718     -0.20222973      0.00985809
C      15      6     -0.53260105     -1.41053556      0.08542591
C      16      6      0.85295476     -1.45248039      0.08540578
C      17      6      1.52794708     -0.24346503     -0.01724335
O      18      8     -1.17204865     -2.60483625      0.17504192
C      19      6     -2.52639151     -2.71476754      0.05818400
C      20      6     -2.99201463     -4.03225443      0.05055837
C      21      6     -4.33548076     -4.28953242     -0.10247246
C      22      6     -5.22435181     -3.23285936     -0.26425308
C      23      6     -4.76082108     -1.93566355     -0.23980951
C      24      6     -3.40693108     -1.62259679     -0.05509824
B      25      5     -2.78197133     -0.20560799      0.02165388
C      26      6     -3.40896187      1.20907177      0.11379128
C      27      6     -4.76273474      1.51571345      0.31334494
C      28      6     -5.23003642      2.81066058      0.35590045
C      29      6     -4.34610940      3.87267347      0.19915981
C      30      6     -3.00349997      3.62203432      0.03137801
C      31      6     -2.53372584      2.30608957      0.00442546
O      32      8     -1.18035935      2.19940083     -0.12627964
C      33      6      3.88290421     -2.06155602     -0.84867621
C      34      6      4.87335508     -3.02441417     -0.77454844
H      35      1      6.64905442     -3.67547821      0.22892135
H      36      1      6.65823573     -1.77903999      1.80827344
H      37      1      4.87791031     -0.07448129      1.70250129
H      38      1      5.24001593      1.54773834     -0.18147149
H      39      1      5.13219673      4.00700737     -0.33624143
H      40      1      2.98077788      5.17791501     -0.36991657
H      41      1      0.85269579      3.91204404     -0.27252919
H      42      1      1.36639450     -2.39641029      0.16706634
H      43      1     -2.27330549     -4.83130098      0.15503009
H      44      1     -4.69203386     -5.30897525     -0.11034197
H      45      1     -6.27631774     -3.43100409     -0.40873415
H      46      1     -5.46221058     -1.12997938     -0.38618977
H      47      1     -5.45996649      0.70591239      0.45613389
H      48      1     -6.28139634      3.00371132      0.51117094
H      49      1     -4.70628817      4.89055290      0.22194251
H      50      1     -2.29034078      4.42619666     -0.06988724
H      51      1      3.11113056     -2.12463315     -1.60123395
H      52      1      4.86651709     -3.85126186     -1.46934404
 [GTO]
           1   0
s              4   1.000000
     34.91781274     -0.01198412
      6.01313629     -0.05472053
      0.48318116      0.58055871
      0.18415230      0.47700799
p              4   1.000000
      5.62791774      0.05713170
      1.45923503      0.28574555
      0.51442550      0.55178731
      0.20480166      0.26323149
s              7   1.000000
      0.38350848     -0.19624735
      0.04707223      0.94819506
      0.02222627      0.24901043
     34.91781274      0.00551819
      6.01313629      0.02519653
      0.48318116     -0.26732322
      0.18415230     -0.21964241
p              7   1.000000
      1.83062075     -0.01161245
      0.10124670      0.57065373
      0.03901771      0.59596304
      5.62791774     -0.02527766
      1.45923503     -0.12642679
      0.51442550     -0.24413573
      0.20480166     -0.11646555
 
           2   0
s              4   1.000000
     34.92146493     -0.01198412
      6.01376522     -0.05472052
      0.48323170      0.58055871
      0.18417156      0.47700799
p              4   1.000000
      5.62850638      0.05713170
      1.45938766      0.28574555
      0.51447931      0.55178731
      0.20482308      0.26323149
s              7   1.000000
      0.38350848     -0.19624392
      0.04707223      0.94817850
      0.02222627      0.24900606
     34.92146493      0.00551764
      6.01376522      0.02519402
      0.48323170     -0.26729653
      0.18417156     -0.21962047
p              7   1.000000
      1.83062075     -0.01161226
      0.10124670      0.57064437
      0.03901771      0.59595329
      5.62850638     -0.02527512
      1.45938766     -0.12641412
      0.51447931     -0.24411126
      0.20482308     -0.11645388
 
           3   0
s              4   1.000000
     35.00926102     -0.01198412
      6.02888444     -0.05472052
      0.48444659      0.58055871
      0.18463459      0.47700799
p              4   1.000000
      5.64265702      0.05713170
      1.46305671      0.28574555
      0.51577276      0.55178731
      0.20533803      0.26323149
s              7   1.000000
      0.38350848     -0.19616180
      0.04707223      0.94778171
      0.02222627      0.24890186
     35.00926102      0.00550442
      6.02888444      0.02513368
      0.48444659     -0.26665636
      0.18463459     -0.21909449
p              7   1.000000
      1.83062075     -0.01160770
      0.10124670      0.57042003
      0.03901771      0.59571901
      5.64265702     -0.02521436
      1.46305671     -0.12611020
      0.51577276     -0.24352438
      0.20533803     -0.11617390
 
           4   0
s              4   1.000000
     35.13513634     -0.01198412
      6.05056121     -0.05472053
      0.48618841      0.58055871
      0.18529844      0.47700799
p              4   1.000000
      5.66294511      0.05713170
      1.46831711      0.28574555
      0.51762722      0.55178731
      0.20607632      0.26323149
s              7   1.000000
      0.38350848     -0.19604501
      0.04707223      0.94721743
      0.02222627      0.24875369
     35.13513634      0.00548559
      6.05056121      0.02504766
      0.48618841     -0.26574377
      0.18529844     -0.21834467
p              7   1.000000
      1.83062075     -0.01160121
      0.10124670      0.57010101
      0.03901771      0.59538581
      5.66294511     -0.02512773
      1.46831711     -0.12567693
      0.51762722     -0.24268772
      0.20607632     -0.11577477
 
           5   0
s              4   1.000000
     61.44053945     -0.01198412
     10.58056929     -0.05472052
      0.85019389      0.58055871
      0.32402993      0.47700799
p              4   1.000000
      7.24211779      0.05713170
      1.87777300      0.28574555
      0.66197309      0.55178731
      0.26354289      0.26323149
s              7   1.000000
      0.47894987     -0.18771140
      0.05878681      0.90695249
      0.02775758      0.23817949
     61.44053945      0.00395438
     10.58056929      0.01805605
      0.85019389     -0.19156605
      0.32402993     -0.15739758
p              7   1.000000
      2.28619608     -0.01155924
      0.12644335      0.56803856
      0.04872781      0.59323190
      7.24211779     -0.02456153
      1.87777300     -0.12284509
      0.66197309     -0.23721930
      0.26354289     -0.11316605
 
           6   0
s              4   1.000000
     35.63171650     -0.01198412
      6.13607642     -0.05472052
      0.49305992      0.58055871
      0.18791734      0.47700799
p              4   1.000000
      5.74298198      0.05713170
      1.48906947      0.28574555
      0.52494307      0.55178731
      0.20898888      0.26323149
s              7   1.000000
      0.38350848     -0.19559495
      0.04707223      0.94504291
      0.02222627      0.24818261
     35.63171650      0.00541249
      6.13607642      0.02471388
      0.49305992     -0.26220249
      0.18791734     -0.21543503
p              7   1.000000
      1.83062075     -0.01157619
      0.10124670      0.56887164
      0.03901771      0.59410194
      5.74298198     -0.02479155
      1.48906947     -0.12399550
      0.52494307     -0.23944080
      0.20898888     -0.11422582
 
           7   0
s              4   1.000000
     34.94110996     -0.01198412
      6.01714826     -0.05472052
      0.48350354      0.58055871
      0.18427517      0.47700799
p              4   1.000000
      5.63167269      0.05713170
      1.46020864      0.28574555
      0.51476873      0.55178731
      0.20493830      0.26323149
s              7   1.000000
      0.38350848     -0.19622550
      0.04707223      0.94808949
      0.02222627      0.24898269
     34.94110996      0.00551468
      6.01714826      0.02518049
      0.48350354     -0.26715302
      0.18427517     -0.21950257
p              7   1.000000
      1.83062075     -0.01161124
      0.10124670      0.57059404
      0.03901771      0.59590074
      5.63167269     -0.02526150
      1.46020864     -0.12634599
      0.51476873     -0.24397970
      0.20493830     -0.11639112
 
           8   0
s              4   1.000000
     34.93389898     -0.01198412
      6.01590647     -0.05472052
      0.48340375      0.58055871
      0.18423714      0.47700799
p              4   1.000000
      5.63051046      0.05713170
      1.45990728      0.28574555
      0.51466249      0.55178731
      0.20489601      0.26323149
s              7   1.000000
      0.38350848     -0.19623226
      0.04707223      0.94812214
      0.02222627      0.24899127
     34.93389898      0.00551576
      6.01590647      0.02518545
      0.48340375     -0.26720568
      0.18423714     -0.21954583
p              7   1.000000
      1.83062075     -0.01161161
      0.10124670      0.57061251
      0.03901771      0.59592000
      5.63051046     -0.02526650
      1.45990728     -0.12637099
      0.51466249     -0.24402798
      0.20489601     -0.11641415
 
           9   0
s              4   1.000000
     34.92228104     -0.01198412
      6.01390576     -0.05472052
      0.48324299      0.58055871
      0.18417586      0.47700800
p              4   1.000000
      5.62863792      0.05713170
      1.45942176      0.28574555
      0.51449133      0.55178731
      0.20482786      0.26323149
s              7   1.000000
      0.38350848     -0.19624316
      0.04707223      0.94817481
      0.02222627      0.24900509
     34.92228104      0.00551752
      6.01390576      0.02519346
      0.48324299     -0.26729056
      0.18417586     -0.21961558
p              7   1.000000
      1.83062075     -0.01161222
      0.10124670      0.57064228
      0.03901771      0.59595111
      5.62863792     -0.02527456
      1.45942176     -0.12641129
      0.51449133     -0.24410579
      0.20482786     -0.11645127
 
          10   0
s              4   1.000000
     34.93812265     -0.01198412
      6.01663382     -0.05472052
      0.48346220      0.58055871
      0.18425941      0.47700799
p              4   1.000000
      5.63119121      0.05713170
      1.46008379      0.28574555
      0.51472472      0.55178731
      0.20492078      0.26323149
s              7   1.000000
      0.38350848     -0.19622830
      0.04707223      0.94810301
      0.02222627      0.24898625
     34.93812265      0.00551513
      6.01663382      0.02518255
      0.48346220     -0.26717484
      0.18425941     -0.21952049
p              7   1.000000
      1.83062075     -0.01161139
      0.10124670      0.57060170
      0.03901771      0.59590871
      5.63119121     -0.02526357
      1.46008379     -0.12635635
      0.51472472     -0.24399970
      0.20492078     -0.11640066
 
          11   0
s              4   1.000000
     35.41417156     -0.01198412
      6.09861338     -0.05472052
      0.49004961      0.58055871
      0.18677004      0.47700800
p              4   1.000000
      5.70791893      0.05713170
      1.47997815      0.28574555
      0.52173809      0.55178731
      0.20771293      0.26323149
s              7   1.000000
      0.38350848     -0.19579005
      0.04707223      0.94598554
      0.02222627      0.24843016
     35.41417156      0.00544427
      6.09861338      0.02485903
      0.49004961     -0.26374243
      0.18677004     -0.21670030
p              7   1.000000
      1.83062075     -0.01158703
      0.10124670      0.56940455
      0.03901771      0.59465846
      5.70791893     -0.02493774
      1.47997815     -0.12472671
      0.52173809     -0.24085280
      0.20771293     -0.11489942
 
          12   0
s              4   1.000000
     35.44900511     -0.01198412
      6.10461201     -0.05472052
      0.49053162      0.58055871
      0.18695374      0.47700799
p              4   1.000000
      5.71353326      0.05713170
      1.48143386      0.28574555
      0.52225128      0.55178731
      0.20791723      0.26323149
s              7   1.000000
      0.38350848     -0.19575859
      0.04707223      0.94583357
      0.02222627      0.24839026
     35.44900511      0.00543916
      6.10461201      0.02483567
      0.49053162     -0.26349467
      0.18695374     -0.21649673
p              7   1.000000
      1.83062075     -0.01158528
      0.10124670      0.56931864
      0.03901771      0.59456877
      5.71353326     -0.02491422
      1.48143386     -0.12460907
      0.52225128     -0.24062563
      0.20791723     -0.11479104
 
          13   0
s              4   1.000000
     35.18997596     -0.01198412
      6.06000504     -0.05472052
      0.48694726      0.58055871
      0.18558765      0.47700799
p              4   1.000000
      5.67178395      0.05713170
      1.47060889      0.28574555
      0.51843514      0.55178731
      0.20639796      0.26323149
s              7   1.000000
      0.38350848     -0.19599447
      0.04707223      0.94697327
      0.02222627      0.24868956
     35.18997596      0.00547742
      6.06000504      0.02501037
      0.48694726     -0.26534809
      0.18558765     -0.21801957
p              7   1.000000
      1.83062075     -0.01159840
      0.10124670      0.56996296
      0.03901771      0.59524167
      5.67178395     -0.02509017
      1.47060889     -0.12548907
      0.51843514     -0.24232496
      0.20639796     -0.11560172
 
          14   0
s              4   1.000000
     35.10923169     -0.01198412
      6.04610021     -0.05472053
      0.48582995      0.58055871
      0.18516182      0.47700799
p              4   1.000000
      5.65876990      0.05713170
      1.46723454      0.28574555
      0.51724558      0.55178731
      0.20592438      0.26323149
s              7   1.000000
      0.38350848     -0.19606895
      0.04707223      0.94733311
      0.02222627      0.24878406
     35.10923169      0.00548945
      6.04610021      0.02506532
      0.48582995     -0.26593107
      0.18516182     -0.21849857
p              7   1.000000
      1.83062075     -0.01160254
      0.10124670      0.57016641
      0.03901771      0.59545410
      5.65876990     -0.02514551
      1.46723454     -0.12576586
      0.51724558     -0.24285944
      0.20592438     -0.11585670
 
          15   0
s              4   1.000000
     35.17612517     -0.01198412
      6.05761982     -0.05472052
      0.48675560      0.58055871
      0.18551461      0.47700800
p              4   1.000000
      5.66955153      0.05713170
      1.47003005      0.28574555
      0.51823108      0.55178730
      0.20631672      0.26323149
s              7   1.000000
      0.38350848     -0.19600722
      0.04707223      0.94703484
      0.02222627      0.24870572
     35.17612517      0.00547948
      6.05761982      0.02501978
      0.48675560     -0.26544792
      0.18551461     -0.21810159
p              7   1.000000
      1.83062075     -0.01159910
      0.10124670      0.56999777
      0.03901771      0.59527800
      5.66955153     -0.02509965
      1.47003005     -0.12553647
      0.51823108     -0.24241648
      0.20631672     -0.11564538
 
          16   0
s              4   1.000000
     34.98270392     -0.01198412
      6.02431108     -0.05472052
      0.48407910      0.58055871
      0.18449453      0.47700799
p              4   1.000000
      5.63837665      0.05713170
      1.46194687      0.28574555
      0.51538151      0.55178730
      0.20518226      0.26323149
s              7   1.000000
      0.38350848     -0.19618658
      0.04707223      0.94790146
      0.02222627      0.24893331
     34.98270392      0.00550841
      6.02431108      0.02515190
      0.48407910     -0.26684968
      0.18449453     -0.21925333
p              7   1.000000
      1.83062075     -0.01160908
      0.10124670      0.57048774
      0.03901771      0.59578969
      5.63837665     -0.02523271
      1.46194687     -0.12620198
      0.51538151     -0.24370161
      0.20518226     -0.11625845
 
          17   0
s              4   1.000000
     35.62376763     -0.01198412
      6.13470756     -0.05472053
      0.49294993      0.58055871
      0.18787542      0.47700799
p              4   1.000000
      5.74170081      0.05713170
      1.48873728      0.28574555
      0.52482596      0.55178731
      0.20894226      0.26323149
s              7   1.000000
      0.38350848     -0.19560202
      0.04707223      0.94507709
      0.02222627      0.24819158
     35.62376763      0.00541364
      6.13470756      0.02471915
      0.49294993     -0.26225845
      0.18787542     -0.21548100
p              7   1.000000
      1.83062075     -0.01157658
      0.10124670      0.56889096
      0.03901771      0.59412209
      5.74170081     -0.02479686
      1.48873728     -0.12402207
      0.52482596     -0.23949211
      0.20894226     -0.11425030
 
          18   0
s              4   1.000000
     78.13259317     -0.01198412
     13.45507906     -0.05472052
      1.08117301      0.58055871
      0.41206180      0.47700799
p              4   1.000000
      8.05725014      0.05713170
      2.08912465      0.28574555
      0.73648109      0.55178731
      0.29320581      0.26323149
s              7   1.000000
      0.57971233     -0.18684594
      0.07115450      0.90277092
      0.03359728      0.23708135
     78.13259317      0.00376457
     13.45507906      0.01718935
      1.08117301     -0.18237085
      0.41206180     -0.14984248
p              7   1.000000
      2.76717072     -0.01171607
      0.15304476      0.57574579
      0.05897927      0.60128096
      8.05725014     -0.02662565
      2.08912465     -0.13316880
      0.73648109     -0.25715485
      0.29320581     -0.12267635
 
          19   0
s              4   1.000000
     35.18992369     -0.01198412
      6.05999605     -0.05472053
      0.48694654      0.58055871
      0.18558738      0.47700800
p              4   1.000000
      5.67177553      0.05713170
      1.47060670      0.28574555
      0.51843437      0.55178731
      0.20639766      0.26323149
s              7   1.000000
      0.38350848     -0.19599452
      0.04707223      0.94697350
      0.02222627      0.24868961
     35.18992369      0.00547743
      6.05999605      0.02501040
      0.48694654     -0.26534847
      0.18558738     -0.21801988
p              7   1.000000
      1.83062075     -0.01159840
      0.10124670      0.56996310
      0.03901771      0.59524179
      5.67177553     -0.02509021
      1.47060670     -0.12548925
      0.51843437     -0.24232530
      0.20639766     -0.11560188
 
          20   0
s              4   1.000000
     34.96748233     -0.01198412
      6.02168980     -0.05472053
      0.48386847      0.58055871
      0.18441425      0.47700800
p              4   1.000000
      5.63592329      0.05713170
      1.46131075      0.28574555
      0.51515726      0.55178731
      0.20509298      0.26323149
s              7   1.000000
      0.38350848     -0.19620081
      0.04707223      0.94797020
      0.02222627      0.24895137
     34.96748233      0.00551070
      6.02168980      0.02516236
      0.48386847     -0.26696062
      0.18441425     -0.21934448
p              7   1.000000
      1.83062075     -0.01160987
      0.10124670      0.57052660
      0.03901771      0.59583030
      5.63592329     -0.02524324
      1.46131075     -0.12625465
      0.51515726     -0.24380331
      0.20509298     -0.11630697
 
          21   0
s              4   1.000000
     34.91542130     -0.01198412
      6.01272446     -0.05472052
      0.48314807      0.58055871
      0.18413969      0.47700799
p              4   1.000000
      5.62753229      0.05713170
      1.45913509      0.28574555
      0.51439027      0.55178731
      0.20478763      0.26323149
s              7   1.000000
      0.38350848     -0.19624959
      0.04707223      0.94820591
      0.02222627      0.24901328
     34.91542130      0.00551855
      6.01272446      0.02519818
      0.48314807     -0.26734071
      0.18413969     -0.21965678
p              7   1.000000
      1.83062075     -0.01161258
      0.10124670      0.57065987
      0.03901771      0.59596947
      5.62753229     -0.02527932
      1.45913509     -0.12643509
      0.51439027     -0.24415176
      0.20478763     -0.11647320
 
          22   0
s              4   1.000000
     34.90359497     -0.01198412
      6.01068787     -0.05472052
      0.48298442      0.58055871
      0.18407732      0.47700800
p              4   1.000000
      5.62562617      0.05713170
      1.45864086      0.28574555
      0.51421604      0.55178731
      0.20471827      0.26323149
s              7   1.000000
      0.38350848     -0.19626070
      0.04707223      0.94825960
      0.02222627      0.24902737
     34.90359497      0.00552034
      6.01068787      0.02520633
      0.48298442     -0.26742720
      0.18407732     -0.21972784
p              7   1.000000
      1.83062075     -0.01161320
      0.10124670      0.57069021
      0.03901771      0.59600115
      5.62562617     -0.02528753
      1.45864086     -0.12647615
      0.51421604     -0.24423105
      0.20471827     -0.11651102
 
          23   0
s              4   1.000000
     34.98394569     -0.01198412
      6.02452493     -0.05472052
      0.48409628      0.58055871
      0.18450108      0.47700800
p              4   1.000000
      5.63857679      0.05713170
      1.46199876      0.28574555
      0.51539981      0.55178731
      0.20518954      0.26323149
s              7   1.000000
      0.38350848     -0.19618542
      0.04707223      0.94789585
      0.02222627      0.24893184
     34.98394569      0.00550823
      6.02452493      0.02515105
      0.48409628     -0.26684064
      0.18450108     -0.21924590
p              7   1.000000
      1.83062075     -0.01160901
      0.10124670      0.57048457
      0.03901771      0.59578637
      5.63857679     -0.02523185
      1.46199876     -0.12619769
      0.51539981     -0.24369332
      0.20518954     -0.11625449
 
          24   0
s              4   1.000000
     34.98339054     -0.01198412
      6.02442933     -0.05472052
      0.48408860      0.58055871
      0.18449815      0.47700800
p              4   1.000000
      5.63848731      0.05713170
      1.46197556      0.28574555
      0.51539163      0.55178731
      0.20518629      0.26323149
s              7   1.000000
      0.38350848     -0.19618594
      0.04707223      0.94789836
      0.02222627      0.24893250
     34.98339054      0.00550831
      6.02442933      0.02515143
      0.48408860     -0.26684468
      0.18449815     -0.21924922
p              7   1.000000
      1.83062075     -0.01160904
      0.10124670      0.57048598
      0.03901771      0.59578787
      5.63848731     -0.02523223
      1.46197556     -0.12619961
      0.51539163     -0.24369703
      0.20518629     -0.11625627
 
          25   0
s              4   1.000000
     23.71820520     -0.01198412
      4.08447120     -0.05472052
      0.32820469      0.58055871
      0.12508693      0.47700799
p              4   1.000000
      4.62277141      0.05713170
      1.19861560      0.28574555
      0.42254909      0.55178731
      0.16822407      0.26323149
s              7   1.000000
      0.29139959     -0.20028460
      0.03576669      0.96770161
      0.01688809      0.25413313
     23.71820520      0.00613890
      4.08447120      0.02803075
      0.32820469     -0.29739295
      0.12508693     -0.24434878
p              7   1.000000
      1.39095266     -0.01147932
      0.07692984      0.56411124
      0.02964666      0.58913040
      4.62277141     -0.02345161
      1.19861560     -0.11729378
      0.42254909     -0.22649949
      0.16822407     -0.10805214
 
          26   0
s              4   1.000000
     34.98469917     -0.01198412
      6.02465468     -0.05472052
      0.48410671      0.58055871
      0.18450505      0.47700799
p              4   1.000000
      5.63869823      0.05713170
      1.46203025      0.28574555
      0.51541091      0.55178731
      0.20519396      0.26323149
s              7   1.000000
      0.38350848     -0.19618472
      0.04707223      0.94789245
      0.02222627      0.24893094
     34.98469917      0.00550811
      6.02465468      0.02515053
      0.48410671     -0.26683515
      0.18450505     -0.21924139
p              7   1.000000
      1.83062075     -0.01160897
      0.10124670      0.57048264
      0.03901771      0.59578439
      5.63869823     -0.02523133
      1.46203025     -0.12619508
      0.51541091     -0.24368829
      0.20519396     -0.11625210
 
          27   0
s              4   1.000000
     34.98401259     -0.01198412
      6.02453645     -0.05472052
      0.48409721      0.58055871
      0.18450143      0.47700799
p              4   1.000000
      5.63858757      0.05713170
      1.46200156      0.28574555
      0.51540079      0.55178731
      0.20518994      0.26323149
s              7   1.000000
      0.38350848     -0.19618536
      0.04707223      0.94789556
      0.02222627      0.24893177
     34.98401259      0.00550822
      6.02453645      0.02515100
      0.48409721     -0.26684015
      0.18450143     -0.21924550
p              7   1.000000
      1.83062075     -0.01160901
      0.10124670      0.57048440
      0.03901771      0.59578621
      5.63858757     -0.02523180
      1.46200156     -0.12619746
      0.51540079     -0.24369287
      0.20518994     -0.11625428
 
          28   0
s              4   1.000000
     34.90372158     -0.01198412
      6.01070967     -0.05472053
      0.48298617      0.58055871
      0.18407798      0.47700800
p              4   1.000000
      5.62564658      0.05713170
      1.45864615      0.28574555
      0.51421791      0.55178731
      0.20471901      0.26323149
s              7   1.000000
      0.38350848     -0.19626058
      0.04707223      0.94825901
      0.02222627      0.24902722
     34.90372158      0.00552032
      6.01070967      0.02520625
      0.48298617     -0.26742627
      0.18407798     -0.21972708
p              7   1.000000
      1.83062075     -0.01161319
      0.10124670      0.57068989
      0.03901771      0.59600083
      5.62564658     -0.02528744
      1.45864615     -0.12647571
      0.51421791     -0.24423020
      0.20471901     -0.11651062
 
          29   0
s              4   1.000000
     34.91558870     -0.01198412
      6.01275329     -0.05472052
      0.48315038      0.58055871
      0.18414057      0.47700799
p              4   1.000000
      5.62755928      0.05713170
      1.45914209      0.28574555
      0.51439274      0.55178731
      0.20478861      0.26323149
s              7   1.000000
      0.38350848     -0.19624944
      0.04707223      0.94820516
      0.02222627      0.24901306
     34.91558870      0.00551852
      6.01275329      0.02519807
      0.48315038     -0.26733948
      0.18414057     -0.21965577
p              7   1.000000
      1.83062075     -0.01161257
      0.10124670      0.57065944
      0.03901771      0.59596903
      5.62755928     -0.02527920
      1.45914209     -0.12643451
      0.51439274     -0.24415064
      0.20478861     -0.11647266
 
          30   0
s              4   1.000000
     34.96689396     -0.01198412
      6.02158848     -0.05472052
      0.48386033      0.58055871
      0.18441115      0.47700799
p              4   1.000000
      5.63582846      0.05713170
      1.46128616      0.28574555
      0.51514859      0.55178731
      0.20508953      0.26323149
s              7   1.000000
      0.38350848     -0.19620136
      0.04707223      0.94797286
      0.02222627      0.24895207
     34.96689396      0.00551079
      6.02158848      0.02516276
      0.48386033     -0.26696491
      0.18441115     -0.21934800
p              7   1.000000
      1.83062075     -0.01160990
      0.10124670      0.57052810
      0.03901771      0.59583184
      5.63582846     -0.02524364
      1.46128616     -0.12625668
      0.51514859     -0.24380724
      0.20508953     -0.11630884
 
          31   0
s              4   1.000000
     35.19780146     -0.01198412
      6.06135266     -0.05472053
      0.48705555      0.58055871
      0.18562893      0.47700800
p              4   1.000000
      5.67304524      0.05713170
      1.47093592      0.28574555
      0.51855043      0.55178731
      0.20644386      0.26323149
s              7   1.000000
      0.38350848     -0.19598728
      0.04707223      0.94693851
      0.02222627      0.24868042
     35.19780146      0.00547625
      6.06135266      0.02500505
      0.48705555     -0.26529173
      0.18562893     -0.21797326
p              7   1.000000
      1.83062075     -0.01159800
      0.10124670      0.56994332
      0.03901771      0.59522112
      5.67304524     -0.02508482
      1.47093592     -0.12546231
      0.51855043     -0.24227328
      0.20644386     -0.11557706
 
          32   0
s              4   1.000000
     78.12877601     -0.01198412
     13.45442172     -0.05472053
      1.08112019      0.58055871
      0.41204167      0.47700799
p              4   1.000000
      8.05685651      0.05713170
      2.08902258      0.28574555
      0.73644511      0.55178731
      0.29319149      0.26323149
s              7   1.000000
      0.57971233     -0.18684676
      0.07115450      0.90277488
      0.03359728      0.23708239
     78.12877601      0.00376475
     13.45442172      0.01719019
      1.08112019     -0.18237976
      0.41204167     -0.14984979
p              7   1.000000
      2.76717072     -0.01171617
      0.15304476      0.57575058
      0.05897927      0.60128595
      8.05685651     -0.02662689
      2.08902258     -0.13317501
      0.73644511     -0.25716683
      0.29319149     -0.12268207
 
          33   0
s              4   1.000000
     35.00791000     -0.01198412
      6.02865178     -0.05472052
      0.48442789      0.58055871
      0.18462746      0.47700800
p              4   1.000000
      5.64243927      0.05713170
      1.46300025      0.28574555
      0.51575286      0.55178731
      0.20533010      0.26323149
s              7   1.000000
      0.38350848     -0.19616306
      0.04707223      0.94778780
      0.02222627      0.24890347
     35.00791000      0.00550463
      6.02865178      0.02513461
      0.48442789     -0.26666619
      0.18462746     -0.21910257
p              7   1.000000
      1.83062075     -0.01160777
      0.10124670      0.57042347
      0.03901771      0.59572257
      5.64243927     -0.02521529
      1.46300025     -0.12611487
      0.51575286     -0.24353339
      0.20533010     -0.11617820
 
          34   0
s              4   1.000000
     34.92168596     -0.01198412
      6.01380329     -0.05472052
      0.48323475      0.58055871
      0.18417273      0.47700799
p              4   1.000000
      5.62854201      0.05713170
      1.45939690      0.28574555
      0.51448257      0.55178731
      0.20482438      0.26323149
s              7   1.000000
      0.38350848     -0.19624371
      0.04707223      0.94817750
      0.02222627      0.24900580
     34.92168596      0.00551760
      6.01380329      0.02519387
      0.48323475     -0.26729491
      0.18417273     -0.21961915
p              7   1.000000
      1.83062075     -0.01161225
      0.10124670      0.57064380
      0.03901771      0.59595268
      5.62854201     -0.02527497
      1.45939690     -0.12641335
      0.51448257     -0.24410978
      0.20482438     -0.11645317
 
          35   0
s              4   1.000000
      8.30881327      0.05675242
      1.52041046      0.26014135
      0.42238667      0.53284611
      0.14018634      0.29162544
s              7   1.000000
      0.92936822     -0.06732860
      0.05643440      0.66945712
      0.02166600      0.51461596
      8.30881327     -0.02902307
      1.52041046     -0.13303575
      0.42238667     -0.27249640
      0.14018634     -0.14913665
p              4   1.000000
      0.64737396      0.05713170
      0.16785440      0.28574555
      0.05917387      0.55178731
      0.02355814      0.26323150
 
          36   0
s              4   1.000000
      8.30888593      0.05675242
      1.52042376      0.26014135
      0.42239037      0.53284611
      0.14018757      0.29162544
s              7   1.000000
      0.92936822     -0.06732850
      0.05643440      0.66945618
      0.02166600      0.51461524
      8.30888593     -0.02902288
      1.52042376     -0.13303486
      0.42239037     -0.27249458
      0.14018757     -0.14913565
p              4   1.000000
      0.64737396      0.05713170
      0.16785440      0.28574555
      0.05917387      0.55178731
      0.02355814      0.26323150
 
          37   0
s              4   1.000000
      8.30940722      0.05675242
      1.52051914      0.26014135
      0.42241687      0.53284611
      0.14019636      0.29162544
s              7   1.000000
      0.92936822     -0.06732783
      0.05643440      0.66944952
      0.02166600      0.51461012
      8.30940722     -0.02902148
      1.52051914     -0.13302847
      0.42241687     -0.27248148
      0.14019636     -0.14912848
p              4   1.000000
      0.64737396      0.05713170
      0.16785440      0.28574555
      0.05917387      0.55178731
      0.02355814      0.26323150
 
          38   0
s              4   1.000000
      8.30922072      0.05675242
      1.52048502      0.26014135
      0.42240739      0.53284611
      0.14019322      0.29162544
s              7   1.000000
      0.92936822     -0.06732807
      0.05643440      0.66945189
      0.02166600      0.51461196
      8.30922072     -0.02902198
      1.52048502     -0.13303076
      0.42240739     -0.27248617
      0.14019322     -0.14913105
p              4   1.000000
      0.64737396      0.05713170
      0.16785440      0.28574555
      0.05917387      0.55178731
      0.02355814      0.26323150
 
          39   0
s              4   1.000000
      8.30895011      0.05675242
      1.52043550      0.26014135
      0.42239363      0.53284611
      0.14018865      0.29162544
s              7   1.000000
      0.92936822     -0.06732842
      0.05643440      0.66945536
      0.02166600      0.51461462
      8.30895011     -0.02902270
      1.52043550     -0.13303407
      0.42239363     -0.27249296
      0.14018865     -0.14913477
p              4   1.000000
      0.64737396      0.05713170
      0.16785440      0.28574555
      0.05917387      0.55178731
      0.02355814      0.26323150
 
          40   0
s              4   1.000000
      8.30890655      0.05675242
      1.52042753      0.26014135
      0.42239142      0.53284611
      0.14018791      0.29162544
s              7   1.000000
      0.92936822     -0.06732848
      0.05643440      0.66945592
      0.02166600      0.51461504
      8.30890655     -0.02902282
      1.52042753     -0.13303461
      0.42239142     -0.27249406
      0.14018791     -0.14913536
p              4   1.000000
      0.64737396      0.05713170
      0.16785440      0.28574555
      0.05917387      0.55178731
      0.02355814      0.26323150
 
          41   0
s              4   1.000000
      8.30914186      0.05675242
      1.52047059      0.26014135
      0.42240338      0.53284611
      0.14019188      0.29162544
s              7   1.000000
      0.92936822     -0.06732817
      0.05643440      0.66945291
      0.02166600      0.51461273
      8.30914186     -0.02902219
      1.52047059     -0.13303172
      0.42240338     -0.27248815
      0.14019188     -0.14913213
p              4   1.000000
      0.64737396      0.05713170
      0.16785440      0.28574555
      0.05917387      0.55178731
      0.02355814      0.26323150
 
          42   0
s              4   1.000000
      8.30949107      0.05675242
      1.52053449      0.26014135
      0.42242113      0.53284611
      0.14019778      0.29162544
s              7   1.000000
      0.92936822     -0.06732773
      0.05643440      0.66944844
      0.02166600      0.51460930
      8.30949107     -0.02902126
      1.52053449     -0.13302744
      0.42242113     -0.27247938
      0.14019778     -0.14912733
p              4   1.000000
      0.64737396      0.05713170
      0.16785440      0.28574555
      0.05917387      0.55178731
      0.02355814      0.26323150
 
          43   0
s              4   1.000000
      8.30906537      0.05675242
      1.52045659      0.26014135
      0.42239949      0.53284611
      0.14019059      0.29162544
s              7   1.000000
      0.92936822     -0.06732827
      0.05643440      0.66945388
      0.02166600      0.51461348
      8.30906537     -0.02902240
      1.52045659     -0.13303266
      0.42239949     -0.27249007
      0.14019059     -0.14913318
p              4   1.000000
      0.64737396      0.05713170
      0.16785440      0.28574555
      0.05917387      0.55178731
      0.02355814      0.26323150
 
          44   0
s              4   1.000000
      8.30881290      0.05675242
      1.52041039      0.26014135
      0.42238666      0.53284611
      0.14018633      0.29162544
s              7   1.000000
      0.92936822     -0.06732860
      0.05643440      0.66945712
      0.02166600      0.51461596
      8.30881290     -0.02902307
      1.52041039     -0.13303576
      0.42238666     -0.27249641
      0.14018633     -0.14913666
p              4   1.000000
      0.64737396      0.05713170
      0.16785440      0.28574555
      0.05917387      0.55178731
      0.02355814      0.26323150
 
          45   0
s              4   1.000000
      8.30882208      0.05675242
      1.52041207      0.26014135
      0.42238712      0.53284611
      0.14018649      0.29162544
s              7   1.000000
      0.92936822     -0.06732859
      0.05643440      0.66945699
      0.02166600      0.51461586
      8.30882208     -0.02902305
      1.52041207     -0.13303564
      0.42238712     -0.27249618
      0.14018649     -0.14913653
p              4   1.000000
      0.64737396      0.05713170
      0.16785440      0.28574555
      0.05917387      0.55178731
      0.02355814      0.26323150
 
          46   0
s              4   1.000000
      8.30981203      0.05675242
      1.52059322      0.26014135
      0.42243745      0.53284611
      0.14020319      0.29162544
s              7   1.000000
      0.92936822     -0.06732731
      0.05643440      0.66944433
      0.02166600      0.51460615
      8.30981203     -0.02902040
      1.52059322     -0.13302351
      0.42243745     -0.27247132
      0.14020319     -0.14912292
p              4   1.000000
      0.64737396      0.05713170
      0.16785440      0.28574555
      0.05917387      0.55178731
      0.02355814      0.26323150
 
          47   0
s              4   1.000000
      8.30982489      0.05675242
      1.52059557      0.26014135
      0.42243810      0.53284611
      0.14020341      0.29162544
s              7   1.000000
      0.92936822     -0.06732730
      0.05643440      0.66944417
      0.02166600      0.51460602
      8.30982489     -0.02902036
      1.52059557     -0.13302335
      0.42243810     -0.27247100
      0.14020341     -0.14912274
p              4   1.000000
      0.64737396      0.05713170
      0.16785440      0.28574555
      0.05917387      0.55178731
      0.02355814      0.26323150
 
          48   0
s              4   1.000000
      8.30882957      0.05675242
      1.52041344      0.26014135
      0.42238750      0.53284611
      0.14018661      0.29162544
s              7   1.000000
      0.92936822     -0.06732858
      0.05643440      0.66945690
      0.02166600      0.51461579
      8.30882957     -0.02902303
      1.52041344     -0.13303555
      0.42238750     -0.27249599
      0.14018661     -0.14913643
p              4   1.000000
      0.64737396      0.05713170
      0.16785440      0.28574555
      0.05917387      0.55178731
      0.02355814      0.26323150
 
          49   0
s              4   1.000000
      8.30882080      0.05675242
      1.52041184      0.26014135
      0.42238706      0.53284611
      0.14018647      0.29162544
s              7   1.000000
      0.92936822     -0.06732859
      0.05643440      0.66945702
      0.02166600      0.51461589
      8.30882080     -0.02902305
      1.52041184     -0.13303566
      0.42238706     -0.27249622
      0.14018647     -0.14913654
p              4   1.000000
      0.64737396      0.05713170
      0.16785440      0.28574555
      0.05917387      0.55178731
      0.02355814      0.26323150
 
          50   0
s              4   1.000000
      8.30910204      0.05675242
      1.52046330      0.26014135
      0.42240135      0.53284611
      0.14019121      0.29162544
s              7   1.000000
      0.92936822     -0.06732823
      0.05643440      0.66945342
      0.02166600      0.51461313
      8.30910204     -0.02902230
      1.52046330     -0.13303221
      0.42240135     -0.27248915
      0.14019121     -0.14913268
p              4   1.000000
      0.64737396      0.05713170
      0.16785440      0.28574555
      0.05917387      0.55178731
      0.02355814      0.26323150
 
          51   0
s              4   1.000000
      8.30941909      0.05675242
      1.52052132      0.26014135
      0.42241747      0.53284611
      0.14019656      0.29162544
s              7   1.000000
      0.92936822     -0.06732782
      0.05643440      0.66944936
      0.02166600      0.51461000
      8.30941909     -0.02902145
      1.52052132     -0.13302832
      0.42241747     -0.27248119
      0.14019656     -0.14912832
p              4   1.000000
      0.64737396      0.05713170
      0.16785440      0.28574555
      0.05917387      0.55178731
      0.02355814      0.26323150
 
          52   0
s              4   1.000000
      8.30888972      0.05675242
      1.52042445      0.26014135
      0.42239056      0.53284611
      0.14018763      0.29162544
s              7   1.000000
      0.92936822     -0.06732850
      0.05643440      0.66945613
      0.02166600      0.51461522
      8.30888972     -0.02902287
      1.52042445     -0.13303481
      0.42239056     -0.27249448
      0.14018763     -0.14913560
p              4   1.000000
      0.64737396      0.05713170
      0.16785440      0.28574555
      0.05917387      0.55178731
      0.02355814      0.26323150
 
 [MO]
 Sym= Hole
 Ene= -0.7802521    
 Spin= Alpha
 Occup= 0
           1 -9.4836891E-05
           2  5.1271304E-02
           3  4.7945637E-02
           4 -7.1239613E-02
           5 -4.6970068E-05
           6 -2.1691346E-03
           7 -1.9429766E-03
           8  5.6109903E-03
           9 -8.5596312E-03
          10  1.5433737E-02
          11 -8.8992994E-04
          12 -1.5969570E-03
          13  2.7265723E-03
          14 -3.8906243E-03
          15 -1.0390882E-03
          16  1.4528648E-03
          17  2.7713258E-02
          18 -9.6636184E-02
          19 -5.6453891E-02
          20  3.1953823E-02
          21 -1.5620793E-02
          22  1.2869350E-02
          23 -1.9643104E-03
          24  2.6627589E-04
          25  5.2230700E-04
          26 -1.2436829E-02
          27 -9.5044002E-03
          28  4.9763862E-02
          29 -4.7316923E-04
          30  2.4512911E-03
          31  1.3685867E-03
          32 -1.8487433E-02
          33  1.9375262E-03
          34  2.4512326E-03
          35 -2.1582397E-02
          36 -0.3689137    
          37 -1.0290298E-03
          38  2.9217242E-03
          39  4.5555905E-03
          40  2.5150258E-02
          41 -7.4834592E-04
          42 -2.7900282E-03
          43 -6.0803015E-03
          44 -6.3109361E-02
          45 -5.5714272E-04
          46  1.5385603E-03
          47  5.2638876E-04
          48 -9.2920028E-03
          49  1.6703807E-03
          50  1.4650715E-02
          51  2.0234117E-02
          52  0.3135242    
          53 -8.4224105E-04
          54 -2.6600098E-04
          55 -2.0440232E-03
          56 -7.3251296E-03
          57 -4.0236791E-04
          58  4.1359682E-03
          59  1.6431926E-02
          60  0.2246778    
          61  6.0520973E-04
          62  1.1663762E-04
          63 -8.1544009E-04
          64  4.1837865E-04
          65 -2.7980745E-05
          66 -9.3925040E-04
          67 -1.3852858E-02
          68 -0.2070689    
          69  3.1046275E-05
          70  1.8918638E-04
          71  1.0419756E-04
          72  5.0369352E-03
          73  7.8768481E-04
          74 -2.1403013E-03
          75 -2.5263926E-02
          76 -0.3425852    
          77 -7.1178790E-04
          78  4.5226997E-04
          79  4.2571319E-04
          80  5.6586480E-03
          81  1.7915687E-03
          82  2.1243081E-03
          83  8.8233204E-04
          84  1.5343926E-02
          85 -1.1729778E-03
          86  1.7595891E-03
          87  1.5617664E-04
          88 -5.5620717E-03
          89 -1.5870143E-03
          90  1.1188088E-03
          91  2.3007879E-02
          92  0.4725666    
          93  1.1943260E-04
          94 -5.5078792E-05
          95  2.7959180E-04
          96 -1.6336460E-02
          97 -8.5366890E-04
          98  5.6386818E-03
          99  6.2727281E-03
         100  0.1056715    
         101  9.9541782E-04
         102 -1.5959995E-03
         103  2.7887424E-04
         104 -9.4847167E-03
         105 -3.6252930E-03
         106 -5.8649335E-04
         107 -1.5777672E-02
         108 -0.2249705    
         109  2.1965264E-03
         110 -6.3610409E-04
         111  5.2490697E-04
         112  4.7168564E-03
         113  1.4090238E-03
         114 -1.8389889E-03
         115 -1.0432226E-02
         116 -0.1749393    
         117 -1.0743855E-03
         118 -1.9184233E-03
         119  5.5330573E-05
         120  1.6419157E-02
         121 -9.8168594E-04
         122 -2.1126826E-04
         123  6.6701570E-03
         124  4.0354703E-02
         125  6.3674984E-04
         126 -1.1890321E-03
         127 -2.0896988E-04
         128 -2.0684009E-04
         129 -4.2892178E-03
         130 -3.0158181E-03
         131  1.3474531E-02
         132  0.1803542    
         133  2.2091439E-03
         134  1.9114157E-03
         135 -1.1717869E-04
         136 -1.5364662E-02
         137  2.2014487E-03
         138 -3.7539531E-03
         139  8.1102783E-03
         140  7.9298966E-02
         141 -1.5538144E-03
         142  4.0666660E-04
         143 -6.7105627E-04
         144 -8.9625660E-03
         145 -7.7351101E-04
         146 -9.8671038E-03
         147  1.7200954E-03
         148  5.1284071E-02
         149  9.6496742E-04
         150  1.4496091E-03
         151  6.4762094E-04
         152  6.5457379E-03
         153  8.9954777E-04
         154  2.3260475E-03
         155  6.5813237E-04
         156 -1.4975657E-02
         157 -3.5604884E-04
         158 -9.6842297E-04
         159 -1.2746915E-04
         160  5.2232863E-03
         161 -7.7762757E-04
         162  3.4767080E-03
         163 -1.5326623E-03
         164 -3.3347804E-02
         165  1.6575535E-05
         166  1.1132808E-04
         167 -2.5660862E-04
         168 -1.2276183E-03
         169 -5.4225726E-05
         170 -1.3903703E-04
         171  3.2647821E-04
         172  7.5244356E-04
         173 -1.0950775E-04
         174  3.9454823E-04
         175 -1.0454871E-04
         176 -4.0782904E-03
         177 -7.4686184E-05
         178 -2.0489341E-03
         179  4.3182492E-05
         180  7.3479144E-03
         181 -3.1284569E-04
         182 -3.6920307E-04
         183 -7.3745678E-04
         184 -2.6860342E-03
         185 -2.1422307E-03
         186  1.8409988E-03
         187 -2.7460640E-03
         188 -2.0312287E-02
         189  1.1581382E-03
         190 -1.6833970E-04
         191 -3.6538861E-04
         192  6.4059058E-03
         193  2.4066593E-03
         194 -1.5702971E-03
         195  8.4587131E-03
         196 -7.2834648E-02
         197  4.0359845E-04
         198  1.0082200E-03
         199  2.0442516E-04
         200 -3.8037174E-03
         201  2.8089795E-03
         202  1.8486843E-02
         203 -9.9394899E-03
         204  0.1184787    
         205 -1.1605532E-03
         206 -5.8425090E-04
         207  7.1797828E-04
         208 -2.3550445E-03
         209 -8.0120162E-04
         210 -2.0480203E-03
         211  1.0240194E-03
         212 -2.3289530E-03
         213  2.0891264E-04
         214  3.3721575E-04
         215 -2.5084949E-04
         216  3.3853019E-03
         217  5.7711394E-04
         218 -1.7668676E-02
         219 -4.9788188E-03
         220 -0.1181697    
         221 -3.8270147E-05
         222  8.1954611E-04
         223  2.9648512E-04
         224  3.9778706E-03
         225 -7.9759618E-04
         226 -8.2616685E-03
         227 -7.9039129E-04
         228 -4.9769320E-02
         229  1.2620792E-04
         230  3.7461030E-04
         231  5.3434534E-05
         232  5.3088800E-03
         233  2.8104561E-03
         234  1.5504926E-02
         235 -3.0202281E-03
         236  0.1053338    
         237 -1.1274758E-03
         238 -1.1645140E-03
         239  1.8981323E-04
         240 -4.8643020E-03
         241 -1.8790389E-03
         242  1.0454128E-02
         243  6.6142012E-03
         244  0.1164962    
         245  1.6276295E-03
         246 -3.4424759E-04
         247 -1.0270617E-03
         248 -1.7232891E-02
         249  1.7155581E-03
         250 -1.2195273E-02
         251 -1.4315962E-02
         252 -0.1704568    
         253 -9.8801800E-04
         254  1.6913764E-03
         255  2.8849521E-03
         256  1.6616657E-02
         257 -2.8493967E-02
         258 -5.4096323E-02
         259 -9.5111892E-02
         260  3.4053080E-02
         261  1.6201779E-02
         262 -1.7361281E-03
         263  1.3586794E-02
         264 -5.0934416E-04
         265  8.5229138E-03
         266  5.7536515E-04
         267  1.6563118E-02
         268 -4.6912977E-03
         269 -2.5855827E-03
         270 -8.9978165E-04
         271 -3.7475433E-03
         272  1.6617967E-03
         273 -8.3947554E-05
         274 -1.0811660E-04
         275  4.0844842E-03
         276  3.6331650E-03
         277 -6.1667585E-03
         278  1.5907355E-02
         279 -1.2761509E-03
         280 -9.3792315E-04
         281  1.2706517E-03
         282 -1.2156462E-03
         283 -1.1148821E-02
         284 -3.1900909E-03
         285  6.8715233E-03
         286 -7.6649236E-03
         287  7.0882859E-03
         288  1.6025392E-03
         289 -6.9358625E-04
         290 -1.5319093E-03
         291  1.8250796E-03
         292  9.1593359E-03
         293 -2.5781947E-03
         294  7.9597248E-04
         295  4.2065801E-04
         296  2.5844295E-04
         297  7.8675579E-03
         298 -1.0918530E-04
         299  7.6306460E-05
         300 -1.6204057E-04
         301 -1.0894583E-04
         302 -3.4245185E-03
         303 -1.5041634E-04
         304  1.3836705E-04
         305  6.8911258E-04
         306 -3.2271699E-05
         307 -6.8506142E-03
         308  1.4414819E-03
         309  2.9214044E-04
         310  1.1759837E-03
         311 -1.2310018E-03
         312  6.4907968E-03
         313  7.6670322E-04
         314 -5.9502519E-04
         315 -2.7905799E-05
         316 -3.3694785E-04
         317 -2.4256764E-03
         318  6.7844056E-04
         319 -3.1463505E-04
         320  1.9310882E-04
         321 -2.5748517E-04
         322 -2.2604428E-03
         323 -3.1562900E-04
         324  1.3388196E-05
         325 -3.4226663E-04
         326  1.1500322E-04
         327  3.6511971E-03
         328  4.6592689E-04
         329 -8.4448891E-04
         330 -1.4976574E-03
         331 -1.9392633E-04
         332  2.9660044E-03
         333 -2.1166725E-03
         334  7.1213004E-04
         335  1.0040788E-03
         336  9.3206261E-05
         337  1.0403045E-03
         338 -8.7403978E-04
         339  1.5720988E-04
         340 -5.9894338E-04
         341 -1.7729023E-04
         342 -5.7860380E-03
         343  1.7107335E-03
         344 -1.1709806E-04
         345 -1.4904373E-04
         346 -1.6928710E-04
         347 -2.1677455E-03
         348 -7.6974602E-04
         349 -1.8245880E-04
         350 -8.1283029E-04
         351  4.2354219E-04
         352 -1.6760406E-04
         353  1.1559175E-02
         354  3.2190436E-03
         355 -8.6283917E-03
         356  6.4742323E-03
         357  5.6873430E-03
         358 -1.5469725E-02
         359  1.0778985E-03
         360  1.3443555E-03
         361 -1.1372676E-03
         362 -1.1728782E-03
 Sym= Particle
 Ene= -0.7802521    
 Spin= Alpha
 Occup= 2
           1  2.2591728E-04
           2 -4.0718224E-02
           3 -3.8627509E-02
           4  5.0765105E-02
           5 -7.8475382E-04
           6  9.0095224E-03
           7  8.5356012E-03
           8 -1.1756122E-02
           9  1.6879602E-03
          10  1.5311246E-02
          11  1.5307638E-02
          12 -1.6748426E-02
          13 -2.6973488E-03
          14 -3.0594328E-03
          15 -2.9032114E-03
          16  3.6294321E-03
          17 -3.8162018E-03
          18  4.0202901E-02
          19  3.6841977E-02
          20 -2.5786011E-02
          21 -7.7829917E-04
          22 -1.3332806E-02
          23 -1.4779038E-02
          24  4.7687306E-03
          25  1.1321340E-03
          26 -4.5373209E-02
          27 -4.0883508E-02
          28  5.1782344E-02
          29 -1.5951914E-03
          30  1.7544508E-02
          31  1.7510135E-02
          32 -2.3762733E-02
          33 -1.0672257E-03
          34  8.7493034E-05
          35  6.3591897E-03
          36  9.0110175E-02
          37  1.0679464E-03
          38 -1.9379320E-03
          39 -3.5978646E-03
          40 -3.0871056E-02
          41  2.5105500E-03
          42 -1.0467458E-03
          43 -2.1862701E-02
          44 -0.1776907    
          45 -2.1672258E-03
          46 -5.7241617E-04
          47  9.5757134E-03
          48  6.9843404E-02
          49  1.9717363E-04
          50 -9.7943181E-03
          51 -1.7363099E-02
          52 -0.2446387    
          53  4.5962856E-04
          54  4.0440941E-03
          55  4.1606408E-03
          56  6.4629436E-02
          57  9.6721598E-04
          58  8.5386364E-03
          59  2.3494946E-02
          60  0.3667396    
          61  2.1286403E-04
          62 -2.4091010E-03
          63 -6.8787066E-03
          64 -9.4834395E-02
          65  6.9582726E-05
          66 -2.5084186E-03
          67 -3.1320571E-03
          68 -5.3113151E-02
          69  2.8354966E-04
          70  1.0427126E-03
          71 -1.5881778E-04
          72  7.6679112E-03
          73  1.2293030E-03
          74 -2.0385911E-03
          75 -2.3646951E-02
          76 -0.3300195    
          77 -6.6063221E-04
          78 -4.7088589E-04
          79  5.2789794E-03
          80  9.2540823E-02
          81  1.4836811E-03
          82 -5.9488942E-03
          83  2.2169877E-02
          84  0.3450313    
          85 -1.0630527E-03
          86  1.0229042E-03
          87 -6.1582606E-03
          88 -9.3825512E-02
          89 -2.3078506E-03
          90  3.2983175E-03
          91  7.5686453E-03
          92  0.2224941    
          93  1.3898428E-03
          94 -2.0495050E-03
          95  4.3563530E-04
          96 -4.5784436E-02
          97  2.3168689E-04
          98 -8.5952906E-03
          99 -2.6031207E-02
         100 -0.4429013    
         101 -2.6128674E-03
         102  4.3333168E-03
         103  9.2218667E-03
         104  0.1691882    
         105  3.9054248E-03
         106  8.9588002E-06
         107  3.0161079E-03
         108  4.1826949E-02
         109 -4.7033336E-03
         110  3.8032964E-04
         111 -1.7690490E-03
         112 -1.7464219E-02
         113 -2.9514288E-03
         114  9.6499803E-04
         115  1.6268015E-02
         116  0.2534171    
         117  6.6000246E-04
         118 -8.8095042E-04
         119 -5.7426863E-03
         120 -9.7131081E-02
         121  1.7537886E-03
         122 -9.1722142E-04
         123 -2.1827694E-02
         124 -0.2334804    
         125 -2.0170778E-03
         126 -3.6811378E-04
         127  6.5678121E-03
         128  5.7256717E-02
         129 -2.2823077E-03
         130 -1.0006404E-02
         131 -2.4206871E-03
         132 -5.5350043E-02
         133  1.0495881E-03
         134  4.5334105E-03
         135  9.5704210E-04
         136  3.0867385E-02
         137 -9.9008763E-04
         138  1.7674166E-03
         139 -4.1088718E-03
         140 -4.8219249E-02
         141  8.6121133E-04
         142  8.4428425E-04
         143  3.4091000E-03
         144  3.3807505E-02
         145 -6.8677953E-05
         146  1.6087346E-02
         147 -5.0175157E-03
         148 -0.1087843    
         149 -1.1515660E-03
         150 -5.8562681E-03
         151  7.9720077E-04
         152  2.8892953E-02
         153 -2.8300454E-04
         154 -2.7262333E-03
         155 -4.4307503E-06
         156  2.6415873E-02
         157 -1.0542577E-04
         158  1.8834157E-03
         159 -2.2146174E-04
         160 -1.5551494E-02
         161  5.9580302E-04
         162 -8.7430263E-03
         163  2.6442087E-03
         164  7.4959554E-02
         165 -6.8211819E-05
         166  1.6283878E-03
         167  3.7045149E-05
         168 -1.1166435E-02
         169 -2.7859441E-04
         170  6.8887612E-03
         171 -2.2503752E-03
         172 -5.1561620E-02
         173  2.5945785E-04
         174 -4.3037598E-04
         175  4.6951624E-04
         176  8.6111799E-03
         177  3.5881830E-04
         178  9.8500494E-03
         179 -1.9792567E-03
         180 -4.6864092E-02
         181 -4.7338463E-04
         182 -1.1256754E-03
         183  2.1149420E-04
         184  5.9992545E-03
         185  1.3703650E-03
         186 -1.0058344E-02
         187  7.9154712E-04
         188  7.7200681E-02
         189 -1.6600963E-03
         190  1.6573146E-03
         191 -9.5086441E-05
         192 -1.1059636E-02
         193 -4.1472321E-04
         194  8.2535268E-04
         195 -1.1462435E-02
         196  0.1621064    
         197 -2.1509682E-03
         198 -9.3087688E-04
         199  1.1591280E-03
         200 -1.2691955E-02
         201 -1.2837385E-03
         202 -6.1925012E-03
         203  3.6578001E-03
         204 -4.5744613E-02
         205 -3.2090550E-04
         206  7.0292311E-04
         207 -1.9569451E-03
         208  1.2102857E-02
         209 -8.8106273E-05
         210 -1.7814396E-02
         211 -3.0748267E-03
         212 -9.8350719E-02
         213  2.9026048E-04
         214  3.6088133E-03
         215  6.7783613E-04
         216  1.3823058E-02
         217  7.5901730E-04
         218  1.3195085E-02
         219  2.9314547E-03
         220  8.6549848E-02
         221 -7.3805521E-04
         222 -2.5854835E-03
         223 -6.9724815E-04
         224 -1.9033495E-02
         225  1.0362028E-03
         226  8.1197061E-03
         227  1.6963348E-03
         228  5.6467224E-02
         229 -4.5884214E-04
         230 -8.0022711E-04
         231 -8.6552429E-04
         232 -1.6113244E-02
         233 -2.1233533E-03
         234 -1.6105089E-02
         235  2.5451258E-03
         236 -0.1232918    
         237  4.3509487E-04
         238  5.6378287E-03
         239 -9.1622176E-04
         240  3.7983641E-02
         241  6.9583543E-03
         242  7.2249076E-03
         243 -4.6680928E-03
         244  1.8193247E-02
         245 -7.7202148E-03
         246 -4.0795757E-03
         247  3.9354512E-03
         248 -1.1219831E-04
         249 -2.6906689E-03
         250  1.4082316E-02
         251  1.1753697E-02
         252  0.1684321    
         253  2.0807588E-03
         254 -6.5148072E-03
         255 -7.6623224E-03
         256 -8.8072740E-02
         257  4.2340555E-03
         258  3.5679173E-02
         259  3.8461439E-02
         260 -2.6119182E-02
         261 -8.3290087E-04
         262 -1.1530885E-02
         263 -1.0959241E-02
         264  7.4413125E-03
         265 -1.5229260E-03
         266  1.6810473E-02
         267  1.4386747E-02
         268 -1.7632592E-02
         269  1.0873817E-03
         270 -2.8882190E-03
         271 -2.2240232E-03
         272  4.4829170E-03
         273 -4.1004029E-04
         274 -2.5073826E-04
         275 -9.2854435E-03
         276 -9.2269927E-03
         277  1.1064900E-02
         278 -4.8189424E-03
         279  1.3601069E-03
         280  2.4734202E-03
         281  3.3841843E-03
         282 -3.7637537E-03
         283  4.6915578E-04
         284 -5.6873197E-03
         285  8.9485208E-03
         286 -7.9620900E-03
         287 -2.9979604E-03
         288 -5.8560609E-04
         289  2.8587109E-03
         290  2.6718242E-04
         291 -5.9326249E-03
         292 -4.7379918E-02
         293  2.2934398E-04
         294  7.7692617E-04
         295  1.0277295E-03
         296  4.6728710E-03
         297  8.1933983E-02
         298  1.5951596E-04
         299  3.8575431E-04
         300  3.8024879E-04
         301 -1.0709411E-03
         302 -1.1685726E-02
         303 -2.8649729E-03
         304  1.4507059E-03
         305  3.8077656E-04
         306 -6.3491948E-03
         307 -5.9385382E-02
         308 -2.0516178E-04
         309 -1.5286178E-03
         310 -3.3547515E-03
         311 -7.0962647E-04
         312 -4.6856783E-02
         313 -2.9859954E-04
         314  5.4210337E-04
         315  2.4861790E-04
         316  6.1040389E-04
         317 -2.4162116E-04
         318 -4.6182174E-04
         319  4.9899879E-04
         320 -1.5238464E-03
         321  1.1496836E-03
         322  1.4606686E-02
         323  1.3701152E-03
         324 -2.8230794E-04
         325  1.4011700E-03
         326 -5.0521159E-04
         327 -7.7040629E-03
         328  8.0767099E-04
         329  8.5418229E-04
         330  1.9622960E-03
         331  1.6702098E-03
         332 -8.1439978E-03
         333  3.4210199E-04
         334 -3.2592292E-05
         335 -2.2106958E-03
         336 -8.8751040E-05
         337 -1.6024781E-02
         338 -1.3265730E-03
         339  3.8276415E-04
         340  2.9793780E-03
         341  2.6329578E-04
         342  1.6489184E-02
         343 -1.7131466E-03
         344  8.1921235E-04
         345  1.8370418E-03
         346 -2.5110893E-04
         347  8.1408899E-03
         348 -1.3557791E-04
         349  7.1814889E-04
         350 -1.5307489E-03
         351 -1.3468789E-03
         352 -9.3364008E-03
         353 -1.6402213E-03
         354  4.7901655E-03
         355 -3.4970762E-03
         356  6.2147761E-03
         357 -3.2946861E-03
         358  3.8980269E-03
         359 -2.0612893E-03
         360  4.3043802E-03
         361  2.3142805E-03
         362 -4.0324158E-03
 Sym= Hole
 Ene= -0.1549182    
 Spin= Alpha
 Occup= 0
           1 -3.9733204E-04
           2 -1.9288756E-02
           3 -1.8528506E-02
           4  2.6672618E-02
           5  1.0285510E-04
           6  9.6919847E-04
           7  8.9692278E-04
           8 -1.9523390E-03
           9  2.4627331E-03
          10 -8.2976623E-03
          11 -2.8117478E-03
          12  4.3887063E-03
          13 -7.9846394E-04
          14  9.7239920E-04
          15  4.7061488E-04
          16 -4.0910277E-04
          17 -7.9486417E-03
          18  2.9011866E-02
          19  1.6849179E-02
          20 -9.8777777E-03
          21  4.9505755E-03
          22 -5.0653801E-03
          23  1.7060236E-04
          24 -1.4760504E-04
          25  5.7420426E-04
          26  5.0095902E-03
          27  4.9511050E-03
          28 -1.5388588E-02
          29 -6.2855787E-04
          30  4.9067638E-04
          31  3.7202294E-04
          32  5.4391883E-03
          33  7.9161278E-04
          34 -1.4240980E-03
          35  5.4497435E-03
          36  0.1093145    
          37 -5.8643590E-04
          38 -4.0439985E-04
          39 -2.0717848E-03
          40 -1.0885606E-02
          41 -1.9579572E-03
          42 -3.7880131E-04
          43 -1.6166036E-03
          44 -5.6698907E-02
          45  8.2897570E-04
          46 -1.6792505E-05
          47  1.4138999E-04
          48  9.4670104E-03
          49 -8.3110986E-05
          50 -2.7238720E-03
          51 -2.1030353E-03
          52 -2.6010355E-02
          53 -1.2820633E-04
          54  4.9675792E-04
          55  6.6067424E-04
          56  3.2764378E-03
          57 -1.3446176E-04
          58  1.5602070E-03
          59  5.1324358E-03
          60  7.0495851E-02
          61 -6.8012683E-05
          62 -2.5294899E-04
          63  1.5278088E-04
          64 -3.8640038E-03
          65 -3.8399434E-04
          66  1.2050938E-03
          67  4.1132476E-03
          68  5.6535743E-02
          69 -4.4675118E-05
          70  1.5917757E-04
          71 -2.2612623E-04
          72 -4.8535410E-03
          73  3.2727321E-04
          74 -6.6301168E-04
          75 -5.2607353E-03
          76 -6.1858423E-02
          77 -5.4156856E-04
          78 -2.9723402E-04
          79  4.7426249E-05
          80 -2.0620683E-03
          81 -4.8307839E-04
          82  1.2286631E-03
          83 -5.4407488E-03
          84 -9.2612125E-02
          85  9.1190646E-05
          86 -5.2731426E-04
          87  4.7406068E-04
          88  5.3930082E-03
          89 -1.2447089E-03
          90  3.1769513E-03
          91  3.5955634E-03
          92  9.5886573E-02
          93 -3.7240639E-05
          94 -1.3486245E-04
          95 -8.5618143E-05
          96 -5.2870614E-03
          97  1.8747037E-03
          98  5.0366035E-04
          99  1.0747869E-02
         100  0.1420567    
         101 -1.2769299E-03
         102  6.4544869E-04
         103 -2.9301696E-04
         104 -4.8796344E-03
         105 -3.9285454E-03
         106  3.8506133E-03
         107 -4.4553448E-03
         108 -9.9002458E-02
         109  2.7344446E-03
         110 -1.3194923E-04
         111 -2.1378690E-04
         112  1.5408957E-02
         113 -1.3606474E-03
         114  2.9288882E-03
         115  4.5827322E-04
         116 -8.9736387E-02
         117  2.6309814E-03
         118 -2.6637441E-03
         119  1.0943414E-04
         120  3.0455029E-02
         121  2.9590910E-03
         122 -3.7447305E-03
         123 -2.3918236E-02
         124 -0.2363584    
         125 -1.3333857E-03
         126  1.2935775E-03
         127  2.2054152E-03
         128  1.4063164E-02
         129 -8.8757626E-04
         130  1.5947899E-03
         131  2.7668613E-03
         132 -1.8144868E-02
         133 -4.0742217E-04
         134  6.2949301E-05
         135 -9.8605081E-04
         136 -7.8249741E-03
         137  3.4101903E-03
         138 -1.8387485E-02
         139  2.6049094E-02
         140  0.3219737    
         141 -1.0952803E-03
         142  8.0615420E-05
         143 -2.8054670E-03
         144 -2.0958232E-02
         145  3.8310154E-03
         146  2.1248309E-02
         147 -6.2257689E-03
         148 -0.3212857    
         149  9.0283348E-04
         150  1.2671865E-03
         151  2.4075503E-03
         152  2.5856489E-02
         153  2.3561772E-03
         154  4.2899214E-02
         155 -7.2579375E-03
         156 -0.3455935    
         157 -9.9991681E-04
         158 -1.0340068E-03
         159  2.8906509E-04
         160  5.7116798E-03
         161 -1.1699831E-03
         162 -1.0901977E-02
         163  2.1940004E-03
         164  5.2041713E-02
         165  6.0659142E-05
         166  7.3582371E-04
         167 -4.3122875E-04
         168 -6.2364321E-03
         169 -3.5171185E-04
         170 -5.6307741E-02
         171  1.5016905E-02
         172  0.3994640    
         173  1.9323571E-04
         174  4.0414918E-04
         175 -2.7406248E-04
         176 -1.7725446E-03
         177 -1.2926609E-03
         178 -4.5715287E-02
         179  9.2976280E-03
         180  0.2396279    
         181  2.8697206E-04
         182 -1.2889474E-03
         183 -8.5518643E-04
         184 -1.5110239E-04
         185 -3.4384725E-03
         186  3.4973323E-02
         187 -1.4453128E-03
         188 -0.2234364    
         189  1.9524057E-03
         190  1.8225100E-03
         191 -8.2378183E-04
         192  1.0754651E-02
         193  1.9300657E-03
         194 -4.5468058E-03
         195  9.2706168E-03
         196 -0.1464883    
         197  6.3796999E-04
         198  7.8404316E-04
         199 -8.8707526E-04
         200 -1.1848561E-02
         201  5.2240398E-03
         202 -1.0425970E-02
         203 -8.5717700E-03
         204 -5.9986606E-02
         205 -2.2946077E-03
         206 -2.0037345E-03
         207  1.8789442E-04
         208  2.0312152E-03
         209 -4.6933186E-04
         210  3.3267234E-02
         211  7.1768677E-03
         212  0.1790111    
         213  1.2040917E-04
         214  1.2147484E-03
         215 -1.7197467E-04
         216  4.6302122E-03
         217  1.0716408E-03
         218  3.0296383E-02
         219  2.8124016E-03
         220  0.2018573    
         221 -2.4525984E-04
         222  8.5422286E-04
         223 -2.0628764E-05
         224  5.4008728E-03
         225 -2.4473874E-04
         226  3.6048619E-03
         227  1.2694347E-03
         228  1.3501737E-02
         229  1.1166215E-04
         230 -2.8231496E-04
         231 -1.2701945E-04
         232 -5.0486367E-05
         233  1.1838312E-03
         234 -2.1360198E-02
         235 -5.6379363E-03
         236 -0.1724241    
         237 -2.4601191E-04
         238 -1.0818967E-03
         239  3.9491660E-04
         240 -4.8538456E-03
         241 -5.2253613E-03
         242 -1.6505167E-02
         243  2.6165741E-03
         244 -0.1857371    
         245  1.7008455E-03
         246  2.1338678E-04
         247  1.8398464E-04
         248  4.0909043E-03
         249 -1.5970995E-04
         250  4.5504607E-03
         251  2.3505602E-03
         252  6.5802783E-02
         253 -3.9520406E-04
         254  1.5868500E-03
         255  1.0422331E-03
         256  6.6981982E-03
         257  6.3737128E-03
         258  2.1513999E-02
         259  3.0875744E-02
         260 -1.2135174E-02
         261 -4.2990064E-03
         262  3.2285266E-04
         263 -5.0643468E-03
         264  3.7785887E-04
         265 -1.6361253E-03
         266 -5.1777292E-04
         267 -4.4787484E-03
         268  3.2143833E-04
         269  8.1762183E-04
         270  4.0906941E-04
         271  1.1038440E-03
         272 -4.7080169E-04
         273  4.0431099E-04
         274  4.0735613E-06
         275 -1.2039824E-03
         276 -1.1760881E-03
         277  2.0987424E-03
         278 -5.1229727E-03
         279  3.6255698E-04
         280  6.3455931E-04
         281 -6.2565421E-05
         282  1.1991337E-04
         283  3.2549321E-03
         284  6.7327253E-04
         285 -1.5882633E-03
         286  1.7676578E-03
         287 -2.1938258E-03
         288 -1.1207231E-05
         289  1.3862185E-04
         290  6.0031802E-04
         291 -7.0680375E-04
         292 -5.0208452E-03
         293  7.7471748E-04
         294 -2.3594561E-04
         295  1.2095211E-04
         296  1.9399170E-04
         297  3.4230666E-03
         298  4.5166543E-04
         299 -6.1719154E-05
         300 -3.8291614E-06
         301  4.0468061E-04
         302  5.9889457E-03
         303  4.4277913E-04
         304 -1.0301745E-04
         305  7.8610814E-05
         306 -9.2788878E-06
         307 -2.1570362E-03
         308  3.2219861E-03
         309 -1.5673535E-03
         310  4.3723243E-04
         311  1.0838481E-03
         312 -4.9187574E-03
         313  3.6094645E-03
         314 -5.3609454E-04
         315 -1.4687977E-03
         316 -2.0692723E-04
         317  5.9623406E-03
         318  1.2959042E-03
         319 -2.0883142E-04
         320  7.7315141E-04
         321 -2.7799787E-04
         322 -3.9163628E-03
         323 -3.3722138E-03
         324  1.4140441E-04
         325  5.3572556E-04
         326 -1.9241867E-04
         327 -1.0170290E-03
         328  2.5560013E-03
         329 -3.7504177E-04
         330 -5.6133070E-04
         331  5.2594805E-05
         332 -4.0684328E-03
         333 -3.9104777E-03
         334  2.9630004E-04
         335  2.9008029E-04
         336  5.4684293E-04
         337 -3.2927070E-03
         338  1.3342948E-03
         339  1.0418902E-05
         340 -1.2709282E-03
         341 -3.5190035E-04
         342 -8.3004888E-03
         343  9.8134857E-04
         344 -1.9889037E-04
         345 -5.7691493E-04
         346 -1.2198577E-04
         347 -2.3986674E-03
         348 -2.9153528E-03
         349  2.0381141E-05
         350  4.8863457E-04
         351  1.9249450E-04
         352  5.1473989E-03
         353 -4.3645045E-03
         354  7.4576319E-04
         355 -1.3227961E-03
         356 -3.0545085E-03
         357 -3.2166741E-03
         358  5.8960486E-03
         359  1.0130291E-05
         360 -4.3108012E-04
         361  7.7418488E-04
         362  2.2779692E-04
 Sym= Particle
 Ene= -0.1549182    
 Spin= Alpha
 Occup= 2
           1 -3.7002668E-04
           2  2.4329298E-03
           3  2.0866718E-03
           4  3.5070529E-04
           5  4.4806035E-05
           6 -2.2751084E-03
           7 -1.5856447E-03
           8  1.6100900E-03
           9  2.4047671E-03
          10 -7.1855849E-03
          11 -3.0380415E-03
          12  5.9105651E-03
          13 -1.3653910E-03
          14  2.2140921E-03
          15  1.6856024E-03
          16 -1.8667943E-03
          17 -7.4394126E-03
          18  1.3106906E-02
          19  4.1559748E-03
          20  2.7498745E-03
          21  4.7136201E-03
          22 -3.3701875E-03
          23  2.7544114E-03
          24 -2.4697816E-03
          25  1.7981916E-05
          26  1.2106162E-02
          27  1.1040900E-02
          28 -1.6020041E-02
          29 -1.0723362E-03
          30 -3.6459358E-03
          31 -4.0431721E-03
          32  1.0251190E-02
          33 -3.7196247E-04
          34  1.6522051E-03
          35  6.5322029E-03
          36  9.8924570E-02
          37 -4.2519827E-05
          38 -6.0438291E-05
          39 -3.6486107E-04
          40 -2.5120467E-02
          41 -1.1376810E-03
          42 -6.0661865E-04
          43  5.8073574E-04
          44 -1.9650998E-02
          45  1.3496120E-03
          46  3.3448689E-04
          47 -1.0586535E-03
          48  1.4341358E-02
          49 -6.6647161E-05
          50 -2.3072460E-03
          51 -4.0473342E-03
          52 -6.0388286E-02
          53  4.2426845E-04
          54  7.5630326E-04
          55  6.8869784E-05
          56  8.1007760E-03
          57 -1.7656953E-04
          58  6.7966501E-04
          59  2.5187412E-03
          60  3.6633320E-02
          61  5.2606541E-04
          62 -1.9098257E-05
          63 -5.6587369E-04
          64 -7.5582666E-03
          65 -1.9228042E-04
          66  6.4170425E-04
          67  2.7613016E-03
          68  4.4427484E-02
          69  4.7233450E-04
          70 -1.7611908E-04
          71 -6.0403085E-04
          72 -1.0092536E-02
          73  1.0891831E-04
          74 -4.1107732E-04
          75 -4.1214055E-03
          76 -5.8976028E-02
          77 -2.2064534E-04
          78  3.1397102E-04
          79  8.8344904E-04
          80  8.2313064E-03
          81 -2.5666642E-04
          82  1.4092611E-03
          83  7.6658536E-05
          84 -7.2835260E-03
          85 -4.3464173E-04
          86  1.5563708E-04
          87 -2.6480027E-04
          88  3.5294634E-03
          89  2.1546576E-03
          90 -2.2402494E-03
          91  5.4225270E-03
          92  9.1554724E-02
          93 -1.9662227E-03
          94  9.6890383E-04
          95 -1.6816241E-03
          96 -2.1510679E-02
          97 -4.5767459E-03
          98  5.1689087E-03
          99  3.9090333E-03
         100  1.1399264E-02
         101  3.4324662E-03
         102 -2.5106578E-03
         103 -7.3919992E-04
         104  2.3865115E-02
         105  2.2555485E-05
         106  3.7629311E-03
         107  9.4524625E-04
         108  9.0520240E-02
         109 -9.3201589E-04
         110 -1.8960662E-03
         111  2.2768611E-03
         112 -2.9648369E-02
         113  5.5130869E-03
         114 -4.3596621E-03
         115  2.3409318E-02
         116  0.2956653    
         117 -5.8509274E-03
         118  2.7304790E-03
         119 -8.5784672E-03
         120 -0.1061448    
         121 -3.5894471E-03
         122  3.9789360E-03
         123 -1.5679428E-02
         124 -0.1592147    
         125  7.9125905E-04
         126 -3.5079906E-03
         127  5.3880564E-03
         128  5.2351333E-02
         129  3.7457235E-03
         130  1.7709134E-03
         131 -8.6750071E-03
         132 -0.1050160    
         133 -3.9645582E-03
         134 -1.9456201E-03
         135  2.9466895E-03
         136  2.6524901E-02
         137 -5.1434692E-03
         138  1.6017791E-02
         139 -1.9594224E-02
         140 -0.1741060    
         141  5.0085112E-03
         142 -9.0429941E-03
         143  1.0940701E-02
         144  8.6072899E-02
         145  1.2769589E-02
         146 -1.0612445E-02
         147  1.5783554E-02
         148  0.1285113    
         149 -1.2047052E-02
         150  2.3310941E-03
         151 -8.8932281E-03
         152 -3.5053864E-02
         153 -1.9083557E-03
         154 -3.5769988E-02
         155  2.8807807E-03
         156  0.2909908    
         157 -3.2719693E-04
         158  1.1011943E-02
         159 -7.7368511E-04
         160 -7.7858515E-02
         161  5.3916813E-04
         162  4.2423740E-02
         163 -1.3203972E-02
         164 -0.3365707    
         165 -1.3448056E-03
         166 -9.1755772E-03
         167  3.5084833E-03
         168  8.3749063E-02
         169  2.9860563E-03
         170  8.2228919E-03
         171 -2.5504373E-03
         172 -5.4204166E-02
         173 -3.7757091E-03
         174 -2.8475360E-03
         175  7.2827161E-04
         176  1.4376757E-02
         177  1.4104482E-03
         178 -6.2121317E-02
         179  1.5791517E-02
         180  0.3557669    
         181 -1.9009294E-03
         182  1.4873025E-02
         183 -3.2068274E-03
         184 -8.0871962E-02
         185 -3.1263910E-03
         186  2.8925054E-02
         187 -3.3832337E-03
         188 -0.2075990    
         189 -8.3356799E-04
         190 -1.1739730E-02
         191  1.8780235E-03
         192  5.3612359E-02
         193 -4.6126265E-04
         194 -2.4979254E-03
         195  3.3488519E-02
         196 -0.4529504    
         197 -1.5880869E-03
         198  3.9112355E-04
         199 -2.1902928E-03
         200  3.5346661E-02
         201  4.7139390E-03
         202 -1.6826821E-02
         203 -5.0414442E-03
         204 -0.1185052    
         205 -3.0361400E-03
         206  6.1149900E-03
         207  3.2803197E-03
         208  2.1007773E-02
         209 -5.1549560E-04
         210  4.3963645E-02
         211  8.5147917E-03
         212  0.2244364    
         213 -2.5028654E-04
         214 -8.2724551E-03
         215 -7.8862498E-04
         216 -4.2271730E-02
         217 -1.2244645E-03
         218 -3.4388106E-03
         219 -1.2144997E-03
         220 -1.7907990E-02
         221  1.3653790E-03
         222  2.6913437E-03
         223  6.8119919E-04
         224  8.5363835E-03
         225 -3.3513529E-04
         226 -2.8543722E-02
         227 -5.4113739E-03
         228 -0.2166120    
         229  6.5463298E-04
         230  4.8795273E-03
         231  6.5751321E-04
         232  4.3367468E-02
         233  2.0249416E-03
         234  1.7248120E-02
         235 -1.6250227E-03
         236  0.1221213    
         237 -7.3035556E-04
         238 -4.0213033E-03
         239  5.8966910E-04
         240 -2.1507239E-02
         241 -8.1220260E-03
         242  2.1390740E-02
         243  1.2585121E-02
         244  0.1631289    
         245  6.2832790E-03
         246 -6.6541512E-03
         247 -6.1181672E-03
         248 -3.8687058E-02
         249  2.1273706E-03
         250 -9.5655955E-03
         251 -9.5868614E-03
         252 -8.9106783E-02
         253 -2.4518229E-03
         254  5.3732404E-03
         255  4.4128136E-03
         256  2.7931148E-02
         257  5.2480106E-03
         258  7.5893407E-03
         259  1.4314322E-02
         260  4.5074546E-03
         261 -2.9788648E-03
         262 -4.4792681E-04
         263 -4.6198750E-03
         264 -2.8864529E-03
         265 -1.4981234E-03
         266 -3.2674605E-03
         267 -4.8814774E-03
         268  4.7039809E-03
         269  6.9638487E-04
         270  3.1905519E-03
         271  2.9310223E-03
         272 -1.6400284E-03
         273  6.8375428E-04
         274  1.9840054E-04
         275  1.0853524E-03
         276  1.7687732E-03
         277 -1.2271703E-03
         278 -3.1695871E-03
         279  1.2366730E-03
         280 -2.1661730E-03
         281 -8.6419581E-04
         282  1.4043741E-03
         283  2.3837194E-03
         284  1.3765650E-03
         285 -4.2503420E-03
         286 -7.2200067E-04
         287  1.2784154E-03
         288  6.6050491E-04
         289  4.9320969E-04
         290 -2.0311995E-04
         291 -1.1746746E-03
         292 -9.3140230E-03
         293  6.3584495E-04
         294  4.1560447E-04
         295  3.0284631E-04
         296  5.1729783E-04
         297  7.4065709E-03
         298  3.6806351E-04
         299  5.4105400E-04
         300  2.2844582E-04
         301  6.0670357E-04
         302  9.8653669E-03
         303  9.2779053E-04
         304  6.8991489E-05
         305  6.3686297E-05
         306 -1.6722869E-04
         307 -1.6590836E-02
         308  1.0882680E-04
         309 -3.0736291E-04
         310 -4.1365246E-03
         311 -4.3838830E-03
         312 -4.9801420E-02
         313 -1.5623443E-03
         314  1.2659269E-03
         315 -5.3657470E-03
         316  4.1942848E-03
         317  4.7890261E-02
         318 -1.8844786E-03
         319 -2.4672455E-04
         320  8.9861536E-03
         321 -2.4582567E-03
         322 -6.8074644E-02
         323 -6.0826745E-03
         324  9.9808339E-04
         325  3.9180722E-03
         326 -1.7032656E-04
         327 -1.2674931E-02
         328 -4.4692117E-03
         329 -4.2335334E-04
         330 -7.1947402E-03
         331 -1.9366960E-03
         332  6.6454619E-02
         333  1.9018524E-03
         334  2.2626258E-03
         335  4.6510878E-03
         336 -5.3300285E-03
         337  3.9139934E-02
         338  4.2266175E-03
         339 -1.0344351E-03
         340 -1.5853014E-03
         341  6.1593269E-04
         342 -7.0716813E-03
         343  1.1374196E-03
         344  2.8308434E-04
         345 -5.5237780E-03
         346 -1.3165256E-03
         347 -4.0173352E-02
         348 -3.0781847E-04
         349 -3.0978044E-04
         350  2.3775138E-03
         351  1.6350121E-03
         352  1.8812796E-02
         353 -1.3493848E-03
         354  2.6570107E-03
         355 -8.8801384E-03
         356 -3.2259461E-03
         357  4.4835331E-03
         358  4.1069621E-03
         359 -1.0070002E-03
         360 -2.8426703E-05
         361 -4.7071773E-04
         362  1.4475929E-03
