 [Molden Format]
 [Atoms] Angs
O       1      8     -3.11773325      4.14404717     -0.82290070
C       2      6     -2.60221186      3.37192804     -0.05335403
C       3      6     -1.57765284      2.38462234     -0.39791441
C       4      6     -1.15919127      2.24665115     -1.66868577
C       5      6     -0.16537594      1.24034690     -2.11019545
C       6      6      0.49156365      0.40867821     -0.98585660
C       7      6      0.56089511     -1.03302975     -1.42939303
C       8      6      1.55233883     -1.41471434     -2.32834678
C       9      6      1.64167341     -2.71160061     -2.79590671
C      10      6      0.71785734     -3.65920198     -2.38681516
C      11      6     -0.29627106     -3.29139236     -1.52431832
C      12      6     -0.38159713     -1.98826453     -1.04238203
N      13      7     -1.45520483     -1.63894744     -0.17318855
C      14      6     -1.40561818     -2.06548682      1.15201735
C      15      6     -0.39834506     -2.93550945      1.57400408
C      16      6     -0.31951496     -3.37036230      2.88558452
C      17      6     -1.25182353     -2.95517113      3.81684994
C      18      6     -2.24721648     -2.07845810      3.42251402
C      19      6     -2.31749239     -1.62476660      2.11567454
S      20     16     -3.56209384     -0.41163909      1.77440081
C      21      6     -3.54743634     -0.37546847      0.00584428
C      22      6     -4.58231872      0.31001689     -0.60777123
C      23      6     -4.65665627      0.39047757     -1.98649571
C      24      6     -3.70608507     -0.26158864     -2.74811824
C      25      6     -2.67748303     -0.95645090     -2.13685874
C      26      6     -2.55279533     -1.00056832     -0.74809560
P      27     15      2.26845531      1.06814002     -0.80021245
O      28      8      2.77698526      1.68229120     -2.03412912
C      29      6      2.13033510      2.28338210      0.54999853
C      30      6      1.73703865      3.56087180      0.17305729
C      31      6      1.56413112      4.54356104      1.12968003
C      32      6      1.79431832      4.25221737      2.46448921
C      33      6      2.20351311      2.98266085      2.83932979
C      34      6      2.36948314      1.99425318      1.88565978
C      35      6      3.32541347     -0.28312291     -0.18350043
C      36      6      2.93278856     -1.25041674      0.73262531
C      37      6      3.82872448     -2.22718927      1.12718577
C      38      6      5.11672169     -2.24242175      0.61647264
C      39      6      5.51169225     -1.27753344     -0.29519230
C      40      6      4.61697628     -0.30124418     -0.69387507
C      41      6     -0.13393988      0.59169991      0.35851158
C      42      6     -1.04040182      1.52532181      0.63819160
H      43      1     -2.89171155      3.35680937      1.01668712
H      44      1     -1.58775700      2.87543946     -2.43718227
H      45      1     -0.66433939      0.57699151     -2.82725281
H      46      1      0.62741818      1.74518657     -2.67856328
H      47      1      2.25898994     -0.67321299     -2.67179750
H      48      1      2.42843056     -2.98097620     -3.48365712
H      49      1      0.77700359     -4.67432734     -2.74862279
H      50      1     -1.04329150     -4.00851769     -1.21539938
H      51      1      0.34251801     -3.27354892      0.86602633
H      52      1      0.47785688     -4.03997242      3.17098856
H      53      1     -1.20331398     -3.29575463      4.83895440
H      54      1     -2.97689554     -1.71739644      4.13113145
H      55      1     -5.32311705      0.79021978      0.01319245
H      56      1     -5.45360994      0.94659087     -2.45307115
H      57      1     -3.75838356     -0.23661035     -3.82600156
H      58      1     -1.95540935     -1.47759764     -2.74749920
H      59      1      1.57867192      3.77267284     -0.87457690
H      60      1      1.25119973      5.53454964      0.83625940
H      61      1      1.66111215      5.01773482      3.21461984
H      62      1      2.39284730      2.76138881      3.87963670
H      63      1      2.69138808      1.00495471      2.17806225
H      64      1      1.93090517     -1.25704525      1.13382400
H      65      1      3.51889371     -2.98032339      1.83703271
H      66      1      5.81082262     -3.00862082      0.92864728
H      67      1      6.51464048     -1.28761010     -0.69545843
H      68      1      4.89992165      0.45572497     -1.41133569
H      69      1      0.25311861     -0.03272851      1.15119060
H      70      1     -1.41107408      1.65266443      1.64453419
 [GTO]
           1   0
s              4   1.000000
     72.85283572     -0.01198412
     12.54586114     -0.05472052
      1.00811347      0.58055871
      0.38421700      0.47700799
p              4   1.000000
      7.51278688      0.05713170
      1.94795345      0.28574555
      0.68671387      0.55178731
      0.27339263      0.26323149
s              7   1.000000
      0.57971233     -0.18809437
      0.07115450      0.90880287
      0.03359728      0.23866542
     72.85283572      0.00403579
     12.54586114      0.01842778
      1.00811347     -0.19550999
      0.38421700     -0.16063807
p              7   1.000000
      2.76717072     -0.01186398
      0.15304476      0.58301421
      0.05897927      0.60887175
      7.51278688     -0.02845822
      1.94795345     -0.14233445
      0.68671387     -0.27485413
      0.27339263     -0.13111984
 
           2   0
s              4   1.000000
     34.78502421     -0.01198412
      5.99026900     -0.05472053
      0.48134367      0.58055871
      0.18345199      0.47700799
p              4   1.000000
      5.60651540      0.05713170
      1.45368572      0.28574555
      0.51246920      0.55178731
      0.20402282      0.26323149
s              7   1.000000
      0.38350848     -0.19637264
      0.04707223      0.94880044
      0.02222627      0.24916940
     34.78502421      0.00553830
      5.99026900      0.02528835
      0.48134367     -0.26829740
      0.18345199     -0.22044283
p              7   1.000000
      1.83062075     -0.01161942
      0.10124670      0.57099599
      0.03901771      0.59632051
      5.60651540     -0.02537012
      1.45368572     -0.12688927
      0.51246920     -0.24502879
      0.20402282     -0.11689158
 
           3   0
s              4   1.000000
     34.93101849     -0.01198412
      6.01541042     -0.05472053
      0.48336389      0.58055871
      0.18422194      0.47700799
p              4   1.000000
      5.63004619      0.05713170
      1.45978691      0.28574555
      0.51462006      0.55178731
      0.20487911      0.26323149
s              7   1.000000
      0.38350848     -0.19623496
      0.04707223      0.94813519
      0.02222627      0.24899471
     34.93101849      0.00551620
      6.01541042      0.02518744
      0.48336389     -0.26722672
      0.18422194     -0.21956312
p              7   1.000000
      1.83062075     -0.01161176
      0.10124670      0.57061989
      0.03901771      0.59592772
      5.63004619     -0.02526850
      1.45978691     -0.12638098
      0.51462006     -0.24404727
      0.20487911     -0.11642335
 
           4   0
s              4   1.000000
     34.96719676     -0.01198412
      6.02164062     -0.05472053
      0.48386452      0.58055871
      0.18441274      0.47700800
p              4   1.000000
      5.63587726      0.05713170
      1.46129882      0.28574555
      0.51515305      0.55178731
      0.20509131      0.26323149
s              7   1.000000
      0.38350848     -0.19620107
      0.04707223      0.94797149
      0.02222627      0.24895171
     34.96719676      0.00551075
      6.02164062      0.02516255
      0.48386452     -0.26696270
      0.18441274     -0.21934619
p              7   1.000000
      1.83062075     -0.01160988
      0.10124670      0.57052733
      0.03901771      0.59583103
      5.63587726     -0.02524344
      1.46129882     -0.12625563
      0.51515305     -0.24380522
      0.20509131     -0.11630788
 
           5   0
s              4   1.000000
     37.36665549     -0.01198412
      6.43484727     -0.05472053
      0.51706743      0.58055871
      0.19706720      0.47700799
p              4   1.000000
      6.02261272      0.05713170
      1.56157355      0.28574555
      0.55050300      0.55178731
      0.21916473      0.26323149
s              7   1.000000
      0.38350848     -0.19414630
      0.04707223      0.93804358
      0.02222627      0.24634449
     37.36665549      0.00517138
      6.43484727      0.02361296
      0.51706743     -0.25052229
      0.19706720     -0.20583815
p              7   1.000000
      1.83062075     -0.01149567
      0.10124670      0.56491504
      0.03901771      0.58996985
      6.02261272     -0.02368238
      1.56157355     -0.11844796
      0.55050300     -0.22872826
      0.21916473     -0.10911538
 
           6   0
s              4   1.000000
     37.14592870     -0.01198412
      6.39683629     -0.05472053
      0.51401309      0.58055871
      0.19590311      0.47700799
p              4   1.000000
      5.98703683      0.05713170
      1.55234925      0.28574555
      0.54725115      0.55178731
      0.21787011      0.26323149
s              7   1.000000
      0.38350848     -0.19432061
      0.04707223      0.93888578
      0.02222627      0.24656567
     37.14592870      0.00520088
      6.39683629      0.02374769
      0.51401309     -0.25195170
      0.19590311     -0.20701261
p              7   1.000000
      1.83062075     -0.01150536
      0.10124670      0.56539108
      0.03901771      0.59046702
      5.98703683     -0.02381814
      1.55234925     -0.11912700
      0.54725115     -0.23003952
      0.21787011     -0.10974092
 
           7   0
s              4   1.000000
     35.47786942     -0.01198412
      6.10958268     -0.05472052
      0.49093104      0.58055871
      0.18710597      0.47700800
p              4   1.000000
      5.71818550      0.05713170
      1.48264011      0.28574555
      0.52267652      0.55178731
      0.20808653      0.26323149
s              7   1.000000
      0.38350848     -0.19573259
      0.04707223      0.94570794
      0.02222627      0.24835726
     35.47786942      0.00543493
      6.10958268      0.02481635
      0.49093104     -0.26328970
      0.18710597     -0.21632832
p              7   1.000000
      1.83062075     -0.01158384
      0.10124670      0.56924761
      0.03901771      0.59449457
      5.71818550     -0.02489476
      1.48264011     -0.12451175
      0.52267652     -0.24043770
      0.20808653     -0.11470139
 
           8   0
s              4   1.000000
     35.15219366     -0.01198412
      6.05349862     -0.05472052
      0.48642444      0.58055871
      0.18538840      0.47700800
p              4   1.000000
      5.66569435      0.05713170
      1.46902994      0.28574555
      0.51787851      0.55178731
      0.20617636      0.26323149
s              7   1.000000
      0.38350848     -0.19602927
      0.04707223      0.94714137
      0.02222627      0.24873370
     35.15219366      0.00548304
      6.05349862      0.02503605
      0.48642444     -0.26562057
      0.18538840     -0.21824345
p              7   1.000000
      1.83062075     -0.01160033
      0.10124670      0.57005801
      0.03901771      0.59534091
      5.66569435     -0.02511604
      1.46902994     -0.12561844
      0.51787851     -0.24257477
      0.20617636     -0.11572089
 
           9   0
s              4   1.000000
     34.92209945     -0.01198412
      6.01387449     -0.05472052
      0.48324048      0.58055871
      0.18417491      0.47700800
p              4   1.000000
      5.62860865      0.05713170
      1.45941418      0.28574555
      0.51448866      0.55178731
      0.20482680      0.26323149
s              7   1.000000
      0.38350848     -0.19624333
      0.04707223      0.94817562
      0.02222627      0.24900531
     34.92209945      0.00551754
      6.01387449      0.02519358
      0.48324048     -0.26729189
      0.18417491     -0.21961667
p              7   1.000000
      1.83062075     -0.01161223
      0.10124670      0.57064274
      0.03901771      0.59595159
      5.62860865     -0.02527468
      1.45941418     -0.12641192
      0.51448866     -0.24410701
      0.20482680     -0.11645185
 
          10   0
s              4   1.000000
     34.91805782     -0.01198412
      6.01317849     -0.05472052
      0.48318455      0.58055871
      0.18415359      0.47700800
p              4   1.000000
      5.62795724      0.05713170
      1.45924527      0.28574555
      0.51442911      0.55178731
      0.20480309      0.26323149
s              7   1.000000
      0.38350848     -0.19624712
      0.04707223      0.94819395
      0.02222627      0.24901014
     34.91805782      0.00551815
      6.01317849      0.02519636
      0.48318455     -0.26732143
      0.18415359     -0.21964094
p              7   1.000000
      1.83062075     -0.01161244
      0.10124670      0.57065310
      0.03901771      0.59596239
      5.62795724     -0.02527749
      1.45924527     -0.12642594
      0.51442911     -0.24413409
      0.20480309     -0.11646477
 
          11   0
s              4   1.000000
     35.02167220     -0.01198412
      6.03102175     -0.05472053
      0.48461833      0.58055871
      0.18470004      0.47700799
p              4   1.000000
      5.64465740      0.05713170
      1.46357538      0.28574555
      0.51595561      0.55178731
      0.20541082      0.26323149
s              7   1.000000
      0.38350848     -0.19615023
      0.04707223      0.94772584
      0.02222627      0.24888719
     35.02167220      0.00550256
      6.03102175      0.02512517
      0.48461833     -0.26656611
      0.18470004     -0.21902033
p              7   1.000000
      1.83062075     -0.01160705
      0.10124670      0.57038845
      0.03901771      0.59568600
      5.64465740     -0.02520579
      1.46357538     -0.12606735
      0.51595561     -0.24344164
      0.20541082     -0.11613443
 
          12   0
s              4   1.000000
     35.33183476     -0.01198412
      6.08443430     -0.05472052
      0.48891026      0.58055871
      0.18633580      0.47700799
p              4   1.000000
      5.69464820      0.05713170
      1.47653724      0.28574555
      0.52052507      0.55178731
      0.20723000      0.26323149
s              7   1.000000
      0.38350848     -0.19586472
      0.04707223      0.94634635
      0.02222627      0.24852491
     35.33183476      0.00545640
      6.08443430      0.02491440
      0.48891026     -0.26432990
      0.18633580     -0.21718299
p              7   1.000000
      1.83062075     -0.01159118
      0.10124670      0.56960854
      0.03901771      0.59487150
      5.69464820     -0.02499351
      1.47653724     -0.12500565
      0.52052507     -0.24139144
      0.20723000     -0.11515638
 
          13   0
s              4   1.000000
     61.25852339     -0.01198412
     10.54922462     -0.05472052
      0.84767521      0.58055871
      0.32307000      0.47700800
p              4   1.000000
      7.22066320      0.05713170
      1.87221014      0.28574555
      0.66001201      0.55178731
      0.26276215      0.26323149
s              7   1.000000
      0.47894987     -0.18776580
      0.05878681      0.90721536
      0.02775758      0.23824853
     61.25852339      0.00396604
     10.54922462      0.01810927
      0.84767521     -0.19213077
      0.32307000     -0.15786158
p              7   1.000000
      2.28619608     -0.01156439
      0.12644335      0.56829192
      0.04872781      0.59349647
      7.22066320     -0.02463168
      1.87221014     -0.12319591
      0.66001201     -0.23789675
      0.26276215     -0.11348923
 
          14   0
s              4   1.000000
     35.31882526     -0.01198412
      6.08219396     -0.05472053
      0.48873024      0.58055871
      0.18626719      0.47700800
p              4   1.000000
      5.69255138      0.05713170
      1.47599357      0.28574555
      0.52033341      0.55178731
      0.20715370      0.26323149
s              7   1.000000
      0.38350848     -0.19587656
      0.04707223      0.94640356
      0.02222627      0.24853995
     35.31882526      0.00545832
      6.08219396      0.02492317
      0.48873024     -0.26442296
      0.18626719     -0.21725945
p              7   1.000000
      1.83062075     -0.01159184
      0.10124670      0.56964088
      0.03901771      0.59490528
      5.69255138     -0.02500235
      1.47599357     -0.12504983
      0.52033341     -0.24147676
      0.20715370     -0.11519708
 
          15   0
s              4   1.000000
     35.05668302     -0.01198412
      6.03705090     -0.05472053
      0.48510280      0.58055871
      0.18488468      0.47700799
p              4   1.000000
      5.65030031      0.05713170
      1.46503850      0.28574555
      0.51647141      0.55178731
      0.20561617      0.26323149
s              7   1.000000
      0.38350848     -0.19611767
      0.04707223      0.94756849
      0.02222627      0.24884587
     35.05668302      0.00549731
      6.03705090      0.02510120
      0.48510280     -0.26631183
      0.18488468     -0.21881141
p              7   1.000000
      1.83062075     -0.01160524
      0.10124670      0.57029949
      0.03901771      0.59559311
      5.65030031     -0.02518165
      1.46503850     -0.12594663
      0.51647141     -0.24320852
      0.20561617     -0.11602322
 
          16   0
s              4   1.000000
     34.92173423     -0.01198412
      6.01381160     -0.05472053
      0.48323542      0.58055871
      0.18417298      0.47700799
p              4   1.000000
      5.62854979      0.05713170
      1.45939891      0.28574555
      0.51448328      0.55178731
      0.20482466      0.26323149
s              7   1.000000
      0.38350848     -0.19624367
      0.04707223      0.94817728
      0.02222627      0.24900575
     34.92173423      0.00551760
      6.01381160      0.02519383
      0.48323542     -0.26729456
      0.18417298     -0.21961886
p              7   1.000000
      1.83062075     -0.01161225
      0.10124670      0.57064368
      0.03901771      0.59595256
      5.62854979     -0.02527494
      1.45939891     -0.12641318
      0.51448328     -0.24410946
      0.20482466     -0.11645302
 
          17   0
s              4   1.000000
     34.91406522     -0.01198412
      6.01249093     -0.05472052
      0.48312930      0.58055871
      0.18413254      0.47700800
p              4   1.000000
      5.62731373      0.05713170
      1.45907842      0.28574555
      0.51437029      0.55178731
      0.20477968      0.26323149
s              7   1.000000
      0.38350848     -0.19625087
      0.04707223      0.94821207
      0.02222627      0.24901489
     34.91406522      0.00551875
      6.01249093      0.02519912
      0.48312930     -0.26735062
      0.18413254     -0.21966492
p              7   1.000000
      1.83062075     -0.01161265
      0.10124670      0.57066335
      0.03901771      0.59597311
      5.62731373     -0.02528026
      1.45907842     -0.12643980
      0.51437029     -0.24416085
      0.20477968     -0.11647753
 
          18   0
s              4   1.000000
     35.18353244     -0.01198412
      6.05889542     -0.05472053
      0.48685810      0.58055871
      0.18555367      0.47700799
p              4   1.000000
      5.67074541      0.05713170
      1.47033961      0.28574555
      0.51834021      0.55178731
      0.20636017      0.26323149
s              7   1.000000
      0.38350848     -0.19600040
      0.04707223      0.94700189
      0.02222627      0.24869707
     35.18353244      0.00547838
      6.05889542      0.02501474
      0.48685810     -0.26539453
      0.18555367     -0.21805772
p              7   1.000000
      1.83062075     -0.01159873
      0.10124670      0.56997915
      0.03901771      0.59525858
      5.67074541     -0.02509458
      1.47033961     -0.12551112
      0.51834021     -0.24236753
      0.20636017     -0.11562202
 
          19   0
s              4   1.000000
     35.04550661     -0.01198412
      6.03512623     -0.05472053
      0.48494814      0.58055871
      0.18482574      0.47700799
p              4   1.000000
      5.64849894      0.05713170
      1.46457143      0.28574555
      0.51630675      0.55178731
      0.20555061      0.26323149
s              7   1.000000
      0.38350848     -0.19612805
      0.04707223      0.94761868
      0.02222627      0.24885906
     35.04550661      0.00549899
      6.03512623      0.02510885
      0.48494814     -0.26639295
      0.18482574     -0.21887807
p              7   1.000000
      1.83062075     -0.01160582
      0.10124670      0.57032785
      0.03901771      0.59562273
      5.64849894     -0.02518935
      1.46457143     -0.12598514
      0.51630675     -0.24328289
      0.20555061     -0.11605870
 
          20   0
s              4   1.000000
     12.19800546     -0.03295496
      3.43587855     -0.17245169
      0.61610645      0.75185111
      0.30312689      0.35896273
p              4   1.000000
      7.04356922     -0.01434249
      0.72788216      0.27551776
      0.32897787      0.58467508
      0.15903516      0.21449865
s              7   1.000000
      0.16124732     -0.33765105
      0.03162593      1.06540997
      0.01560824      0.12669663
     12.19800546      0.00422894
      3.43587855      0.02212985
      0.61610645     -0.09648122
      0.30312689     -0.04606385
p              7   1.000000
      0.34551743     -0.06467838
      0.05282782      0.69479410
      0.02597475      0.41373467
      7.04356922      0.00468752
      0.72788216     -0.09004675
      0.32897787     -0.19108783
      0.15903516     -0.07010403
 
          21   0
s              4   1.000000
     35.05534043     -0.01198412
      6.03681969     -0.05472052
      0.48508422      0.58055871
      0.18487760      0.47700800
p              4   1.000000
      5.65008392      0.05713170
      1.46498239      0.28574555
      0.51645163      0.55178731
      0.20560829      0.26323149
s              7   1.000000
      0.38350848     -0.19611891
      0.04707223      0.94757451
      0.02222627      0.24884746
     35.05534043      0.00549751
      6.03681969      0.02510212
      0.48508422     -0.26632157
      0.18487760     -0.21881942
p              7   1.000000
      1.83062075     -0.01160531
      0.10124670      0.57030289
      0.03901771      0.59559667
      5.65008392     -0.02518258
      1.46498239     -0.12595126
      0.51645163     -0.24321745
      0.20560829     -0.11602748
 
          22   0
s              4   1.000000
     35.18586710     -0.01198412
      6.05929747     -0.05472052
      0.48689041      0.58055871
      0.18556598      0.47700800
p              4   1.000000
      5.67112170      0.05713170
      1.47043717      0.28574555
      0.51837461      0.55178731
      0.20637386      0.26323149
s              7   1.000000
      0.38350848     -0.19599825
      0.04707223      0.94699152
      0.02222627      0.24869436
     35.18586710      0.00547803
      6.05929747      0.02501316
      0.48689041     -0.26537770
      0.18556598     -0.21804390
p              7   1.000000
      1.83062075     -0.01159861
      0.10124670      0.56997329
      0.03901771      0.59525243
      5.67112170     -0.02509298
      1.47043717     -0.12550313
      0.51837461     -0.24235210
      0.20637386     -0.11561466
 
          23   0
s              4   1.000000
     34.91992699     -0.01198412
      6.01350038     -0.05472052
      0.48321041      0.58055871
      0.18416345      0.47700799
p              4   1.000000
      5.62825851      0.05713170
      1.45932339      0.28574555
      0.51445665      0.55178731
      0.20481406      0.26323149
s              7   1.000000
      0.38350848     -0.19624536
      0.04707223      0.94818547
      0.02222627      0.24900789
     34.91992699      0.00551787
      6.01350038      0.02519508
      0.48321041     -0.26730777
      0.18416345     -0.21962971
p              7   1.000000
      1.83062075     -0.01161234
      0.10124670      0.57064831
      0.03901771      0.59595738
      5.62825851     -0.02527619
      1.45932339     -0.12641946
      0.51445665     -0.24412157
      0.20481406     -0.11645879
 
          24   0
s              4   1.000000
     34.92561501     -0.01198412
      6.01447990     -0.05472052
      0.48328912      0.58055871
      0.18419345      0.47700799
p              4   1.000000
      5.62917528      0.05713170
      1.45956109      0.28574555
      0.51454045      0.55178731
      0.20484742      0.26323149
s              7   1.000000
      0.38350848     -0.19624003
      0.04707223      0.94815969
      0.02222627      0.24900112
     34.92561501      0.00551701
      6.01447990      0.02519116
      0.48328912     -0.26726620
      0.18419345     -0.21959556
p              7   1.000000
      1.83062075     -0.01161205
      0.10124670      0.57063373
      0.03901771      0.59594217
      5.62917528     -0.02527224
      1.45956109     -0.12639972
      0.51454045     -0.24408346
      0.20484742     -0.11644061
 
          25   0
s              4   1.000000
     35.07090082     -0.01198412
      6.03949932     -0.05472052
      0.48529954      0.58055871
      0.18495967      0.47700799
p              4   1.000000
      5.65259188      0.05713170
      1.46563267      0.28574555
      0.51668087      0.55178731
      0.20569956      0.26323149
s              7   1.000000
      0.38350848     -0.19610447
      0.04707223      0.94750472
      0.02222627      0.24882913
     35.07090082      0.00549518
      6.03949932      0.02509148
      0.48529954     -0.26620871
      0.18495967     -0.21872668
p              7   1.000000
      1.83062075     -0.01160451
      0.10124670      0.57026342
      0.03901771      0.59555545
      5.65259188     -0.02517186
      1.46563267     -0.12589767
      0.51668087     -0.24311398
      0.20569956     -0.11597812
 
          26   0
s              4   1.000000
     35.34974201     -0.01198412
      6.08751808     -0.05472053
      0.48915805      0.58055871
      0.18643024      0.47700800
p              4   1.000000
      5.69753442      0.05713170
      1.47728560      0.28574555
      0.52078889      0.55178731
      0.20733503      0.26323149
s              7   1.000000
      0.38350848     -0.19584844
      0.04707223      0.94626769
      0.02222627      0.24850426
     35.34974201      0.00545376
      6.08751808      0.02490234
      0.48915805     -0.26420192
      0.18643024     -0.21707783
p              7   1.000000
      1.83062075     -0.01159028
      0.10124670      0.56956407
      0.03901771      0.59482505
      5.69753442     -0.02498136
      1.47728560     -0.12494488
      0.52078889     -0.24127409
      0.20733503     -0.11510040
 
          27   0
s              4   1.000000
      4.54315136     -0.03295496
      1.27969416     -0.17245169
      0.22946906      0.75185111
      0.11289971      0.35896273
p              4   1.000000
      8.27111421     -0.01434249
      0.85473661      0.27551776
      0.38631174      0.58467508
      0.18675162      0.21449865
s              7   1.000000
      0.13262137     -0.35396884
      0.02601144      1.11689844
      0.01283734      0.13281956
      4.54315136      0.01127655
      1.27969416      0.05900965
      0.22946906     -0.25726900
      0.11289971     -0.12283015
p              7   1.000000
      0.28417832     -0.06286534
      0.04344939      0.67531786
      0.02136350      0.40213700
      8.27111421      0.00306386
      0.85473661     -0.05885645
      0.38631174     -0.12489902
      0.18675162     -0.04582147
 
          28   0
s              4   1.000000
     72.80737452     -0.01198412
     12.53803235     -0.05472052
      1.00748440      0.58055871
      0.38397724      0.47700799
p              4   1.000000
      7.50809880      0.05713170
      1.94673790      0.28574555
      0.68628535      0.55178731
      0.27322202      0.26323149
s              7   1.000000
      0.57971233     -0.18810621
      0.07115450      0.90886009
      0.03359728      0.23868046
     72.80737452      0.00403829
     12.53803235      0.01843917
      1.00748440     -0.19563079
      0.38397724     -0.16073732
p              7   1.000000
      2.76717072     -0.01186538
      0.15304476      0.58308291
      0.05897927      0.60894348
      7.50809880     -0.02847508
      1.94673790     -0.14241880
      0.68628535     -0.27501700
      0.27322202     -0.13119754
 
          29   0
s              4   1.000000
     34.99953849     -0.01198412
      6.02721014     -0.05472052
      0.48431205      0.58055871
      0.18458331      0.47700799
p              4   1.000000
      5.64108998      0.05713170
      1.46265040      0.28574555
      0.51562953      0.55178731
      0.20528100      0.26323149
s              7   1.000000
      0.38350848     -0.19617086
      0.04707223      0.94782552
      0.02222627      0.24891337
     34.99953849      0.00550588
      6.02721014      0.02514035
      0.48431205     -0.26672710
      0.18458331     -0.21915262
p              7   1.000000
      1.83062075     -0.01160820
      0.10124670      0.57044481
      0.03901771      0.59574486
      5.64108998     -0.02522107
      1.46265040     -0.12614379
      0.51562953     -0.24358924
      0.20528100     -0.11620484
 
          30   0
s              4   1.000000
     35.31074518     -0.01198412
      6.08080250     -0.05472052
      0.48861843      0.58055871
      0.18622458      0.47700799
p              4   1.000000
      5.69124907      0.05713170
      1.47565590      0.28574555
      0.52021437      0.55178731
      0.20710630      0.26323149
s              7   1.000000
      0.38350848     -0.19588392
      0.04707223      0.94643913
      0.02222627      0.24854928
     35.31074518      0.00545951
      6.08080250      0.02492862
      0.48861843     -0.26448079
      0.18622458     -0.21730696
p              7   1.000000
      1.83062075     -0.01159225
      0.10124670      0.56966099
      0.03901771      0.59492628
      5.69124907     -0.02500784
      1.47565590     -0.12507729
      0.52021437     -0.24152978
      0.20710630     -0.11522237
 
          31   0
s              4   1.000000
     34.92356753     -0.01198412
      6.01412731     -0.05472052
      0.48326079      0.58055871
      0.18418265      0.47700799
p              4   1.000000
      5.62884527      0.05713170
      1.45947553      0.28574555
      0.51451029      0.55178731
      0.20483541      0.26323149
s              7   1.000000
      0.38350848     -0.19624195
      0.04707223      0.94816897
      0.02222627      0.24900355
     34.92356753      0.00551732
      6.01412731      0.02519257
      0.48326079     -0.26728116
      0.18418265     -0.21960785
p              7   1.000000
      1.83062075     -0.01161215
      0.10124670      0.57063898
      0.03901771      0.59594767
      5.62884527     -0.02527366
      1.45947553     -0.12640682
      0.51451029     -0.24409717
      0.20483541     -0.11644716
 
          32   0
s              4   1.000000
     34.92601536     -0.01198412
      6.01454885     -0.05472053
      0.48329466      0.58055871
      0.18419556      0.47700799
p              4   1.000000
      5.62923981      0.05713170
      1.45957782      0.28574555
      0.51454635      0.55178731
      0.20484977      0.26323149
s              7   1.000000
      0.38350848     -0.19623965
      0.04707223      0.94815787
      0.02222627      0.24900065
     34.92601536      0.00551695
      6.01454885      0.02519088
      0.48329466     -0.26726327
      0.18419556     -0.21959315
p              7   1.000000
      1.83062075     -0.01161203
      0.10124670      0.57063270
      0.03901771      0.59594111
      5.62923981     -0.02527197
      1.45957782     -0.12639833
      0.51454635     -0.24408078
      0.20484977     -0.11643933
 
          33   0
s              4   1.000000
     34.92807338     -0.01198412
      6.01490325     -0.05472052
      0.48332314      0.58055871
      0.18420641      0.47700799
p              4   1.000000
      5.62957151      0.05713170
      1.45966383      0.28574555
      0.51457667      0.55178731
      0.20486184      0.26323149
s              7   1.000000
      0.38350848     -0.19623772
      0.04707223      0.94814854
      0.02222627      0.24899819
     34.92807338      0.00551664
      6.01490325      0.02518947
      0.48332314     -0.26724824
      0.18420641     -0.21958080
p              7   1.000000
      1.83062075     -0.01161192
      0.10124670      0.57062743
      0.03901771      0.59593557
      5.62957151     -0.02527054
      1.45966383     -0.12639119
      0.51457667     -0.24406699
      0.20486184     -0.11643276
 
          34   0
s              4   1.000000
     35.15442294     -0.01198412
      6.05388252     -0.05472052
      0.48645529      0.58055871
      0.18540015      0.47700799
p              4   1.000000
      5.66605365      0.05713170
      1.46912310      0.28574555
      0.51791136      0.55178731
      0.20618944      0.26323149
s              7   1.000000
      0.38350848     -0.19602721
      0.04707223      0.94713145
      0.02222627      0.24873109
     35.15442294      0.00548271
      6.05388252      0.02503453
      0.48645529     -0.26560448
      0.18540015     -0.21823023
p              7   1.000000
      1.83062075     -0.01160022
      0.10124670      0.57005239
      0.03901771      0.59533504
      5.66605365     -0.02511451
      1.46912310     -0.12561080
      0.51791136     -0.24256002
      0.20618944     -0.11571386
 
          35   0
s              4   1.000000
     34.98606808     -0.01198412
      6.02489042     -0.05472052
      0.48412565      0.58055871
      0.18451227      0.47700799
p              4   1.000000
      5.63891887      0.05713170
      1.46208746      0.28574555
      0.51543107      0.55178731
      0.20520199      0.26323149
s              7   1.000000
      0.38350848     -0.19618344
      0.04707223      0.94788627
      0.02222627      0.24892933
     34.98606808      0.00550791
      6.02489042      0.02514959
      0.48412565     -0.26682518
      0.18451227     -0.21923320
p              7   1.000000
      1.83062075     -0.01160890
      0.10124670      0.57047915
      0.03901771      0.59578075
      5.63891887     -0.02523038
      1.46208746     -0.12619035
      0.51543107     -0.24367915
      0.20520199     -0.11624774
 
          36   0
s              4   1.000000
     35.14884847     -0.01198412
      6.05292255     -0.05472052
      0.48637815      0.58055871
      0.18537075      0.47700799
p              4   1.000000
      5.66515518      0.05713170
      1.46889014      0.28574555
      0.51782923      0.55178731
      0.20615674      0.26323149
s              7   1.000000
      0.38350848     -0.19603235
      0.04707223      0.94715629
      0.02222627      0.24873763
     35.14884847      0.00548354
      6.05292255      0.02503833
      0.48637815     -0.26564472
      0.18537075     -0.21826329
p              7   1.000000
      1.83062075     -0.01160050
      0.10124670      0.57006644
      0.03901771      0.59534973
      5.66515518     -0.02511833
      1.46889014     -0.12562991
      0.51782923     -0.24259692
      0.20615674     -0.11573145
 
          37   0
s              4   1.000000
     34.92940795     -0.01198412
      6.01513308     -0.05472053
      0.48334161      0.58055871
      0.18421345      0.47700799
p              4   1.000000
      5.62978661      0.05713170
      1.45971960      0.28574555
      0.51459633      0.55178731
      0.20486967      0.26323149
s              7   1.000000
      0.38350848     -0.19623647
      0.04707223      0.94814250
      0.02222627      0.24899661
     34.92940795      0.00551644
      6.01513308      0.02518855
      0.48334161     -0.26723849
      0.18421345     -0.21957279
p              7   1.000000
      1.83062075     -0.01161185
      0.10124670      0.57062402
      0.03901771      0.59593201
      5.62978661     -0.02526961
      1.45971960     -0.12638656
      0.51459633     -0.24405805
      0.20486967     -0.11642849
 
          38   0
s              4   1.000000
     34.92424392     -0.01198412
      6.01424379     -0.05472052
      0.48327015      0.58055871
      0.18418622      0.47700800
p              4   1.000000
      5.62895429      0.05713170
      1.45950379      0.28574555
      0.51452025      0.55178731
      0.20483938      0.26323149
s              7   1.000000
      0.38350848     -0.19624131
      0.04707223      0.94816591
      0.02222627      0.24900275
     34.92424392      0.00551722
      6.01424379      0.02519210
      0.48327015     -0.26727622
      0.18418622     -0.21960379
p              7   1.000000
      1.83062075     -0.01161212
      0.10124670      0.57063725
      0.03901771      0.59594585
      5.62895429     -0.02527319
      1.45950379     -0.12640448
      0.51452025     -0.24409264
      0.20483938     -0.11644499
 
          39   0
s              4   1.000000
     34.92115552     -0.01198412
      6.01371194     -0.05472052
      0.48322741      0.58055871
      0.18416993      0.47700799
p              4   1.000000
      5.62845651      0.05713170
      1.45937473      0.28574555
      0.51447475      0.55178731
      0.20482126      0.26323149
s              7   1.000000
      0.38350848     -0.19624421
      0.04707223      0.94817990
      0.02222627      0.24900643
     34.92115552      0.00551768
      6.01371194      0.02519423
      0.48322741     -0.26729879
      0.18416993     -0.21962233
p              7   1.000000
      1.83062075     -0.01161228
      0.10124670      0.57064516
      0.03901771      0.59595410
      5.62845651     -0.02527534
      1.45937473     -0.12641519
      0.51447475     -0.24411333
      0.20482126     -0.11645487
 
          40   0
s              4   1.000000
     35.31923422     -0.01198412
      6.08226439     -0.05472052
      0.48873590      0.58055871
      0.18626935      0.47700799
p              4   1.000000
      5.69261730      0.05713170
      1.47601066      0.28574555
      0.52033943      0.55178731
      0.20715609      0.26323149
s              7   1.000000
      0.38350848     -0.19587619
      0.04707223      0.94640177
      0.02222627      0.24853946
     35.31923422      0.00545826
      6.08226439      0.02492289
      0.48873590     -0.26442003
      0.18626935     -0.21725704
p              7   1.000000
      1.83062075     -0.01159182
      0.10124670      0.56963986
      0.03901771      0.59490423
      5.69261730     -0.02500207
      1.47601066     -0.12504844
      0.52033943     -0.24147407
      0.20715609     -0.11519580
 
          41   0
s              4   1.000000
     35.41459014     -0.01198412
      6.09868547     -0.05472052
      0.49005540      0.58055871
      0.18677224      0.47700799
p              4   1.000000
      5.70798639      0.05713170
      1.47999564      0.28574555
      0.52174426      0.55178731
      0.20771538      0.26323149
s              7   1.000000
      0.38350848     -0.19578967
      0.04707223      0.94598372
      0.02222627      0.24842968
     35.41459014      0.00544421
      6.09868547      0.02485875
      0.49005540     -0.26373945
      0.18677224     -0.21669786
p              7   1.000000
      1.83062075     -0.01158701
      0.10124670      0.56940352
      0.03901771      0.59465741
      5.70798639     -0.02493746
      1.47999564     -0.12472530
      0.52174426     -0.24085007
      0.20771538     -0.11489812
 
          42   0
s              4   1.000000
     34.97425757     -0.01198412
      6.02285655     -0.05472052
      0.48396222      0.58055871
      0.18444998      0.47700799
p              4   1.000000
      5.63701530      0.05713170
      1.46159389      0.28574555
      0.51525708      0.55178731
      0.20513272      0.26323149
s              7   1.000000
      0.38350848     -0.19619447
      0.04707223      0.94793960
      0.02222627      0.24894332
     34.97425757      0.00550968
      6.02285655      0.02515770
      0.48396222     -0.26691123
      0.18444998     -0.21930390
p              7   1.000000
      1.83062075     -0.01160951
      0.10124670      0.57050930
      0.03901771      0.59581222
      5.63701530     -0.02523855
      1.46159389     -0.12623120
      0.51525708     -0.24375803
      0.20513272     -0.11628537
 
          43   0
s              4   1.000000
      8.30558166      0.05675242
      1.51981912      0.26014135
      0.42222239      0.53284611
      0.14013182      0.29162544
s              7   1.000000
      0.92936822     -0.06733276
      0.05643440      0.66949847
      0.02166600      0.51464776
      8.30558166     -0.02903172
      1.51981912     -0.13307540
      0.42222239     -0.27257761
      0.14013182     -0.14918109
p              4   1.000000
      0.64737396      0.05713170
      0.16785440      0.28574555
      0.05917387      0.55178731
      0.02355814      0.26323150
 
          44   0
s              4   1.000000
      8.30949947      0.05675242
      1.52053603      0.26014135
      0.42242156      0.53284611
      0.14019792      0.29162544
s              7   1.000000
      0.92936822     -0.06732771
      0.05643440      0.66944833
      0.02166600      0.51460920
      8.30949947     -0.02902124
      1.52053603     -0.13302734
      0.42242156     -0.27247917
      0.14019792     -0.14912722
p              4   1.000000
      0.64737396      0.05713170
      0.16785440      0.28574555
      0.05917387      0.55178731
      0.02355814      0.26323150
 
          45   0
s              4   1.000000
      8.30995893      0.05675242
      1.52062010      0.26014135
      0.42244491      0.53284611
      0.14020567      0.29162544
s              7   1.000000
      0.92936822     -0.06732712
      0.05643440      0.66944245
      0.02166600      0.51460468
      8.30995893     -0.02902001
      1.52062010     -0.13302170
      0.42244491     -0.27246763
      0.14020567     -0.14912090
p              4   1.000000
      0.64737396      0.05713170
      0.16785440      0.28574555
      0.05917387      0.55178731
      0.02355814      0.26323150
 
          46   0
s              4   1.000000
      8.31620904      0.05675242
      1.52176380      0.26014135
      0.42276265      0.53284611
      0.14031112      0.29162544
s              7   1.000000
      0.92936822     -0.06731909
      0.05643440      0.66936260
      0.02166600      0.51454331
      8.31620904     -0.02900330
      1.52176380     -0.13294512
      0.42276265     -0.27231077
      0.14031112     -0.14903505
p              4   1.000000
      0.64737396      0.05713170
      0.16785440      0.28574555
      0.05917387      0.55178731
      0.02355814      0.26323150
 
          47   0
s              4   1.000000
      8.31865801      0.05675242
      1.52221193      0.26014135
      0.42288714      0.53284611
      0.14035244      0.29162544
s              7   1.000000
      0.92936822     -0.06731595
      0.05643440      0.66933134
      0.02166600      0.51451929
      8.31865801     -0.02899676
      1.52221193     -0.13291515
      0.42288714     -0.27224937
      0.14035244     -0.14900144
p              4   1.000000
      0.64737396      0.05713170
      0.16785440      0.28574555
      0.05917387      0.55178731
      0.02355814      0.26323150
 
          48   0
s              4   1.000000
      8.30904251      0.05675242
      1.52045241      0.26014135
      0.42239833      0.53284611
      0.14019021      0.29162544
s              7   1.000000
      0.92936822     -0.06732830
      0.05643440      0.66945418
      0.02166600      0.51461370
      8.30904251     -0.02902246
      1.52045241     -0.13303294
      0.42239833     -0.27249064
      0.14019021     -0.14913350
p              4   1.000000
      0.64737396      0.05713170
      0.16785440      0.28574555
      0.05917387      0.55178731
      0.02355814      0.26323150
 
          49   0
s              4   1.000000
      8.30891623      0.05675242
      1.52042930      0.26014135
      0.42239191      0.53284611
      0.14018808      0.29162544
s              7   1.000000
      0.92936822     -0.06732846
      0.05643440      0.66945579
      0.02166600      0.51461494
      8.30891623     -0.02902280
      1.52042930     -0.13303449
      0.42239191     -0.27249382
      0.14018808     -0.14913523
p              4   1.000000
      0.64737396      0.05713170
      0.16785440      0.28574555
      0.05917387      0.55178731
      0.02355814      0.26323150
 
          50   0
s              4   1.000000
      8.30950819      0.05675242
      1.52053762      0.26014135
      0.42242200      0.53284611
      0.14019807      0.29162544
s              7   1.000000
      0.92936822     -0.06732770
      0.05643440      0.66944822
      0.02166600      0.51460913
      8.30950819     -0.02902121
      1.52053762     -0.13302723
      0.42242200     -0.27247895
      0.14019807     -0.14912709
p              4   1.000000
      0.64737396      0.05713170
      0.16785440      0.28574555
      0.05917387      0.55178731
      0.02355814      0.26323150
 
          51   0
s              4   1.000000
      8.31112761      0.05675242
      1.52083396      0.26014135
      0.42250433      0.53284611
      0.14022539      0.29162544
s              7   1.000000
      0.92936822     -0.06732562
      0.05643440      0.66942751
      0.02166600      0.51459320
      8.31112761     -0.02901688
      1.52083396     -0.13300738
      0.42250433     -0.27243828
      0.14022539     -0.14910484
p              4   1.000000
      0.64737396      0.05713170
      0.16785440      0.28574555
      0.05917387      0.55178731
      0.02355814      0.26323150
 
          52   0
s              4   1.000000
      8.30905256      0.05675242
      1.52045425      0.26014135
      0.42239884      0.53284611
      0.14019038      0.29162544
s              7   1.000000
      0.92936822     -0.06732829
      0.05643440      0.66945405
      0.02166600      0.51461360
      8.30905256     -0.02902243
      1.52045425     -0.13303282
      0.42239884     -0.27249039
      0.14019038     -0.14913336
p              4   1.000000
      0.64737396      0.05713170
      0.16785440      0.28574555
      0.05917387      0.55178731
      0.02355814      0.26323150
 
          53   0
s              4   1.000000
      8.30889974      0.05675242
      1.52042628      0.26014135
      0.42239107      0.53284611
      0.14018780      0.29162544
s              7   1.000000
      0.92936822     -0.06732849
      0.05643440      0.66945600
      0.02166600      0.51461512
      8.30889974     -0.02902284
      1.52042628     -0.13303469
      0.42239107     -0.27249423
      0.14018780     -0.14913546
p              4   1.000000
      0.64737396      0.05713170
      0.16785440      0.28574555
      0.05917387      0.55178731
      0.02355814      0.26323150
 
          54   0
s              4   1.000000
      8.31103306      0.05675242
      1.52081665      0.26014135
      0.42249952      0.53284611
      0.14022379      0.29162544
s              7   1.000000
      0.92936822     -0.06732574
      0.05643440      0.66942872
      0.02166600      0.51459415
      8.31103306     -0.02901713
      1.52081665     -0.13300854
      0.42249952     -0.27244066
      0.14022379     -0.14910614
p              4   1.000000
      0.64737396      0.05713170
      0.16785440      0.28574555
      0.05917387      0.55178731
      0.02355814      0.26323150
 
          55   0
s              4   1.000000
      8.31102306      0.05675242
      1.52081482      0.26014135
      0.42249901      0.53284611
      0.14022362      0.29162544
s              7   1.000000
      0.92936822     -0.06732576
      0.05643440      0.66942884
      0.02166600      0.51459422
      8.31102306     -0.02901716
      1.52081482     -0.13300866
      0.42249901     -0.27244091
      0.14022362     -0.14910627
p              4   1.000000
      0.64737396      0.05713170
      0.16785440      0.28574555
      0.05917387      0.55178731
      0.02355814      0.26323150
 
          56   0
s              4   1.000000
      8.30899138      0.05675242
      1.52044305      0.26014135
      0.42239573      0.53284611
      0.14018934      0.29162544
s              7   1.000000
      0.92936822     -0.06732837
      0.05643440      0.66945484
      0.02166600      0.51461420
      8.30899138     -0.02902259
      1.52044305     -0.13303357
      0.42239573     -0.27249193
      0.14018934     -0.14913420
p              4   1.000000
      0.64737396      0.05713170
      0.16785440      0.28574555
      0.05917387      0.55178731
      0.02355814      0.26323150
 
          57   0
s              4   1.000000
      8.30907466      0.05675242
      1.52045829      0.26014135
      0.42239996      0.53284611
      0.14019075      0.29162544
s              7   1.000000
      0.92936822     -0.06732826
      0.05643440      0.66945377
      0.02166600      0.51461338
      8.30907466     -0.02902237
      1.52045829     -0.13303255
      0.42239996     -0.27248984
      0.14019075     -0.14913305
p              4   1.000000
      0.64737396      0.05713170
      0.16785440      0.28574555
      0.05917387      0.55178731
      0.02355814      0.26323150
 
          58   0
s              4   1.000000
      8.31091335      0.05675242
      1.52079475      0.26014135
      0.42249343      0.53284611
      0.14022177      0.29162544
s              7   1.000000
      0.92936822     -0.06732590
      0.05643440      0.66943025
      0.02166600      0.51459531
      8.31091335     -0.02901745
      1.52079475     -0.13301000
      0.42249343     -0.27244366
      0.14022177     -0.14910779
p              4   1.000000
      0.64737396      0.05713170
      0.16785440      0.28574555
      0.05917387      0.55178731
      0.02355814      0.26323150
 
          59   0
s              4   1.000000
      8.31240237      0.05675242
      1.52106722      0.26014135
      0.42256913      0.53284611
      0.14024690      0.29162544
s              7   1.000000
      0.92936822     -0.06732398
      0.05643440      0.66941121
      0.02166600      0.51458068
      8.31240237     -0.02901347
      1.52106722     -0.13299175
      0.42256913     -0.27240628
      0.14024690     -0.14908733
p              4   1.000000
      0.64737396      0.05713170
      0.16785440      0.28574555
      0.05917387      0.55178731
      0.02355814      0.26323150
 
          60   0
s              4   1.000000
      8.30891480      0.05675242
      1.52042904      0.26014135
      0.42239184      0.53284611
      0.14018805      0.29162544
s              7   1.000000
      0.92936822     -0.06732847
      0.05643440      0.66945581
      0.02166600      0.51461497
      8.30891480     -0.02902280
      1.52042904     -0.13303451
      0.42239184     -0.27249385
      0.14018805     -0.14913525
p              4   1.000000
      0.64737396      0.05713170
      0.16785440      0.28574555
      0.05917387      0.55178731
      0.02355814      0.26323150
 
          61   0
s              4   1.000000
      8.30886445      0.05675242
      1.52041983      0.26014135
      0.42238928      0.53284611
      0.14018720      0.29162544
s              7   1.000000
      0.92936822     -0.06732853
      0.05643440      0.66945646
      0.02166600      0.51461546
      8.30886445     -0.02902293
      1.52041983     -0.13303512
      0.42238928     -0.27249512
      0.14018720     -0.14913594
p              4   1.000000
      0.64737396      0.05713170
      0.16785440      0.28574555
      0.05917387      0.55178731
      0.02355814      0.26323150
 
          62   0
s              4   1.000000
      8.30891608      0.05675242
      1.52042927      0.26014135
      0.42239190      0.53284611
      0.14018807      0.29162544
s              7   1.000000
      0.92936822     -0.06732846
      0.05643440      0.66945579
      0.02166600      0.51461494
      8.30891608     -0.02902280
      1.52042927     -0.13303449
      0.42239190     -0.27249382
      0.14018807     -0.14913524
p              4   1.000000
      0.64737396      0.05713170
      0.16785440      0.28574555
      0.05917387      0.55178731
      0.02355814      0.26323150
 
          63   0
s              4   1.000000
      8.31094866      0.05675242
      1.52080121      0.26014135
      0.42249523      0.53284611
      0.14022237      0.29162544
s              7   1.000000
      0.92936822     -0.06732585
      0.05643440      0.66942980
      0.02166600      0.51459497
      8.31094866     -0.02901736
      1.52080121     -0.13300957
      0.42249523     -0.27244278
      0.14022237     -0.14910730
p              4   1.000000
      0.64737396      0.05713170
      0.16785440      0.28574555
      0.05917387      0.55178731
      0.02355814      0.26323150
 
          64   0
s              4   1.000000
      8.31125311      0.05675242
      1.52085692      0.26014135
      0.42251071      0.53284611
      0.14022751      0.29162544
s              7   1.000000
      0.92936822     -0.06732546
      0.05643440      0.66942591
      0.02166600      0.51459196
      8.31125311     -0.02901655
      1.52085692     -0.13300584
      0.42251071     -0.27243513
      0.14022751     -0.14910312
p              4   1.000000
      0.64737396      0.05713170
      0.16785440      0.28574555
      0.05917387      0.55178731
      0.02355814      0.26323150
 
          65   0
s              4   1.000000
      8.30900092      0.05675242
      1.52044480      0.26014135
      0.42239621      0.53284611
      0.14018951      0.29162544
s              7   1.000000
      0.92936822     -0.06732836
      0.05643440      0.66945472
      0.02166600      0.51461412
      8.30900092     -0.02902257
      1.52044480     -0.13303345
      0.42239621     -0.27249169
      0.14018951     -0.14913407
p              4   1.000000
      0.64737396      0.05713170
      0.16785440      0.28574555
      0.05917387      0.55178731
      0.02355814      0.26323150
 
          66   0
s              4   1.000000
      8.30885079      0.05675242
      1.52041732      0.26014135
      0.42238858      0.53284611
      0.14018697      0.29162544
s              7   1.000000
      0.92936822     -0.06732855
      0.05643440      0.66945663
      0.02166600      0.51461559
      8.30885079     -0.02902297
      1.52041732     -0.13303529
      0.42238858     -0.27249546
      0.14018697     -0.14913613
p              4   1.000000
      0.64737396      0.05713170
      0.16785440      0.28574555
      0.05917387      0.55178731
      0.02355814      0.26323150
 
          67   0
s              4   1.000000
      8.30887667      0.05675242
      1.52042206      0.26014135
      0.42238990      0.53284611
      0.14018741      0.29162544
s              7   1.000000
      0.92936822     -0.06732852
      0.05643440      0.66945630
      0.02166600      0.51461534
      8.30887667     -0.02902290
      1.52042206     -0.13303497
      0.42238990     -0.27249481
      0.14018741     -0.14913578
p              4   1.000000
      0.64737396      0.05713170
      0.16785440      0.28574555
      0.05917387      0.55178731
      0.02355814      0.26323150
 
          68   0
s              4   1.000000
      8.31255106      0.05675242
      1.52109443      0.26014135
      0.42257669      0.53284611
      0.14024940      0.29162544
s              7   1.000000
      0.92936822     -0.06732379
      0.05643440      0.66940932
      0.02166600      0.51457921
      8.31255106     -0.02901307
      1.52109443     -0.13298993
      0.42257669     -0.27240255
      0.14024940     -0.14908528
p              4   1.000000
      0.64737396      0.05713170
      0.16785440      0.28574555
      0.05917387      0.55178731
      0.02355814      0.26323150
 
          69   0
s              4   1.000000
      8.31232493      0.05675242
      1.52105305      0.26014135
      0.42256519      0.53284611
      0.14024559      0.29162544
s              7   1.000000
      0.92936822     -0.06732408
      0.05643440      0.66941221
      0.02166600      0.51458145
      8.31232493     -0.02901368
      1.52105305     -0.13299270
      0.42256519     -0.27240823
      0.14024559     -0.14908839
p              4   1.000000
      0.64737396      0.05713170
      0.16785440      0.28574555
      0.05917387      0.55178731
      0.02355814      0.26323150
 
          70   0
s              4   1.000000
      8.31062860      0.05675242
      1.52074264      0.26014135
      0.42247896      0.53284611
      0.14021697      0.29162544
s              7   1.000000
      0.92936822     -0.06732626
      0.05643440      0.66943390
      0.02166600      0.51459812
      8.31062860     -0.02901822
      1.52074264     -0.13301349
      0.42247896     -0.27245081
      0.14021697     -0.14911170
p              4   1.000000
      0.64737396      0.05713170
      0.16785440      0.28574555
      0.05917387      0.55178731
      0.02355814      0.26323150
 
 [MO]
 Sym= Hole
 Ene= -0.9716442    
 Spin= Alpha
 Occup= 0
           1  8.9184620E-04
           2 -4.0043481E-03
           3 -1.0000477E-03
           4  2.3507535E-04
           5 -1.2591139E-03
           6  1.5607560E-03
           7  1.3091621E-03
           8 -9.6296833E-04
           9  2.9511991E-04
          10  3.3079227E-03
          11  1.4883955E-04
          12 -1.1181606E-03
          13  1.4272687E-03
          14 -6.7577919E-04
          15  2.7597265E-03
          16  2.5074165E-03
          17  3.0940191E-03
          18  6.8578622E-03
          19  6.0762111E-03
          20  3.9380044E-03
          21  2.1985662E-04
          22  4.7296672E-03
          23  5.5349818E-03
          24  3.1162642E-03
          25  1.1248073E-03
          26 -3.5558470E-02
          27 -4.2037942E-02
          28 -1.1633377E-02
          29 -3.7353884E-03
          30  7.6267463E-03
          31  1.0518365E-02
          32 -2.4903247E-03
          33 -7.9457671E-04
          34 -7.5015719E-03
          35  3.7224586E-03
          36 -1.2221915E-02
          37 -2.5096543E-03
          38  3.4390253E-03
          39  3.9870513E-04
          40 -3.0663525E-04
          41 -8.9467253E-04
          42  1.2557127E-02
          43 -1.2877443E-02
          44 -1.6331064E-02
          45  4.4009988E-03
          46 -1.0057737E-02
          47 -3.2189658E-03
          48  9.7387126E-03
          49 -4.2665381E-02
          50  2.3665948E-02
          51  5.2674659E-02
          52 -5.9113067E-02
          53  2.4664424E-02
          54 -1.5199230E-02
          55 -9.7346697E-03
          56  1.6702902E-02
          57  1.1890139E-02
          58 -1.2454283E-02
          59  1.1536510E-03
          60  7.8072585E-03
          61 -6.7134583E-03
          62  2.9311511E-03
          63 -1.8784199E-04
          64 -4.3479558E-03
          65  6.7905517E-04
          66  2.5758252E-02
          67  1.3553208E-03
          68  2.9799005E-02
          69 -1.3532116E-03
          70 -4.1119037E-03
          71 -2.0970695E-03
          72 -3.6400978E-03
          73 -1.5083222E-02
          74  1.1315108E-02
          75 -6.6422755E-03
          76 -1.6216656E-02
          77  5.3433445E-03
          78 -2.0647908E-03
          79  4.4812099E-03
          80  1.7084093E-03
          81  4.5844454E-02
          82 -3.4847964E-02
          83  7.4804813E-02
          84 -1.8721807E-03
          85 -2.8129205E-02
          86  1.4746785E-02
          87 -1.6319679E-02
          88 -8.6479085E-03
          89  5.7742767E-05
          90 -8.7657175E-04
          91 -2.4297643E-02
          92 -3.2409343E-03
          93 -2.5573368E-03
          94  7.8625958E-03
          95  1.7308731E-02
          96  3.7019667E-03
          97  2.6061518E-02
          98  0.2124421    
          99  0.4451599    
         100  0.1123556    
         101 -1.3154967E-02
         102 -2.5135547E-02
         103 -6.4214736E-02
         104 -1.8366698E-02
         105 -1.3666057E-02
         106 -8.7975137E-02
         107 -0.1506919    
         108 -2.9229911E-02
         109  9.9213785E-03
         110  1.1428707E-02
         111  2.5041621E-02
         112  3.2952134E-03
         113  1.5760051E-02
         114 -0.1544457    
         115 -0.1721396    
         116 -6.3139617E-02
         117 -8.6824503E-03
         118  1.3918942E-02
         119  8.1385626E-03
         120  6.3327756E-03
         121 -3.8967617E-03
         122  8.3665699E-02
         123  0.1099593    
         124  3.8802221E-02
         125  6.8872841E-04
         126 -9.7978953E-03
         127 -1.5398255E-02
         128 -5.7617589E-03
         129 -3.0604468E-03
         130  0.1444364    
         131  0.1909982    
         132  5.9509337E-02
         133  9.3389762E-04
         134 -1.5236391E-02
         135 -2.1631425E-02
         136 -7.6666432E-03
         137  8.7934406E-03
         138 -7.5269796E-02
         139 -9.0500824E-02
         140 -3.6028109E-02
         141 -8.1323283E-03
         142  8.4420852E-03
         143  2.2754848E-03
         144  5.8653513E-03
         145 -9.1455132E-03
         146 -0.1762928    
         147 -0.2008809    
         148 -4.7282401E-02
         149  4.9091554E-03
         150  3.4647383E-02
         151  3.2384396E-02
         152  1.9790814E-03
         153  1.4620659E-02
         154  0.3083344    
         155  0.3096530    
         156  7.3888320E-03
         157 -6.1865733E-03
         158 -4.7254227E-02
         159 -5.2182127E-02
         160 -3.2299601E-03
         161 -2.0270472E-02
         162 -0.1647462    
         163 -0.2078356    
         164 -6.0767550E-03
         165  1.0859913E-02
         166  3.5138339E-02
         167  3.2164145E-02
         168 -1.7297239E-03
         169  1.2192086E-02
         170 -5.4310244E-02
         171 -0.1069728    
         172  6.7339912E-03
         173 -9.7630341E-03
         174  6.7653140E-04
         175  9.7626569E-03
         176 -7.5573255E-03
         177 -3.4410500E-03
         178  0.1316148    
         179  0.1953285    
         180  1.1402210E-03
         181  1.1411720E-03
         182 -1.3064902E-02
         183 -2.1118741E-02
         184 -1.6900103E-03
         185 -4.9569071E-03
         186  7.6066576E-02
         187  0.1170087    
         188 -5.7138414E-03
         189  2.0524764E-03
         190 -8.8703185E-03
         191 -1.5456365E-02
         192  6.7631103E-04
         193  1.3808339E-02
         194 -0.1267916    
         195 -0.1900662    
         196  2.9644184E-02
         197 -7.0985644E-03
         198  6.9293561E-03
         199  1.3223421E-02
         200 -7.7908961E-03
         201 -9.6098399E-03
         202 -9.1295324E-02
         203 -0.1481857    
         204 -1.5192259E-02
         205  7.0741009E-03
         206  1.5499055E-02
         207  2.3720102E-02
         208  4.0852344E-03
         209 -6.5314554E-04
         210  1.3344251E-03
         211 -9.5387068E-06
         212 -1.3043348E-03
         213 -1.7748168E-03
         214  5.7741499E-04
         215  3.8520198E-03
         216  2.0742265E-03
         217  3.6852402E-04
         218  2.0773618E-03
         219 -2.0872827E-03
         220 -9.1235444E-04
         221  1.0378780E-03
         222 -1.3076832E-03
         223 -1.5607998E-03
         224  1.1116449E-04
         225  1.1394377E-03
         226  4.9038674E-04
         227 -3.0923716E-03
         228 -1.9166743E-03
         229  2.1357845E-04
         230 -2.1228208E-03
         231  3.5258770E-04
         232  1.0514644E-03
         233 -4.5281462E-04
         234  4.8543111E-04
         235  1.4887502E-03
         236 -6.1495800E-04
         237  2.1566753E-03
         238 -1.7637997E-03
         239 -2.7080530E-03
         240  7.9590647E-04
         241  9.9193800E-05
         242  7.3277351E-04
         243 -2.4769328E-05
         244 -6.9511146E-04
         245  2.1289731E-03
         246 -1.1038060E-03
         247 -2.2128653E-03
         248 -7.3686655E-04
         249 -2.6628957E-04
         250 -4.4851645E-04
         251 -5.1248004E-04
         252  2.2435145E-04
         253  1.7116646E-03
         254 -3.3626947E-04
         255 -1.1960681E-03
         256 -7.2426430E-04
         257  3.0830811E-04
         258 -4.7092166E-04
         259 -3.0523128E-04
         260 -2.9828498E-05
         261  1.6858703E-03
         262 -6.1445055E-04
         263 -1.0891737E-03
         264 -1.4397830E-03
         265 -3.8221883E-04
         266  5.5249402E-04
         267 -6.4619380E-04
         268  4.6332789E-04
         269  1.4122205E-03
         270 -1.7230886E-03
         271 -5.8899145E-04
         272 -1.7056669E-03
         273 -1.6835297E-03
         274  1.0388893E-03
         275 -3.7971223E-04
         276 -2.4241058E-03
         277 -1.4256330E-03
         278  2.2609313E-03
         279  1.1268531E-03
         280 -3.3611699E-04
         281  4.3301149E-03
         282 -7.7540264E-03
         283 -8.5058738E-04
         284  1.8808010E-03
         285 -5.0201020E-03
         286  4.3066763E-03
         287 -4.1589409E-04
         288  9.7652379E-04
         289 -5.8086525E-04
         290  4.7542815E-04
         291 -2.4920388E-03
         292 -4.0359853E-04
         293 -3.7685278E-04
         294 -9.1772358E-04
         295  7.0449518E-04
         296 -8.9044496E-04
         297  6.3126063E-04
         298 -4.0376169E-04
         299  4.4029771E-04
         300  1.0247841E-03
         301 -2.4652688E-04
         302 -4.8229058E-04
         303  8.8689929E-05
         304 -1.0157739E-03
         305  3.8501222E-04
         306  7.9382717E-04
         307  2.2709651E-04
         308  7.8144181E-04
         309  4.2777901E-05
         310 -8.2723948E-04
         311 -1.7929928E-04
         312 -3.7191124E-04
         313  9.5336960E-04
         314 -1.8363461E-03
         315 -2.9217859E-04
         316 -5.3850649E-04
         317 -4.2463030E-04
         318 -1.2312257E-03
         319 -1.4249881E-04
         320 -6.6306052E-04
         321  5.1112091E-03
         322  6.1505679E-03
         323  3.3045821E-03
         324 -2.3069165E-03
         325  6.4066760E-03
         326 -1.4247552E-02
         327 -1.9740157E-02
         328 -3.5255002E-03
         329 -1.0364236E-02
         330  5.2603543E-02
         331  4.9425241E-02
         332 -6.5727840E-04
         333  1.7208774E-02
         334 -1.0634689E-02
         335 -1.9665230E-02
         336  5.5584051E-03
         337 -3.9771425E-05
         338  4.1445144E-03
         339 -1.7315849E-03
         340 -5.6620571E-03
         341  4.7459248E-03
         342 -3.4423668E-03
         343 -8.8865357E-04
         344 -6.9014677E-03
         345 -4.6297293E-03
         346 -1.9708052E-03
         347 -1.4282811E-02
         348  7.6420116E-04
         349  3.6833636E-03
         350  5.3468896E-03
         351 -4.7836113E-03
         352  7.8869201E-03
         353 -4.0562199E-03
         354  5.0745858E-03
         355  3.8505776E-04
         356 -2.6691770E-03
         357 -1.7078815E-02
         358  1.6507386E-03
         359  1.8373256E-03
         360 -5.1351299E-04
         361 -1.8153923E-03
         362 -8.8626880E-04
         363 -8.4346684E-05
         364  3.7641444E-03
         365  1.0979734E-03
         366  4.4555822E-03
         367  2.0437162E-02
         368 -3.3169037E-03
         369 -7.3339604E-04
         370  3.6382119E-04
         371 -2.1845133E-04
         372 -1.0046111E-02
         373 -4.4524921E-03
         374  9.6585592E-03
         375 -1.0554694E-02
         376 -1.1361234E-02
         377 -4.5300699E-03
         378 -3.2420561E-03
         379 -9.7844629E-03
         380 -1.6354714E-02
         381 -3.3782652E-04
         382  5.3444360E-03
         383 -4.7908776E-04
         384  9.5452759E-03
         385  1.2324118E-02
         386  1.8547149E-03
         387  1.4295098E-03
         388 -2.2816849E-04
         389  1.3532332E-02
         390  1.8076392E-02
         391  5.5394298E-03
         392 -5.9881103E-03
         393 -5.8941995E-03
         394  6.6116764E-03
         395 -7.2633489E-03
         396  5.7144645E-03
         397 -3.6845121E-03
         398 -7.4412441E-03
         399 -3.9774152E-03
         400  3.3502264E-03
         401 -9.1401301E-03
         402  3.2573708E-03
         403 -4.5024964E-04
         404  1.2668724E-02
         405  1.8005515E-02
         406  5.9731602E-04
         407  8.7461360E-03
         408 -1.4121836E-03
         409  9.8590869E-03
         410  1.1102130E-02
         411  2.3121595E-04
         412 -3.5219605E-03
         413 -1.9975449E-03
         414 -1.1562459E-02
         415 -1.4938716E-02
         416 -4.3898239E-03
         417 -1.0388464E-03
         418  1.4798539E-03
         419  9.3854568E-04
         420 -1.8333842E-03
         421  1.6861755E-03
         422 -7.1682298E-04
         423  1.1250791E-03
         424  2.6811741E-04
         425 -5.4359401E-04
         426  1.3021127E-04
         427 -4.8337778E-04
         428  5.5693660E-04
         429  2.9919777E-04
         430 -7.0056260E-05
         431 -2.3233869E-04
         432 -5.4857880E-04
         433  1.0311394E-03
         434  1.9283788E-04
         435 -5.2258855E-04
         436 -8.1897050E-04
         437 -2.7995213E-04
         438  6.3097914E-04
         439 -7.5477525E-04
         440  1.0132671E-03
         441 -2.2431351E-04
         442  4.1633760E-04
         443 -4.2377003E-03
         444  9.3902554E-03
         445  1.2850913E-03
         446  1.8165776E-03
         447 -9.0740877E-04
         448  4.4844899E-04
         449  3.8363502E-04
         450  3.6478904E-04
         451 -1.3206978E-04
         452 -9.6332392E-04
         453  2.8641228E-04
         454  1.9368909E-04
         455  2.8399267E-04
         456  5.4214543E-05
         457  7.3145836E-04
         458  1.9500582E-04
         459  1.7269028E-04
         460  3.3110203E-04
         461  3.7429322E-04
         462 -3.0062196E-04
         463  9.5239037E-04
         464 -1.4634497E-03
         465  2.0482404E-04
         466 -3.7327649E-05
         467 -1.7923357E-02
         468  8.1836460E-03
         469 -1.1992514E-02
         470  1.3756920E-03
         471 -2.0996153E-02
         472 -4.9763876E-03
         473  1.6563585E-02
         474 -2.1823404E-02
         475 -1.0486854E-02
         476  1.0028289E-02
 Sym= Particle
 Ene= -0.9716442    
 Spin= Alpha
 Occup= 2
           1  8.8446692E-04
           2  3.0543037E-02
           3  3.0757746E-02
           4  9.2306230E-03
           5 -1.1130081E-03
           6 -4.7436762E-03
           7 -1.2678365E-03
           8 -2.8854134E-03
           9 -1.1002773E-03
          10 -3.5558023E-02
          11 -3.5876192E-02
          12 -1.2147835E-02
          13  4.2553013E-03
          14  7.7020586E-03
          15  3.4277565E-03
          16  7.5737843E-03
          17 -1.7001344E-03
          18 -3.4271952E-02
          19 -2.9484702E-02
          20 -8.5198069E-03
          21  2.9017299E-03
          22  3.8462710E-03
          23  7.8089922E-03
          24  6.3583725E-03
          25  3.0896621E-04
          26  6.2855646E-02
          27  5.5691686E-02
          28  1.3481736E-02
          29  1.9684550E-03
          30 -9.8970691E-03
          31 -8.9454539E-03
          32 -5.6268098E-03
          33 -6.3269450E-03
          34  5.4675741E-03
          35  6.3802339E-03
          36  1.1155777E-02
          37  6.1302744E-03
          38  5.9939310E-04
          39  2.1765407E-03
          40 -8.7755369E-03
          41  2.1970531E-03
          42 -3.4099894E-03
          43  5.1492867E-03
          44  5.0308676E-03
          45 -3.0964725E-03
          46  1.2261200E-02
          47  6.2613050E-04
          48  2.7233099E-03
          49  7.4715335E-03
          50  6.7451643E-04
          51  8.0502201E-03
          52  7.7135586E-03
          53 -6.7543322E-03
          54  4.1731745E-03
          55 -5.1496639E-03
          56 -1.5998601E-03
          57 -7.8379957E-04
          58  8.2979202E-03
          59 -1.8426436E-03
          60  5.2030068E-03
          61  7.3452119E-04
          62 -3.4793559E-03
          63  1.2533308E-03
          64  1.1517433E-03
          65  6.6148554E-04
          66 -3.9444254E-03
          67  1.9013120E-03
          68 -5.5815568E-03
          69 -9.2184945E-04
          70  1.4946157E-03
          71  3.6317419E-04
          72  2.5822225E-03
          73  1.3278633E-03
          74 -4.0921706E-04
          75  3.2471851E-07
          76  1.2914779E-03
          77 -2.0977373E-03
          78 -2.1651846E-04
          79  1.0141330E-03
          80 -1.1753079E-03
          81 -1.8356196E-03
          82  1.0384442E-03
          83 -2.2624407E-03
          84  3.6781636E-04
          85  2.9699859E-04
          86  2.9382046E-04
          87  2.9812001E-03
          88  5.6366298E-05
          89  3.6306519E-03
          90 -1.2731849E-02
          91  1.8533518E-03
          92 -2.3885877E-03
          93 -4.9710502E-03
          94  9.3310587E-03
          95 -1.7334026E-03
          96  2.5167805E-03
          97 -6.5669445E-03
          98 -3.4582256E-03
          99 -1.3915641E-02
         100 -8.7097683E-04
         101  4.2106379E-03
         102  2.5713088E-03
         103  5.1936493E-03
         104  3.2788741E-03
         105 -1.6069712E-02
         106  0.2709674    
         107  0.3455203    
         108  0.1085451    
         109  1.1976412E-02
         110 -0.1105519    
         111 -0.1353935    
         112 -4.3645680E-02
         113  8.7383362E-03
         114 -0.1108747    
         115 -0.1362902    
         116 -4.5377262E-02
         117 -6.4141518E-03
         118  4.0163521E-02
         119  4.2907804E-02
         120  1.6240679E-02
         121 -2.3246378E-04
         122 -0.1261774    
         123 -0.1723609    
         124 -4.7107790E-02
         125 -1.2889029E-03
         126  3.7093114E-02
         127  4.6471976E-02
         128  1.2676746E-02
         129  1.2141631E-03
         130  0.2158702    
         131  0.2928023    
         132  8.9031599E-02
         133 -1.7178849E-03
         134 -5.7321213E-02
         135 -7.8639224E-02
         136 -2.4497582E-02
         137 -1.3869336E-04
         138 -6.8207256E-02
         139 -8.9212812E-02
         140 -1.9423380E-02
         141 -1.3104914E-03
         142  1.3726304E-02
         143  2.1720896E-02
         144  2.7485688E-03
         145  1.7180393E-02
         146 -0.1940080    
         147 -0.2064959    
         148 -7.7774711E-02
         149 -1.2105772E-02
         150  6.4979017E-02
         151  6.8525694E-02
         152  2.7734576E-02
         153 -7.3741414E-03
         154 -1.1425616E-02
         155  1.4737448E-02
         156  4.9510743E-03
         157  4.9185436E-03
         158  2.2989027E-03
         159 -4.8426548E-03
         160 -6.2019415E-03
         161 -5.6612608E-03
         162  0.1469626    
         163  0.2299427    
         164 -5.9156562E-03
         165  5.8054412E-03
         166 -4.8085060E-02
         167 -7.7628382E-02
         168  7.2296327E-03
         169  3.2537768E-03
         170  5.8616813E-02
         171  7.7939205E-02
         172  2.3426327E-03
         173 -1.4015319E-03
         174 -1.2628432E-02
         175 -1.5251038E-02
         176 -3.3636103E-04
         177 -1.6316042E-03
         178 -0.1931037    
         179 -0.2789693    
         180 -6.2638219E-03
         181 -2.0857477E-03
         182  4.9543854E-02
         183  7.2889298E-02
         184  2.9198022E-04
         185  5.5943946E-03
         186  0.1142910    
         187  0.1575376    
         188  1.2501275E-05
         189 -6.7954925E-03
         190 -3.1766281E-02
         191 -4.2406637E-02
         192 -8.4601727E-04
         193 -2.1265743E-03
         194  9.9179603E-02
         195  0.1431448    
         196 -1.0569835E-02
         197 -2.3480013E-03
         198 -2.9031491E-02
         199 -4.8845172E-02
         200  4.4696024E-03
         201  1.2969599E-02
         202 -0.2003816    
         203 -0.3620920    
         204  1.8766295E-02
         205 -1.2037317E-02
         206  7.5522460E-02
         207  0.1386447    
         208 -9.0972409E-03
         209 -7.3671197E-03
         210  1.1491762E-02
         211  7.0348685E-03
         212  1.9843362E-03
         213  2.1232336E-03
         214 -4.7978354E-03
         215 -6.1624334E-04
         216 -3.9006711E-04
         217  2.2958042E-03
         218 -8.2075922E-03
         219 -4.3650558E-03
         220 -4.2011086E-03
         221 -1.8679393E-03
         222  2.8372821E-03
         223  1.1958918E-03
         224 -2.3853181E-04
         225  2.8204863E-04
         226  2.9766366E-03
         227  1.4713607E-03
         228 -9.0653793E-04
         229  3.6953739E-04
         230 -3.5465686E-03
         231 -2.0846138E-03
         232  1.8937130E-03
         233 -1.9415282E-04
         234 -1.0456871E-03
         235 -8.5460563E-04
         236  7.7982718E-04
         237  3.1755239E-04
         238  1.1925231E-03
         239 -1.3790248E-03
         240  2.8321814E-05
         241  2.3521607E-04
         242 -2.5534490E-04
         243 -1.4346039E-04
         244 -1.4680217E-04
         245 -3.3564141E-04
         246  2.0708484E-03
         247 -2.1863320E-04
         248  3.3097644E-04
         249  6.9940870E-05
         250  2.0129872E-03
         251  5.8695878E-04
         252  5.5997225E-05
         253 -1.1428096E-04
         254  5.4623983E-05
         255 -6.9398375E-04
         256  3.3396229E-04
         257 -1.1730821E-05
         258 -2.0089033E-03
         259 -4.4658457E-04
         260  7.4458675E-04
         261  1.0587750E-04
         262  9.1411074E-04
         263 -8.6998910E-04
         264 -1.1253846E-03
         265  7.3435402E-04
         266  6.2936681E-07
         267 -1.1047608E-03
         268  6.3356379E-04
         269 -7.6173048E-04
         270 -1.8559665E-03
         271 -1.0386066E-03
         272 -6.0603023E-04
         273  6.4604433E-04
         274 -1.1147780E-04
         275  3.2700649E-03
         276 -1.2046613E-03
         277 -2.5613699E-04
         278 -1.3553560E-03
         279 -3.9887414E-03
         280  2.9236448E-03
         281  4.9263272E-03
         282 -8.7704575E-03
         283 -1.7160001E-03
         284  1.1028806E-03
         285 -7.3071374E-03
         286  3.6588600E-03
         287  4.8217681E-04
         288  1.5507803E-04
         289  1.7764869E-03
         290 -1.1586536E-03
         291 -3.1467259E-03
         292  2.1552995E-03
         293 -5.1984028E-03
         294  1.9113504E-05
         295  7.7321607E-04
         296  5.0136534E-04
         297  7.2525756E-04
         298  1.2763446E-03
         299  6.7530537E-04
         300  1.2347638E-03
         301 -6.1707234E-04
         302 -3.3595860E-03
         303 -5.4822856E-04
         304  4.3732909E-04
         305  9.4891357E-04
         306  4.3752094E-05
         307 -3.2443958E-04
         308 -1.0621734E-03
         309 -9.4621541E-04
         310 -6.4542488E-04
         311 -6.6764180E-05
         312  8.5816829E-04
         313  9.8812941E-04
         314  6.9714362E-05
         315  2.9126043E-04
         316 -1.4578118E-03
         317 -1.5790591E-03
         318  8.9071027E-04
         319 -1.1395314E-03
         320  5.4314500E-04
         321 -4.4446788E-03
         322  3.7607253E-02
         323  4.0752836E-02
         324  7.8490386E-03
         325  1.3477632E-04
         326  1.5534020E-03
         327 -1.7633891E-02
         328  1.1876940E-02
         329  1.5932086E-03
         330 -1.7241800E-02
         331 -2.1217898E-02
         332 -5.7868790E-03
         333  1.1864962E-04
         334  1.2444822E-03
         335  6.1273784E-03
         336  4.4210325E-03
         337 -7.4612856E-04
         338  5.1614624E-03
         339 -7.8368336E-03
         340 -1.2655938E-02
         341 -3.2537554E-03
         342  1.4244985E-04
         343  3.5800459E-04
         344  1.5789302E-02
         345  7.7407472E-03
         346  2.1408596E-03
         347  2.6653498E-02
         348 -3.5867416E-03
         349 -1.6963819E-02
         350 -1.1391800E-02
         351 -1.3380832E-02
         352 -1.2091161E-02
         353  5.8210017E-03
         354 -2.3020112E-03
         355  3.2331031E-03
         356  5.2245748E-03
         357 -2.1822809E-03
         358  9.5757807E-04
         359  5.5693963E-04
         360  5.8859988E-04
         361  1.2382392E-03
         362 -1.4835236E-03
         363 -9.3567622E-04
         364 -7.9797691E-04
         365  4.1864128E-04
         366 -2.1254532E-03
         367 -1.7095483E-03
         368 -1.2252630E-03
         369  6.4685527E-04
         370 -2.4921959E-04
         371 -2.0267823E-04
         372 -1.9890389E-03
         373  7.6971925E-04
         374  2.6983444E-03
         375 -3.1170235E-03
         376  6.0477098E-05
         377 -3.7314014E-03
         378  1.0197054E-03
         379 -2.3912696E-02
         380 -3.3901766E-02
         381 -6.1565693E-03
         382  3.6352355E-04
         383  9.1660424E-04
         384 -2.8399622E-02
         385 -3.7387885E-02
         386 -1.2623035E-02
         387 -3.3563704E-03
         388  9.0346369E-04
         389  5.2654505E-02
         390  7.0393875E-02
         391  1.9700760E-02
         392 -8.5379882E-03
         393  4.8838858E-03
         394 -1.3320229E-02
         395 -1.9862927E-02
         396 -1.1548484E-02
         397 -3.6254381E-03
         398  1.2095453E-03
         399  1.3713200E-02
         400  1.7663876E-02
         401  1.9955696E-03
         402  1.8098529E-03
         403 -2.6070538E-03
         404 -4.5926768E-02
         405 -6.6164874E-02
         406 -1.9780009E-03
         407 -7.6100281E-03
         408  3.7300456E-04
         409  2.3454363E-02
         410  3.5602555E-02
         411  2.6941036E-03
         412 -1.0130836E-02
         413  3.9213831E-03
         414  2.5394296E-02
         415  3.5427470E-02
         416  6.5792613E-03
         417  1.6384402E-04
         418  1.8158251E-03
         419 -2.7510922E-03
         420 -1.7569737E-03
         421 -2.6667153E-04
         422  1.6647219E-04
         423  6.4535666E-04
         424  5.0709723E-04
         425  3.3434451E-04
         426 -8.8334164E-05
         427  1.6742462E-04
         428  7.1838259E-04
         429  2.3280651E-05
         430 -2.0040962E-04
         431  5.4970700E-05
         432 -1.2099189E-04
         433  9.4868708E-04
         434 -1.4070359E-04
         435  9.6620344E-05
         436 -5.3004746E-04
         437 -1.9055726E-04
         438  2.1023757E-03
         439 -1.8821474E-03
         440  3.1860068E-04
         441 -4.2168115E-04
         442 -3.3889604E-03
         443 -2.9804085E-03
         444  5.3452658E-03
         445  1.1673759E-02
         446 -1.0300849E-02
         447 -1.2638097E-03
         448 -3.1714572E-03
         449  7.1142288E-03
         450  1.6858546E-03
         451 -2.3874938E-03
         452 -1.6876569E-03
         453  1.1865525E-03
         454 -1.2464870E-03
         455  8.6435530E-04
         456 -7.9558941E-04
         457 -1.0638152E-03
         458  9.0334658E-04
         459 -5.1234115E-04
         460  5.5408973E-04
         461  7.7944278E-04
         462 -7.6982722E-04
         463  1.6971119E-04
         464  1.3664829E-03
         465 -1.1706951E-03
         466  3.1897836E-04
         467  2.8320947E-03
         468 -1.3663615E-03
         469 -3.9615533E-03
         470 -1.1530774E-02
         471 -1.9553534E-03
         472 -1.6944982E-03
         473  8.1386807E-04
         474 -9.5852446E-03
         475 -1.9929223E-03
         476 -1.3512585E-02
