 [Molden Format]
 [Atoms] Angs
N       1      7      3.32500386      3.02703132      0.09515296
C       2      6      3.15286375      1.89091844      0.04510585
C       3      6      2.82805887      0.51902514     -0.00355401
C       4      6      3.74211532     -0.47999849      0.00042021
C       5      6      5.18588572     -0.40392987     -0.00943392
C       6      6      5.90170588      0.74200092     -0.37007496
C       7      6      7.28308358      0.74039425     -0.35724978
C       8      6      7.98081443     -0.39890664      0.01323733
C       9      6      7.28616995     -1.54731616      0.36144761
C      10      6      5.90619841     -1.55314064      0.34290970
C      11      6      1.37940360      0.25055132     -0.00583083
C      12      6      0.50200989      1.10019063      0.66964788
C      13      6     -0.85429901      0.85001189      0.68241360
C      14      6     -1.38050727     -0.25244541      0.00877897
C      15      6     -2.82908690     -0.52119376      0.00651161
C      16      6     -3.15376810     -1.89306630     -0.04422947
N      17      7     -3.32606014     -3.02906963     -0.09624871
C      18      6     -3.74358308      0.47743730      0.00422285
C      19      6     -5.18732543      0.40046772      0.01389919
C      20      6     -5.90830018      1.54916636     -0.33873508
C      21      6     -7.28825737      1.54234641     -0.35785586
C      22      6     -7.98222221      0.39347133     -0.00982825
C      23      6     -7.28383662     -0.74528011      0.36109561
C      24      6     -5.90245947     -0.74589815      0.37449700
C      25      6     -0.50309399     -1.10201324     -0.66679671
C      26      6      0.85321549     -0.85188212     -0.67949776
H      27      1      3.34853781     -1.48783975      0.05525170
H      28      1      5.37355050      1.63085158     -0.67674986
H      29      1      7.81898577      1.63421554     -0.64099433
H      30      1      9.06057289     -0.39332261      0.02395603
H      31      1      7.82426918     -2.44030085      0.64385385
H      32      1      5.36943496     -2.45068143      0.61596386
H      33      1      0.89249634      1.95456632      1.20398064
H      34      1     -1.50692834      1.50522620      1.23956163
H      35      1     -3.35060229      1.48557847     -0.04921147
H      36      1     -5.37204801      2.44702472     -0.61174810
H      37      1     -7.82687860      2.43485662     -0.64077140
H      38      1     -9.06197243      0.38715212     -0.02093349
H      39      1     -7.81922838     -1.63934419      0.64504696
H      40      1     -5.37378908     -1.63432556      0.68151916
H      41      1     -0.89355824     -1.95634218     -1.20121691
H      42      1      1.50590234     -1.50708520     -1.23659800
 [GTO]
           1   0
s              4   1.000000
     53.07133108     -0.01198412
      9.13932236     -0.05472052
      0.73438355      0.58055871
      0.27989175      0.47700800
p              4   1.000000
      6.25562266      0.05713170
      1.62198954      0.28574555
      0.57180151      0.55178731
      0.22764403      0.26323149
s              7   1.000000
      0.47894987     -0.19076070
      0.05878681      0.92168561
      0.02775758      0.24204864
     53.07133108      0.00456654
      9.13932236      0.02085121
      0.73438355     -0.22122142
      0.27989175     -0.18176350
p              7   1.000000
      2.28619608     -0.01184661
      0.12644335      0.58216064
      0.04872781      0.60798032
      6.25562266     -0.02824801
      1.62198954     -0.14128309
      0.57180151     -0.27282391
      0.22764403     -0.13015131
 
           2   0
s              4   1.000000
     32.76588913     -0.01198412
      5.64255723     -0.05472053
      0.45340355      0.58055871
      0.17280332      0.47700800
p              4   1.000000
      5.28107903      0.05713170
      1.36930493      0.28574555
      0.48272236      0.55178731
      0.19218009      0.26323149
s              7   1.000000
      0.38350848     -0.19844638
      0.04707223      0.95881996
      0.02222627      0.25180068
     32.76588913      0.00586288
      5.64255723      0.02677040
      0.45340355     -0.28402119
      0.17280332     -0.23336206
p              7   1.000000
      1.83062075     -0.01173471
      0.10124670      0.57666140
      0.03901771      0.60223716
      5.28107903     -0.02686208
      1.36930493     -0.13435133
      0.48272236     -0.25943837
      0.19218009     -0.12376571
 
           3   0
s              4   1.000000
     34.92011041     -0.01198412
      6.01353196     -0.05472052
      0.48321295      0.58055871
      0.18416442      0.47700799
p              4   1.000000
      5.62828807      0.05713170
      1.45933105      0.28574555
      0.51445935      0.55178730
      0.20481513      0.26323149
s              7   1.000000
      0.38350848     -0.19624519
      0.04707223      0.94818465
      0.02222627      0.24900767
     34.92011041      0.00551784
      6.01353196      0.02519495
      0.48321295     -0.26730643
      0.18416442     -0.21962861
p              7   1.000000
      1.83062075     -0.01161233
      0.10124670      0.57064785
      0.03901771      0.59595689
      5.62828807     -0.02527606
      1.45933105     -0.12641882
      0.51445935     -0.24412034
      0.20481513     -0.11645821
 
           4   0
s              4   1.000000
     35.01464019     -0.01198412
      6.02981077     -0.05472052
      0.48452102      0.58055871
      0.18466295      0.47700800
p              4   1.000000
      5.64352401      0.05713170
      1.46328151      0.28574555
      0.51585201      0.55178731
      0.20536957      0.26323149
s              7   1.000000
      0.38350848     -0.19615678
      0.04707223      0.94775749
      0.02222627      0.24889550
     35.01464019      0.00550362
      6.02981077      0.02512999
      0.48452102     -0.26661724
      0.18466295     -0.21906234
p              7   1.000000
      1.83062075     -0.01160742
      0.10124670      0.57040633
      0.03901771      0.59570469
      5.64352401     -0.02521064
      1.46328151     -0.12609162
      0.51585201     -0.24348851
      0.20536957     -0.11615679
 
           5   0
s              4   1.000000
     34.99266326     -0.01198412
      6.02602617     -0.05472052
      0.48421692      0.58055871
      0.18454705      0.47700800
p              4   1.000000
      5.63998186      0.05713170
      1.46236308      0.28574555
      0.51552824      0.55178731
      0.20524068      0.26323149
s              7   1.000000
      0.38350848     -0.19617728
      0.04707223      0.94785653
      0.02222627      0.24892151
     34.99266326      0.00550692
      6.02602617      0.02514506
      0.48421692     -0.26677715
      0.18454705     -0.21919374
p              7   1.000000
      1.83062075     -0.01160856
      0.10124670      0.57046234
      0.03901771      0.59576315
      5.63998186     -0.02522582
      1.46236308     -0.12616755
      0.51552824     -0.24363512
      0.20524068     -0.11622673
 
           6   0
s              4   1.000000
     35.00569044     -0.01198412
      6.02826955     -0.05472053
      0.48439718      0.58055871
      0.18461575      0.47700799
p              4   1.000000
      5.64208153      0.05713170
      1.46290749      0.28574555
      0.51572016      0.55178731
      0.20531708      0.26323149
s              7   1.000000
      0.38350848     -0.19616513
      0.04707223      0.94779780
      0.02222627      0.24890608
     35.00569044      0.00550496
      6.02826955      0.02513613
      0.48439718     -0.26668234
      0.18461575     -0.21911584
p              7   1.000000
      1.83062075     -0.01160788
      0.10124670      0.57042913
      0.03901771      0.59572848
      5.64208153     -0.02521682
      1.46290749     -0.12612253
      0.51572016     -0.24354819
      0.20531708     -0.11618526
 
           7   0
s              4   1.000000
     34.91341900     -0.01198412
      6.01237965     -0.05472053
      0.48312036      0.58055871
      0.18412913      0.47700799
p              4   1.000000
      5.62720957      0.05713170
      1.45905141      0.28574555
      0.51436077      0.55178731
      0.20477589      0.26323149
s              7   1.000000
      0.38350848     -0.19625147
      0.04707223      0.94821500
      0.02222627      0.24901564
     34.91341900      0.00551885
      6.01237965      0.02519956
      0.48312036     -0.26735535
      0.18412913     -0.21966880
p              7   1.000000
      1.83062075     -0.01161268
      0.10124670      0.57066501
      0.03901771      0.59597481
      5.62720957     -0.02528071
      1.45905141     -0.12644204
      0.51436077     -0.24416518
      0.20477589     -0.11647960
 
           8   0
s              4   1.000000
     34.91757309     -0.01198412
      6.01309502     -0.05472052
      0.48317784      0.58055871
      0.18415103      0.47700799
p              4   1.000000
      5.62787911      0.05713170
      1.45922502      0.28574555
      0.51442197      0.55178731
      0.20480025      0.26323149
s              7   1.000000
      0.38350848     -0.19624757
      0.04707223      0.94819615
      0.02222627      0.24901070
     34.91757309      0.00551823
      6.01309502      0.02519670
      0.48317784     -0.26732498
      0.18415103     -0.21964385
p              7   1.000000
      1.83062075     -0.01161247
      0.10124670      0.57065434
      0.03901771      0.59596369
      5.62787911     -0.02527782
      1.45922502     -0.12642762
      0.51442197     -0.24413734
      0.20480025     -0.11646632
 
           9   0
s              4   1.000000
     34.90811170     -0.01198412
      6.01146569     -0.05472052
      0.48304692      0.58055871
      0.18410114      0.47700799
p              4   1.000000
      5.62635416      0.05713170
      1.45882962      0.28574555
      0.51428258      0.55178731
      0.20474476      0.26323149
s              7   1.000000
      0.38350848     -0.19625646
      0.04707223      0.94823909
      0.02222627      0.24902198
     34.90811170      0.00551965
      6.01146569      0.02520322
      0.48304692     -0.26739416
      0.18410114     -0.21970069
p              7   1.000000
      1.83062075     -0.01161296
      0.10124670      0.57067862
      0.03901771      0.59598905
      5.62635416     -0.02528439
      1.45882962     -0.12646047
      0.51428258     -0.24420076
      0.20474476     -0.11649658
 
          10   0
s              4   1.000000
     35.02710239     -0.01198412
      6.03195687     -0.05472052
      0.48469347      0.58055871
      0.18472868      0.47700799
p              4   1.000000
      5.64553262      0.05713170
      1.46380231      0.28574555
      0.51603561      0.55178731
      0.20544267      0.26323149
s              7   1.000000
      0.38350848     -0.19614518
      0.04707223      0.94770140
      0.02222627      0.24888078
     35.02710239      0.00550175
      6.03195687      0.02512145
      0.48469347     -0.26652664
      0.18472868     -0.21898791
p              7   1.000000
      1.83062075     -0.01160677
      0.10124670      0.57037463
      0.03901771      0.59567160
      5.64553262     -0.02520204
      1.46380231     -0.12604861
      0.51603561     -0.24340545
      0.20544267     -0.11611717
 
          11   0
s              4   1.000000
     35.13558438     -0.01198412
      6.05063836     -0.05472053
      0.48619461      0.58055871
      0.18530080      0.47700799
p              4   1.000000
      5.66301733      0.05713170
      1.46833583      0.28574555
      0.51763382      0.55178731
      0.20607894      0.26323149
s              7   1.000000
      0.38350848     -0.19604459
      0.04707223      0.94721543
      0.02222627      0.24875315
     35.13558438      0.00548552
      6.05063836      0.02504736
      0.48619461     -0.26574053
      0.18530080     -0.21834201
p              7   1.000000
      1.83062075     -0.01160118
      0.10124670      0.57009988
      0.03901771      0.59538464
      5.66301733     -0.02512742
      1.46833583     -0.12567539
      0.51763382     -0.24268475
      0.20607894     -0.11577336
 
          12   0
s              4   1.000000
     35.01671752     -0.01198412
      6.03016851     -0.05472053
      0.48454977      0.58055871
      0.18467391      0.47700799
p              4   1.000000
      5.64385883      0.05713170
      1.46336832      0.28574555
      0.51588262      0.55178730
      0.20538176      0.26323149
s              7   1.000000
      0.38350848     -0.19615485
      0.04707223      0.94774813
      0.02222627      0.24889304
     35.01671752      0.00550330
      6.03016851      0.02512857
      0.48454977     -0.26660213
      0.18467391     -0.21904993
p              7   1.000000
      1.83062075     -0.01160731
      0.10124670      0.57040105
      0.03901771      0.59569919
      5.64385883     -0.02520921
      1.46336832     -0.12608445
      0.51588262     -0.24347466
      0.20538176     -0.11615019
 
          13   0
s              4   1.000000
     35.00299070     -0.01198412
      6.02780464     -0.05472052
      0.48435982      0.58055871
      0.18460152      0.47700799
p              4   1.000000
      5.64164639      0.05713170
      1.46279467      0.28574555
      0.51568039      0.55178731
      0.20530125      0.26323149
s              7   1.000000
      0.38350848     -0.19616765
      0.04707223      0.94780996
      0.02222627      0.24890930
     35.00299070      0.00550537
      6.02780464      0.02513798
      0.48435982     -0.26670198
      0.18460152     -0.21913197
p              7   1.000000
      1.83062075     -0.01160802
      0.10124670      0.57043601
      0.03901771      0.59573568
      5.64164639     -0.02521869
      1.46279467     -0.12613186
      0.51568039     -0.24356620
      0.20530125     -0.11619386
 
          14   0
s              4   1.000000
     35.13542670     -0.01198412
      6.05061121     -0.05472052
      0.48619243      0.58055871
      0.18529997      0.47700799
p              4   1.000000
      5.66299191      0.05713170
      1.46832924      0.28574555
      0.51763150      0.55178731
      0.20607802      0.26323149
s              7   1.000000
      0.38350848     -0.19604474
      0.04707223      0.94721613
      0.02222627      0.24875335
     35.13542670      0.00548554
      6.05061121      0.02504746
      0.48619243     -0.26574167
      0.18529997     -0.21834295
p              7   1.000000
      1.83062075     -0.01160119
      0.10124670      0.57010027
      0.03901771      0.59538505
      5.66299191     -0.02512753
      1.46832924     -0.12567594
      0.51763150     -0.24268579
      0.20607802     -0.11577385
 
          15   0
s              4   1.000000
     34.92012599     -0.01198412
      6.01353465     -0.05472053
      0.48321317      0.58055871
      0.18416450      0.47700799
p              4   1.000000
      5.62829058      0.05713170
      1.45933170      0.28574555
      0.51445958      0.55178731
      0.20481522      0.26323149
s              7   1.000000
      0.38350848     -0.19624518
      0.04707223      0.94818457
      0.02222627      0.24900767
     34.92012599      0.00551784
      6.01353465      0.02519494
      0.48321317     -0.26730631
      0.18416450     -0.21962852
p              7   1.000000
      1.83062075     -0.01161233
      0.10124670      0.57064780
      0.03901771      0.59595685
      5.62829058     -0.02527605
      1.45933170     -0.12641876
      0.51445958     -0.24412023
      0.20481522     -0.11645816
 
          16   0
s              4   1.000000
     32.76601270     -0.01198412
      5.64257851     -0.05472052
      0.45340526      0.58055871
      0.17280397      0.47700799
p              4   1.000000
      5.28109895      0.05713170
      1.36931010      0.28574555
      0.48272418      0.55178731
      0.19218082      0.26323149
s              7   1.000000
      0.38350848     -0.19844624
      0.04707223      0.95881931
      0.02222627      0.25180051
     32.76601270      0.00586285
      5.64257851      0.02677030
      0.45340526     -0.28402017
      0.17280397     -0.23336122
p              7   1.000000
      1.83062075     -0.01173470
      0.10124670      0.57666101
      0.03901771      0.60223679
      5.28109895     -0.02686198
      1.36931010     -0.13435085
      0.48272418     -0.25943744
      0.19218082     -0.12376527
 
          17   0
s              4   1.000000
     53.07133208     -0.01198412
      9.13932253     -0.05472052
      0.73438356      0.58055871
      0.27989175      0.47700799
p              4   1.000000
      6.25562278      0.05713170
      1.62198957      0.28574555
      0.57180152      0.55178731
      0.22764404      0.26323149
s              7   1.000000
      0.47894987     -0.19076070
      0.05878681      0.92168561
      0.02775758      0.24204864
     53.07133208      0.00456654
      9.13932253      0.02085121
      0.73438356     -0.22122141
      0.27989175     -0.18176350
p              7   1.000000
      2.28619608     -0.01184661
      0.12644335      0.58216064
      0.04872781      0.60798032
      6.25562278     -0.02824801
      1.62198957     -0.14128309
      0.57180152     -0.27282390
      0.22764404     -0.13015131
 
          18   0
s              4   1.000000
     35.01467197     -0.01198412
      6.02981625     -0.05472053
      0.48452146      0.58055871
      0.18466312      0.47700799
p              4   1.000000
      5.64352913      0.05713170
      1.46328283      0.28574555
      0.51585248      0.55178731
      0.20536976      0.26323149
s              7   1.000000
      0.38350848     -0.19615675
      0.04707223      0.94775734
      0.02222627      0.24889548
     35.01467197      0.00550361
      6.02981625      0.02512997
      0.48452146     -0.26661701
      0.18466312     -0.21906215
p              7   1.000000
      1.83062075     -0.01160742
      0.10124670      0.57040626
      0.03901771      0.59570461
      5.64352913     -0.02521062
      1.46328283     -0.12609151
      0.51585248     -0.24348830
      0.20536976     -0.11615669
 
          19   0
s              4   1.000000
     34.99272648     -0.01198412
      6.02603705     -0.05472053
      0.48421779      0.58055871
      0.18454739      0.47700799
p              4   1.000000
      5.63999204      0.05713170
      1.46236572      0.28574555
      0.51552917      0.55178730
      0.20524105      0.26323149
s              7   1.000000
      0.38350848     -0.19617722
      0.04707223      0.94785624
      0.02222627      0.24892144
     34.99272648      0.00550691
      6.02603705      0.02514502
      0.48421779     -0.26677669
      0.18454739     -0.21919336
p              7   1.000000
      1.83062075     -0.01160855
      0.10124670      0.57046216
      0.03901771      0.59576299
      5.63999204     -0.02522578
      1.46236572     -0.12616733
      0.51552917     -0.24363470
      0.20524105     -0.11622653
 
          20   0
s              4   1.000000
     35.02709776     -0.01198412
      6.03195607     -0.05472052
      0.48469341      0.58055871
      0.18472865      0.47700799
p              4   1.000000
      5.64553187      0.05713170
      1.46380211      0.28574555
      0.51603554      0.55178731
      0.20544264      0.26323149
s              7   1.000000
      0.38350848     -0.19614518
      0.04707223      0.94770143
      0.02222627      0.24888078
     35.02709776      0.00550175
      6.03195607      0.02512145
      0.48469341     -0.26652667
      0.18472865     -0.21898793
p              7   1.000000
      1.83062075     -0.01160677
      0.10124670      0.57037464
      0.03901771      0.59567160
      5.64553187     -0.02520205
      1.46380211     -0.12604863
      0.51603554     -0.24340548
      0.20544264     -0.11611718
 
          21   0
s              4   1.000000
     34.90812314     -0.01198412
      6.01146766     -0.05472052
      0.48304708      0.58055871
      0.18410120      0.47700800
p              4   1.000000
      5.62635601      0.05713170
      1.45883010      0.28574555
      0.51428275      0.55178731
      0.20474483      0.26323149
s              7   1.000000
      0.38350848     -0.19625645
      0.04707223      0.94823903
      0.02222627      0.24902196
     34.90812314      0.00551965
      6.01146766      0.02520321
      0.48304708     -0.26739408
      0.18410120     -0.21970062
p              7   1.000000
      1.83062075     -0.01161296
      0.10124670      0.57067859
      0.03901771      0.59598901
      5.62635601     -0.02528438
      1.45883010     -0.12646043
      0.51428275     -0.24420069
      0.20474483     -0.11649654
 
          22   0
s              4   1.000000
     34.91757818     -0.01198412
      6.01309589     -0.05472052
      0.48317791      0.58055871
      0.18415106      0.47700799
p              4   1.000000
      5.62787993      0.05713170
      1.45922523      0.28574555
      0.51442205      0.55178731
      0.20480028      0.26323149
s              7   1.000000
      0.38350848     -0.19624757
      0.04707223      0.94819613
      0.02222627      0.24901070
     34.91757818      0.00551822
      6.01309589      0.02519670
      0.48317791     -0.26732494
      0.18415106     -0.21964382
p              7   1.000000
      1.83062075     -0.01161247
      0.10124670      0.57065433
      0.03901771      0.59596369
      5.62787993     -0.02527782
      1.45922523     -0.12642761
      0.51442205     -0.24413731
      0.20480028     -0.11646630
 
          23   0
s              4   1.000000
     34.91342664     -0.01198412
      6.01238096     -0.05472052
      0.48312046      0.58055871
      0.18412917      0.47700800
p              4   1.000000
      5.62721080      0.05713170
      1.45905173      0.28574555
      0.51436089      0.55178731
      0.20477593      0.26323149
s              7   1.000000
      0.38350848     -0.19625147
      0.04707223      0.94821496
      0.02222627      0.24901564
     34.91342664      0.00551885
      6.01238096      0.02519956
      0.48312046     -0.26735529
      0.18412917     -0.21966876
p              7   1.000000
      1.83062075     -0.01161268
      0.10124670      0.57066498
      0.03901771      0.59597481
      5.62721080     -0.02528070
      1.45905173     -0.12644202
      0.51436089     -0.24416513
      0.20477593     -0.11647958
 
          24   0
s              4   1.000000
     35.00570132     -0.01198412
      6.02827143     -0.05472052
      0.48439733      0.58055871
      0.18461581      0.47700799
p              4   1.000000
      5.64208328      0.05713170
      1.46290794      0.28574555
      0.51572032      0.55178731
      0.20531715      0.26323149
s              7   1.000000
      0.38350848     -0.19616512
      0.04707223      0.94779774
      0.02222627      0.24890608
     35.00570132      0.00550496
      6.02827143      0.02513612
      0.48439733     -0.26668226
      0.18461581     -0.21911577
p              7   1.000000
      1.83062075     -0.01160788
      0.10124670      0.57042910
      0.03901771      0.59572848
      5.64208328     -0.02521682
      1.46290794     -0.12612249
      0.51572032     -0.24354812
      0.20531715     -0.11618523
 
          25   0
s              4   1.000000
     35.01682431     -0.01198412
      6.03018690     -0.05472052
      0.48455125      0.58055871
      0.18467447      0.47700799
p              4   1.000000
      5.64387604      0.05713170
      1.46337278      0.28574555
      0.51588419      0.55178731
      0.20538239      0.26323149
s              7   1.000000
      0.38350848     -0.19615475
      0.04707223      0.94774765
      0.02222627      0.24889292
     35.01682431      0.00550329
      6.03018690      0.02512849
      0.48455125     -0.26660135
      0.18467447     -0.21904930
p              7   1.000000
      1.83062075     -0.01160731
      0.10124670      0.57040078
      0.03901771      0.59569890
      5.64387604     -0.02520914
      1.46337278     -0.12608408
      0.51588419     -0.24347395
      0.20538239     -0.11614984
 
          26   0
s              4   1.000000
     35.00302665     -0.01198412
      6.02781083     -0.05472052
      0.48436032      0.58055871
      0.18460171      0.47700799
p              4   1.000000
      5.64165219      0.05713170
      1.46279617      0.28574555
      0.51568092      0.55178731
      0.20530146      0.26323149
s              7   1.000000
      0.38350848     -0.19616761
      0.04707223      0.94780979
      0.02222627      0.24890925
     35.00302665      0.00550536
      6.02781083      0.02513795
      0.48436032     -0.26670172
      0.18460171     -0.21913176
p              7   1.000000
      1.83062075     -0.01160802
      0.10124670      0.57043591
      0.03901771      0.59573560
      5.64165219     -0.02521866
      1.46279617     -0.12613173
      0.51568092     -0.24356596
      0.20530146     -0.11619374
 
          27   0
s              4   1.000000
      8.31093491      0.05675242
      1.52079870      0.26014135
      0.42249453      0.53284611
      0.14022214      0.29162544
s              7   1.000000
      0.92936822     -0.06732587
      0.05643440      0.66942997
      0.02166600      0.51459509
      8.31093491     -0.02901740
      1.52079870     -0.13300974
      0.42249453     -0.27244312
      0.14022214     -0.14910749
p              4   1.000000
      0.64737396      0.05713170
      0.16785440      0.28574555
      0.05917387      0.55178731
      0.02355814      0.26323150
 
          28   0
s              4   1.000000
      8.31065541      0.05675242
      1.52074755      0.26014135
      0.42248032      0.53284611
      0.14021742      0.29162543
s              7   1.000000
      0.92936822     -0.06732623
      0.05643440      0.66943355
      0.02166600      0.51459785
      8.31065541     -0.02901814
      1.52074755     -0.13301317
      0.42248032     -0.27245014
      0.14021742     -0.14911133
p              4   1.000000
      0.64737396      0.05713170
      0.16785440      0.28574555
      0.05917387      0.55178731
      0.02355814      0.26323150
 
          29   0
s              4   1.000000
      8.30890236      0.05675242
      1.52042676      0.26014135
      0.42239120      0.53284611
      0.14018784      0.29162544
s              7   1.000000
      0.92936822     -0.06732848
      0.05643440      0.66945598
      0.02166600      0.51461509
      8.30890236     -0.02902283
      1.52042676     -0.13303466
      0.42239120     -0.27249417
      0.14018784     -0.14913542
p              4   1.000000
      0.64737396      0.05713170
      0.16785440      0.28574555
      0.05917387      0.55178731
      0.02355814      0.26323150
 
          30   0
s              4   1.000000
      8.30874079      0.05675242
      1.52039720      0.26014135
      0.42238299      0.53284611
      0.14018512      0.29162544
s              7   1.000000
      0.92936822     -0.06732869
      0.05643440      0.66945804
      0.02166600      0.51461668
      8.30874079     -0.02902326
      1.52039720     -0.13303664
      0.42238299     -0.27249822
      0.14018512     -0.14913765
p              4   1.000000
      0.64737396      0.05713170
      0.16785440      0.28574555
      0.05917387      0.55178731
      0.02355814      0.26323150
 
          31   0
s              4   1.000000
      8.30884462      0.05675242
      1.52041620      0.26014135
      0.42238827      0.53284611
      0.14018687      0.29162544
s              7   1.000000
      0.92936822     -0.06732856
      0.05643440      0.66945672
      0.02166600      0.51461564
      8.30884462     -0.02902299
      1.52041620     -0.13303537
      0.42238827     -0.27249562
      0.14018687     -0.14913622
p              4   1.000000
      0.64737396      0.05713170
      0.16785440      0.28574555
      0.05917387      0.55178731
      0.02355814      0.26323150
 
          32   0
s              4   1.000000
      8.30914037      0.05675242
      1.52047032      0.26014135
      0.42240330      0.53284611
      0.14019186      0.29162544
s              7   1.000000
      0.92936822     -0.06732818
      0.05643440      0.66945292
      0.02166600      0.51461273
      8.30914037     -0.02902220
      1.52047032     -0.13303174
      0.42240330     -0.27248819
      0.14019186     -0.14913215
p              4   1.000000
      0.64737396      0.05713170
      0.16785440      0.28574555
      0.05917387      0.55178731
      0.02355814      0.26323150
 
          33   0
s              4   1.000000
      8.30975189      0.05675242
      1.52058222      0.26014135
      0.42243439      0.53284611
      0.14020218      0.29162544
s              7   1.000000
      0.92936822     -0.06732739
      0.05643440      0.66944511
      0.02166600      0.51460672
      8.30975189     -0.02902056
      1.52058222     -0.13302424
      0.42243439     -0.27247283
      0.14020218     -0.14912375
p              4   1.000000
      0.64737396      0.05713170
      0.16785440      0.28574555
      0.05917387      0.55178731
      0.02355814      0.26323150
 
          34   0
s              4   1.000000
      8.30949358      0.05675242
      1.52053495      0.26014135
      0.42242126      0.53284611
      0.14019782      0.29162544
s              7   1.000000
      0.92936822     -0.06732772
      0.05643440      0.66944840
      0.02166600      0.51460928
      8.30949358     -0.02902125
      1.52053495     -0.13302741
      0.42242126     -0.27247932
      0.14019782     -0.14912730
p              4   1.000000
      0.64737396      0.05713170
      0.16785440      0.28574555
      0.05917387      0.55178731
      0.02355814      0.26323150
 
          35   0
s              4   1.000000
      8.31093262      0.05675242
      1.52079827      0.26014135
      0.42249441      0.53284611
      0.14022210      0.29162544
s              7   1.000000
      0.92936822     -0.06732587
      0.05643440      0.66943001
      0.02166600      0.51459512
      8.31093262     -0.02901740
      1.52079827     -0.13300977
      0.42249441     -0.27244318
      0.14022210     -0.14910752
p              4   1.000000
      0.64737396      0.05713170
      0.16785440      0.28574555
      0.05917387      0.55178731
      0.02355814      0.26323150
 
          36   0
s              4   1.000000
      8.30914042      0.05675242
      1.52047033      0.26014135
      0.42240331      0.53284611
      0.14019186      0.29162544
s              7   1.000000
      0.92936822     -0.06732818
      0.05643440      0.66945292
      0.02166600      0.51461273
      8.30914042     -0.02902220
      1.52047033     -0.13303174
      0.42240331     -0.27248819
      0.14019186     -0.14913215
p              4   1.000000
      0.64737396      0.05713170
      0.16785440      0.28574555
      0.05917387      0.55178731
      0.02355814      0.26323150
 
          37   0
s              4   1.000000
      8.30884454      0.05675242
      1.52041618      0.26014135
      0.42238826      0.53284611
      0.14018687      0.29162544
s              7   1.000000
      0.92936822     -0.06732856
      0.05643440      0.66945672
      0.02166600      0.51461564
      8.30884454     -0.02902299
      1.52041618     -0.13303537
      0.42238826     -0.27249562
      0.14018687     -0.14913622
p              4   1.000000
      0.64737396      0.05713170
      0.16785440      0.28574555
      0.05917387      0.55178731
      0.02355814      0.26323150
 
          38   0
s              4   1.000000
      8.30874092      0.05675242
      1.52039722      0.26014135
      0.42238300      0.53284611
      0.14018512      0.29162544
s              7   1.000000
      0.92936822     -0.06732869
      0.05643440      0.66945804
      0.02166600      0.51461666
      8.30874092     -0.02902326
      1.52039722     -0.13303664
      0.42238300     -0.27249822
      0.14018512     -0.14913764
p              4   1.000000
      0.64737396      0.05713170
      0.16785440      0.28574555
      0.05917387      0.55178731
      0.02355814      0.26323150
 
          39   0
s              4   1.000000
      8.30890219      0.05675242
      1.52042673      0.26014135
      0.42239119      0.53284611
      0.14018784      0.29162544
s              7   1.000000
      0.92936822     -0.06732848
      0.05643440      0.66945598
      0.02166600      0.51461509
      8.30890219     -0.02902283
      1.52042673     -0.13303466
      0.42239119     -0.27249417
      0.14018784     -0.14913542
p              4   1.000000
      0.64737396      0.05713170
      0.16785440      0.28574555
      0.05917387      0.55178731
      0.02355814      0.26323150
 
          40   0
s              4   1.000000
      8.31065288      0.05675242
      1.52074709      0.26014135
      0.42248019      0.53284611
      0.14021738      0.29162544
s              7   1.000000
      0.92936822     -0.06732623
      0.05643440      0.66943358
      0.02166600      0.51459787
      8.31065288     -0.02901815
      1.52074709     -0.13301320
      0.42248019     -0.27245020
      0.14021738     -0.14911136
p              4   1.000000
      0.64737396      0.05713170
      0.16785440      0.28574555
      0.05917387      0.55178731
      0.02355814      0.26323150
 
          41   0
s              4   1.000000
      8.30975453      0.05675242
      1.52058270      0.26014135
      0.42243453      0.53284611
      0.14020222      0.29162544
s              7   1.000000
      0.92936822     -0.06732739
      0.05643440      0.66944507
      0.02166600      0.51460669
      8.30975453     -0.02902055
      1.52058270     -0.13302421
      0.42243453     -0.27247276
      0.14020222     -0.14912371
p              4   1.000000
      0.64737396      0.05713170
      0.16785440      0.28574555
      0.05917387      0.55178731
      0.02355814      0.26323150
 
          42   0
s              4   1.000000
      8.30949343      0.05675242
      1.52053492      0.26014135
      0.42242125      0.53284611
      0.14019782      0.29162544
s              7   1.000000
      0.92936822     -0.06732772
      0.05643440      0.66944841
      0.02166600      0.51460928
      8.30949343     -0.02902125
      1.52053492     -0.13302741
      0.42242125     -0.27247932
      0.14019782     -0.14912730
p              4   1.000000
      0.64737396      0.05713170
      0.16785440      0.28574555
      0.05917387      0.55178731
      0.02355814      0.26323150
 
 [MO]
 Sym= Hole
 Ene= -0.6672530    
 Spin= Alpha
 Occup= 0
           1 -4.9646548E-04
           2 -1.0572569E-02
           3  5.4200878E-04
           4 -9.3607540E-04
           5  5.7105115E-04
           6 -2.1762038E-03
           7 -2.1916248E-03
           8 -7.3446077E-04
           9  2.6473114E-03
          10 -2.2497277E-03
          11 -2.2679407E-03
          12 -8.7615516E-04
          13 -1.7630438E-03
          14  3.4325731E-05
          15 -5.0125417E-04
          16 -1.6632736E-04
          17  1.9409664E-03
          18 -2.3421319E-03
          19  4.5394585E-03
          20 -3.0052327E-03
          21 -7.8723667E-04
          22  1.5511479E-03
          23  5.9594633E-04
          24  2.8867804E-04
          25  2.4643925E-03
          26 -4.0161973E-03
          27 -1.3472488E-02
          28 -2.8948416E-03
          29 -9.6191204E-04
          30 -1.2515143E-03
          31 -2.2911534E-03
          32  8.5688214E-04
          33 -2.0596494E-03
          34  4.6457211E-03
          35  3.1910741E-03
          36  3.1050507E-03
          37  1.0643321E-03
          38  4.5633893E-05
          39  8.1601052E-04
          40 -5.7344814E-04
          41  1.7653435E-03
          42 -2.6455105E-03
          43 -5.0332230E-03
          44 -7.4676867E-03
          45 -1.1081796E-04
          46 -6.9883402E-04
          47  1.0542539E-04
          48 -3.8574488E-04
          49 -8.0633274E-04
          50  1.8704466E-03
          51 -3.8187192E-03
          52 -1.3675482E-02
          53  2.4265247E-04
          54 -1.4623514E-04
          55  2.0837376E-04
          56 -3.8446032E-04
          57 -5.4435393E-05
          58 -9.9580291E-05
          59 -2.0665170E-03
          60 -4.7600353E-03
          61 -2.1515534E-05
          62  1.1421286E-04
          63  8.5935804E-05
          64 -1.6240883E-05
          65  4.8338341E-05
          66  1.9533269E-04
          67  3.7802407E-03
          68  1.0535706E-02
          69 -7.0625450E-05
          70  2.6525970E-04
          71  1.9476514E-05
          72  3.1156256E-04
          73 -1.0048039E-03
          74  3.4349022E-04
          75  3.8267556E-03
          76  1.6368669E-02
          77  4.6569461E-04
          78  2.0958843E-04
          79  2.5107921E-04
          80  1.2830649E-04
          81 -2.0437576E-03
          82 -5.5230135E-04
          83 -9.6140932E-03
          84  1.6130032E-03
          85  2.2146602E-04
          86  1.4416380E-03
          87 -1.9133139E-04
          88 -4.4926378E-04
          89 -2.9824688E-03
          90  4.5004446E-02
          91 -0.2584622    
          92  0.3923396    
          93 -6.9657690E-05
          94  9.4644562E-04
          95 -6.7754202E-03
          96  1.1837153E-02
          97 -2.6910675E-03
          98  5.7718497E-02
          99 -0.2659476    
         100  0.3766673    
         101  1.1504057E-04
         102  1.7094949E-03
         103 -7.7080056E-03
         104  1.0807781E-02
         105 -2.0274324E-03
         106  5.4308423E-04
         107  9.6232481E-03
         108 -1.6095078E-03
         109  2.1325033E-04
         110 -1.4433255E-03
         111  1.9306361E-04
         112  4.4794715E-04
         113  1.9466671E-03
         114  2.3539208E-03
         115 -4.5320895E-03
         116  2.7356807E-03
         117 -7.9205132E-04
         118 -1.5450689E-03
         119 -5.9571129E-04
         120 -2.8905045E-04
         121  2.6458181E-03
         122  2.2401966E-03
         123  2.2646945E-03
         124  8.8296167E-04
         125 -1.7650868E-03
         126 -3.3784894E-05
         127  5.0312612E-04
         128  1.7442442E-04
         129 -4.9854384E-04
         130  1.0544873E-02
         131 -5.4422347E-04
         132  1.0896123E-03
         133  5.7212875E-04
         134  2.1679783E-03
         135  2.1929943E-03
         136  7.3627458E-04
         137  2.4579260E-03
         138  3.9849146E-03
         139  1.3444468E-02
         140  2.7819658E-03
         141 -9.5971796E-04
         142  1.2489585E-03
         143  2.2873404E-03
         144 -8.6128712E-04
         145 -2.0531821E-03
         146 -4.6243081E-03
         147 -3.1393527E-03
         148 -2.9068966E-03
         149  1.0603603E-03
         150 -4.4382126E-05
         151 -8.1635464E-04
         152  5.7496753E-04
         153 -1.0107331E-03
         154 -3.3966918E-04
         155 -3.9117625E-03
         156 -1.6678676E-02
         157  4.6606176E-04
         158 -2.1114921E-04
         159 -2.5310242E-04
         160 -1.3850089E-04
         161  4.9525646E-05
         162 -1.7286286E-04
         163 -3.9368193E-03
         164 -1.1031871E-02
         165 -7.1088318E-05
         166 -2.6461919E-04
         167 -2.4915622E-05
         168 -3.2498399E-04
         169 -5.4681328E-05
         170  9.5239455E-05
         171  2.0206072E-03
         172  4.6007400E-03
         173 -2.2358950E-05
         174 -1.1447112E-04
         175 -8.7616172E-05
         176  1.3287113E-05
         177 -8.0497505E-04
         178 -1.8712620E-03
         179  3.9448082E-03
         180  1.4063821E-02
         181  2.4198114E-04
         182  1.4721740E-04
         183 -2.0456234E-04
         184  3.9475015E-04
         185  1.7612268E-03
         186  2.6214495E-03
         187  5.2323896E-03
         188  8.0440091E-03
         189 -1.1174067E-04
         190  6.9503556E-04
         191 -9.9330726E-05
         192  3.9980511E-04
         193 -2.9834169E-03
         194 -4.4959299E-02
         195  0.2584443    
         196 -0.3922327    
         197 -6.8889625E-05
         198 -9.5035421E-04
         199  6.7797834E-03
         200 -1.1835920E-02
         201 -2.6910489E-03
         202 -5.7691474E-02
         203  0.2658832    
         204 -0.3765870    
         205  1.1767591E-04
         206 -1.7150942E-03
         207  7.7073812E-03
         208 -1.0810498E-02
         209  9.4540212E-03
         210  2.4425279E-04
         211 -2.1227568E-03
         212  2.6043272E-03
         213  6.4804894E-04
         214 -1.6283495E-05
         215  2.1959818E-04
         216  1.4546505E-04
         217 -1.3979131E-04
         218  8.2748558E-04
         219  1.5254946E-03
         220  1.5258278E-04
         221 -3.7048466E-04
         222  3.2595356E-04
         223  5.2427617E-04
         224 -4.3539776E-04
         225 -7.3585987E-05
         226  9.6717027E-05
         227  4.4061278E-05
         228 -1.1695640E-04
         229 -3.9390099E-04
         230 -1.3340452E-04
         231  9.8416356E-05
         232 -2.5431844E-04
         233 -4.9079763E-04
         234  1.3382332E-03
         235 -6.3962094E-04
         236  8.1375876E-04
         237  3.7177924E-05
         238 -2.4018458E-04
         239  7.4451962E-03
         240 -3.3411579E-04
         241 -9.4880792E-04
         242  1.2903704E-02
         243 -1.7013451E-02
         244 -5.1148278E-03
         245 -2.9869346E-04
         246 -3.9411080E-03
         247  1.1996434E-02
         248 -1.5184983E-02
         249  9.4176019E-03
         250  2.4510612E-04
         251  2.1172001E-03
         252 -2.6049002E-03
         253 -6.4855913E-04
         254  1.3416854E-03
         255 -6.3929235E-04
         256 -8.1405474E-04
         257 -3.0819108E-05
         258  2.5649794E-04
         259 -4.0026844E-04
         260 -1.3366419E-04
         261 -1.0064696E-04
         262  2.5968559E-04
         263  5.0827273E-04
         264 -4.2937291E-04
         265 -7.3955707E-05
         266 -9.6693140E-05
         267 -4.3994540E-05
         268  1.1850991E-04
         269  1.5256078E-03
         270  1.5205503E-04
         271  3.6938355E-04
         272 -3.3186763E-04
         273 -5.4399815E-04
         274 -2.5305877E-05
         275  2.1943271E-04
         276 -1.4349692E-04
         277  1.3189523E-04
         278 -8.4887270E-04
         279  7.4212397E-03
         280 -3.3297000E-04
         281  9.4884878E-04
         282 -1.2903613E-02
         283  1.7012877E-02
         284 -5.1083188E-03
         285 -2.9925932E-04
         286  3.9406037E-03
         287 -1.1998029E-02
         288  1.5185018E-02
 Sym= Particle
 Ene= -0.6672530    
 Spin= Alpha
 Occup= 2
           1  7.6388218E-03
           2  1.4898867E-02
           3 -1.9244086E-02
           4  0.1144656    
           5 -2.7178961E-03
           6 -1.7084500E-03
           7  6.4823311E-03
           8 -1.1319655E-02
           9 -2.7101593E-02
          10 -4.9893069E-03
          11  3.0313203E-02
          12 -5.0829139E-02
          13  1.6959980E-02
          14 -6.7314082E-03
          15 -1.5824549E-02
          16  1.1000582E-03
          17  5.6202211E-03
          18  5.1393141E-03
          19  1.0875868E-02
          20 -0.2094605    
          21 -4.8630871E-03
          22 -6.6628996E-03
          23  1.2896081E-02
          24  2.8623264E-02
          25  1.1829483E-02
          26 -7.0999269E-03
          27  3.2681014E-02
          28  0.3575211    
          29 -1.2313022E-02
          30  7.7295448E-03
          31 -4.0078908E-03
          32 -7.7770188E-02
          33 -5.8622654E-03
          34  8.4207552E-03
          35  1.4529969E-02
          36  3.8840629E-02
          37  2.4401103E-03
          38 -2.6579679E-03
          39  3.1174551E-04
          40  6.9156382E-03
          41  8.0861766E-03
          42 -6.4642453E-03
          43 -5.2848812E-02
          44 -0.1350326    
          45 -6.4544026E-03
          46  1.9246517E-03
          47  9.2709959E-03
          48  1.6641676E-02
          49 -3.4168507E-03
          50  5.1891003E-03
          51 -1.5787445E-03
          52 -7.2691739E-03
          53  1.8220649E-03
          54 -2.4556085E-03
          55 -1.1386654E-03
          56 -4.3962463E-03
          57  2.4823397E-05
          58 -9.9960668E-04
          59  3.9850216E-02
          60  0.1301546    
          61 -9.1647380E-05
          62  1.5929816E-04
          63 -5.2838209E-03
          64 -1.5738741E-02
          65  2.2289944E-03
          66 -2.0607428E-03
          67 -2.4749278E-03
          68 -8.6892452E-03
          69 -1.5733017E-03
          70  2.1475770E-03
          71 -2.2929322E-03
          72 -6.1651822E-03
          73 -6.8285060E-03
          74  8.3113248E-03
          75 -4.8406105E-02
          76 -0.1376663    
          77  6.2574577E-03
          78 -2.8543684E-03
          79  8.4737809E-03
          80  1.8849306E-02
          81  4.0211595E-04
          82 -3.5539750E-02
          83  0.2135984    
          84 -0.3182164    
          85 -1.0825384E-03
          86  1.1831398E-02
          87 -5.9307460E-02
          88  8.0319472E-02
          89  7.0400974E-03
          90  3.4432448E-02
          91 -0.1228621    
          92  0.1631088    
          93 -5.9107956E-03
          94 -7.3839128E-03
          95  3.0156296E-02
          96 -4.5553450E-02
          97  8.9474191E-04
          98  2.0364907E-02
          99 -0.1426568    
         100  0.1690028    
         101 -7.2258880E-04
         102 -3.5544711E-03
         103  3.9075375E-02
         104 -4.3969769E-02
         105 -4.0303936E-04
         106 -3.5583865E-02
         107  0.2135765    
         108 -0.3181728    
         109  1.0782897E-03
         110  1.1846591E-02
         111 -5.9283178E-02
         112  8.0293491E-02
         113 -5.6237099E-03
         114  5.0715161E-03
         115  1.1182982E-02
         116 -0.2095324    
         117  4.8644482E-03
         118 -6.6526746E-03
         119  1.2851258E-02
         120  2.8630177E-02
         121  2.7041236E-02
         122 -4.9515036E-03
         123  3.0339962E-02
         124 -5.0779242E-02
         125 -1.6910311E-02
         126 -6.7347614E-03
         127 -1.5794229E-02
         128  1.0775224E-03
         129 -7.6389480E-03
         130  1.4868137E-02
         131 -1.9418845E-02
         132  0.1144238    
         133  2.7162277E-03
         134 -1.6884333E-03
         135  6.4851814E-03
         136 -1.1309005E-02
         137 -1.1762304E-02
         138 -7.0312382E-03
         139  3.2103054E-02
         140  0.3577995    
         141  1.2277743E-02
         142  7.6891887E-03
         143 -3.8649102E-03
         144 -7.7829666E-02
         145  5.8369446E-03
         146  8.3425529E-03
         147  1.4554855E-02
         148  3.8831662E-02
         149 -2.4163739E-03
         150 -2.6248437E-03
         151  2.8587392E-04
         152  6.9282521E-03
         153  6.8949540E-03
         154  8.4693413E-03
         155 -4.8493393E-02
         156 -0.1376631    
         157 -6.3038166E-03
         158 -2.8990053E-03
         159  8.4912442E-03
         160  1.8847348E-02
         161 -2.2542125E-03
         162 -2.1009340E-03
         163 -2.4721259E-03
         164 -8.6866897E-03
         165  1.5859895E-03
         166  2.1685229E-03
         167 -2.2969756E-03
         168 -6.1686109E-03
         169 -2.7909771E-05
         170 -1.0835180E-03
         171  3.9857037E-02
         172  0.1301727    
         173  9.3764662E-05
         174  1.6989080E-04
         175 -5.2839657E-03
         176 -1.5738321E-02
         177  3.4341493E-03
         178  5.2008186E-03
         179 -1.5773032E-03
         180 -7.2667887E-03
         181 -1.8309809E-03
         182 -2.4583028E-03
         183 -1.1356551E-03
         184 -4.3961057E-03
         185 -8.1432648E-03
         186 -6.4188321E-03
         187 -5.2949458E-02
         188 -0.1350206    
         189  6.5049231E-03
         190  1.9407088E-03
         191  9.2941150E-03
         192  1.6639233E-02
         193 -7.0152595E-03
         194  3.4432560E-02
         195 -0.1229372    
         196  0.1632065    
         197  5.8870013E-03
         198 -7.3796841E-03
         199  3.0181088E-02
         200 -4.5581471E-02
         201 -9.0660423E-04
         202  2.0334501E-02
         203 -0.1426332    
         204  0.1689189    
         205  7.2708976E-04
         206 -3.5467385E-03
         207  3.9072413E-02
         208 -4.3951359E-02
         209  8.7522920E-03
         210 -4.9608517E-03
         211  1.9700897E-03
         212 -1.1056729E-03
         213  4.9844183E-02
         214 -1.3189524E-03
         215 -3.8347094E-04
         216  4.4157603E-03
         217 -6.6880900E-03
         218 -1.1507060E-02
         219  3.6038458E-03
         220  2.1983411E-04
         221 -1.5166673E-04
         222  1.4932052E-03
         223  1.5806227E-03
         224 -7.2105968E-04
         225  5.9561827E-04
         226 -4.6017865E-04
         227  5.0396179E-03
         228  1.7906593E-02
         229 -2.3893879E-03
         230  3.8206670E-04
         231  1.8736729E-04
         232  9.0367231E-04
         233 -2.1386058E-04
         234  2.2282400E-03
         235  1.1930296E-03
         236 -3.5846685E-03
         237 -3.7006410E-03
         238 -1.3333426E-02
         239  5.7895333E-03
         240 -4.2526731E-03
         241  2.7822002E-03
         242 -1.7844684E-02
         243  3.0986883E-02
         244  5.1658577E-03
         245  3.6096224E-04
         246 -5.1559438E-03
         247 -2.2282725E-02
         248  3.6589053E-02
         249 -8.7875370E-03
         250  4.9570762E-03
         251  1.9490550E-03
         252 -1.1815667E-03
         253  4.9894530E-02
         254 -2.2403286E-03
         255 -1.2042605E-03
         256 -3.6105192E-03
         257 -3.7031735E-03
         258 -1.3331509E-02
         259  2.4098316E-03
         260 -3.8014314E-04
         261  1.9147388E-04
         262  9.1084163E-04
         263 -2.1979785E-04
         264  7.0972712E-04
         265 -5.8730581E-04
         266 -4.7437492E-04
         267  5.0326209E-03
         268  1.7914189E-02
         269 -3.6399416E-03
         270 -2.1056033E-04
         271 -1.5566587E-04
         272  1.5048762E-03
         273  1.5758096E-03
         274  1.3473179E-03
         275  3.8985067E-04
         276  4.4402643E-03
         277 -6.7316992E-03
         278 -1.1509128E-02
         279 -5.8208816E-03
         280  4.2520775E-03
         281  2.7990402E-03
         282 -1.7839240E-02
         283  3.1001171E-02
         284 -5.1759360E-03
         285 -3.5603406E-04
         286 -5.1636123E-03
         287 -2.2256773E-02
         288  3.6561172E-02
 Sym= Hole
 Ene= -0.3300212    
 Spin= Alpha
 Occup= 0
           1  1.3987391E-03
           2 -2.1288600E-02
           3  1.7269427E-02
           4  6.9610722E-02
           5 -1.8687890E-04
           6 -2.8760070E-03
           7 -3.6034011E-03
           8 -2.9327292E-03
           9  2.9432097E-02
          10 -6.8664406E-03
          11 -3.2276936E-02
          12 -2.3890678E-02
          13 -1.0596711E-02
          14  1.4079003E-04
          15  5.9175058E-03
          16  2.4778902E-04
          17 -1.3622023E-03
          18 -4.8627765E-03
          19  2.6301697E-02
          20 -0.1558068    
          21  3.1269528E-03
          22 -1.0395332E-03
          23  9.8141273E-03
          24  6.4730700E-03
          25 -2.1306017E-02
          26  2.2785638E-02
          27 -2.9759841E-02
          28 -0.2706484    
          29  1.0431178E-02
          30  3.4843476E-03
          31  5.4628579E-03
          32  1.2718267E-03
          33  5.9595807E-03
          34 -1.1375665E-02
          35  9.3733845E-03
          36  4.8320487E-02
          37 -6.5498718E-04
          38  1.9423378E-03
          39 -7.0470251E-04
          40 -4.9278084E-03
          41 -6.3507319E-03
          42  7.0508509E-03
          43  3.9368656E-02
          44  0.1013694    
          45  3.1186379E-03
          46  7.5547537E-04
          47 -5.4426433E-04
          48 -3.6113535E-04
          49  2.9183137E-03
          50 -4.6700807E-03
          51 -5.0348318E-03
          52 -9.6888458E-03
          53 -1.1134346E-03
          54  1.4899914E-03
          55  2.1737466E-04
          56  1.6785434E-03
          57 -4.6939717E-04
          58  7.4403838E-04
          59 -2.8672867E-02
          60 -9.7461849E-02
          61 -1.4947032E-04
          62 -1.0012034E-04
          63  9.2370977E-04
          64  3.7559716E-03
          65 -4.1736790E-04
          66  4.9890607E-04
          67 -4.6611628E-03
          68 -1.0213771E-02
          69 -5.9451020E-05
          70 -3.6982377E-04
          71  5.2591518E-04
          72  2.0267360E-03
          73  2.8394316E-03
          74 -4.7426322E-03
          75  3.6559951E-02
          76  0.1016500    
          77 -3.2551049E-03
          78  1.5672095E-03
          79 -2.8314949E-03
          80  3.9666184E-04
          81 -2.2221731E-03
          82  4.1255794E-02
          83 -0.2397006    
          84  0.3730707    
          85  2.3009684E-03
          86  1.5627176E-03
          87  5.0349656E-04
          88 -1.7221579E-03
          89  5.1648524E-03
          90  2.9226314E-02
          91 -0.1389991    
          92  0.1863534    
          93 -2.4632993E-03
          94  6.1742793E-04
          95  1.4336084E-04
          96  1.4355821E-03
          97 -6.6714170E-03
          98 -2.6521938E-02
          99  0.1474242    
         100 -0.1998773    
         101  4.8896098E-03
         102 -5.2084739E-04
         103 -5.0909707E-04
         104 -1.6469043E-03
         105 -2.2203231E-03
         106 -4.1318007E-02
         107  0.2397000    
         108 -0.3730283    
         109  2.3009309E-03
         110 -1.5616997E-03
         111 -5.0339702E-04
         112  1.7252011E-03
         113 -1.3555277E-03
         114  4.9161520E-03
         115 -2.6492605E-02
         116  0.1559045    
         117  3.1273477E-03
         118  1.0317917E-03
         119 -9.7793508E-03
         120 -6.4864391E-03
         121  2.9369162E-02
         122  6.8715727E-03
         123  3.2162149E-02
         124  2.3951575E-02
         125 -1.0564300E-02
         126 -1.4618659E-04
         127 -5.8912537E-03
         128 -2.5805397E-04
         129  1.3934220E-03
         130  2.1233927E-02
         131 -1.7103149E-02
         132 -6.9717720E-02
         133 -1.8814835E-04
         134  2.8724761E-03
         135  3.5874522E-03
         136  2.9343665E-03
         137 -2.1239327E-02
         138 -2.2705378E-02
         139  2.9312067E-02
         140  0.2709480    
         141  1.0404625E-02
         142 -3.4744183E-03
         143 -5.4543153E-03
         144 -1.2799655E-03
         145  5.9393900E-03
         146  1.1336983E-02
         147 -9.3222605E-03
         148 -4.8360456E-02
         149 -6.4847630E-04
         150 -1.9348514E-03
         151  7.1419304E-04
         152  4.9239793E-03
         153  2.8951820E-03
         154  4.8767370E-03
         155 -3.6651846E-02
         156 -0.1016574    
         157 -3.2779204E-03
         158 -1.5638710E-03
         159  2.8451511E-03
         160 -4.0013489E-04
         161 -4.3988702E-04
         162 -5.4216722E-04
         163  4.6671364E-03
         164  1.0228521E-02
         165 -5.2126885E-05
         166  3.7907055E-04
         167 -5.2342966E-04
         168 -2.0273060E-03
         169 -4.6970820E-04
         170 -8.0178084E-04
         171  2.8686196E-02
         172  9.7504318E-02
         173 -1.4826340E-04
         174  1.0078695E-04
         175 -9.1325532E-04
         176 -3.7605260E-03
         177  2.9225610E-03
         178  4.6709813E-03
         179  5.0460394E-03
         180  9.6749635E-03
         181 -1.1166086E-03
         182 -1.4951833E-03
         183 -2.2211226E-04
         184 -1.6812499E-03
         185 -6.3923593E-03
         186 -7.0196786E-03
         187 -3.9475475E-02
         188 -0.1014162    
         189  3.1424507E-03
         190 -7.5761660E-04
         191  5.5343006E-04
         192  3.5287210E-04
         193  5.1563182E-03
         194 -2.9209090E-02
         195  0.1390600    
         196 -0.1864222    
         197 -2.4612499E-03
         198 -6.1282574E-04
         199 -1.4878728E-04
         200 -1.4316203E-03
         201 -6.6652219E-03
         202  2.6475247E-02
         203 -0.1473811    
         204  0.1997923    
         205  4.8860335E-03
         206  5.2567496E-04
         207  5.0417590E-04
         208  1.6535113E-03
         209  8.2554556E-03
         210 -9.8772754E-04
         211 -9.9648256E-04
         212 -7.3180860E-03
         213 -8.4343534E-03
         214 -2.9757554E-03
         215  8.1890408E-04
         216 -2.3306720E-03
         217  2.0794163E-03
         218  7.4025714E-03
         219 -4.6732500E-03
         220 -2.8392905E-04
         221  3.1505403E-04
         222 -8.2822517E-04
         223 -3.2178152E-03
         224  6.4224505E-06
         225 -7.4407138E-04
         226  5.3814996E-04
         227 -2.2440602E-03
         228 -7.2591202E-03
         229  1.9321995E-03
         230 -7.4137293E-05
         231 -7.7055847E-05
         232 -6.7610567E-04
         233 -3.2475532E-03
         234 -3.5306944E-03
         235 -8.0634456E-04
         236  4.0194113E-04
         237  2.3165711E-03
         238  6.9282595E-03
         239 -5.8724973E-03
         240  1.4208667E-03
         241  3.3156837E-03
         242  3.2071867E-03
         243 -3.6532639E-03
         244  8.8108769E-03
         245  5.9668685E-04
         246 -2.2268845E-03
         247 -3.2417462E-03
         248  3.6113332E-03
         249  8.2416302E-03
         250 -9.9259778E-04
         251  9.9231792E-04
         252  7.2926502E-03
         253  8.4505267E-03
         254 -3.5309820E-03
         255 -8.0717303E-04
         256 -3.9837672E-04
         257 -2.3257956E-03
         258 -6.9270702E-03
         259  1.9580468E-03
         260 -7.7919096E-05
         261  7.9734615E-05
         262  6.8134774E-04
         263  3.2471698E-03
         264  6.7762580E-06
         265 -7.4266834E-04
         266 -5.4283778E-04
         267  2.2472353E-03
         268  7.2620059E-03
         269 -4.6921014E-03
         270 -2.8430647E-04
         271 -3.2228956E-04
         272  8.2895107E-04
         273  3.2198424E-03
         274 -2.9373176E-03
         275  8.1205211E-04
         276  2.3258887E-03
         277 -2.0720826E-03
         278 -7.3949108E-03
         279 -5.8794073E-03
         280  1.4222022E-03
         281 -3.3198462E-03
         282 -3.2056395E-03
         283  3.6398913E-03
         284  8.8179177E-03
         285  5.9664290E-04
         286  2.2292854E-03
         287  3.2464571E-03
         288 -3.6161707E-03
 Sym= Particle
 Ene= -0.3300212    
 Spin= Alpha
 Occup= 2
           1 -4.3563652E-03
           2  1.2923027E-02
           3 -3.1221327E-03
           4  7.5188342E-05
           5  6.2839244E-03
           6 -5.5889762E-03
           7 -7.0120608E-03
           8  2.6069630E-03
           9  1.8936094E-03
          10 -3.5859435E-03
          11  2.0692412E-04
          12  1.9665549E-03
          13  1.0943393E-03
          14 -9.7778784E-03
          15  8.0458745E-03
          16 -8.1011374E-03
          17 -3.4930371E-03
          18  1.0519366E-03
          19 -4.7872434E-03
          20  4.5548626E-03
          21 -4.6597130E-04
          22  5.0217896E-03
          23  8.0572284E-04
          24 -2.1098086E-03
          25 -5.8775186E-03
          26  4.3826029E-03
          27  1.5993465E-02
          28 -8.2328385E-03
          29  5.6190821E-03
          30 -3.3797103E-03
          31 -1.4441324E-02
          32  6.5934258E-03
          33  3.8613945E-03
          34 -6.4758896E-03
          35 -1.3822260E-04
          36 -2.7933359E-04
          37 -1.4785171E-03
          38  2.1980456E-03
          39  2.6514591E-03
          40 -1.2923139E-03
          41 -1.9931155E-03
          42  1.1305220E-03
          43 -2.2860702E-04
          44 -7.1229227E-03
          45  3.3353930E-03
          46 -4.1952794E-03
          47 -1.7684636E-04
          48  2.8889528E-03
          49  8.8860939E-04
          50 -1.0427498E-03
          51  2.5105642E-03
          52  6.7735598E-03
          53  1.6187300E-03
          54 -3.1221136E-03
          55 -7.6154101E-04
          56 -2.1791658E-03
          57 -4.8065319E-04
          58  2.3650742E-04
          59  5.5852819E-05
          60 -3.8075721E-04
          61  1.6481990E-03
          62 -1.0402254E-03
          63  2.1107483E-04
          64 -3.7638986E-04
          65 -1.4709358E-04
          66 -3.0586809E-05
          67 -2.3963712E-03
          68 -7.2649573E-03
          69  1.6641926E-03
          70 -1.5034082E-03
          71  1.2800670E-03
          72  2.0889684E-03
          73  1.1142609E-03
          74 -1.2279385E-03
          75  4.2338665E-03
          76  7.1993428E-03
          77  1.0905106E-03
          78  1.8891769E-05
          79  2.4132356E-03
          80 -3.5267596E-03
          81 -7.1494165E-04
          82  6.3923863E-03
          83 -2.4682824E-03
          84  3.5422461E-03
          85 -2.7579393E-03
          86 -5.8001946E-03
          87  1.7856699E-03
          88 -5.2611408E-04
          89  5.3728884E-03
          90 -5.0755493E-02
          91  0.2756519    
          92 -0.4079454    
          93 -5.8519123E-03
          94  9.5072910E-03
          95 -8.2676463E-02
          96  0.1232939    
          97 -4.0003280E-03
          98  5.6355227E-02
          99 -0.2736508    
         100  0.3966768    
         101  3.0662834E-03
         102 -2.1123048E-02
         103  8.5526228E-02
         104 -0.1213766    
         105  7.0406497E-04
         106  6.3705123E-03
         107 -2.4514678E-03
         108  3.5108894E-03
         109  2.7731752E-03
         110 -5.7882713E-03
         111  1.7872750E-03
         112 -5.1539636E-04
         113  3.5000683E-03
         114  1.0672490E-03
         115 -4.7947946E-03
         116  4.8484076E-03
         117  4.6014306E-04
         118  4.9970094E-03
         119  8.1079738E-04
         120 -2.2057984E-03
         121 -1.8939875E-03
         122 -3.5911086E-03
         123  1.9477618E-04
         124  2.1367834E-03
         125 -1.0880922E-03
         126 -9.7773094E-03
         127  8.0561470E-03
         128 -8.2134223E-03
         129  4.3493840E-03
         130  1.2928878E-02
         131 -3.1115133E-03
         132 -1.2907194E-04
         133 -6.2752548E-03
         134 -5.5873203E-03
         135 -7.0085651E-03
         136  2.6544016E-03
         137  5.8501763E-03
         138  4.3524643E-03
         139  1.5967334E-02
         140 -8.5385293E-03
         141 -5.5915266E-03
         142 -3.3601543E-03
         143 -1.4426323E-02
         144  6.6880044E-03
         145 -3.8499658E-03
         146 -6.4600888E-03
         147 -1.8809034E-04
         148 -4.2413143E-04
         149  1.4727671E-03
         150  2.1858134E-03
         151  2.6608896E-03
         152 -1.2718503E-03
         153 -1.1208615E-03
         154 -1.2443108E-03
         155  4.3540564E-03
         156  7.5652157E-03
         157 -1.0794450E-03
         158  2.0829353E-05
         159  2.3778430E-03
         160 -3.6342447E-03
         161  1.4881017E-04
         162 -1.6688142E-05
         163 -2.4473541E-03
         164 -7.4357218E-03
         165 -1.6587026E-03
         166 -1.5063694E-03
         167  1.2941069E-03
         168  2.1466941E-03
         169  4.8085899E-04
         170  2.4017524E-04
         171  3.9920051E-06
         172 -5.5287022E-04
         173 -1.6446699E-03
         174 -1.0415819E-03
         175  2.1673828E-04
         176 -3.4851654E-04
         177 -8.8950014E-04
         178 -1.0469597E-03
         179  2.5892735E-03
         180  7.0209331E-03
         181 -1.6165912E-03
         182 -3.1204531E-03
         183 -7.8175263E-04
         184 -2.2431884E-03
         185  1.9934112E-03
         186  1.1368379E-03
         187 -2.3994481E-04
         188 -7.1738251E-03
         189 -3.3355805E-03
         190 -4.1952059E-03
         191 -1.7569962E-04
         192  2.9244798E-03
         193 -5.3450931E-03
         194 -5.0761953E-02
         195  0.2757726    
         196 -0.4079864    
         197  5.8374731E-03
         198  9.5069436E-03
         199 -8.2709230E-02
         200  0.1232992    
         201  3.9700395E-03
         202  5.6330584E-02
         203 -0.2737283    
         204  0.3967427    
         205 -3.0400984E-03
         206 -2.1119423E-02
         207  8.5559860E-02
         208 -0.1213906    
         209  4.0637427E-03
         210  1.0575897E-02
         211 -3.0432392E-02
         212 -9.8432377E-03
         213  4.3874132E-03
         214 -1.0671051E-04
         215  2.3970269E-03
         216 -6.4719340E-04
         217 -1.5665452E-03
         218  1.0062176E-03
         219 -1.5561099E-03
         220  1.6760433E-03
         221 -1.3670961E-03
         222  7.3701420E-05
         223  1.6376713E-03
         224  4.0106801E-04
         225  2.2322964E-04
         226  6.6609640E-04
         227  3.8731183E-04
         228 -2.9269746E-04
         229  2.2253796E-04
         230  5.3227210E-04
         231 -4.9141649E-04
         232 -9.8366500E-04
         233 -1.4436184E-03
         234 -1.4117511E-03
         235  1.4931887E-03
         236  7.5161632E-04
         237  4.1775750E-03
         238  2.4772977E-04
         239 -3.9948178E-03
         240 -1.2340633E-03
         241 -1.9122142E-02
         242  6.0314812E-02
         243 -9.4835132E-02
         244  7.2915028E-03
         245 -7.7231624E-04
         246  9.6346857E-03
         247 -6.3966110E-02
         248  9.3568161E-02
         249 -4.0405025E-03
         250 -1.0569780E-02
         251 -3.0386278E-02
         252 -9.8273037E-03
         253  4.4085351E-03
         254  1.4082629E-03
         255 -1.4846514E-03
         256  7.5321359E-04
         257  4.1996413E-03
         258  3.1649941E-04
         259 -2.2722127E-04
         260 -5.2592676E-04
         261 -4.8486041E-04
         262 -9.9558686E-04
         263 -1.4881388E-03
         264 -4.0128361E-04
         265 -2.2036272E-04
         266  6.6516682E-04
         267  3.7596643E-04
         268 -3.2653974E-04
         269  1.5570590E-03
         270 -1.6766276E-03
         271 -1.3683627E-03
         272  9.5207935E-05
         273  1.6980123E-03
         274  1.0865209E-04
         275 -2.4042870E-03
         276 -6.3759804E-04
         277 -1.5732355E-03
         278  9.9620572E-04
         279  3.9829086E-03
         280  1.2290051E-03
         281 -1.9128190E-02
         282  6.0321581E-02
         283 -9.4848156E-02
         284 -7.2676493E-03
         285  7.5286807E-04
         286  9.6303551E-03
         287 -6.3982986E-02
         288  9.3572684E-02
