 [Molden Format]
 [Atoms] Angs
C       1      6      7.38402223     -2.98414099     -1.79095532
C       2      6      6.12005721     -3.35924376     -1.34022969
C       3      6      5.27747525     -2.45662186     -0.72068054
C       4      6      5.72632863     -1.15270765     -0.56540157
C       5      6      7.01635850     -0.76831105     -0.99934351
C       6      6      7.84479192     -1.69429535     -1.61968047
C       7      6      7.16944601      0.61501837     -0.64675871
C       8      6      8.19190694      1.53885997     -0.81903838
C       9      6      8.00128883      2.82891960     -0.36644599
C      10      6      6.80460114      3.20648486      0.23930873
C      11      6      5.77300302      2.30605746      0.42222297
C      12      6      5.96687436      1.00212422     -0.01126369
N      13      7      5.10454806     -0.07406186      0.02922117
C      14      6      3.81754620     -0.07058124      0.58699850
C      15      6      3.61559040      0.38679005      1.88642167
C      16      6      2.34808352      0.40553317      2.42709777
C      17      6      1.24681381     -0.03828191      1.69013914
N      18      7     -0.00028827     -0.02648092      2.28725039
C      19      6     -1.24719965     -0.00256137      1.69016747
C      20      6     -2.35058253     -0.44806335      2.42298553
C      21      6     -3.61827299     -0.41663353      1.88332787
C      22      6     -3.81838287      0.05514418      0.58875616
N      23      7     -5.10567625      0.07322003      0.03198527
C      24      6     -5.71843067      1.16146731     -0.55453415
C      25      6     -5.25975494      2.46332980     -0.69801903
C      26      6     -6.09448365      3.37730220     -1.31152002
C      27      6     -7.36035552      3.01538369     -1.76763755
C      28      6     -7.83107679      1.72769161     -1.60764624
C      29      6     -7.01065609      0.79048763     -0.99353796
C      30      6     -7.17475754     -0.59448611     -0.65261677
C      31      6     -8.20416509     -1.50883453     -0.83382535
C      32      6     -8.02423126     -2.80402795     -0.39165380
C      33      6     -6.83127707     -3.19586773      0.21237541
C      34      6     -5.79291707     -2.30505903      0.40401643
C      35      6     -5.97602796     -0.99608446     -0.01881751
C      36      6     -2.72690770      0.52107908     -0.13818961
C      37      6     -1.45999153      0.50641981      0.40775088
C      38      6      1.46182547     -0.53394299      0.40286082
C      39      6      2.72850883     -0.53614685     -0.14383728
H      40      1      8.01162705     -3.71905887     -2.27288468
H      41      1      5.79285211     -4.37980049     -1.47537714
H      42      1      4.30636920     -2.76049936     -0.35957542
H      43      1      8.82990285     -1.40724797     -1.95559738
H      44      1      9.11370128      1.25007622     -1.30130564
H      45      1      8.78466440      3.56215458     -0.48873442
H      46      1      6.67957009      4.22712620      0.57026110
H      47      1      4.84281836      2.61095965      0.87797982
H      48      1      4.45999508      0.71901512      2.47137216
H      49      1      2.20058010      0.76046874      3.43742917
H      50      1     -0.00042242     -0.03047016      3.29666895
H      51      1     -2.20455133     -0.81396058      3.42961193
H      52      1     -4.46420600     -0.74962635      2.46561811
H      53      1     -4.28715967      2.75710817     -0.33259096
H      54      1     -5.75947780      4.39648851     -1.43751520
H      55      1     -7.98150716      3.75887818     -2.24475355
H      56      1     -8.81769911      1.45074676     -1.94758850
H      57      1     -9.12303040     -1.20884034     -1.31483593
H      58      1     -8.81316516     -3.53007394     -0.52090588
H      59      1     -6.71462278     -4.22013421      0.53508340
H      60      1     -4.86575802     -2.62113577      0.85830779
H      61      1     -2.87654516      0.89730696     -1.13901760
H      62      1     -0.63292367      0.91062112     -0.15411336
H      63      1      0.63661596     -0.93733672     -0.16232717
H      64      1      2.87987806     -0.90191581     -1.14828130
 [GTO]
           1   0
s              4   1.000000
     34.92192423     -0.01198412
      6.01384432     -0.05472053
      0.48323805      0.58055871
      0.18417398      0.47700799
p              4   1.000000
      5.62858041      0.05713170
      1.45940685      0.28574555
      0.51448608      0.55178731
      0.20482577      0.26323149
s              7   1.000000
      0.38350848     -0.19624349
      0.04707223      0.94817642
      0.02222627      0.24900553
     34.92192423      0.00551757
      6.01384432      0.02519370
      0.48323805     -0.26729317
      0.18417398     -0.21961772
p              7   1.000000
      1.83062075     -0.01161224
      0.10124670      0.57064319
      0.03901771      0.59595204
      5.62858041     -0.02527480
      1.45940685     -0.12641253
      0.51448608     -0.24410818
      0.20482577     -0.11645241
 
           2   0
s              4   1.000000
     34.93498954     -0.01198412
      6.01609427     -0.05472053
      0.48341884      0.58055871
      0.18424289      0.47700800
p              4   1.000000
      5.63068623      0.05713170
      1.45995286      0.28574555
      0.51467856      0.55178731
      0.20490240      0.26323149
s              7   1.000000
      0.38350848     -0.19623123
      0.04707223      0.94811720
      0.02222627      0.24898998
     34.93498954      0.00551560
      6.01609427      0.02518470
      0.48341884     -0.26719772
      0.18424289     -0.21953929
p              7   1.000000
      1.83062075     -0.01161156
      0.10124670      0.57060972
      0.03901771      0.59591708
      5.63068623     -0.02526574
      1.45995286     -0.12636721
      0.51467856     -0.24402068
      0.20490240     -0.11641066
 
           3   0
s              4   1.000000
     34.94164347     -0.01198412
      6.01724013     -0.05472053
      0.48351092      0.58055871
      0.18427798      0.47700799
p              4   1.000000
      5.63175868      0.05713170
      1.46023093      0.28574555
      0.51477659      0.55178731
      0.20494143      0.26323149
s              7   1.000000
      0.38350848     -0.19622500
      0.04707223      0.94808707
      0.02222627      0.24898206
     34.94164347      0.00551460
      6.01724013      0.02518012
      0.48351092     -0.26714913
      0.18427798     -0.21949937
p              7   1.000000
      1.83062075     -0.01161121
      0.10124670      0.57059268
      0.03901771      0.59589928
      5.63175868     -0.02526113
      1.46023093     -0.12634414
      0.51477659     -0.24397613
      0.20494143     -0.11638941
 
           4   0
s              4   1.000000
     35.62900851     -0.01198412
      6.13561008     -0.05472052
      0.49302245      0.58055871
      0.18790306      0.47700799
p              4   1.000000
      5.74254551      0.05713170
      1.48895630      0.28574555
      0.52490317      0.55178731
      0.20897300      0.26323149
s              7   1.000000
      0.38350848     -0.19559736
      0.04707223      0.94505456
      0.02222627      0.24818568
     35.62900851      0.00541288
      6.13561008      0.02471568
      0.49302245     -0.26222155
      0.18790306     -0.21545069
p              7   1.000000
      1.83062075     -0.01157632
      0.10124670      0.56887823
      0.03901771      0.59410882
      5.74254551     -0.02479336
      1.48895630     -0.12400455
      0.52490317     -0.23945828
      0.20897300     -0.11423416
 
           5   0
s              4   1.000000
     35.41911367     -0.01198412
      6.09946445     -0.05472052
      0.49011799      0.58055871
      0.18679610      0.47700800
p              4   1.000000
      5.70871548      0.05713170
      1.48018468      0.28574555
      0.52181090      0.55178731
      0.20774191      0.26323149
s              7   1.000000
      0.38350848     -0.19578558
      0.04707223      0.94596395
      0.02222627      0.24842451
     35.41911367      0.00544355
      6.09946445      0.02485571
      0.49011799     -0.26370725
      0.18679610     -0.21667140
p              7   1.000000
      1.83062075     -0.01158678
      0.10124670      0.56939235
      0.03901771      0.59464571
      5.70871548     -0.02493440
      1.48018468     -0.12471001
      0.52181090     -0.24082054
      0.20774191     -0.11488403
 
           6   0
s              4   1.000000
     34.93706118     -0.01198412
      6.01645103     -0.05472053
      0.48344751      0.58055871
      0.18425381      0.47700800
p              4   1.000000
      5.63102013      0.05713170
      1.46003943      0.28574555
      0.51470908      0.55178731
      0.20491455      0.26323149
s              7   1.000000
      0.38350848     -0.19622929
      0.04707223      0.94810782
      0.02222627      0.24898752
     34.93706118      0.00551529
      6.01645103      0.02518328
      0.48344751     -0.26718259
      0.18425381     -0.21952686
p              7   1.000000
      1.83062075     -0.01161145
      0.10124670      0.57060441
      0.03901771      0.59591154
      5.63102013     -0.02526431
      1.46003943     -0.12636003
      0.51470908     -0.24400681
      0.20491455     -0.11640405
 
           7   0
s              4   1.000000
     35.41834252     -0.01198412
      6.09933166     -0.05472052
      0.49010732      0.58055871
      0.18679203      0.47700799
p              4   1.000000
      5.70859119      0.05713170
      1.48015245      0.28574555
      0.52179954      0.55178730
      0.20773739      0.26323149
s              7   1.000000
      0.38350848     -0.19578627
      0.04707223      0.94596732
      0.02222627      0.24842539
     35.41834252      0.00544366
      6.09933166      0.02485623
      0.49010732     -0.26371274
      0.18679203     -0.21667591
p              7   1.000000
      1.83062075     -0.01158682
      0.10124670      0.56939426
      0.03901771      0.59464774
      5.70859119     -0.02493493
      1.48015245     -0.12471261
      0.52179954     -0.24082558
      0.20773739     -0.11488643
 
           8   0
s              4   1.000000
     34.93702648     -0.01198412
      6.01644505     -0.05472052
      0.48344703      0.58055871
      0.18425363      0.47700799
p              4   1.000000
      5.63101453      0.05713170
      1.46003798      0.28574555
      0.51470857      0.55178731
      0.20491435      0.26323149
s              7   1.000000
      0.38350848     -0.19622932
      0.04707223      0.94810798
      0.02222627      0.24898754
     34.93702648      0.00551529
      6.01644505      0.02518330
      0.48344703     -0.26718284
      0.18425363     -0.21952707
p              7   1.000000
      1.83062075     -0.01161145
      0.10124670      0.57060450
      0.03901771      0.59591162
      5.63101453     -0.02526433
      1.46003798     -0.12636015
      0.51470857     -0.24400704
      0.20491435     -0.11640416
 
           9   0
s              4   1.000000
     34.92201663     -0.01198412
      6.01386023     -0.05472052
      0.48323933      0.58055871
      0.18417447      0.47700799
p              4   1.000000
      5.62859531      0.05713170
      1.45941071      0.28574555
      0.51448744      0.55178731
      0.20482632      0.26323149
s              7   1.000000
      0.38350848     -0.19624340
      0.04707223      0.94817600
      0.02222627      0.24900541
     34.92201663      0.00551756
      6.01386023      0.02519364
      0.48323933     -0.26729250
      0.18417447     -0.21961716
p              7   1.000000
      1.83062075     -0.01161223
      0.10124670      0.57064296
      0.03901771      0.59595179
      5.62859531     -0.02527474
      1.45941071     -0.12641221
      0.51448744     -0.24410756
      0.20482632     -0.11645211
 
          10   0
s              4   1.000000
     34.93490321     -0.01198412
      6.01607941     -0.05472052
      0.48341765      0.58055871
      0.18424243      0.47700799
p              4   1.000000
      5.63067231      0.05713170
      1.45994925      0.28574555
      0.51467729      0.55178731
      0.20490190      0.26323149
s              7   1.000000
      0.38350848     -0.19623131
      0.04707223      0.94811759
      0.02222627      0.24899008
     34.93490321      0.00551561
      6.01607941      0.02518476
      0.48341765     -0.26719835
      0.18424243     -0.21953981
p              7   1.000000
      1.83062075     -0.01161156
      0.10124670      0.57060994
      0.03901771      0.59591733
      5.63067231     -0.02526580
      1.45994925     -0.12636751
      0.51467729     -0.24402125
      0.20490190     -0.11641094
 
          11   0
s              4   1.000000
     34.94199333     -0.01198412
      6.01730038     -0.05472052
      0.48351576      0.58055871
      0.18427982      0.47700799
p              4   1.000000
      5.63181507      0.05713170
      1.46024555      0.28574555
      0.51478174      0.55178731
      0.20494348      0.26323149
s              7   1.000000
      0.38350848     -0.19622467
      0.04707223      0.94808549
      0.02222627      0.24898164
     34.94199333      0.00551454
      6.01730038      0.02517988
      0.48351576     -0.26714657
      0.18427982     -0.21949727
p              7   1.000000
      1.83062075     -0.01161119
      0.10124670      0.57059178
      0.03901771      0.59589835
      5.63181507     -0.02526089
      1.46024555     -0.12634293
      0.51478174     -0.24397379
      0.20494348     -0.11638830
 
          12   0
s              4   1.000000
     35.63142001     -0.01198412
      6.13602536     -0.05472052
      0.49305582      0.58055871
      0.18791578      0.47700799
p              4   1.000000
      5.74293419      0.05713170
      1.48905708      0.28574555
      0.52493870      0.55178731
      0.20898714      0.26323149
s              7   1.000000
      0.38350848     -0.19559521
      0.04707223      0.94504419
      0.02222627      0.24818295
     35.63142001      0.00541253
      6.13602536      0.02471408
      0.49305582     -0.26220458
      0.18791578     -0.21543674
p              7   1.000000
      1.83062075     -0.01157620
      0.10124670      0.56887237
      0.03901771      0.59410267
      5.74293419     -0.02479174
      1.48905708     -0.12399649
      0.52493870     -0.23944272
      0.20898714     -0.11422673
 
          13   0
s              4   1.000000
     61.42166820     -0.01198412
     10.57731951     -0.05472052
      0.84993275      0.58055871
      0.32393041      0.47700800
p              4   1.000000
      7.23989340      0.05713170
      1.87719625      0.28574555
      0.66176977      0.55178731
      0.26346195      0.26323149
s              7   1.000000
      0.47894987     -0.18771702
      0.05878681      0.90697965
      0.02775758      0.23818663
     61.42166820      0.00395559
     10.57731951      0.01806155
      0.84993275     -0.19162446
      0.32393041     -0.15744557
p              7   1.000000
      2.28619608     -0.01155977
      0.12644335      0.56806473
      0.04872781      0.59325923
      7.23989340     -0.02456879
      1.87719625     -0.12288137
      0.66176977     -0.23728937
      0.26346195     -0.11319947
 
          14   0
s              4   1.000000
     35.12879728     -0.01198412
      6.04946957     -0.05472053
      0.48610069      0.58055871
      0.18526501      0.47700799
p              4   1.000000
      5.66192341      0.05713170
      1.46805219      0.28574555
      0.51753383      0.55178731
      0.20603913      0.26323149
s              7   1.000000
      0.38350848     -0.19605086
      0.04707223      0.94724571
      0.02222627      0.24876110
     35.12879728      0.00548653
      6.04946957      0.02505198
      0.48610069     -0.26578958
      0.18526501     -0.21838231
p              7   1.000000
      1.83062075     -0.01160153
      0.10124670      0.57011700
      0.03901771      0.59540252
      5.66192341     -0.02513208
      1.46805219     -0.12569868
      0.51753383     -0.24272972
      0.20603913     -0.11579481
 
          15   0
s              4   1.000000
     35.00579890     -0.01198412
      6.02828823     -0.05472052
      0.48439868      0.58055871
      0.18461633      0.47700799
p              4   1.000000
      5.64209901      0.05713170
      1.46291202      0.28574555
      0.51572176      0.55178730
      0.20531772      0.26323149
s              7   1.000000
      0.38350848     -0.19616503
      0.04707223      0.94779731
      0.02222627      0.24890596
     35.00579890      0.00550494
      6.02828823      0.02513605
      0.48439868     -0.26668155
      0.18461633     -0.21911519
p              7   1.000000
      1.83062075     -0.01160788
      0.10124670      0.57042885
      0.03901771      0.59572819
      5.64209901     -0.02521675
      1.46291202     -0.12612216
      0.51572176     -0.24354747
      0.20531772     -0.11618492
 
          16   0
s              4   1.000000
     35.01774585     -0.01198412
      6.03034560     -0.05472052
      0.48456400      0.58055871
      0.18467933      0.47700799
p              4   1.000000
      5.64402457      0.05713170
      1.46341129      0.28574555
      0.51589777      0.55178731
      0.20538779      0.26323149
s              7   1.000000
      0.38350848     -0.19615389
      0.04707223      0.94774351
      0.02222627      0.24889184
     35.01774585      0.00550315
      6.03034560      0.02512786
      0.48456400     -0.26659465
      0.18467933     -0.21904379
p              7   1.000000
      1.83062075     -0.01160726
      0.10124670      0.57039844
      0.03901771      0.59569644
      5.64402457     -0.02520850
      1.46341129     -0.12608090
      0.51589777     -0.24346781
      0.20538779     -0.11614692
 
          17   0
s              4   1.000000
     35.02555046     -0.01198412
      6.03168961     -0.05472052
      0.48467200      0.58055871
      0.18472050      0.47700799
p              4   1.000000
      5.64528249      0.05713170
      1.46373745      0.28574555
      0.51601275      0.55178730
      0.20543357      0.26323149
s              7   1.000000
      0.38350848     -0.19614662
      0.04707223      0.94770838
      0.02222627      0.24888261
     35.02555046      0.00550198
      6.03168961      0.02512251
      0.48467200     -0.26653792
      0.18472050     -0.21899717
p              7   1.000000
      1.83062075     -0.01160685
      0.10124670      0.57037857
      0.03901771      0.59567568
      5.64528249     -0.02520311
      1.46373745     -0.12605397
      0.51601275     -0.24341579
      0.20543357     -0.11612210
 
          18   0
s              4   1.000000
     60.88427856     -0.01198412
     10.48477656     -0.05472052
      0.84249653      0.58055871
      0.32109628      0.47700799
p              4   1.000000
      7.17655022      0.05713170
      1.86077231      0.28574555
      0.65597982      0.55178731
      0.26115687      0.26323149
s              7   1.000000
      0.47894987     -0.18787908
      0.05878681      0.90776265
      0.02775758      0.23839226
     60.88427856      0.00399021
     10.48477656      0.01821964
      0.84249653     -0.19330174
      0.32109628     -0.15882369
p              7   1.000000
      2.28619608     -0.01157512
      0.12644335      0.56881921
      0.04872781      0.59404717
      7.17655022     -0.02477712
      1.86077231     -0.12392336
      0.65597982     -0.23930149
      0.26115687     -0.11415936
 
          19   0
s              4   1.000000
     35.02545152     -0.01198412
      6.03167257     -0.05472052
      0.48467063      0.58055871
      0.18471997      0.47700799
p              4   1.000000
      5.64526654      0.05713170
      1.46373332      0.28574555
      0.51601129      0.55178731
      0.20543299      0.26323149
s              7   1.000000
      0.38350848     -0.19614671
      0.04707223      0.94770883
      0.02222627      0.24888273
     35.02545152      0.00550199
      6.03167257      0.02512258
      0.48467063     -0.26653864
      0.18471997     -0.21899776
p              7   1.000000
      1.83062075     -0.01160686
      0.10124670      0.57037883
      0.03901771      0.59567597
      5.64526654     -0.02520318
      1.46373332     -0.12605431
      0.51601129     -0.24341645
      0.20543299     -0.11612241
 
          20   0
s              4   1.000000
     35.01789054     -0.01198412
      6.03037051     -0.05472052
      0.48456600      0.58055871
      0.18468010      0.47700799
p              4   1.000000
      5.64404789      0.05713170
      1.46341734      0.28574555
      0.51589990      0.55178731
      0.20538864      0.26323149
s              7   1.000000
      0.38350848     -0.19615376
      0.04707223      0.94774286
      0.02222627      0.24889167
     35.01789054      0.00550313
      6.03037051      0.02512776
      0.48456600     -0.26659360
      0.18468010     -0.21904292
p              7   1.000000
      1.83062075     -0.01160725
      0.10124670      0.57039807
      0.03901771      0.59569607
      5.64404789     -0.02520840
      1.46341734     -0.12608040
      0.51589990     -0.24346684
      0.20538864     -0.11614645
 
          21   0
s              4   1.000000
     35.00563968     -0.01198412
      6.02826081     -0.05472052
      0.48439648      0.58055871
      0.18461549      0.47700799
p              4   1.000000
      5.64207335      0.05713170
      1.46290537      0.28574555
      0.51571941      0.55178731
      0.20531679      0.26323149
s              7   1.000000
      0.38350848     -0.19616517
      0.04707223      0.94779802
      0.02222627      0.24890615
     35.00563968      0.00550497
      6.02826081      0.02513616
      0.48439648     -0.26668271
      0.18461549     -0.21911614
p              7   1.000000
      1.83062075     -0.01160789
      0.10124670      0.57042926
      0.03901771      0.59572864
      5.64207335     -0.02521686
      1.46290537     -0.12612271
      0.51571941     -0.24354853
      0.20531679     -0.11618542
 
          22   0
s              4   1.000000
     35.12867930     -0.01198412
      6.04944925     -0.05472053
      0.48609906      0.58055871
      0.18526438      0.47700799
p              4   1.000000
      5.66190439      0.05713170
      1.46804726      0.28574555
      0.51753209      0.55178731
      0.20603844      0.26323149
s              7   1.000000
      0.38350848     -0.19605097
      0.04707223      0.94724624
      0.02222627      0.24876124
     35.12867930      0.00548655
      6.04944925      0.02505206
      0.48609906     -0.26579043
      0.18526438     -0.21838301
p              7   1.000000
      1.83062075     -0.01160154
      0.10124670      0.57011730
      0.03901771      0.59540285
      5.66190439     -0.02513216
      1.46804726     -0.12569909
      0.51753209     -0.24273050
      0.20603844     -0.11579518
 
          23   0
s              4   1.000000
     61.42142612     -0.01198412
     10.57727782     -0.05472052
      0.84992940      0.58055871
      0.32392913      0.47700799
p              4   1.000000
      7.23986487      0.05713170
      1.87718885      0.28574555
      0.66176716      0.55178731
      0.26346091      0.26323149
s              7   1.000000
      0.47894987     -0.18771709
      0.05878681      0.90697999
      0.02775758      0.23818671
     61.42142612      0.00395560
     10.57727782      0.01806162
      0.84992940     -0.19162520
      0.32392913     -0.15744619
p              7   1.000000
      2.28619608     -0.01155978
      0.12644335      0.56806507
      0.04872781      0.59325957
      7.23986487     -0.02456888
      1.87718885     -0.12288184
      0.66176716     -0.23729027
      0.26346091     -0.11319991
 
          24   0
s              4   1.000000
     35.62909909     -0.01198412
      6.13562568     -0.05472052
      0.49302370      0.58055871
      0.18790354      0.47700799
p              4   1.000000
      5.74256011      0.05713170
      1.48896009      0.28574555
      0.52490451      0.55178731
      0.20897353      0.26323149
s              7   1.000000
      0.38350848     -0.19559728
      0.04707223      0.94505417
      0.02222627      0.24818556
     35.62909909      0.00541287
      6.13562568      0.02471562
      0.49302370     -0.26222091
      0.18790354     -0.21545016
p              7   1.000000
      1.83062075     -0.01157632
      0.10124670      0.56887800
      0.03901771      0.59410858
      5.74256011     -0.02479330
      1.48896009     -0.12400425
      0.52490451     -0.23945770
      0.20897353     -0.11423388
 
          25   0
s              4   1.000000
     34.94171308     -0.01198412
      6.01725212     -0.05472053
      0.48351188      0.58055871
      0.18427835      0.47700799
p              4   1.000000
      5.63176990      0.05713170
      1.46023384      0.28574555
      0.51477761      0.55178731
      0.20494184      0.26323149
s              7   1.000000
      0.38350848     -0.19622493
      0.04707223      0.94808675
      0.02222627      0.24898198
     34.94171308      0.00551459
      6.01725212      0.02518008
      0.48351188     -0.26714862
      0.18427835     -0.21949895
p              7   1.000000
      1.83062075     -0.01161121
      0.10124670      0.57059250
      0.03901771      0.59589912
      5.63176990     -0.02526108
      1.46023384     -0.12634390
      0.51477761     -0.24397567
      0.20494184     -0.11638919
 
          26   0
s              4   1.000000
     34.93499849     -0.01198412
      6.01609581     -0.05472052
      0.48341897      0.58055871
      0.18424293      0.47700799
p              4   1.000000
      5.63068767      0.05713170
      1.45995323      0.28574555
      0.51467869      0.55178731
      0.20490246      0.26323149
s              7   1.000000
      0.38350848     -0.19623122
      0.04707223      0.94811716
      0.02222627      0.24898995
     34.93499849      0.00551560
      6.01609581      0.02518470
      0.48341897     -0.26719765
      0.18424293     -0.21953923
p              7   1.000000
      1.83062075     -0.01161156
      0.10124670      0.57060969
      0.03901771      0.59591704
      5.63068767     -0.02526574
      1.45995323     -0.12636718
      0.51467869     -0.24402061
      0.20490246     -0.11641063
 
          27   0
s              4   1.000000
     34.92191427     -0.01198412
      6.01384260     -0.05472053
      0.48323791      0.58055871
      0.18417393      0.47700800
p              4   1.000000
      5.62857881      0.05713170
      1.45940644      0.28574555
      0.51448593      0.55178731
      0.20482571      0.26323149
s              7   1.000000
      0.38350848     -0.19624350
      0.04707223      0.94817646
      0.02222627      0.24900553
     34.92191427      0.00551757
      6.01384260      0.02519371
      0.48323791     -0.26729325
      0.18417393     -0.21961777
p              7   1.000000
      1.83062075     -0.01161224
      0.10124670      0.57064322
      0.03901771      0.59595208
      5.62857881     -0.02527481
      1.45940644     -0.12641256
      0.51448593     -0.24410825
      0.20482571     -0.11645244
 
          28   0
s              4   1.000000
     34.93707637     -0.01198412
      6.01645364     -0.05472052
      0.48344772      0.58055871
      0.18425389      0.47700799
p              4   1.000000
      5.63102258      0.05713170
      1.46004007      0.28574555
      0.51470931      0.55178731
      0.20491464      0.26323149
s              7   1.000000
      0.38350848     -0.19622928
      0.04707223      0.94810775
      0.02222627      0.24898749
     34.93707637      0.00551528
      6.01645364      0.02518327
      0.48344772     -0.26718248
      0.18425389     -0.21952677
p              7   1.000000
      1.83062075     -0.01161145
      0.10124670      0.57060437
      0.03901771      0.59591150
      5.63102258     -0.02526430
      1.46004007     -0.12635997
      0.51470931     -0.24400670
      0.20491464     -0.11640399
 
          29   0
s              4   1.000000
     35.41910093     -0.01198412
      6.09946226     -0.05472052
      0.49011782      0.58055871
      0.18679603      0.47700799
p              4   1.000000
      5.70871343      0.05713170
      1.48018415      0.28574555
      0.52181072      0.55178731
      0.20774184      0.26323149
s              7   1.000000
      0.38350848     -0.19578559
      0.04707223      0.94596402
      0.02222627      0.24842451
     35.41910093      0.00544355
      6.09946226      0.02485572
      0.49011782     -0.26370734
      0.18679603     -0.21667147
p              7   1.000000
      1.83062075     -0.01158679
      0.10124670      0.56939238
      0.03901771      0.59464575
      5.70871343     -0.02493441
      1.48018415     -0.12471005
      0.52181072     -0.24082063
      0.20774184     -0.11488407
 
          30   0
s              4   1.000000
     35.41848157     -0.01198412
      6.09935560     -0.05472052
      0.49010925      0.58055871
      0.18679276      0.47700800
p              4   1.000000
      5.70861360      0.05713170
      1.48015826      0.28574555
      0.52180159      0.55178731
      0.20773821      0.26323149
s              7   1.000000
      0.38350848     -0.19578615
      0.04707223      0.94596671
      0.02222627      0.24842521
     35.41848157      0.00544364
      6.09935560      0.02485613
      0.49010925     -0.26371175
      0.18679276     -0.21667510
p              7   1.000000
      1.83062075     -0.01158682
      0.10124670      0.56939391
      0.03901771      0.59464737
      5.70861360     -0.02493483
      1.48015826     -0.12471214
      0.52180159     -0.24082467
      0.20773821     -0.11488600
 
          31   0
s              4   1.000000
     34.93704438     -0.01198412
      6.01644813     -0.05472052
      0.48344728      0.58055871
      0.18425372      0.47700799
p              4   1.000000
      5.63101742      0.05713170
      1.46003873      0.28574555
      0.51470883      0.55178730
      0.20491446      0.26323149
s              7   1.000000
      0.38350848     -0.19622931
      0.04707223      0.94810790
      0.02222627      0.24898752
     34.93704438      0.00551529
      6.01644813      0.02518329
      0.48344728     -0.26718271
      0.18425372     -0.21952696
p              7   1.000000
      1.83062075     -0.01161145
      0.10124670      0.57060445
      0.03901771      0.59591158
      5.63101742     -0.02526432
      1.46003873     -0.12636008
      0.51470883     -0.24400692
      0.20491446     -0.11640410
 
          32   0
s              4   1.000000
     34.92199906     -0.01198412
      6.01385720     -0.05472052
      0.48323909      0.58055871
      0.18417438      0.47700800
p              4   1.000000
      5.62859247      0.05713170
      1.45940998      0.28574555
      0.51448718      0.55178731
      0.20482621      0.26323149
s              7   1.000000
      0.38350848     -0.19624342
      0.04707223      0.94817608
      0.02222627      0.24900543
     34.92199906      0.00551756
      6.01385720      0.02519365
      0.48323909     -0.26729262
      0.18417438     -0.21961727
p              7   1.000000
      1.83062075     -0.01161223
      0.10124670      0.57064299
      0.03901771      0.59595183
      5.62859247     -0.02527475
      1.45940998     -0.12641227
      0.51448718     -0.24410768
      0.20482621     -0.11645217
 
          33   0
s              4   1.000000
     34.93491949     -0.01198412
      6.01608221     -0.05472052
      0.48341787      0.58055871
      0.18424252      0.47700799
p              4   1.000000
      5.63067494      0.05713170
      1.45994993      0.28574555
      0.51467753      0.55178731
      0.20490199      0.26323149
s              7   1.000000
      0.38350848     -0.19623130
      0.04707223      0.94811752
      0.02222627      0.24899005
     34.93491949      0.00551561
      6.01608221      0.02518475
      0.48341787     -0.26719823
      0.18424252     -0.21953971
p              7   1.000000
      1.83062075     -0.01161156
      0.10124670      0.57060989
      0.03901771      0.59591729
      5.63067494     -0.02526579
      1.45994993     -0.12636745
      0.51467753     -0.24402114
      0.20490199     -0.11641089
 
          34   0
s              4   1.000000
     34.94195407     -0.01198412
      6.01729362     -0.05472053
      0.48351522      0.58055871
      0.18427962      0.47700799
p              4   1.000000
      5.63180874      0.05713170
      1.46024391      0.28574555
      0.51478117      0.55178731
      0.20494325      0.26323149
s              7   1.000000
      0.38350848     -0.19622471
      0.04707223      0.94808567
      0.02222627      0.24898169
     34.94195407      0.00551455
      6.01729362      0.02517991
      0.48351522     -0.26714686
      0.18427962     -0.21949751
p              7   1.000000
      1.83062075     -0.01161119
      0.10124670      0.57059188
      0.03901771      0.59589847
      5.63180874     -0.02526092
      1.46024391     -0.12634307
      0.51478117     -0.24397405
      0.20494325     -0.11638842
 
          35   0
s              4   1.000000
     35.63103054     -0.01198412
      6.13595829     -0.05472052
      0.49305043      0.58055871
      0.18791372      0.47700799
p              4   1.000000
      5.74287142      0.05713170
      1.48904080      0.28574555
      0.52493296      0.55178731
      0.20898486      0.26323149
s              7   1.000000
      0.38350848     -0.19559556
      0.04707223      0.94504587
      0.02222627      0.24818339
     35.63103054      0.00541258
      6.13595829      0.02471433
      0.49305043     -0.26220732
      0.18791372     -0.21543900
p              7   1.000000
      1.83062075     -0.01157622
      0.10124670      0.56887331
      0.03901771      0.59410368
      5.74287142     -0.02479200
      1.48904080     -0.12399779
      0.52493296     -0.23944523
      0.20898486     -0.11422794
 
          36   0
s              4   1.000000
     35.00968498     -0.01198412
      6.02895745     -0.05472052
      0.48445246      0.58055871
      0.18463682      0.47700799
p              4   1.000000
      5.64272535      0.05713170
      1.46307442      0.28574555
      0.51577901      0.55178731
      0.20534051      0.26323149
s              7   1.000000
      0.38350848     -0.19616140
      0.04707223      0.94777980
      0.02222627      0.24890138
     35.00968498      0.00550436
      6.02895745      0.02513339
      0.48445246     -0.26665328
      0.18463682     -0.21909196
p              7   1.000000
      1.83062075     -0.01160768
      0.10124670      0.57041895
      0.03901771      0.59571788
      5.64272535     -0.02521406
      1.46307442     -0.12610874
      0.51577901     -0.24352155
      0.20534051     -0.11617256
 
          37   0
s              4   1.000000
     35.00636108     -0.01198412
      6.02838504     -0.05472052
      0.48440646      0.58055871
      0.18461929      0.47700799
p              4   1.000000
      5.64218962      0.05713170
      1.46293552      0.28574555
      0.51573004      0.55178731
      0.20532102      0.26323149
s              7   1.000000
      0.38350848     -0.19616450
      0.04707223      0.94779477
      0.02222627      0.24890530
     35.00636108      0.00550486
      6.02838504      0.02513567
      0.48440646     -0.26667746
      0.18461929     -0.21911182
p              7   1.000000
      1.83062075     -0.01160785
      0.10124670      0.57042743
      0.03901771      0.59572670
      5.64218962     -0.02521636
      1.46293552     -0.12612022
      0.51573004     -0.24354372
      0.20532102     -0.11618313
 
          38   0
s              4   1.000000
     35.00642067     -0.01198412
      6.02839530     -0.05472052
      0.48440729      0.58055871
      0.18461961      0.47700799
p              4   1.000000
      5.64219922      0.05713170
      1.46293801      0.28574555
      0.51573092      0.55178731
      0.20532137      0.26323149
s              7   1.000000
      0.38350848     -0.19616445
      0.04707223      0.94779451
      0.02222627      0.24890523
     35.00642067      0.00550485
      6.02839530      0.02513563
      0.48440729     -0.26667702
      0.18461961     -0.21911147
p              7   1.000000
      1.83062075     -0.01160784
      0.10124670      0.57042727
      0.03901771      0.59572654
      5.64219922     -0.02521632
      1.46293801     -0.12612001
      0.51573092     -0.24354332
      0.20532137     -0.11618294
 
          39   0
s              4   1.000000
     35.00941508     -0.01198412
      6.02891097     -0.05472053
      0.48444872      0.58055871
      0.18463540      0.47700799
p              4   1.000000
      5.64268185      0.05713170
      1.46306314      0.28574555
      0.51577503      0.55178730
      0.20533893      0.26323149
s              7   1.000000
      0.38350848     -0.19616165
      0.04707223      0.94778101
      0.02222627      0.24890169
     35.00941508      0.00550440
      6.02891097      0.02513357
      0.48444872     -0.26665524
      0.18463540     -0.21909357
p              7   1.000000
      1.83062075     -0.01160769
      0.10124670      0.57041964
      0.03901771      0.59571861
      5.64268185     -0.02521425
      1.46306314     -0.12610967
      0.51577503     -0.24352335
      0.20533893     -0.11617341
 
          40   0
s              4   1.000000
      8.30892195      0.05675242
      1.52043035      0.26014135
      0.42239220      0.53284611
      0.14018817      0.29162544
s              7   1.000000
      0.92936822     -0.06732846
      0.05643440      0.66945572
      0.02166600      0.51461489
      8.30892195     -0.02902278
      1.52043035     -0.13303442
      0.42239220     -0.27249367
      0.14018817     -0.14913515
p              4   1.000000
      0.64737396      0.05713170
      0.16785440      0.28574555
      0.05917387      0.55178731
      0.02355814      0.26323150
 
          41   0
s              4   1.000000
      8.30897684      0.05675242
      1.52044039      0.26014135
      0.42239499      0.53284611
      0.14018910      0.29162544
s              7   1.000000
      0.92936822     -0.06732839
      0.05643440      0.66945502
      0.02166600      0.51461435
      8.30897684     -0.02902263
      1.52044039     -0.13303375
      0.42239499     -0.27249229
      0.14018910     -0.14913440
p              4   1.000000
      0.64737396      0.05713170
      0.16785440      0.28574555
      0.05917387      0.55178731
      0.02355814      0.26323150
 
          42   0
s              4   1.000000
      8.30922080      0.05675242
      1.52048503      0.26014135
      0.42240739      0.53284611
      0.14019322      0.29162544
s              7   1.000000
      0.92936822     -0.06732807
      0.05643440      0.66945189
      0.02166600      0.51461196
      8.30922080     -0.02902198
      1.52048503     -0.13303075
      0.42240739     -0.27248617
      0.14019322     -0.14913105
p              4   1.000000
      0.64737396      0.05713170
      0.16785440      0.28574555
      0.05917387      0.55178731
      0.02355814      0.26323150
 
          43   0
s              4   1.000000
      8.30890979      0.05675242
      1.52042812      0.26014135
      0.42239158      0.53284611
      0.14018797      0.29162544
s              7   1.000000
      0.92936822     -0.06732847
      0.05643440      0.66945588
      0.02166600      0.51461502
      8.30890979     -0.02902281
      1.52042812     -0.13303457
      0.42239158     -0.27249398
      0.14018797     -0.14913532
p              4   1.000000
      0.64737396      0.05713170
      0.16785440      0.28574555
      0.05917387      0.55178731
      0.02355814      0.26323150
 
          44   0
s              4   1.000000
      8.30890882      0.05675242
      1.52042795      0.26014135
      0.42239153      0.53284611
      0.14018795      0.29162544
s              7   1.000000
      0.92936822     -0.06732847
      0.05643440      0.66945589
      0.02166600      0.51461502
      8.30890882     -0.02902282
      1.52042795     -0.13303458
      0.42239153     -0.27249400
      0.14018795     -0.14913533
p              4   1.000000
      0.64737396      0.05713170
      0.16785440      0.28574555
      0.05917387      0.55178731
      0.02355814      0.26323150
 
          45   0
s              4   1.000000
      8.30892167      0.05675242
      1.52043030      0.26014135
      0.42239218      0.53284611
      0.14018817      0.29162544
s              7   1.000000
      0.92936822     -0.06732846
      0.05643440      0.66945572
      0.02166600      0.51461489
      8.30892167     -0.02902278
      1.52043030     -0.13303442
      0.42239218     -0.27249368
      0.14018817     -0.14913516
p              4   1.000000
      0.64737396      0.05713170
      0.16785440      0.28574555
      0.05917387      0.55178731
      0.02355814      0.26323150
 
          46   0
s              4   1.000000
      8.30897428      0.05675242
      1.52043992      0.26014135
      0.42239486      0.53284611
      0.14018906      0.29162544
s              7   1.000000
      0.92936822     -0.06732839
      0.05643440      0.66945506
      0.02166600      0.51461437
      8.30897428     -0.02902264
      1.52043992     -0.13303378
      0.42239486     -0.27249236
      0.14018906     -0.14913443
p              4   1.000000
      0.64737396      0.05713170
      0.16785440      0.28574555
      0.05917387      0.55178731
      0.02355814      0.26323150
 
          47   0
s              4   1.000000
      8.30922085      0.05675242
      1.52048504      0.26014135
      0.42240739      0.53284611
      0.14019322      0.29162544
s              7   1.000000
      0.92936822     -0.06732807
      0.05643440      0.66945189
      0.02166600      0.51461196
      8.30922085     -0.02902198
      1.52048504     -0.13303075
      0.42240739     -0.27248617
      0.14019322     -0.14913105
p              4   1.000000
      0.64737396      0.05713170
      0.16785440      0.28574555
      0.05917387      0.55178731
      0.02355814      0.26323150
 
          48   0
s              4   1.000000
      8.30953816      0.05675242
      1.52054311      0.26014135
      0.42242353      0.53284611
      0.14019857      0.29162543
s              7   1.000000
      0.92936822     -0.06732766
      0.05643440      0.66944783
      0.02166600      0.51460883
      8.30953816     -0.02902113
      1.52054311     -0.13302686
      0.42242353     -0.27247820
      0.14019857     -0.14912668
p              4   1.000000
      0.64737396      0.05713170
      0.16785440      0.28574555
      0.05917387      0.55178731
      0.02355814      0.26323150
 
          49   0
s              4   1.000000
      8.30914954      0.05675242
      1.52047199      0.26014135
      0.42240377      0.53284611
      0.14019201      0.29162544
s              7   1.000000
      0.92936822     -0.06732816
      0.05643440      0.66945281
      0.02166600      0.51461266
      8.30914954     -0.02902217
      1.52047199     -0.13303163
      0.42240377     -0.27248796
      0.14019201     -0.14913203
p              4   1.000000
      0.64737396      0.05713170
      0.16785440      0.28574555
      0.05917387      0.55178731
      0.02355814      0.26323150
 
          50   0
s              4   1.000000
      8.31532529      0.05675242
      1.52160208      0.26014135
      0.42271772      0.53284611
      0.14029621      0.29162544
s              7   1.000000
      0.92936822     -0.06732023
      0.05643440      0.66937388
      0.02166600      0.51455198
      8.31532529     -0.02900566
      1.52160208     -0.13295595
      0.42271772     -0.27233294
      0.14029621     -0.14904719
p              4   1.000000
      0.64737396      0.05713170
      0.16785440      0.28574555
      0.05917387      0.55178731
      0.02355814      0.26323150
 
          51   0
s              4   1.000000
      8.30915041      0.05675242
      1.52047215      0.26014135
      0.42240381      0.53284611
      0.14019203      0.29162544
s              7   1.000000
      0.92936822     -0.06732816
      0.05643440      0.66945280
      0.02166600      0.51461263
      8.30915041     -0.02902217
      1.52047215     -0.13303162
      0.42240381     -0.27248793
      0.14019203     -0.14913202
p              4   1.000000
      0.64737396      0.05713170
      0.16785440      0.28574555
      0.05917387      0.55178731
      0.02355814      0.26323150
 
          52   0
s              4   1.000000
      8.30953802      0.05675242
      1.52054308      0.26014135
      0.42242352      0.53284611
      0.14019857      0.29162544
s              7   1.000000
      0.92936822     -0.06732766
      0.05643440      0.66944785
      0.02166600      0.51460883
      8.30953802     -0.02902113
      1.52054308     -0.13302687
      0.42242352     -0.27247820
      0.14019857     -0.14912669
p              4   1.000000
      0.64737396      0.05713170
      0.16785440      0.28574555
      0.05917387      0.55178731
      0.02355814      0.26323150
 
          53   0
s              4   1.000000
      8.30922316      0.05675242
      1.52048546      0.26014135
      0.42240751      0.53284611
      0.14019326      0.29162544
s              7   1.000000
      0.92936822     -0.06732807
      0.05643440      0.66945187
      0.02166600      0.51461194
      8.30922316     -0.02902197
      1.52048546     -0.13303073
      0.42240751     -0.27248611
      0.14019326     -0.14913101
p              4   1.000000
      0.64737396      0.05713170
      0.16785440      0.28574555
      0.05917387      0.55178731
      0.02355814      0.26323150
 
          54   0
s              4   1.000000
      8.30897799      0.05675242
      1.52044060      0.26014135
      0.42239505      0.53284611
      0.14018912      0.29162544
s              7   1.000000
      0.92936822     -0.06732838
      0.05643440      0.66945501
      0.02166600      0.51461435
      8.30897799     -0.02902263
      1.52044060     -0.13303373
      0.42239505     -0.27249227
      0.14018912     -0.14913439
p              4   1.000000
      0.64737396      0.05713170
      0.16785440      0.28574555
      0.05917387      0.55178731
      0.02355814      0.26323150
 
          55   0
s              4   1.000000
      8.30892147      0.05675242
      1.52043026      0.26014135
      0.42239217      0.53284611
      0.14018817      0.29162544
s              7   1.000000
      0.92936822     -0.06732846
      0.05643440      0.66945572
      0.02166600      0.51461489
      8.30892147     -0.02902278
      1.52043026     -0.13303443
      0.42239217     -0.27249369
      0.14018817     -0.14913516
p              4   1.000000
      0.64737396      0.05713170
      0.16785440      0.28574555
      0.05917387      0.55178731
      0.02355814      0.26323150
 
          56   0
s              4   1.000000
      8.30890981      0.05675242
      1.52042813      0.26014135
      0.42239158      0.53284611
      0.14018797      0.29162544
s              7   1.000000
      0.92936822     -0.06732847
      0.05643440      0.66945588
      0.02166600      0.51461502
      8.30890981     -0.02902281
      1.52042813     -0.13303457
      0.42239158     -0.27249398
      0.14018797     -0.14913532
p              4   1.000000
      0.64737396      0.05713170
      0.16785440      0.28574555
      0.05917387      0.55178731
      0.02355814      0.26323150
 
          57   0
s              4   1.000000
      8.30890916      0.05675242
      1.52042801      0.26014135
      0.42239155      0.53284611
      0.14018796      0.29162544
s              7   1.000000
      0.92936822     -0.06732847
      0.05643440      0.66945588
      0.02166600      0.51461502
      8.30890916     -0.02902281
      1.52042801     -0.13303458
      0.42239155     -0.27249399
      0.14018796     -0.14913533
p              4   1.000000
      0.64737396      0.05713170
      0.16785440      0.28574555
      0.05917387      0.55178731
      0.02355814      0.26323150
 
          58   0
s              4   1.000000
      8.30892131      0.05675242
      1.52043023      0.26014135
      0.42239217      0.53284611
      0.14018816      0.29162544
s              7   1.000000
      0.92936822     -0.06732846
      0.05643440      0.66945573
      0.02166600      0.51461489
      8.30892131     -0.02902278
      1.52043023     -0.13303443
      0.42239217     -0.27249369
      0.14018816     -0.14913517
p              4   1.000000
      0.64737396      0.05713170
      0.16785440      0.28574555
      0.05917387      0.55178731
      0.02355814      0.26323150
 
          59   0
s              4   1.000000
      8.30897462      0.05675242
      1.52043999      0.26014135
      0.42239488      0.53284611
      0.14018906      0.29162544
s              7   1.000000
      0.92936822     -0.06732839
      0.05643440      0.66945504
      0.02166600      0.51461437
      8.30897462     -0.02902264
      1.52043999     -0.13303377
      0.42239488     -0.27249235
      0.14018906     -0.14913443
p              4   1.000000
      0.64737396      0.05713170
      0.16785440      0.28574555
      0.05917387      0.55178731
      0.02355814      0.26323150
 
          60   0
s              4   1.000000
      8.30922128      0.05675242
      1.52048512      0.26014135
      0.42240742      0.53284611
      0.14019322      0.29162544
s              7   1.000000
      0.92936822     -0.06732807
      0.05643440      0.66945189
      0.02166600      0.51461194
      8.30922128     -0.02902198
      1.52048512     -0.13303075
      0.42240742     -0.27248616
      0.14019322     -0.14913104
p              4   1.000000
      0.64737396      0.05713170
      0.16785440      0.28574555
      0.05917387      0.55178731
      0.02355814      0.26323150
 
          61   0
s              4   1.000000
      8.30960614      0.05675242
      1.52055555      0.26014135
      0.42242698      0.53284611
      0.14019972      0.29162544
s              7   1.000000
      0.92936822     -0.06732758
      0.05643440      0.66944697
      0.02166600      0.51460816
      8.30960614     -0.02902095
      1.52055555     -0.13302603
      0.42242698     -0.27247649
      0.14019972     -0.14912575
p              4   1.000000
      0.64737396      0.05713170
      0.16785440      0.28574555
      0.05917387      0.55178731
      0.02355814      0.26323150
 
          62   0
s              4   1.000000
      8.30989546      0.05675242
      1.52060849      0.26014135
      0.42244169      0.53284611
      0.14020460      0.29162544
s              7   1.000000
      0.92936822     -0.06732721
      0.05643440      0.66944326
      0.02166600      0.51460533
      8.30989546     -0.02902018
      1.52060849     -0.13302248
      0.42244169     -0.27246922
      0.14020460     -0.14912177
p              4   1.000000
      0.64737396      0.05713170
      0.16785440      0.28574555
      0.05917387      0.55178731
      0.02355814      0.26323150
 
          63   0
s              4   1.000000
      8.30988628      0.05675242
      1.52060681      0.26014135
      0.42244122      0.53284611
      0.14020444      0.29162544
s              7   1.000000
      0.92936822     -0.06732722
      0.05643440      0.66944339
      0.02166600      0.51460540
      8.30988628     -0.02902020
      1.52060681     -0.13302259
      0.42244122     -0.27246945
      0.14020444     -0.14912190
p              4   1.000000
      0.64737396      0.05713170
      0.16785440      0.28574555
      0.05917387      0.55178731
      0.02355814      0.26323150
 
          64   0
s              4   1.000000
      8.30960078      0.05675242
      1.52055457      0.26014135
      0.42242671      0.53284611
      0.14019963      0.29162544
s              7   1.000000
      0.92936822     -0.06732758
      0.05643440      0.66944703
      0.02166600      0.51460821
      8.30960078     -0.02902096
      1.52055457     -0.13302610
      0.42242671     -0.27247662
      0.14019963     -0.14912582
p              4   1.000000
      0.64737396      0.05713170
      0.16785440      0.28574555
      0.05917387      0.55178731
      0.02355814      0.26323150
 
 [MO]
 Sym= Hole
 Ene= -0.4453787    
 Spin= Alpha
 Occup= 0
           1 -4.5330430E-04
           2 -4.0360224E-02
           3  2.6440496E-02
           4 -9.3926810E-02
           5  2.2119268E-04
           6  1.8237546E-03
           7 -1.2267458E-03
           8  3.7684960E-03
           9 -5.5157027E-04
          10  5.8435528E-03
          11 -3.9875447E-03
          12  1.2393386E-02
          13  9.0851288E-05
          14  2.8566818E-04
          15 -6.9992797E-04
          16  1.1159129E-04
          17 -5.8402761E-04
          18  4.3166611E-02
          19 -2.1707879E-02
          20  8.9946486E-02
          21  1.1695643E-03
          22 -2.8296683E-03
          23  3.6279435E-04
          24 -4.2521232E-03
          25 -5.2491412E-03
          26  1.3484349E-02
          27 -1.1902306E-02
          28  1.2457420E-02
          29  4.2341156E-03
          30 -3.9526233E-03
          31  3.4821839E-03
          32 -2.4233728E-03
          33 -3.0701081E-04
          34  3.1024210E-02
          35 -2.5086837E-02
          36  7.8907810E-02
          37  4.6115334E-04
          38 -1.2017390E-03
          39  2.3544580E-03
          40 -4.8537781E-03
          41 -7.7776145E-04
          42 -2.0163920E-02
          43  1.3456401E-02
          44 -4.9538322E-02
          45  1.2814561E-04
          46  1.9450613E-03
          47 -1.1515298E-03
          48  3.5008921E-03
          49  2.8430356E-04
          50  3.5964742E-02
          51 -2.5284953E-02
          52  7.6911844E-02
          53 -3.5222759E-04
          54 -2.8297801E-03
          55  2.2962491E-03
          56 -4.1834246E-03
          57  7.1506493E-04
          58 -2.2060765E-02
          59  1.3462506E-02
          60 -4.8822921E-02
          61 -1.7531872E-04
          62  1.2144826E-03
          63 -1.1559405E-03
          64  3.8213248E-03
          65  5.8193621E-04
          66 -4.0414214E-02
          67  2.6768200E-02
          68 -9.4178744E-02
          69 -2.4920015E-04
          70  1.4355625E-03
          71 -1.2035860E-03
          72  3.9733648E-03
          73  4.4634790E-04
          74  5.0699087E-03
          75 -4.2573670E-03
          76  1.2622003E-02
          77 -1.4804551E-04
          78 -3.6241112E-05
          79 -7.4256503E-04
          80  2.3997037E-04
          81  8.1626652E-04
          82  3.5296135E-02
          83 -2.1885386E-02
          84  9.3503281E-02
          85 -1.3944638E-03
          86 -7.9490658E-04
          87  3.9538922E-04
          88 -5.1575177E-03
          89  5.1858020E-03
          90 -4.0252856E-04
          91 -1.2088137E-02
          92  1.8574255E-02
          93 -4.4040084E-03
          94  1.0035404E-03
          95  3.2346523E-03
          96 -4.6814186E-03
          97  3.2174583E-05
          98 -6.3527338E-02
          99  4.8692085E-02
         100 -0.1488588    
         101 -8.2971426E-05
         102  6.1852569E-03
         103 -3.8083163E-03
         104  1.3845171E-02
         105  6.7793811E-04
         106  1.6241848E-02
         107 -8.1171311E-02
         108  3.9384834E-02
         109 -1.5026858E-04
         110 -4.1623516E-03
         111  1.3195940E-02
         112 -9.6580917E-03
         113  1.0742525E-02
         114  1.4238021E-02
         115 -5.0265748E-02
         116 -5.2027740E-03
         117 -6.5725986E-03
         118 -6.2454767E-03
         119  6.9509861E-03
         120  2.8741732E-03
         121  4.4608433E-03
         122 -2.5418108E-02
         123  7.3619545E-02
         124 -2.8883915E-02
         125 -4.3862341E-03
         126  4.8846002E-03
         127 -8.8693891E-03
         128  3.0446253E-03
         129  4.5417459E-03
         130 -1.2240574E-02
         131  4.3528758E-02
         132 -1.2675568E-02
         133 -3.4584906E-03
         134  3.3236297E-03
         135 -8.6510470E-03
         136  2.6938992E-03
         137  1.1957735E-03
         138 -3.4708434E-03
         139 -0.1754565    
         140 -2.0284434E-03
         141 -5.1373721E-04
         142  1.1736980E-03
         143  2.7818443E-02
         144  2.5625455E-03
         145 -3.3056757E-03
         146 -2.1832038E-02
         147  0.1139714    
         148  4.9879935E-02
         149  1.7860383E-03
         150  4.4271783E-03
         151 -1.4554698E-02
         152 -8.5205249E-03
         153  2.4194189E-03
         154 -3.2669239E-02
         155  7.7404022E-02
         156  2.6219215E-02
         157  1.5978235E-03
         158  6.2559447E-03
         159 -1.0702680E-02
         160 -2.7019479E-03
         161 -3.2261387E-02
         162  3.2743927E-02
         163 -0.1377389    
         164  1.3003143E-02
         165  1.8976182E-02
         166 -1.3146558E-02
         167  1.4832141E-02
         168 -7.8306450E-03
         169 -2.5484993E-04
         170  2.7037129E-02
         171 -9.3584798E-02
         172 -6.5719157E-02
         173  2.7021533E-05
         174 -8.9010000E-03
         175  1.8652957E-02
         176  2.1847904E-02
         177 -3.5201563E-04
         178 -0.1730988    
         179  0.1239822    
         180  0.4048262    
         181  1.5075266E-04
         182  1.4279247E-02
         183 -6.4474484E-03
         184 -3.3320826E-02
         185  5.8070030E-03
         186  3.6153853E-02
         187 -2.7802961E-02
         188 -6.4258806E-02
         189 -5.0910995E-03
         190 -7.8365086E-03
         191  7.6591778E-03
         192  1.1833918E-02
         193  2.0816408E-03
         194  0.1179513    
         195 -6.1474457E-02
         196 -0.2494400    
         197 -1.9525742E-03
         198 -5.2039167E-03
         199  1.3544452E-03
         200  1.0355316E-02
         201  2.7024111E-04
         202  1.1435809E-02
         203 -8.3944080E-03
         204 -2.7277550E-02
         205  3.0775886E-04
         206  1.4955751E-03
         207 -1.6391597E-03
         208 -1.1795864E-03
         209  8.8097237E-04
         210 -0.1116165    
         211  7.2453260E-02
         212  0.2597906    
         213 -2.3337526E-04
         214  4.3037781E-03
         215 -2.5514199E-03
         216 -8.6882403E-03
         217  6.1312155E-04
         218 -5.8704063E-02
         219  3.8930006E-02
         220  0.1406445    
         221 -1.1017312E-04
         222  4.5109359E-03
         223 -2.6432031E-03
         224 -9.0993736E-03
         225  1.7473263E-03
         226  8.7352507E-02
         227 -6.4141780E-02
         228 -0.2124319    
         229 -9.5661951E-04
         230 -3.1957619E-03
         231  4.6250951E-03
         232  1.0695595E-02
         233 -1.7800293E-03
         234  9.2806585E-02
         235 -6.4312376E-02
         236 -0.2102546    
         237  8.0543238E-04
         238 -5.7124160E-03
         239  4.6730107E-03
         240  9.6189808E-03
         241 -5.8100751E-04
         242 -6.1313268E-02
         243  3.9578442E-02
         244  0.1396649    
         245  9.3291623E-05
         246  3.4626347E-03
         247 -2.5930172E-03
         248 -9.5535666E-03
         249 -8.6912978E-04
         250 -0.1108623    
         251  7.2741702E-02
         252  0.2609609    
         253  2.3829301E-04
         254  3.4492314E-03
         255 -2.7040245E-03
         256 -9.0609295E-03
         257 -1.8501077E-04
         258  1.1686454E-02
         259 -7.9833521E-03
         260 -2.6946217E-02
         261 -2.4119068E-04
         262 -1.5955744E-04
         263 -1.5030837E-03
         264 -1.9107386E-03
         265 -2.0885270E-03
         266  9.8899864E-02
         267 -6.2034387E-02
         268 -0.2578107    
         269  2.0725068E-03
         270 -3.7563702E-03
         271  1.2271601E-03
         272  1.1059783E-02
         273 -5.7090479E-03
         274  2.1626363E-02
         275 -2.7611526E-02
         276 -7.0807353E-02
         277  5.0787129E-03
         278 -3.0590680E-03
         279  7.2119827E-03
         280  1.3983916E-02
         281  3.2654420E-02
         282 -3.4648106E-02
         283 -0.1370828    
         284 -1.9821791E-02
         285 -1.9711312E-02
         286  1.3659559E-02
         287  1.3885576E-02
         288  4.0527172E-03
         289 -4.3354793E-03
         290  1.7189131E-03
         291  7.3872633E-02
         292  5.0222248E-02
         293 -1.6619968E-04
         294 -1.4121399E-03
         295 -1.0505823E-02
         296 -8.0270479E-03
         297 -1.9644725E-03
         298 -8.6949542E-03
         299  7.0841797E-02
         300 -4.7937959E-02
         301  1.9110370E-03
         302  5.8699260E-04
         303 -8.0821989E-03
         304  8.6404877E-03
         305 -1.0685577E-02
         306 -1.3193947E-02
         307 -4.9198832E-02
         308  7.8002177E-03
         309  7.0662284E-03
         310  5.3440235E-03
         311  6.6012861E-03
         312 -1.7411987E-03
         313  5.1325304E-04
         314  2.6975508E-04
         315 -2.3830817E-03
         316  1.6333077E-03
         317 -4.9180654E-03
         318  2.1057646E-03
         319 -4.3457447E-04
         320  7.8205683E-04
         321 -6.3378073E-04
         322  1.7519926E-03
         323  1.3648075E-03
         324 -8.3244166E-05
         325  1.4835037E-03
         326 -5.6380691E-04
         327  6.1220243E-03
         328  1.7806547E-03
         329 -3.8151964E-04
         330 -1.8331487E-04
         331  1.4619131E-04
         332 -1.0443146E-03
         333 -1.8565155E-03
         334  3.2046193E-04
         335 -5.2287511E-04
         336  1.7099784E-04
         337 -8.7536336E-04
         338 -4.6341811E-04
         339 -2.7083309E-04
         340 -1.8962622E-03
         341  1.6209488E-03
         342 -5.1678466E-03
         343 -2.4772445E-03
         344  2.7128833E-04
         345  7.8434002E-04
         346 -5.2139489E-04
         347  1.8130202E-03
         348 -1.1636303E-03
         349 -2.8093345E-04
         350  4.0631383E-03
         351 -3.1147158E-04
         352  5.1901955E-03
         353 -2.1504438E-03
         354 -1.3248347E-03
         355 -3.8667887E-03
         356 -1.1701683E-03
         357  4.5135440E-03
         358  2.8990002E-03
         359 -1.9033987E-03
         360  3.0330133E-03
         361  8.0630686E-03
         362 -3.8772074E-03
         363 -8.6586969E-03
         364  2.5244961E-03
         365 -3.2350386E-03
         366 -3.5355497E-02
         367 -2.4689275E-03
         368 -1.4676319E-02
         369  3.0885942E-03
         370  3.2493314E-03
         371  8.5272240E-03
         372  4.8912275E-03
         373  1.0301789E-02
         374  3.4794447E-03
         375 -9.4546033E-03
         376 -3.4684034E-03
         377 -1.1993757E-02
         378 -7.0276071E-04
         379 -6.0168648E-04
         380  2.8740417E-03
         381 -2.7679999E-03
         382 -1.4466582E-02
         383 -4.5879087E-03
         384  8.9223060E-04
         385  1.9675333E-03
         386 -1.2766731E-03
         387 -3.9594914E-03
         388 -7.3612138E-04
         389 -2.0916406E-04
         390 -5.4535116E-03
         391  3.6630090E-03
         392  1.1880878E-02
         393 -2.5595604E-03
         394  5.6388369E-04
         395 -8.4960862E-04
         396  8.0200052E-04
         397  2.7792295E-03
         398  2.8277924E-03
         399 -4.4872938E-04
         400 -1.3544345E-03
         401  6.8526814E-04
         402  2.5327019E-03
         403  9.3853765E-04
         404  2.3538421E-04
         405 -4.8027602E-03
         406  3.6622637E-03
         407  1.2195500E-02
         408  4.1521713E-03
         409 -9.1635017E-04
         410  1.6043527E-03
         411 -1.2425595E-03
         412 -4.1651693E-03
         413  5.2163430E-04
         414  8.3954394E-04
         415  9.0060625E-03
         416 -2.7825914E-03
         417 -1.2016476E-02
         418 -8.0264565E-03
         419 -4.0104375E-03
         420  1.4730480E-02
         421 -4.1442215E-03
         422 -1.6568805E-03
         423  1.5655648E-02
         424 -1.3552915E-03
         425 -2.6132145E-03
         426  6.6634696E-03
         427  8.7664061E-04
         428 -4.4100713E-03
         429  4.0947448E-04
         430  2.2941513E-04
         431  6.4440044E-03
         432 -1.4853841E-03
         433 -9.6766849E-04
         434  2.0416367E-03
         435  5.8587478E-03
         436 -1.6167250E-03
         437  6.1603333E-04
 Sym= Particle
 Ene= -0.4453787    
 Spin= Alpha
 Occup= 2
           1  4.0611057E-04
           2  7.2669620E-03
           3 -5.1878351E-03
           4  1.7361717E-02
           5 -9.6675474E-04
           6 -1.2381106E-03
           7  1.5820009E-03
           8 -4.5801857E-03
           9  7.5701374E-04
          10  4.4150438E-02
          11 -2.7277544E-02
          12  0.1025140    
          13 -1.2098026E-03
          14 -1.0316020E-02
          15  6.9689415E-03
          16 -2.6638649E-02
          17 -1.2083468E-03
          18 -4.5255024E-02
          19  2.4296155E-02
          20 -9.9945568E-02
          21 -6.9305988E-04
          22  1.4971847E-02
          23 -6.3775168E-03
          24  2.4286086E-02
          25  7.0645125E-03
          26 -1.6246336E-02
          27  1.3768927E-02
          28 -1.8023701E-02
          29 -6.7377435E-03
          30  1.1423863E-02
          31 -5.3374707E-03
          32  8.3959047E-03
          33 -8.2505541E-04
          34  3.6052525E-02
          35 -2.1696979E-02
          36  7.9515085E-02
          37 -1.5772115E-04
          38 -8.7535670E-03
          39  5.2636093E-03
          40 -1.9061450E-02
          41  4.8523891E-04
          42 -4.8162960E-02
          43  3.3376738E-02
          44 -0.1127931    
          45 -2.3258975E-04
          46  1.2607987E-02
          47 -8.1813466E-03
          48  3.0392753E-02
          49  8.6976745E-04
          50  3.3298727E-02
          51 -2.1778010E-02
          52  8.1008188E-02
          53  6.9960930E-05
          54 -7.7410284E-03
          55  5.3450502E-03
          56 -1.9575389E-02
          57 -1.1188120E-03
          58 -4.8826188E-02
          59  3.4108087E-02
          60 -0.1134297    
          61  5.7107909E-04
          62  1.3963399E-02
          63 -8.3013223E-03
          64  3.0252405E-02
          65 -3.9011877E-04
          66  7.7456753E-03
          67 -5.7303137E-03
          68  1.7781001E-02
          69  7.5674272E-04
          70 -2.1510737E-03
          71  2.1458480E-03
          72 -4.1820575E-03
          73 -8.8717538E-04
          74  4.3922976E-02
          75 -2.7910221E-02
          76  0.1029475    
          77  1.2819869E-03
          78 -1.1586898E-02
          79  7.7228257E-03
          80 -2.6075071E-02
          81  3.6291342E-04
          82 -4.0982928E-02
          83  2.5109708E-02
          84 -0.1030092    
          85  1.7066832E-03
          86  8.1530828E-03
          87 -5.9289513E-03
          88  2.7580073E-02
          89 -7.2860816E-03
          90 -8.3028059E-04
          91  1.4323126E-02
          92 -2.3259858E-02
          93  7.3868763E-03
          94 -1.3059051E-03
          95 -5.5675004E-03
          96  1.3206786E-02
          97  2.1712389E-04
          98  2.1326799E-02
          99 -1.4486316E-02
         100  5.0884686E-02
         101 -2.5636717E-04
         102 -6.8499665E-03
         103  1.0821678E-02
         104 -1.8444292E-02
         105 -4.3943137E-04
         106 -1.5733611E-02
         107  9.3325242E-02
         108 -3.5475228E-02
         109  1.4549860E-03
         110  6.0022078E-03
         111 -2.8487125E-02
         112  1.1755710E-02
         113 -3.9370363E-03
         114  3.7645726E-03
         115 -3.2940105E-02
         116  2.0204555E-02
         117  4.1200509E-03
         118  1.0780504E-03
         119  9.4637657E-03
         120 -8.6798873E-03
         121 -1.2227938E-03
         122  8.3241640E-03
         123 -5.3158548E-02
         124  1.4892898E-02
         125  5.5891871E-03
         126 -1.3453859E-03
         127  2.0034738E-02
         128 -5.6165243E-03
         129 -2.5322242E-04
         130 -1.3372219E-02
         131  0.1042428    
         132 -4.0587813E-02
         133  7.7771302E-03
         134  3.7730017E-03
         135 -4.1018851E-02
         136  1.3762212E-02
         137 -1.0435997E-02
         138 -2.2280742E-04
         139 -4.3398929E-03
         140 -1.1340244E-02
         141  8.8317916E-03
         142 -1.6481155E-05
         143  5.1276741E-04
         144 -3.4594517E-03
         145 -6.7377585E-04
         146  1.0878412E-02
         147 -0.1016472    
         148 -3.8749117E-02
         149  8.3560012E-03
         150 -3.1705820E-03
         151  4.2634487E-02
         152  1.3718039E-02
         153 -4.3942418E-04
         154 -1.0554104E-02
         155  5.7650104E-02
         156  1.6951110E-02
         157  5.3524291E-03
         158  2.2121819E-03
         159 -2.2840859E-02
         160 -5.9140176E-03
         161 -8.7362966E-03
         162 -2.9154576E-03
         163  1.9121286E-02
         164  2.7751787E-02
         165  6.6756541E-03
         166 -4.8387604E-04
         167 -6.0512559E-03
         168 -1.3238433E-02
         169 -6.5740297E-04
         170  1.6194342E-02
         171 -0.1021347    
         172 -3.9181456E-02
         173  2.1653592E-03
         174 -5.8702100E-03
         175  2.9840002E-02
         176  1.2793519E-02
         177  8.5509564E-05
         178 -5.3434931E-02
         179  3.5386492E-02
         180  0.1267471    
         181 -1.7277440E-05
         182  1.7153136E-02
         183 -1.9391237E-02
         184 -4.3179635E-02
         185  8.9858072E-03
         186  4.6420678E-02
         187 -3.3954494E-02
         188 -8.7050296E-02
         189 -8.5767210E-03
         190 -2.5390642E-02
         191  1.3710530E-02
         192  3.7250265E-02
         193 -1.6720704E-03
         194  0.1157703    
         195 -6.2885664E-02
         196 -0.2553200    
         197 -9.0348587E-04
         198 -3.4474961E-02
         199  1.5719689E-02
         200  6.3445009E-02
         201  8.6839875E-04
         202 -0.1263295    
         203  7.7102423E-02
         204  0.2886774    
         205 -2.0211826E-03
         206  3.0494101E-02
         207 -1.9559981E-02
         208 -7.3990025E-02
         209  5.3199398E-04
         210 -1.0584681E-02
         211  8.4061148E-03
         212  2.6761942E-02
         213 -1.5842876E-03
         214  1.7386494E-03
         215 -2.8597405E-03
         216 -7.5115403E-03
         217  4.0221278E-04
         218  0.1290790    
         219 -8.6979412E-02
         220 -0.3042175    
         221 -2.3425065E-04
         222 -3.4032233E-02
         223  2.2258671E-02
         224  8.1298575E-02
         225 -1.5391656E-03
         226 -0.1005049    
         227  6.6799283E-02
         228  0.2345166    
         229  2.0963390E-04
         230  2.4097495E-02
         231 -1.6371753E-02
         232 -5.6721181E-02
         233  1.5712400E-03
         234 -0.1005056    
         235  6.7147344E-02
         236  0.2353799    
         237 -2.6424872E-04
         238  2.4020066E-02
         239 -1.6628405E-02
         240 -5.6722689E-02
         241 -1.1339815E-03
         242  0.1315548    
         243 -8.8372611E-02
         244 -0.3055507    
         245  5.4307643E-04
         246 -3.6355838E-02
         247  2.2531115E-02
         248  8.1560910E-02
         249 -5.3949468E-04
         250 -1.2402084E-02
         251  9.1776401E-03
         252  2.7657544E-02
         253  1.3082562E-03
         254  3.8249996E-03
         255 -3.4652068E-03
         256 -6.8802056E-03
         257 -1.1098068E-03
         258 -0.1216783    
         259  7.8340493E-02
         260  0.2915028    
         261  2.2213091E-03
         262  3.1772435E-02
         263 -2.0625750E-02
         264 -7.3515959E-02
         265  7.4308389E-04
         266  0.1052732    
         267 -6.4612590E-02
         268 -0.2629422    
         269  2.2621406E-03
         270 -2.3304926E-02
         271  1.5559436E-02
         272  6.9456927E-02
         273 -9.2743905E-03
         274  2.9179448E-02
         275 -3.4040544E-02
         276 -9.1331229E-02
         277  9.7647207E-03
         278 -9.8243104E-03
         279  1.3554936E-02
         280  4.3070450E-02
         281  6.8667769E-03
         282 -1.3837202E-02
         283  5.7433136E-03
         284  1.8620085E-02
         285 -1.4952556E-03
         286  6.5810494E-03
         287 -2.0256806E-03
         288 -9.4238399E-03
         289 -4.6535195E-03
         290 -1.1068962E-02
         291  6.8467371E-02
         292  2.9221574E-02
         293  6.4010783E-03
         294  4.7276672E-03
         295 -2.3725327E-02
         296 -1.0904186E-02
         297 -3.1273500E-03
         298  1.0397023E-02
         299 -6.0623556E-02
         300  2.3090718E-02
         301  4.7124936E-03
         302 -4.1443873E-03
         303  2.0224415E-02
         304 -9.1932407E-03
         305  2.4738370E-03
         306  8.8524530E-03
         307 -2.4087764E-02
         308  1.5611925E-02
         309 -2.4494228E-05
         310 -3.7588889E-03
         311  6.6542863E-03
         312 -6.4713201E-03
         313 -4.0758742E-04
         314 -9.1819308E-04
         315  2.4319396E-03
         316 -1.2585103E-03
         317  3.3224309E-03
         318 -1.5845123E-03
         319 -9.9179498E-04
         320  1.0466214E-02
         321 -7.1437429E-03
         322  2.2834362E-02
         323 -2.3542675E-03
         324 -5.4324372E-04
         325 -1.0510679E-02
         326  2.9495324E-03
         327 -2.2149539E-02
         328 -1.4182590E-03
         329  9.2626666E-05
         330 -9.8412791E-03
         331  7.7609904E-03
         332 -2.4493100E-02
         333  1.9619043E-03
         334 -8.5766223E-04
         335 -9.6782558E-03
         336  7.8425677E-03
         337 -2.4663927E-02
         338  3.7512361E-04
         339  6.2945398E-04
         340  1.1141429E-03
         341 -9.3623420E-04
         342  4.1063847E-03
         343  1.6354775E-03
         344  5.8958621E-04
         345  9.5908064E-03
         346 -6.5604411E-03
         347  2.3511823E-02
         348  2.7009330E-03
         349 -6.0393172E-04
         350 -9.6348943E-03
         351  4.7736196E-03
         352 -2.3152335E-02
         353  2.3728004E-03
         354 -1.9112665E-03
         355  6.1513635E-04
         356 -1.2570131E-02
         357  5.1697255E-03
         358 -9.2872471E-04
         359  3.4295246E-03
         360 -1.8641856E-03
         361 -1.2948507E-02
         362  9.4149616E-03
         363  2.5636120E-02
         364 -8.5539697E-04
         365 -2.5812283E-04
         366 -2.4443536E-04
         367  2.2204790E-02
         368 -3.6919485E-03
         369  4.7519049E-03
         370  1.2699253E-03
         371  1.3675231E-02
         372  1.0387811E-02
         373  3.5832834E-03
         374 -4.5168498E-03
         375  4.0684226E-03
         376  1.8836105E-02
         377  8.3517907E-03
         378 -3.2668894E-03
         379 -1.3592464E-03
         380  2.3944315E-02
         381 -1.0279975E-02
         382 -5.4154791E-02
         383 -2.6435335E-03
         384 -1.7594302E-03
         385 -2.8779684E-02
         386  1.8233916E-02
         387  6.3777260E-02
         388 -6.0971401E-04
         389 -1.6861575E-03
         390 -4.1168639E-03
         391  1.8836345E-03
         392  6.2510194E-03
         393 -1.0331718E-03
         394 -3.2746859E-04
         395  2.7282689E-02
         396 -1.9742535E-02
         397 -6.6057369E-02
         398  1.7021529E-03
         399 -8.2030467E-04
         400  2.7505660E-02
         401 -2.0036776E-02
         402 -6.6291437E-02
         403  6.1538117E-04
         404  1.0872957E-03
         405 -2.0129071E-03
         406  1.4743294E-03
         407  7.1832445E-03
         408  2.7608788E-03
         409  1.1634832E-03
         410 -2.6360922E-02
         411  1.7434319E-02
         412  6.5121412E-02
         413  3.3602328E-03
         414  7.5747672E-04
         415  2.4270937E-02
         416 -1.2263136E-02
         417 -5.5551209E-02
         418 -1.0621817E-03
         419  3.4409475E-03
         420 -8.7073538E-03
         421  1.6202953E-02
         422 -1.3795672E-03
         423  7.1894554E-03
         424 -3.0680289E-03
         425 -2.0605372E-03
         426  1.9641427E-02
         427  1.0535097E-02
         428  3.1611125E-03
         429 -1.5864614E-03
         430  3.1288080E-03
         431 -1.7835036E-02
         432  9.3715703E-03
         433 -3.2145393E-04
         434  5.9016823E-04
         435  3.1796678E-03
         436 -1.0830482E-02
         437  5.6325813E-04
 Sym= Hole
 Ene= -0.3947504    
 Spin= Alpha
 Occup= 0
           1  8.0556638E-04
           2  0.1134389    
           3 -7.5005382E-02
           4  0.2633673    
           5 -1.1251831E-04
           6 -4.1948007E-03
           7  2.3996888E-03
           8 -8.2825329E-03
           9 -6.0368344E-05
          10 -1.0267652E-02
          11  8.0141006E-03
          12 -2.5539771E-02
          13  4.8585510E-04
          14 -1.7643633E-03
          15  1.6290402E-03
          16 -1.4458142E-03
          17  2.3066460E-03
          18 -0.1193736    
          19  6.4525031E-02
          20 -0.2532109    
          21 -1.6559338E-03
          22  4.4694655E-03
          23 -1.5742467E-03
          24  1.0111948E-02
          25  3.4829043E-03
          26 -3.6897726E-02
          27  2.7349809E-02
          28 -7.3463656E-02
          29 -3.3670468E-03
          30  7.1610953E-03
          31 -7.3873708E-03
          32  1.3467860E-02
          33  1.9358872E-03
          34 -8.9128308E-02
          35  6.5156594E-02
          36 -0.2137140    
          37 -8.6515630E-04
          38  3.2228536E-03
          39 -4.2189630E-03
          40  9.9975700E-03
          41  2.3753151E-04
          42  6.0448460E-02
          43 -4.0878717E-02
          44  0.1436265    
          45 -5.4239259E-05
          46 -4.3638167E-03
          47  2.5642405E-03
          48 -9.0629635E-03
          49 -2.1700382E-03
          50 -9.2545994E-02
          51  6.4958766E-02
          52 -0.2123998    
          53  7.6512486E-04
          54  5.2083121E-03
          55 -4.3174275E-03
          56  9.1213891E-03
          57 -1.6831966E-04
          58  6.2528081E-02
          59 -4.1772395E-02
          60  0.1428494    
          61 -3.0668980E-05
          62 -3.5831495E-03
          63  2.5260060E-03
          64 -9.3967710E-03
          65 -6.5706228E-04
          66  0.1126407    
          67 -7.5174466E-02
          68  0.2645462    
          69  1.1440656E-04
          70 -3.4015970E-03
          71  2.6228926E-03
          72 -8.6067570E-03
          73  1.1807200E-04
          74 -1.1228247E-02
          75  7.1440446E-03
          76 -2.5026625E-02
          77 -4.3814455E-04
          78  1.5208441E-04
          79  1.3515566E-03
          80 -2.3257614E-03
          81 -2.0066798E-03
          82 -0.1010555    
          83  6.5146461E-02
          84 -0.2611748    
          85  1.4877801E-03
          86  4.3274364E-03
          87 -1.3053927E-03
          88  1.0293312E-02
          89 -3.2110352E-03
          90 -2.8824199E-02
          91  2.6816972E-02
          92 -7.7239953E-02
          93  2.9231643E-03
          94  5.0393268E-03
          95 -6.8536052E-03
          96  1.4463311E-02
          97 -1.0516468E-03
          98  0.1764632    
          99 -0.1258818    
         100  0.4081089    
         101  3.7470303E-04
         102 -1.3749965E-02
         103  5.4552336E-03
         104 -3.2326341E-02
         105  3.8512761E-04
         106 -2.3026221E-02
         107  5.8073055E-02
         108 -5.3291678E-02
         109 -2.4530766E-04
         110  8.2282200E-03
         111 -1.3576481E-02
         112  2.0482516E-02
         113 -3.3498257E-02
         114 -3.2712232E-02
         115  0.1401204    
         116  1.4515419E-02
         117  1.9479884E-02
         118  1.2168624E-02
         119 -1.3500421E-02
         120 -8.1473887E-03
         121  6.7560268E-03
         122  2.3090420E-02
         123 -4.1811105E-02
         124  1.0085446E-02
         125 -1.5883085E-03
         126 -4.2063068E-03
         127  6.4805974E-03
         128 -8.7963673E-04
         129 -1.6915468E-04
         130  1.8809889E-02
         131 -0.1173766    
         132  5.4956991E-02
         133 -9.6145994E-04
         134 -2.7276196E-03
         135  1.2156183E-02
         136 -9.0055577E-03
         137  1.4932030E-03
         138  1.7013852E-03
         139  8.6505197E-02
         140 -1.8715212E-03
         141 -6.4081472E-04
         142 -6.6358101E-04
         143 -1.3157682E-02
         144  5.2303295E-03
         145  3.5275032E-03
         146 -2.6912652E-03
         147  4.2714879E-02
         148  2.7408360E-02
         149 -3.4292571E-03
         150 -8.4564125E-04
         151 -1.1067224E-03
         152 -4.0662284E-03
         153  8.5176285E-03
         154  4.9642646E-03
         155 -3.2681700E-02
         156 -1.7910158E-02
         157 -4.6923826E-03
         158 -9.7732828E-04
         159  2.4289549E-03
         160  1.8561758E-03
         161 -1.4801036E-02
         162  1.0783704E-02
         163 -5.6278117E-02
         164  5.8983359E-03
         165  8.3379988E-03
         166 -3.4071279E-03
         167  3.8308846E-03
         168 -3.3375563E-03
         169  7.7713636E-04
         170  2.8262071E-03
         171  2.8141260E-02
         172 -4.1060019E-03
         173 -2.3387630E-04
         174 -2.4299668E-03
         175 -1.1187055E-03
         176  6.5470072E-03
         177 -5.2606477E-04
         178 -7.1769312E-02
         179  4.7560040E-02
         180  0.1657030    
         181  1.3189871E-04
         182  4.5944802E-03
         183 -7.5462461E-04
         184 -1.1347398E-02
         185 -2.0321365E-03
         186  1.4780641E-02
         187 -9.0919929E-03
         188 -4.2238653E-02
         189  1.2248560E-03
         190 -1.7681408E-03
         191  2.2132539E-03
         192  7.5119552E-03
         193  1.1263492E-03
         194  4.8728295E-02
         195 -2.7211437E-02
         196 -0.1048788    
         197 -1.7883957E-04
         198 -8.1991951E-04
         199  7.8496907E-04
         200  3.5986477E-03
         201 -5.2769267E-04
         202  2.3709254E-03
         203 -2.2559741E-03
         204 -7.7836965E-03
         205  4.1359890E-04
         206  9.9155062E-04
         207 -5.4306258E-04
         208 -9.2423393E-04
         209  1.8217017E-04
         210 -4.6878334E-02
         211  3.0680737E-02
         212  0.1088661    
         213  1.0515740E-04
         214  1.4348922E-03
         215 -6.7169528E-04
         216 -2.7292264E-03
         217 -5.2312686E-04
         218 -2.6154831E-02
         219  1.7592879E-02
         220  6.0794234E-02
         221  7.6306773E-05
         222  1.4539395E-03
         223 -8.3657628E-04
         224 -3.5017938E-03
         225  1.1627277E-03
         226  3.7504639E-02
         227 -2.4864865E-02
         228 -8.5980825E-02
         229 -2.2771141E-04
         230 -1.2779018E-03
         231  9.9735393E-04
         232  3.0629612E-03
         233 -1.2939996E-03
         234  3.5613097E-02
         235 -2.4570400E-02
         236 -8.6805910E-02
         237  2.5738528E-04
         238 -1.3181679E-03
         239  1.1232960E-03
         240  3.0075859E-03
         241  4.9955619E-04
         242 -2.5951635E-02
         243  1.8159464E-02
         244  6.0905181E-02
         245 -1.5977818E-04
         246  1.5163328E-03
         247 -8.1479031E-04
         248 -3.4645838E-03
         249  2.0665822E-05
         250 -4.6171304E-02
         251  3.0547418E-02
         252  0.1095620    
         253 -1.2208360E-04
         254  1.2054550E-03
         255 -8.3867146E-04
         256 -2.7877577E-03
         257  4.7312508E-04
         258  3.7132662E-03
         259 -1.4827964E-03
         260 -7.1757855E-03
         261 -4.2021894E-04
         262 -8.0661113E-05
         263 -3.2622399E-04
         264 -1.4263368E-03
         265 -7.5901207E-04
         266  4.2280156E-02
         267 -2.7514474E-02
         268 -0.1075975    
         269 -7.1103255E-05
         270 -2.3471266E-03
         271  6.3933642E-04
         272  2.9973399E-03
         273  2.1176871E-03
         274  2.1042926E-02
         275 -8.7402239E-03
         276 -3.9633390E-02
         277 -1.5764562E-03
         278 -4.3045934E-03
         279  2.1487039E-03
         280  6.3620200E-03
         281  1.5336436E-02
         282 -1.3306649E-02
         283 -5.7799365E-02
         284 -6.5219812E-03
         285 -8.3916802E-03
         286  5.2054347E-03
         287  3.6032347E-03
         288  1.2494626E-03
         289 -6.7522186E-03
         290  1.3618932E-02
         291 -3.1730171E-02
         292 -2.2542054E-02
         293  2.4231861E-03
         294 -2.0027102E-03
         295  1.4365417E-03
         296  4.6566022E-03
         297 -7.2068130E-03
         298 -8.8867517E-03
         299 -4.0184416E-02
         300  2.5982648E-02
         301  1.2134291E-03
         302  2.4487164E-03
         303  7.0971572E-03
         304 -3.0626471E-03
         305  3.4236554E-02
         306  3.3539653E-02
         307  0.1408088    
         308 -1.8257877E-02
         309 -2.0228524E-02
         310 -1.3506379E-02
         311 -1.2922123E-02
         312  3.7821145E-03
         313 -5.4821564E-04
         314 -4.4950273E-05
         315  5.2124271E-03
         316 -3.5498010E-03
         317  1.1549775E-02
         318 -4.3274062E-03
         319  8.2246761E-04
         320 -1.9379980E-03
         321  1.1850892E-03
         322 -3.7420427E-03
         323  8.4295061E-05
         324 -8.2766078E-04
         325 -2.5253738E-03
         326  3.3240970E-03
         327 -1.3972970E-02
         328 -1.9843318E-03
         329  4.5045890E-04
         330  9.6166576E-04
         331 -9.8265090E-04
         332  2.7908438E-03
         333  2.1706589E-03
         334 -3.0567779E-04
         335  1.3630576E-03
         336 -7.7254768E-04
         337  2.6121053E-03
         338  8.4034714E-04
         339  8.5689921E-05
         340  4.7858334E-03
         341 -3.5567533E-03
         342  1.1748383E-02
         343  3.3853573E-03
         344 -9.8344940E-04
         345 -1.4735368E-03
         346  1.2213310E-03
         347 -3.9627166E-03
         348 -3.0491140E-04
         349  8.6691394E-04
         350 -8.4715299E-03
         351  3.4713040E-03
         352 -1.1496095E-02
         353  1.1599498E-02
         354  3.5318460E-03
         355  9.2540607E-03
         356  3.8485988E-03
         357 -1.2078498E-02
         358 -1.7057370E-02
         359  2.5499163E-03
         360 -1.6837429E-03
         361 -4.5391554E-03
         362  2.9883501E-03
         363 -1.8809589E-02
         364  5.4606823E-03
         365  1.4732885E-03
         366  1.7097041E-02
         367 -4.5417994E-03
         368 -9.7232247E-03
         369  2.6732276E-04
         370 -1.2300911E-03
         371 -3.3680380E-03
         372 -1.0353556E-03
         373  6.5602018E-03
         374  1.4059445E-03
         375 -3.3006745E-03
         376 -1.5708160E-03
         377 -4.7645224E-03
         378  1.2644954E-03
         379 -6.5140368E-04
         380  5.8448635E-04
         381 -1.8568450E-03
         382 -4.8080427E-03
         383 -1.2772565E-03
         384  2.1335960E-04
         385  7.2365074E-04
         386 -3.0820956E-04
         387 -1.1964400E-03
         388  1.8399995E-05
         389  1.8733068E-04
         390 -1.7048767E-03
         391  1.1332092E-03
         392  4.0810774E-03
         393  1.2206056E-04
         394 -8.7161270E-06
         395 -5.2846578E-04
         396  5.4767350E-04
         397  1.1131221E-03
         398 -5.4178063E-06
         399  5.8787427E-05
         400 -5.1518634E-04
         401  3.9425486E-04
         402  1.1252667E-03
         403  1.8539243E-04
         404 -1.6274375E-04
         405 -1.7942421E-03
         406  1.1512513E-03
         407  4.0186201E-03
         408  3.3980791E-04
         409 -4.4695890E-04
         410  3.9305736E-04
         411 -4.1939589E-04
         412 -1.3069797E-03
         413 -1.1820130E-03
         414  4.0294614E-04
         415  2.5896546E-03
         416 -2.1491360E-03
         417 -3.8539986E-03
         418 -8.9511955E-03
         419 -8.1767223E-04
         420  5.4802233E-03
         421 -1.4614065E-03
         422 -5.9283670E-04
         423  8.4274597E-03
         424 -6.2451331E-04
         425 -2.7197148E-03
         426 -2.8988877E-03
         427 -1.3044148E-03
         428  1.6699383E-02
         429 -1.3690729E-03
         430  3.8719431E-03
         431 -3.2432780E-03
         432 -2.9564789E-04
         433 -1.1408788E-02
         434 -3.5891044E-03
         435 -1.4627595E-02
         436  4.0237540E-03
         437 -1.5617782E-03
 Sym= Particle
 Ene= -0.3947504    
 Spin= Alpha
 Occup= 2
           1 -3.7367918E-04
           2 -8.5469093E-03
           3  7.3122219E-03
           4 -2.2077393E-02
           5  1.3469605E-03
           6  1.4066816E-03
           7 -2.6121798E-03
           8  6.3403673E-03
           9 -5.9921213E-04
          10 -0.1291142    
          11  8.0428354E-02
          12 -0.2933338    
          13  1.7386744E-03
          14  3.1404153E-02
          15 -2.0444315E-02
          16  7.4909285E-02
          17  1.2709885E-03
          18  0.1150251    
          19 -6.4445108E-02
          20  0.2533480    
          21  6.2738475E-04
          22 -3.3099558E-02
          23  1.5837176E-02
          24 -6.3347593E-02
          25 -6.5326435E-03
          26  4.7371708E-02
          27 -3.3860605E-02
          28  9.6681632E-02
          29  6.2228641E-03
          30 -2.4138980E-02
          31  1.3856362E-02
          32 -4.0860571E-02
          33  1.4542420E-03
          34 -0.1022897    
          35  7.0842765E-02
          36 -0.2408983    
          37 -4.1641342E-04
          38  2.4410119E-02
          39 -1.7354008E-02
          40  5.8321752E-02
          41 -2.5703679E-04
          42  0.1301334    
          43 -8.8880509E-02
          44  0.3061640    
          45  2.1382800E-04
          46 -3.4348704E-02
          47  2.3009541E-02
          48 -8.1661612E-02
          49 -1.3739973E-03
          50 -0.1042385    
          51  7.1270376E-02
          52 -0.2408831    
          53  3.8964016E-04
          54  2.5011754E-02
          55 -1.7649718E-02
          56  5.7905622E-02
          57  6.0960173E-04
          58  0.1330984    
          59 -9.0058774E-02
          60  0.3074326    
          61 -2.5930698E-04
          62 -3.6422934E-02
          63  2.3247339E-02
          64 -8.2129560E-02
          65  4.1210052E-04
          66 -1.0556839E-02
          67  7.9117278E-03
          68 -2.3065286E-02
          69 -1.1544299E-03
          70  3.4225897E-03
          71 -2.9055644E-03
          72  5.8720349E-03
          73  7.9145137E-04
          74 -0.1236923    
          75  8.1521779E-02
          76 -0.2964963    
          77 -1.9430004E-03
          78  3.2272246E-02
          79 -2.1143900E-02
          80  7.4650593E-02
          81 -8.0542406E-04
          82  0.1051746    
          83 -6.6084608E-02
          84  0.2608399    
          85 -1.5135040E-03
          86 -2.3968700E-02
          87  1.6097313E-02
          88 -6.8658710E-02
          89  6.6449950E-03
          90  3.6304697E-02
          91 -3.3494655E-02
          92  9.8319642E-02
          93 -7.1593206E-03
          94 -1.3312821E-02
          95  1.3481152E-02
          96 -4.4912305E-02
          97  3.1024663E-04
          98 -5.2814983E-02
          99  3.5249230E-02
         100 -0.1238622    
         101 -3.3067970E-04
         102  1.6964195E-02
         103 -1.7173368E-02
         104  4.1140944E-02
         105  3.8885267E-04
         106  1.0226996E-02
         107 -6.4609535E-02
         108  2.3596562E-02
         109 -1.5756591E-03
         110 -3.3739568E-03
         111  1.8326322E-02
         112 -7.7890009E-03
         113  8.3002364E-03
         114 -1.4351482E-03
         115  2.1518080E-03
         116 -2.0960489E-02
         117 -5.4932041E-03
         118  5.2588567E-04
         119 -1.7227210E-03
         120  1.0657137E-02
         121 -4.1127764E-04
         122 -7.7399993E-03
         123  3.4267385E-02
         124 -9.9942246E-03
         125 -2.5326738E-03
         126  1.9647533E-03
         127 -1.4238890E-02
         128  3.0816640E-03
         129  3.7189265E-04
         130  5.2047661E-03
         131 -5.4551914E-02
         132  1.8732326E-02
         133 -4.4939276E-03
         134 -1.8631927E-03
         135  2.4779309E-02
         136 -7.0012226E-03
         137  5.3503686E-03
         138 -3.2545030E-04
         139 -6.8979356E-03
         140  5.6725997E-03
         141 -4.5014662E-03
         142  1.0121983E-04
         143 -4.4852929E-04
         144  1.9039433E-03
         145  1.3097795E-04
         146 -7.5244075E-03
         147  5.2510355E-02
         148  2.3002464E-02
         149 -3.7011208E-03
         150  1.7609292E-03
         151 -1.8068917E-02
         152 -7.2494145E-03
         153  1.4398560E-03
         154  1.7896004E-03
         155 -2.2559140E-02
         156 -6.3218689E-03
         157 -3.1485762E-03
         158  2.0977472E-04
         159  7.4231518E-03
         160  2.7908785E-03
         161 -2.5338698E-03
         162  2.1512590E-03
         163 -2.7927939E-02
         164 -3.0773217E-03
         165  3.2521065E-04
         166  1.3341611E-03
         167  7.2458480E-03
         168  3.9530798E-05
         169  7.3387549E-05
         170 -6.2931404E-03
         171  3.6472581E-02
         172  1.4983468E-02
         173 -1.2173844E-04
         174  2.7268389E-03
         175 -1.2091567E-02
         176 -4.9740365E-03
         177 -3.4173531E-04
         178 -1.9377872E-02
         179  1.2534522E-02
         180  4.5016736E-02
         181  4.0144034E-04
         182  6.2201456E-03
         183 -2.8367843E-03
         184 -1.3649334E-02
         185 -1.5732633E-03
         186  2.0083750E-02
         187 -1.2069493E-02
         188 -5.4725599E-02
         189  1.4827768E-03
         190 -7.4336790E-03
         191  5.1619862E-03
         192  2.2395991E-02
         193  1.4034081E-04
         194  4.3526310E-02
         195 -2.4828525E-02
         196 -9.5776945E-02
         197  1.5359507E-04
         198 -1.0838456E-02
         199  5.7419850E-03
         200  2.4591021E-02
         201 -2.5801259E-04
         202 -5.4838710E-02
         203  3.3729285E-02
         204  0.1228265    
         205 -1.6424028E-04
         206  1.3697091E-02
         207 -8.4916968E-03
         208 -3.0940752E-02
         209 -8.3352505E-05
         210  2.8038013E-04
         211  6.8840763E-04
         212  5.9424125E-04
         213 -1.0147287E-04
         214 -7.8224788E-05
         215 -4.9887336E-04
         216 -5.9770001E-04
         217 -2.8065417E-04
         218  5.1978033E-02
         219 -3.4484215E-02
         220 -0.1230996    
         221  9.5419957E-05
         222 -1.3829419E-02
         223  9.3483739E-03
         224  3.2581963E-02
         225 -2.9997222E-04
         226 -4.2458426E-02
         227  3.1869523E-02
         228  0.1052137    
         229  4.3736646E-04
         230  1.0017209E-02
         231 -7.8751696E-03
         232 -2.5662728E-02
         233  2.2578581E-04
         234 -4.6355214E-02
         235  3.2133792E-02
         236  0.1038717    
         237 -3.3831707E-04
         238  1.1383346E-02
         239 -8.0218716E-03
         240 -2.4919391E-02
         241  5.2785908E-04
         242  5.3496737E-02
         243 -3.4732416E-02
         244 -0.1234511    
         245 -2.9199460E-04
         246 -1.4113858E-02
         247  9.4185704E-03
         248  3.3031173E-02
         249  4.7839199E-05
         250 -7.6893769E-04
         251  6.6549570E-04
         252  8.9354481E-04
         253  1.6009426E-04
         254  5.9934292E-04
         255 -2.5209811E-04
         256 -5.7683053E-04
         257  2.3091435E-04
         258 -5.0977662E-02
         259  3.3968903E-02
         260  0.1247962    
         261  2.5485229E-04
         262  1.3163943E-02
         263 -8.3686914E-03
         264 -3.1269573E-02
         265  2.0495096E-04
         266  4.0035304E-02
         267 -2.5307968E-02
         268 -9.8527759E-02
         269 -3.5485259E-04
         270 -1.0175306E-02
         271  6.3094785E-03
         272  2.5527688E-02
         273  1.6879132E-03
         274  2.5817638E-02
         275 -1.1469753E-02
         276 -5.1216841E-02
         277 -1.3916873E-03
         278 -1.0889915E-02
         279  4.7880178E-03
         280  2.1009790E-02
         281  2.8968195E-03
         282 -6.0905935E-04
         283 -2.7430385E-02
         284 -4.6928083E-03
         285 -1.3408492E-03
         286  8.7215478E-04
         287  6.9290195E-03
         288  3.8282384E-04
         289 -7.0816553E-05
         290  4.1026026E-03
         291 -2.3195390E-02
         292 -7.1758367E-03
         293 -5.9811014E-04
         294 -1.4416855E-03
         295  6.6921678E-03
         296  3.5310006E-03
         297  3.7897469E-03
         298 -7.0135524E-03
         299  4.2604096E-02
         300 -1.9227147E-02
         301 -4.8270160E-03
         302  3.1791069E-03
         303 -1.5376421E-02
         304  6.5915911E-03
         305 -6.9922530E-03
         306 -1.1490508E-02
         307 -8.2607064E-03
         308 -1.2942297E-02
         309  1.9153579E-03
         310  5.8035026E-03
         311  1.2892839E-03
         312  7.4386257E-03
         313  4.7907751E-04
         314  1.5503963E-03
         315 -3.5674686E-03
         316  1.5710221E-03
         317 -5.7908362E-03
         318  2.2368708E-03
         319  1.5796728E-03
         320 -2.9134516E-02
         321  1.8407419E-02
         322 -6.4654134E-02
         323  2.5116014E-03
         324  1.2543149E-03
         325  2.3136502E-02
         326 -1.1506330E-02
         327  5.3241599E-02
         328  4.0470457E-04
         329  4.7480172E-04
         330  2.7895218E-02
         331 -2.0075997E-02
         332  6.6531062E-02
         333 -7.4487063E-04
         334  3.9687046E-04
         335  2.8302416E-02
         336 -2.0398008E-02
         337  6.6725083E-02
         338 -5.1829795E-04
         339 -9.6765667E-04
         340 -1.8581898E-03
         341  1.3321212E-03
         342 -6.3864398E-03
         343 -2.3552452E-03
         344 -1.1033979E-03
         345 -2.6694035E-02
         346  1.7863618E-02
         347 -6.5849081E-02
         348 -2.2722667E-03
         349 -1.4631927E-03
         350  2.4046991E-02
         351 -1.2556640E-02
         352  5.4429252E-02
         353 -2.8123541E-03
         354  4.3212753E-03
         355  5.3744428E-03
         356  1.5511048E-02
         357 -6.8856450E-03
         358  4.0361565E-03
         359 -3.4075109E-03
         360 -1.6226750E-04
         361  8.0998857E-03
         362 -6.0660574E-03
         363 -1.3349771E-02
         364  5.7239179E-04
         365 -4.0107363E-04
         366  9.2952832E-04
         367 -1.1337203E-02
         368 -2.1928821E-03
         369 -5.4576824E-04
         370 -1.8010997E-03
         371 -5.4912469E-03
         372 -3.9657867E-03
         373 -5.4115924E-05
         374 -1.4983156E-03
         375  4.4755316E-03
         376 -2.7995306E-05
         377  3.8409472E-04
         378  2.9790052E-04
         379 -4.8873469E-04
         380  7.4496460E-03
         381 -5.5805282E-03
         382 -1.9053420E-02
         383 -1.9451410E-04
         384 -2.4916229E-04
         385 -1.1929031E-02
         386  7.0029707E-03
         387  2.6850503E-02
         388  4.6955836E-07
         389 -2.5668606E-04
         390 -4.2914972E-04
         391  5.5547712E-06
         392  1.1938084E-03
         393  9.9508383E-04
         394 -3.9685320E-04
         395  1.1501030E-02
         396 -7.5693321E-03
         397 -2.6728852E-02
         398 -1.1750915E-03
         399  4.4325250E-04
         400  1.1929537E-02
         401 -7.7245934E-03
         402 -2.6723417E-02
         403  5.2796888E-05
         404  1.2179135E-04
         405 -3.4542085E-04
         406  1.0702750E-04
         407  9.6777279E-04
         408  2.3259180E-04
         409  2.6979612E-04
         410 -1.0936966E-02
         411  7.1019200E-03
         412  2.7139712E-02
         413 -7.0502714E-04
         414  1.5345295E-03
         415  8.9303367E-03
         416 -4.8430264E-03
         417 -1.8979544E-02
         418 -6.1265525E-04
         419  2.3395924E-03
         420 -3.7594857E-03
         421  1.5811131E-05
         422 -2.0880983E-03
         423  2.1087218E-03
         424 -5.0681835E-04
         425  2.4528236E-03
         426 -7.2147246E-03
         427 -4.0200716E-03
         428 -6.8728584E-03
         429  2.6414962E-03
         430 -1.9993915E-04
         431  1.1839126E-02
         432 -6.0613947E-03
         433  1.1491423E-03
         434 -3.9713569E-03
         435 -9.0322737E-03
         436  1.3184112E-02
         437  2.0987850E-03
 Sym= Hole
 Ene= -0.1295148    
 Spin= Alpha
 Occup= 0
           1 -1.0425131E-03
           2  3.6918573E-02
           3 -2.4487356E-02
           4  8.2964651E-02
           5  6.5298943E-04
           6  6.8547699E-04
           7 -5.9301854E-04
           8  1.0265063E-03
           9 -2.6430560E-03
          10  6.3350154E-03
          11 -4.1852645E-03
          12  7.1251467E-03
          13  7.8678172E-04
          14 -1.0695178E-03
          15 -7.7672442E-04
          16 -1.1895476E-03
          17  7.2297838E-04
          18 -3.1442430E-02
          19  2.6615193E-02
          20 -7.6834604E-02
          21  1.9560503E-03
          22 -2.8917706E-03
          23 -1.5184488E-03
          24 -9.9598151E-04
          25 -1.7711367E-02
          26 -6.9578844E-03
          27 -4.1960268E-03
          28 -8.7341830E-02
          29  1.2042145E-02
          30 -2.7118782E-03
          31  2.6437275E-03
          32  9.7184042E-03
          33  2.4882217E-03
          34 -3.1731818E-02
          35  1.0575703E-02
          36 -5.0467763E-02
          37  3.6033994E-04
          38  1.0241149E-03
          39  2.2872649E-03
          40 -1.4910244E-03
          41 -3.4086430E-03
          42  2.6199985E-02
          43 -1.9334486E-02
          44  5.3457972E-02
          45  5.0937117E-04
          46  7.2874036E-04
          47 -1.2164887E-04
          48 -7.5394986E-04
          49 -2.7825693E-03
          50 -1.3964173E-02
          51  1.0514840E-02
          52 -5.7662513E-02
          53  8.6697859E-05
          54 -2.1939524E-03
          55  2.2585636E-03
          56 -1.1774684E-04
          57  3.4405428E-03
          58  2.0285780E-02
          59 -1.9599464E-02
          60  5.6002621E-02
          61 -4.3648999E-04
          62 -1.1430752E-03
          63 -1.4901003E-04
          64  5.2437314E-05
          65  1.2689322E-03
          66  3.4424700E-02
          67 -2.4536449E-02
          68  8.3915353E-02
          69 -5.5777864E-04
          70  1.5891333E-04
          71 -6.2625826E-04
          72  1.2267457E-03
          73  2.3755520E-03
          74  1.1093634E-03
          75 -4.3681436E-03
          76  9.5054721E-03
          77 -6.3709007E-04
          78 -2.0197818E-04
          79 -9.3713764E-04
          80 -1.6437341E-03
          81 -7.4828924E-05
          82 -3.4730308E-02
          83  2.6896387E-02
          84 -7.4983999E-02
          85 -2.1433712E-03
          86  1.4165660E-03
          87 -1.9421233E-03
          88 -2.7404448E-03
          89  1.7992964E-02
          90 -5.9064277E-02
          91 -4.9923076E-03
          92 -6.4606719E-02
          93 -1.1980458E-02
          94  8.3959643E-03
          95  2.1363781E-03
          96  4.8171328E-03
          97 -1.1373119E-03
          98  4.2181198E-02
          99 -9.4739217E-03
         100  9.4719112E-02
         101  7.8014162E-04
         102 -2.9387005E-04
         103  1.6360806E-04
         104  9.6179271E-04
         105  2.2634184E-03
         106  3.3091195E-02
         107 -0.2671522    
         108  8.1072621E-02
         109 -3.0482412E-04
         110 -3.8248807E-04
         111  1.5155236E-02
         112  9.5838780E-04
         113 -1.6033491E-02
         114  1.1612311E-02
         115 -2.1217931E-02
         116  2.5862401E-02
         117  6.9655273E-03
         118 -2.0168901E-03
         119  4.2933868E-03
         120 -2.2653260E-03
         121  2.9642560E-02
         122 -7.0386969E-02
         123  0.2389079    
         124 -0.1137404    
         125 -1.5109767E-02
         126  7.7889990E-03
         127 -7.8697177E-03
         128  6.9925054E-03
         129  3.4493848E-03
         130 -1.1564620E-02
         131  0.1358869    
         132 -2.3350254E-02
         133 -1.8074277E-03
         134  1.9072907E-03
         135 -2.1534981E-02
         136  8.4645301E-04
         137  1.2459669E-03
         138 -1.1284807E-02
         139 -0.5407524    
         140 -2.8827784E-03
         141 -4.9026549E-04
         142  9.4106877E-03
         143  5.0776664E-02
         144  5.1648915E-04
         145 -3.9217458E-03
         146 -1.2253730E-02
         147  0.1359371    
         148  2.4545226E-02
         149  2.2884826E-03
         150  2.3541062E-03
         151 -2.1834685E-02
         152 -1.0631797E-03
         153 -2.9110327E-02
         154 -6.8666339E-02
         155  0.2375761    
         156  0.1156444    
         157  1.4995165E-02
         158  7.8469357E-03
         159 -7.9491846E-03
         160 -7.0032622E-03
         161  1.5072354E-02
         162  1.1582464E-02
         163 -2.2847448E-02
         164 -2.5511559E-02
         165 -6.4728940E-03
         166 -2.3647393E-03
         167  4.5999959E-03
         168  2.1310209E-03
         169 -2.1885301E-03
         170  3.1225387E-02
         171 -0.2650229    
         172 -8.3901308E-02
         173  2.6732284E-04
         174 -5.0989486E-04
         175  1.5401497E-02
         176 -3.4315477E-04
         177  9.9701807E-04
         178  3.8392358E-02
         179 -6.6721370E-03
         180 -8.6229429E-02
         181 -7.4181240E-04
         182 -6.0843836E-06
         183 -3.4539466E-05
         184 -1.6117002E-03
         185  1.7574666E-02
         186 -6.2165251E-03
         187 -5.3791492E-03
         188  8.4726311E-02
         189 -1.2007914E-02
         190 -2.8266825E-03
         191  2.8859901E-03
         192 -9.4080437E-03
         193 -6.6911173E-04
         194 -2.8745333E-02
         195  2.4612663E-02
         196  7.1102090E-02
         197 -1.9831548E-03
         198 -3.0169210E-03
         199 -1.4113714E-03
         200  1.1657861E-03
         201  2.6186190E-03
         202  6.3840318E-03
         203 -4.2737564E-03
         204 -7.3970142E-03
         205 -7.7400252E-04
         206 -1.0413053E-03
         207 -8.0790592E-04
         208  1.1581795E-03
         209  1.0461498E-03
         210  3.4096807E-02
         211 -2.2293318E-02
         212 -7.6637752E-02
         213 -6.5267988E-04
         214  7.6503883E-04
         215 -6.2845898E-04
         216 -1.1882328E-03
         217  3.3792634E-03
         218  2.4578899E-02
         219 -1.8035727E-02
         220 -4.9951613E-02
         221 -5.1566196E-04
         222  7.9465436E-04
         223 -1.7746218E-04
         224  5.6798779E-04
         225 -2.4440470E-03
         226 -2.9647736E-02
         227  8.9520812E-03
         228  4.5648720E-02
         229 -3.8560858E-04
         230  9.2515722E-04
         231  2.3290471E-03
         232  1.7340793E-03
         233  2.7090102E-03
         234 -1.1992713E-02
         235  8.7933345E-03
         236  5.2845266E-02
         237 -8.2039587E-05
         238 -2.3030061E-03
         239  2.3442023E-03
         240  3.4296999E-04
         241 -3.4038976E-03
         242  1.8662095E-02
         243 -1.8215399E-02
         244 -5.2482538E-02
         245  4.2562699E-04
         246 -1.0657269E-03
         247 -1.9495994E-04
         248 -2.2994293E-04
         249 -1.2533498E-03
         250  3.1619512E-02
         251 -2.2302218E-02
         252 -7.7604376E-02
         253  5.4958806E-04
         254  2.2581643E-04
         255 -6.6212052E-04
         256 -1.3872891E-03
         257 -2.3558857E-03
         258  1.2163401E-03
         259 -4.3543014E-03
         260 -9.7851604E-03
         261  6.1945629E-04
         262 -2.3093802E-04
         263 -9.6394593E-04
         264  1.5874950E-03
         265  6.1834267E-05
         266 -3.2207701E-02
         267  2.4988810E-02
         268  6.9193721E-02
         269  2.1460643E-03
         270  1.3302541E-03
         271 -1.9433424E-03
         272  2.9164436E-03
         273 -1.7866611E-02
         274 -5.7889201E-02
         275 -5.5602100E-03
         276  6.2115029E-02
         277  1.1923367E-02
         278  8.2868189E-03
         279  2.1935340E-03
         280 -4.5057461E-03
         281 -1.2705772E-02
         282  1.2124942E-02
         283 -4.6707336E-03
         284 -2.0451063E-02
         285  4.2422363E-03
         286 -3.6501153E-03
         287  3.6888462E-03
         288  1.9589516E-03
         289  1.8910993E-02
         290 -4.9208332E-02
         291  0.2366822    
         292  0.1567774    
         293 -9.6872952E-03
         294 -2.4606159E-03
         295 -9.4885658E-03
         296 -1.1319952E-02
         297 -1.9249998E-02
         298 -5.0937507E-02
         299  0.2384578    
         300 -0.1546011    
         301  9.9981232E-03
         302 -2.3737105E-03
         303 -9.4389664E-03
         304  1.1342841E-02
         305  1.3345053E-02
         306  1.3200969E-02
         307 -3.0187147E-03
         308  2.0422189E-02
         309 -4.6967044E-03
         310 -3.8263539E-03
         311  3.3344459E-03
         312 -1.9467720E-03
         313  6.5739400E-04
         314  7.0401828E-04
         315 -6.3621782E-04
         316  4.6003249E-04
         317 -5.8330531E-04
         318  2.8863118E-03
         319 -5.5507623E-04
         320 -3.0351325E-04
         321 -2.8268583E-04
         322  3.3783237E-04
         323  5.6134965E-03
         324 -1.2099423E-03
         325 -3.0790427E-04
         326  3.0908531E-03
         327  8.3447120E-04
         328  4.0883054E-03
         329 -9.5746812E-04
         330  7.7999855E-04
         331 -2.4390464E-04
         332  3.2820928E-04
         333 -4.4858078E-03
         334  1.0249473E-03
         335 -3.2725689E-04
         336 -2.5069853E-04
         337  7.6905364E-04
         338 -6.5059093E-04
         339 -5.7611289E-04
         340 -3.5482855E-05
         341  3.7805460E-04
         342 -9.1320847E-04
         343 -3.4015491E-03
         344  6.1448192E-04
         345  4.2247758E-04
         346 -2.4263957E-04
         347  1.5712116E-05
         348 -5.2338005E-03
         349  1.2067559E-03
         350  2.0413937E-03
         351  2.4964667E-03
         352  3.2747982E-04
         353  1.5723199E-02
         354  9.7845541E-04
         355 -1.0284071E-03
         356 -2.5243287E-03
         357 -8.1045931E-04
         358 -1.5722804E-02
         359 -1.7027815E-03
         360  4.1437489E-03
         361  1.7035730E-02
         362 -4.5082006E-03
         363 -6.6295266E-04
         364  2.5203190E-04
         365 -1.7080117E-03
         366 -8.7287635E-02
         367 -1.0114423E-03
         368  1.5586975E-02
         369  1.6925350E-03
         370  4.2091710E-03
         371  1.7060297E-02
         372  4.7774012E-03
         373 -1.5292558E-02
         374 -9.0973708E-04
         375 -1.2334840E-03
         376 -2.6637404E-03
         377  5.3306110E-04
         378 -5.6117172E-03
         379  1.1570202E-03
         380 -2.2702191E-04
         381  3.0679929E-03
         382 -1.0752535E-03
         383 -2.9571424E-03
         384  5.4309861E-04
         385 -2.5185826E-04
         386 -3.0048910E-04
         387 -4.4148994E-04
         388 -6.6990138E-04
         389 -7.1068358E-04
         390 -7.2956667E-04
         391  5.3301651E-04
         392  7.8946562E-04
         393 -4.0875128E-03
         394  9.5446414E-04
         395  7.5654342E-04
         396 -2.3438006E-04
         397 -2.9594693E-04
         398  4.4768141E-03
         399 -1.0219858E-03
         400 -3.4254251E-04
         401 -2.4170987E-04
         402 -7.3184341E-04
         403  6.5841543E-04
         404  5.7407195E-04
         405 -1.1644014E-04
         406  4.3375240E-04
         407  1.1251944E-03
         408  3.4307712E-03
         409 -6.3232594E-04
         410  4.5105602E-04
         411 -2.7766361E-04
         412 -1.2048768E-04
         413  5.2086837E-03
         414 -1.1750823E-03
         415  2.2454055E-03
         416  2.4046726E-03
         417 -5.3672458E-04
         418  2.2113472E-02
         419 -2.0718258E-03
         420 -1.3353106E-03
         421 -2.2060841E-03
         422 -4.1910191E-04
         423 -1.9459108E-02
         424  1.0565016E-03
         425 -2.1217805E-03
         426  1.1620487E-02
         427 -1.6687713E-03
         428  2.0048235E-02
         429 -1.1115278E-03
         430 -2.1192667E-03
         431  1.1500406E-02
         432  1.7823953E-03
         433 -2.2334620E-02
         434  1.9571276E-03
         435 -1.6162475E-03
         436 -2.0927582E-03
         437  3.1237741E-04
 Sym= Particle
 Ene= -0.1295148    
 Spin= Alpha
 Occup= 2
           1  7.6867436E-04
           2  1.3109236E-02
           3 -7.3608966E-03
           4  2.8673438E-02
           5 -1.7320791E-03
           6 -1.3668011E-03
           7  1.1248755E-03
           8 -4.2817043E-03
           9  2.5432636E-03
          10 -4.0632404E-02
          11  2.5754150E-02
          12 -8.1951655E-02
          13 -2.4947890E-03
          14  1.1391674E-02
          15 -5.1033651E-03
          16  1.8407241E-02
          17 -2.7657920E-03
          18  1.1466469E-02
          19 -1.1007712E-02
          20  2.4933683E-02
          21 -1.9881425E-03
          22  4.4966950E-03
          23  1.2954102E-03
          24 -1.0607868E-02
          25  1.9922284E-02
          26  1.0583068E-02
          27  2.4920187E-03
          28  9.1848418E-02
          29 -1.8632144E-02
          30  8.4210271E-03
          31 -1.0180899E-03
          32 -3.3717986E-02
          33 -1.2392580E-03
          34 -2.9832801E-02
          35  3.5058077E-02
          36 -9.2761800E-02
          37 -1.4446309E-03
          38  7.6867291E-03
          39 -9.5589403E-03
          40  2.4192991E-02
          41  2.1534741E-03
          42  2.8614007E-02
          43 -1.7522285E-02
          44  7.1917035E-02
          45 -1.2493018E-03
          46 -8.5661411E-03
          47  7.1630795E-03
          48 -1.9320974E-02
          49  1.5189325E-03
          50 -4.6791423E-02
          51  3.5066269E-02
          52 -8.5602790E-02
          53  6.0146610E-04
          54  1.4397378E-02
          55 -9.1630565E-03
          56  2.1607652E-02
          57 -2.9428010E-03
          58  3.2230597E-02
          59 -1.7020505E-02
          60  7.0321262E-02
          61  8.8847044E-04
          62 -6.6174427E-03
          63  7.3031643E-03
          64 -1.9884771E-02
          65 -1.1363174E-03
          66  1.1361187E-02
          67 -7.9186661E-03
          68  2.9333929E-02
          69  1.2418437E-03
          70 -9.4298029E-04
          71  2.0336492E-03
          72 -4.1506258E-03
          73 -3.0195867E-03
          74 -3.1063832E-02
          75  2.5078846E-02
          76 -8.5713543E-02
          77  2.2964575E-03
          78  6.8573141E-03
          79 -3.5222836E-03
          80  2.0746462E-02
          81  1.7016288E-03
          82  1.1486099E-02
          83 -1.0911502E-02
          84  2.4589079E-02
          85  2.9846986E-03
          86 -8.1820786E-03
          87  3.4497576E-03
          88 -4.7773169E-03
          89 -2.1631433E-02
          90  6.1153229E-02
          91  4.2365720E-03
          92  7.0688643E-02
          93  2.0683931E-02
          94 -2.8679939E-02
          95 -8.8011520E-04
          96 -1.7958332E-02
          97  1.5804732E-03
          98  2.1782338E-03
          99 -3.5417373E-03
         100  9.2011411E-03
         101 -1.6438714E-03
         102 -1.6147112E-03
         103  1.8006612E-02
         104 -9.9974442E-03
         105 -1.7383764E-03
         106 -5.2263394E-02
         107  0.3087880    
         108 -0.1184717    
         109  4.6634721E-03
         110  1.8901359E-02
         111 -9.3335733E-02
         112  3.8289487E-02
         113 -3.1115187E-03
         114  1.3281034E-02
         115 -0.1406966    
         116  5.1815901E-02
         117  9.9457763E-03
         118  4.7609317E-03
         119  3.8336288E-02
         120 -1.9748664E-02
         121 -7.9479562E-03
         122  2.7352052E-02
         123 -0.1882932    
         124  5.3465366E-02
         125  2.1971993E-02
         126 -4.7690589E-03
         127  6.7134269E-02
         128 -2.0288082E-02
         129 -1.2897112E-03
         130 -4.8908997E-02
         131  0.3705612    
         132 -0.1508529    
         133  2.5903128E-02
         134  1.4010138E-02
         135 -0.1408379    
         136  4.9418591E-02
         137 -3.7381090E-02
         138 -1.0228919E-04
         139 -1.1573930E-03
         140 -3.7052575E-02
         141  3.1271100E-02
         142 -1.6451495E-04
         143  7.3437148E-04
         144 -1.6674258E-02
         145 -1.8499083E-03
         146  4.5811780E-02
         147 -0.3659312    
         148 -0.1531784    
         149  2.6332172E-02
         150 -1.2674198E-02
         151  0.1390374    
         152  5.0298322E-02
         153 -7.8401584E-03
         154 -2.6191235E-02
         155  0.1867190    
         156  5.4761924E-02
         157  2.1914650E-02
         158  4.4197664E-03
         159 -6.6628717E-02
         160 -2.0677829E-02
         161 -3.3159286E-03
         162 -1.2248861E-02
         163  0.1385701    
         164  5.3217996E-02
         165  9.9464739E-03
         166 -5.0518485E-03
         167 -3.7575245E-02
         168 -2.0207314E-02
         169 -1.6704613E-03
         170  4.9648527E-02
         171 -0.3056526    
         172 -0.1207597    
         173  4.6038050E-03
         174 -1.8050516E-02
         175  9.2188746E-02
         176  3.8850788E-02
         177  1.5476483E-03
         178 -3.7183724E-03
         179  4.4943457E-03
         180  1.2721247E-02
         181 -1.5917920E-03
         182  2.0368693E-03
         183 -1.8164068E-02
         184 -1.1214423E-02
         185  1.9776385E-02
         186 -9.4129248E-03
         187 -3.9768065E-03
         188  8.8020042E-02
         189 -1.8486170E-02
         190 -8.8271955E-03
         191  1.6883755E-03
         192 -3.2134537E-02
         193 -2.7470805E-03
         194 -8.1043560E-03
         195  8.9513892E-03
         196  1.7629061E-02
         197 -1.9788707E-03
         198 -5.3364686E-03
         199 -6.9939560E-04
         200 -8.6652236E-03
         201  2.5226385E-03
         202  3.6511589E-02
         203 -2.2854168E-02
         204 -7.2940640E-02
         205 -2.5080331E-03
         206 -1.0361713E-02
         207  4.3889489E-03
         208  1.6085725E-02
         209  7.6480763E-04
         210 -1.3130724E-02
         211  7.3014498E-03
         212  2.8832316E-02
         213 -1.7480624E-03
         214  1.3666848E-03
         215 -1.1380920E-03
         216 -4.3448349E-03
         217  2.1384638E-03
         218 -2.4763206E-02
         219  1.4607866E-02
         220  6.2916286E-02
         221 -1.2512434E-03
         222  7.5102537E-03
         223 -6.3816318E-03
         224 -1.6956016E-02
         225 -1.2711578E-03
         226  2.6651185E-02
         227 -3.2214519E-02
         228 -8.5400097E-02
         229 -1.4056150E-03
         230 -6.9586192E-03
         231  8.8485703E-03
         232  2.2421479E-02
         233  1.5373573E-03
         234  4.3273576E-02
         235 -3.2371055E-02
         236 -7.8330442E-02
         237  5.7814171E-04
         238 -1.3536656E-02
         239  8.5076429E-03
         240  1.9869974E-02
         241 -2.9028030E-03
         242 -2.8275268E-02
         243  1.4140460E-02
         244  6.1357178E-02
         245  8.6662872E-04
         246  5.5589350E-03
         247 -6.4940718E-03
         248 -1.7517170E-02
         249 -1.1405278E-03
         250 -1.1403603E-02
         251  7.8364667E-03
         252  2.9495325E-02
         253  1.2628256E-03
         254  9.5938088E-04
         255 -2.0326520E-03
         256 -4.2212801E-03
         257 -3.0150060E-03
         258  2.7172239E-02
         259 -2.2094395E-02
         260 -7.6634884E-02
         261  2.3235241E-03
         262 -5.8557396E-03
         263  2.7629668E-03
         264  1.8401062E-02
         265  1.7220301E-03
         266 -8.3863111E-03
         267  8.8896547E-03
         268  1.7165890E-02
         269  2.9755631E-03
         270  7.3688994E-03
         271 -3.0013483E-03
         272 -2.8351883E-03
         273 -2.1533400E-02
         274 -5.9503399E-02
         275 -5.1722210E-03
         276  6.6995852E-02
         277  2.0616652E-02
         278  2.7979763E-02
         279  1.1598878E-03
         280 -1.6489590E-02
         281 -1.1264650E-03
         282 -1.8015064E-02
         283  0.1135117    
         284  4.4875607E-02
         285  2.8231745E-03
         286  6.8472922E-03
         287 -2.9691704E-02
         288 -1.4767827E-02
         289 -6.7481734E-03
         290 -3.5947476E-02
         291  0.2062232    
         292  8.0845743E-02
         293  1.2027994E-02
         294  1.5819121E-02
         295 -6.5499939E-02
         296 -3.2103527E-02
         297 -6.9497894E-03
         298  3.7291221E-02
         299 -0.2071246    
         300  7.8684352E-02
         301  1.2208699E-02
         302 -1.6218895E-02
         303  6.6029765E-02
         304 -3.1432319E-02
         305 -1.2881509E-03
         306  1.8747030E-02
         307 -0.1165271    
         308  4.4386145E-02
         309  2.8993143E-03
         310 -7.0229028E-03
         311  3.0635925E-02
         312 -1.4508001E-02
         313 -3.8336581E-04
         314 -2.5958403E-03
         315  3.6930649E-03
         316 -2.7949477E-03
         317  3.5013407E-03
         318 -3.5925689E-03
         319 -2.0279193E-03
         320 -6.4290510E-03
         321  3.5015952E-03
         322 -1.6439077E-02
         323 -6.5725716E-03
         324  8.8241202E-04
         325 -4.4775759E-03
         326 -6.7278082E-03
         327 -1.2546834E-03
         328 -5.5701169E-03
         329  2.6219335E-04
         330  6.6184215E-03
         331 -1.8121887E-03
         332  1.3759938E-02
         333  6.0147401E-03
         334 -1.9416057E-03
         335  7.0679425E-03
         336 -1.9072259E-03
         337  1.3681410E-02
         338  7.4743311E-04
         339  1.0644742E-03
         340  1.1712039E-03
         341 -1.6043426E-03
         342  4.5716446E-03
         343  4.0111612E-03
         344  2.5783555E-04
         345 -7.2427429E-03
         346  5.1087518E-03
         347 -1.5656115E-02
         348  6.2473523E-03
         349 -3.0264137E-03
         350  1.1007698E-03
         351 -3.3168944E-03
         352 -4.9427510E-03
         353  5.3602192E-03
         354  1.0568139E-04
         355  1.2390693E-02
         356 -2.8217284E-02
         357  9.6781179E-03
         358  5.2680359E-03
         359  8.2717566E-03
         360 -7.6324553E-03
         361 -4.6364885E-02
         362  3.2758653E-02
         363  9.5836967E-02
         364 -5.5850348E-03
         365 -9.6665826E-05
         366 -9.7927987E-04
         367  7.8192204E-02
         368  5.1477980E-03
         369  8.4175467E-03
         370  8.0828359E-03
         371  4.5436732E-02
         372  3.3056978E-02
         373  5.3850967E-03
         374 -2.4501423E-05
         375 -1.1865500E-02
         376  2.8279174E-02
         377  1.0007100E-02
         378 -6.5535400E-03
         379  8.6303474E-04
         380  5.1088533E-03
         381  6.3109035E-03
         382 -2.6286885E-03
         383 -3.6113919E-03
         384 -2.0378740E-03
         385  5.5293017E-03
         386 -2.8924260E-03
         387 -1.4441656E-02
         388 -3.9099954E-04
         389 -2.6092739E-03
         390 -3.6717567E-03
         391  2.7810016E-03
         392  3.5558944E-03
         393 -5.5063977E-03
         394  2.3390263E-04
         395 -5.8012917E-03
         396  1.2037226E-03
         397  1.1859627E-02
         398  5.9102620E-03
         399 -1.8888637E-03
         400 -6.2107346E-03
         401  1.3055829E-03
         402  1.1799241E-02
         403  7.5707299E-04
         404  1.0665784E-03
         405 -1.2054421E-03
         406  1.5665201E-03
         407  4.6120342E-03
         408  4.0387353E-03
         409  2.6028184E-04
         410  6.4098365E-03
         411 -4.5091421E-03
         412 -1.3646384E-02
         413  6.2129810E-03
         414 -2.9452431E-03
         415 -4.5524669E-04
         416  2.9680145E-03
         417 -6.3029323E-03
         418  2.6004354E-03
         419 -4.5504835E-03
         420  1.8328275E-03
         421  2.3339078E-02
         422  6.2838695E-03
         423  4.0539177E-03
         424 -2.0228021E-03
         425 -9.1081196E-03
         426  5.9859458E-02
         427  3.2850534E-02
         428  3.9243340E-03
         429 -1.8668685E-03
         430  9.3038371E-03
         431 -6.0235325E-02
         432  3.2100026E-02
         433  2.6684154E-03
         434 -4.8029590E-03
         435 -1.9052925E-03
         436 -2.3624646E-02
         437  6.3188877E-03
