 [Molden Format]
 [Atoms] Angs
C       1      6     -3.94187297      0.82528237     -1.62341126
C       2      6     -4.40312310      0.18810830     -0.48488954
C       3      6     -3.68492142     -0.85986491      0.06406317
C       4      6     -2.49177467     -1.27679865     -0.51643821
C       5      6     -1.74747171     -2.40836278      0.05651826
C       6      6     -2.38710810     -3.62933276      0.25270286
C       7      6     -1.67250551     -4.71334514      0.73108550
C       8      6     -0.31906291     -4.53987715      0.98171600
N       9      7      0.29843615     -3.38662876      0.82646939
C      10      6     -0.38586933     -2.33270232      0.39547281
C      11      6      0.37078599     -1.07145372      0.31709885
C      12      6      1.74655028     -1.09688541      0.10063278
C      13      6      2.43223889      0.11278023      0.02071066
C      14      6      3.86558171      0.12428770     -0.21028911
C      15      6      4.75874284      1.18319623     -0.24208732
N      16      7      5.94998163      0.60027694     -0.49532335
N      17      7      5.80335388     -0.71888916     -0.61353114
N      18      7      4.57863655     -1.00752863     -0.44612060
C      19      6      1.70737563      1.29315281      0.15941589
C      20      6      0.33570431      1.21365838      0.38921682
C      21      6     -0.47080816      2.43349465      0.53328045
C      22      6     -1.83571570      2.34997815      0.81136130
C      23      6     -2.56496259      3.51941840      0.91257023
C      24      6     -1.91310528      4.73192980      0.74193868
C      25      6     -0.55135604      4.70853332      0.47845015
N      26      7      0.15398114      3.59916571      0.37410125
N      27      7     -0.31089747      0.05656026      0.47245902
C      28      6     -2.04337605     -0.64129646     -1.67142276
C      29      6     -2.76206719      0.40462485     -2.21632576
H      30      1     -4.49977827      1.64585255     -2.05017885
H      31      1     -5.32481773      0.50858100     -0.02039166
H      32      1     -4.03848271     -1.34754757      0.96169216
H      33      1     -3.43676726     -3.72416178      0.01045961
H      34      1     -2.14802189     -5.66839591      0.89231989
H      35      1      0.29994014     -5.35673756      1.32912616
H      36      1      2.26815540     -2.03329152     -0.00401278
H      37      1      4.64329275      2.23695236     -0.10717089
H      38      1      6.85424254      1.03552992     -0.59368076
H      39      1      2.16757710      2.26496845      0.09485866
H      40      1     -2.28501138      1.37905601      0.93412077
H      41      1     -3.62495628      3.48848467      1.12110219
H      42      1     -2.44354109      5.66910978      0.81149481
H      43      1      0.00605664      5.62701006      0.34081115
H      44      1     -1.12897958     -0.97536801     -2.14044825
H      45      1     -2.40297775      0.89444022     -3.10977119
 [GTO]
           1   0
s              4   1.000000
     34.92436905     -0.01198412
      6.01426534     -0.05472052
      0.48327188      0.58055871
      0.18418688      0.47700799
p              4   1.000000
      5.62897446      0.05713170
      1.45950902      0.28574555
      0.51452210      0.55178731
      0.20484011      0.26323149
s              7   1.000000
      0.38350848     -0.19624119
      0.04707223      0.94816534
      0.02222627      0.24900260
     34.92436905      0.00551720
      6.01426534      0.02519202
      0.48327188     -0.26727531
      0.18418688     -0.21960304
p              7   1.000000
      1.83062075     -0.01161211
      0.10124670      0.57063693
      0.03901771      0.59594552
      5.62897446     -0.02527311
      1.45950902     -0.12640404
      0.51452210     -0.24409180
      0.20484011     -0.11644459
 
           2   0
s              4   1.000000
     34.92271439     -0.01198412
      6.01398039     -0.05472052
      0.48324899      0.58055871
      0.18417815      0.47700799
p              4   1.000000
      5.62870777      0.05713170
      1.45943987      0.28574555
      0.51449772      0.55178731
      0.20483041      0.26323149
s              7   1.000000
      0.38350848     -0.19624275
      0.04707223      0.94817283
      0.02222627      0.24900458
     34.92271439      0.00551745
      6.01398039      0.02519316
      0.48324899     -0.26728740
      0.18417815     -0.21961297
p              7   1.000000
      1.83062075     -0.01161220
      0.10124670      0.57064116
      0.03901771      0.59594993
      5.62870777     -0.02527426
      1.45943987     -0.12640978
      0.51449772     -0.24410289
      0.20483041     -0.11644988
 
           3   0
s              4   1.000000
     35.02088976     -0.01198412
      6.03088700     -0.05472053
      0.48460750      0.58055871
      0.18469591      0.47700799
p              4   1.000000
      5.64453129      0.05713170
      1.46354268      0.28574555
      0.51594408      0.55178731
      0.20540623      0.26323149
s              7   1.000000
      0.38350848     -0.19615096
      0.04707223      0.94772935
      0.02222627      0.24888812
     35.02088976      0.00550268
      6.03088700      0.02512571
      0.48460750     -0.26657180
      0.18469591     -0.21902501
p              7   1.000000
      1.83062075     -0.01160710
      0.10124670      0.57039044
      0.03901771      0.59568806
      5.64453129     -0.02520633
      1.46354268     -0.12607005
      0.51594408     -0.24344685
      0.20540623     -0.11613692
 
           4   0
s              4   1.000000
     35.12143261     -0.01198412
      6.04820131     -0.05472052
      0.48599878      0.58055871
      0.18522616      0.47700799
p              4   1.000000
      5.66073640      0.05713170
      1.46774442      0.28574555
      0.51742533      0.55178731
      0.20599594      0.26323149
s              7   1.000000
      0.38350848     -0.19605767
      0.04707223      0.94727860
      0.02222627      0.24876975
     35.12143261      0.00548763
      6.04820131      0.02505700
      0.48599878     -0.26584282
      0.18522616     -0.21842606
p              7   1.000000
      1.83062075     -0.01160191
      0.10124670      0.57013559
      0.03901771      0.59542194
      5.66073640     -0.02513713
      1.46774442     -0.12572396
      0.51742533     -0.24277853
      0.20599594     -0.11581810
 
           5   0
s              4   1.000000
     35.15913315     -0.01198412
      6.05469366     -0.05472052
      0.48652047      0.58055871
      0.18542499      0.47700800
p              4   1.000000
      5.66681283      0.05713170
      1.46931995      0.28574555
      0.51798075      0.55178731
      0.20621706      0.26323149
s              7   1.000000
      0.38350848     -0.19602287
      0.04707223      0.94711047
      0.02222627      0.24872558
     35.15913315      0.00548201
      6.05469366      0.02503133
      0.48652047     -0.26557049
      0.18542499     -0.21820229
p              7   1.000000
      1.83062075     -0.01159997
      0.10124670      0.57004053
      0.03901771      0.59532266
      5.66681283     -0.02511128
      1.46931995     -0.12559466
      0.51798075     -0.24252885
      0.20621706     -0.11569899
 
           6   0
s              4   1.000000
     35.03887323     -0.01198412
      6.03398391     -0.05472052
      0.48485635      0.58055871
      0.18479076      0.47700799
p              4   1.000000
      5.64742980      0.05713170
      1.46429422      0.28574555
      0.51620902      0.55178731
      0.20551171      0.26323149
s              7   1.000000
      0.38350848     -0.19613422
      0.04707223      0.94764848
      0.02222627      0.24886689
     35.03887323      0.00549998
      6.03398391      0.02511339
      0.48485635     -0.26644112
      0.18479076     -0.21891764
p              7   1.000000
      1.83062075     -0.01160616
      0.10124670      0.57034471
      0.03901771      0.59564032
      5.64742980     -0.02519393
      1.46429422     -0.12600801
      0.51620902     -0.24332705
      0.20551171     -0.11607977
 
           7   0
s              4   1.000000
     34.89547943     -0.01198412
      6.00929031     -0.05472052
      0.48287212      0.58055871
      0.18403452      0.47700799
p              4   1.000000
      5.62431814      0.05713170
      1.45830171      0.28574555
      0.51409648      0.55178731
      0.20467067      0.26323149
s              7   1.000000
      0.38350848     -0.19626833
      0.04707223      0.94829646
      0.02222627      0.24903705
     34.89547943      0.00552156
      6.00929031      0.02521193
      0.48287212     -0.26748658
      0.18403452     -0.21977663
p              7   1.000000
      1.83062075     -0.01161362
      0.10124670      0.57071106
      0.03901771      0.59602292
      5.62431814     -0.02529316
      1.45830171     -0.12650435
      0.51409648     -0.24428549
      0.20467067     -0.11653700
 
           8   0
s              4   1.000000
     35.05564541     -0.01198412
      6.03687221     -0.05472052
      0.48508844      0.58055871
      0.18487921      0.47700799
p              4   1.000000
      5.65013307      0.05713170
      1.46499514      0.28574555
      0.51645612      0.55178731
      0.20561008      0.26323149
s              7   1.000000
      0.38350848     -0.19611863
      0.04707223      0.94757315
      0.02222627      0.24884709
     35.05564541      0.00549747
      6.03687221      0.02510191
      0.48508844     -0.26631936
      0.18487921     -0.21881760
p              7   1.000000
      1.83062075     -0.01160530
      0.10124670      0.57030212
      0.03901771      0.59559586
      5.65013307     -0.02518237
      1.46499514     -0.12595021
      0.51645612     -0.24321542
      0.20561008     -0.11602651
 
           9   0
s              4   1.000000
     57.19527149     -0.01198412
      9.84949902     -0.05472052
      0.79144927      0.58055871
      0.30164091      0.47700799
p              4   1.000000
      6.74171967      0.05713170
      1.74802724      0.28574555
      0.61623370      0.55178730
      0.24533325      0.26323149
s              7   1.000000
      0.47894987     -0.18910619
      0.05878681      0.91369160
      0.02775758      0.23994929
     57.19527149      0.00424413
      9.84949902      0.01937906
      0.79144927     -0.20560258
      0.30164091     -0.16893050
p              7   1.000000
      2.28619608     -0.01169105
      0.12644335      0.57451626
      0.04872781      0.59999688
      6.74171967     -0.02630540
      1.74802724     -0.13156710
      0.61623370     -0.25406189
      0.24533325     -0.12120085
 
          10   0
s              4   1.000000
     35.32347269     -0.01198412
      6.08299429     -0.05472053
      0.48879455      0.58055871
      0.18629170      0.47700799
p              4   1.000000
      5.69330044      0.05713170
      1.47618779      0.28574555
      0.52040188      0.55178731
      0.20718095      0.26323149
s              7   1.000000
      0.38350848     -0.19587233
      0.04707223      0.94638312
      0.02222627      0.24853458
     35.32347269      0.00545763
      6.08299429      0.02492004
      0.48879455     -0.26438971
      0.18629170     -0.21723213
p              7   1.000000
      1.83062075     -0.01159161
      0.10124670      0.56962932
      0.03901771      0.59489322
      5.69330044     -0.02499919
      1.47618779     -0.12503404
      0.52040188     -0.24144627
      0.20718095     -0.11518254
 
          11   0
s              4   1.000000
     35.26033032     -0.01198412
      6.07212065     -0.05472053
      0.48792080      0.58055871
      0.18595870      0.47700800
p              4   1.000000
      5.68312339      0.05713170
      1.47354903      0.28574555
      0.51947163      0.55178731
      0.20681061      0.26323149
s              7   1.000000
      0.38350848     -0.19592995
      0.04707223      0.94666151
      0.02222627      0.24860768
     35.26033032      0.00546697
      6.07212065      0.02496268
      0.48792080     -0.26484217
      0.18595870     -0.21760388
p              7   1.000000
      1.83062075     -0.01159481
      0.10124670      0.56978671
      0.03901771      0.59505760
      5.68312339     -0.02504214
      1.47354903     -0.12524887
      0.51947163     -0.24186111
      0.20681061     -0.11538044
 
          12   0
s              4   1.000000
     35.10412006     -0.01198412
      6.04521995     -0.05472053
      0.48575922      0.58055871
      0.18513486      0.47700799
p              4   1.000000
      5.65794603      0.05713170
      1.46702092      0.28574555
      0.51717027      0.55178730
      0.20589440      0.26323149
s              7   1.000000
      0.38350848     -0.19607368
      0.04707223      0.94735597
      0.02222627      0.24879006
     35.10412006      0.00549022
      6.04521995      0.02506880
      0.48575922     -0.26596807
      0.18513486     -0.21852896
p              7   1.000000
      1.83062075     -0.01160280
      0.10124670      0.57017933
      0.03901771      0.59546762
      5.65794603     -0.02514902
      1.46702092     -0.12578342
      0.51717027     -0.24289336
      0.20589440     -0.11587287
 
          13   0
s              4   1.000000
     35.06119639     -0.01198412
      6.03782814     -0.05472053
      0.48516525      0.58055871
      0.18490849      0.47700799
p              4   1.000000
      5.65102776      0.05713170
      1.46522711      0.28574555
      0.51653790      0.55178731
      0.20564264      0.26323149
s              7   1.000000
      0.38350848     -0.19611347
      0.04707223      0.94754823
      0.02222627      0.24884056
     35.06119639      0.00549664
      6.03782814      0.02509812
      0.48516525     -0.26627909
      0.18490849     -0.21878451
p              7   1.000000
      1.83062075     -0.01160501
      0.10124670      0.57028804
      0.03901771      0.59558114
      5.65102776     -0.02517855
      1.46522711     -0.12593108
      0.51653790     -0.24317850
      0.20564264     -0.11600890
 
          14   0
s              4   1.000000
     35.57000829     -0.01198412
      6.12544976     -0.05472053
      0.49220602      0.58055871
      0.18759190      0.47700799
p              4   1.000000
      5.73303609      0.05713170
      1.48649065      0.28574555
      0.52403395      0.55178731
      0.20862695      0.26323149
s              7   1.000000
      0.38350848     -0.19564997
      0.04707223      0.94530873
      0.02222627      0.24825242
     35.57000829      0.00542147
      6.12544976      0.02475488
      0.49220602     -0.26263752
      0.18759190     -0.21579246
p              7   1.000000
      1.83062075     -0.01157925
      0.10124670      0.56902192
      0.03901771      0.59425887
      5.73303609     -0.02483285
      1.48649065     -0.12420207
      0.52403395     -0.23983969
      0.20862695     -0.11441611
 
          15   0
s              4   1.000000
     35.25255882     -0.01198412
      6.07078233     -0.05472052
      0.48781326      0.58055871
      0.18591771      0.47700799
p              4   1.000000
      5.68187081      0.05713170
      1.47322426      0.28574555
      0.51935714      0.55178730
      0.20676503      0.26323149
s              7   1.000000
      0.38350848     -0.19593706
      0.04707223      0.94669586
      0.02222627      0.24861670
     35.25255882      0.00546813
      6.07078233      0.02496794
      0.48781326     -0.26489796
      0.18591771     -0.21764973
p              7   1.000000
      1.83062075     -0.01159520
      0.10124670      0.56980613
      0.03901771      0.59507786
      5.68187081     -0.02504744
      1.47322426     -0.12527536
      0.51935714     -0.24191226
      0.20676503     -0.11540484
 
          16   0
s              4   1.000000
     61.48782594     -0.01198412
     10.58871242     -0.05472053
      0.85084822      0.58055871
      0.32427932      0.47700799
p              4   1.000000
      7.24769154      0.05713170
      1.87921819      0.28574555
      0.66248257      0.55178731
      0.26374572      0.26323149
s              7   1.000000
      0.47894987     -0.18769734
      0.05878681      0.90688455
      0.02775758      0.23816165
     61.48782594      0.00395136
     10.58871242      0.01804227
      0.85084822     -0.19141985
      0.32427932     -0.15727746
p              7   1.000000
      2.28619608     -0.01155790
      0.12644335      0.56797307
      0.04872781      0.59316350
      7.24769154     -0.02454337
      1.87921819     -0.12275426
      0.66248257     -0.23704392
      0.26374572     -0.11308238
 
          17   0
s              4   1.000000
     57.71649362     -0.01198412
      9.93925779     -0.05472052
      0.79866177      0.58055871
      0.30438977      0.47700799
p              4   1.000000
      6.80315715      0.05713170
      1.76395706      0.28574555
      0.62184945      0.55178731
      0.24756898      0.26323149
s              7   1.000000
      0.47894987     -0.18891972
      0.05878681      0.91279066
      0.02775758      0.23971268
     57.71649362      0.00420643
      9.93925779      0.01920691
      0.79866177     -0.20377620
      0.30438977     -0.16742988
p              7   1.000000
      2.28619608     -0.01167347
      0.12644335      0.57365224
      0.04872781      0.59909456
      6.80315715     -0.02607843
      1.76395706     -0.13043186
      0.62184945     -0.25186970
      0.24756898     -0.12015506
 
          18   0
s              4   1.000000
     57.75075861     -0.01198412
      9.94515850     -0.05472052
      0.79913592      0.58055871
      0.30457048      0.47700799
p              4   1.000000
      6.80719603      0.05713170
      1.76500428      0.28574555
      0.62221863      0.55178731
      0.24771596      0.26323149
s              7   1.000000
      0.47894987     -0.18890762
      0.05878681      0.91273222
      0.02775758      0.23969733
     57.75075861      0.00420397
      9.94515850      0.01919570
      0.79913592     -0.20365721
      0.30457048     -0.16733211
p              7   1.000000
      2.28619608     -0.01167233
      0.12644335      0.57359616
      0.04872781      0.59903600
      6.80719603     -0.02606364
      1.76500428     -0.13035790
      0.62221863     -0.25172688
      0.24771596     -0.12008692
 
          19   0
s              4   1.000000
     35.09092304     -0.01198412
      6.04294731     -0.05472052
      0.48557660      0.58055871
      0.18506526      0.47700799
p              4   1.000000
      5.65581898      0.05713170
      1.46646941      0.28574555
      0.51697585      0.55178731
      0.20581699      0.26323149
s              7   1.000000
      0.38350848     -0.19608590
      0.04707223      0.94741501
      0.02222627      0.24880556
     35.09092304      0.00549219
      6.04294731      0.02507781
      0.48557660     -0.26606361
      0.18506526     -0.21860747
p              7   1.000000
      1.83062075     -0.01160348
      0.10124670      0.57021272
      0.03901771      0.59550249
      5.65581898     -0.02515809
      1.46646941     -0.12582879
      0.51697585     -0.24298096
      0.20581699     -0.11591466
 
          20   0
s              4   1.000000
     35.24761630     -0.01198412
      6.06993119     -0.05472052
      0.48774487      0.58055871
      0.18589164      0.47700799
p              4   1.000000
      5.68107420      0.05713170
      1.47301771      0.28574555
      0.51928432      0.55178731
      0.20673604      0.26323149
s              7   1.000000
      0.38350848     -0.19594159
      0.04707223      0.94671773
      0.02222627      0.24862246
     35.24761630      0.00546886
      6.06993119      0.02497129
      0.48774487     -0.26493345
      0.18589164     -0.21767889
p              7   1.000000
      1.83062075     -0.01159546
      0.10124670      0.56981849
      0.03901771      0.59509077
      5.68107420     -0.02505081
      1.47301771     -0.12529221
      0.51928432     -0.24194480
      0.20673604     -0.11542036
 
          21   0
s              4   1.000000
     35.26689806     -0.01198412
      6.07325167     -0.05472053
      0.48801168      0.58055871
      0.18599333      0.47700799
p              4   1.000000
      5.68418196      0.05713170
      1.47382350      0.28574555
      0.51956839      0.55178731
      0.20684913      0.26323149
s              7   1.000000
      0.38350848     -0.19592394
      0.04707223      0.94663250
      0.02222627      0.24860005
     35.26689806      0.00546600
      6.07325167      0.02495824
      0.48801168     -0.26479503
      0.18599333     -0.21756516
p              7   1.000000
      1.83062075     -0.01159448
      0.10124670      0.56977030
      0.03901771      0.59504044
      5.68418196     -0.02503767
      1.47382350     -0.12522649
      0.51956839     -0.24181789
      0.20684913     -0.11535982
 
          22   0
s              4   1.000000
     35.01339442     -0.01198412
      6.02959624     -0.05472052
      0.48450379      0.58055871
      0.18465639      0.47700799
p              4   1.000000
      5.64332322      0.05713170
      1.46322944      0.28574555
      0.51583366      0.55178731
      0.20536227      0.26323149
s              7   1.000000
      0.38350848     -0.19615795
      0.04707223      0.94776310
      0.02222627      0.24889699
     35.01339442      0.00550380
      6.02959624      0.02513084
      0.48450379     -0.26662630
      0.18465639     -0.21906979
p              7   1.000000
      1.83062075     -0.01160748
      0.10124670      0.57040952
      0.03901771      0.59570801
      5.64332322     -0.02521150
      1.46322944     -0.12609593
      0.51583366     -0.24349682
      0.20536227     -0.11616075
 
          23   0
s              4   1.000000
     34.93957226     -0.01198412
      6.01688346     -0.05472053
      0.48348226      0.58055871
      0.18426706      0.47700799
p              4   1.000000
      5.63142485      0.05713170
      1.46014437      0.28574555
      0.51474608      0.55178731
      0.20492928      0.26323149
s              7   1.000000
      0.38350848     -0.19622694
      0.04707223      0.94809644
      0.02222627      0.24898452
     34.93957226      0.00551491
      6.01688346      0.02518155
      0.48348226     -0.26716425
      0.18426706     -0.21951179
p              7   1.000000
      1.83062075     -0.01161132
      0.10124670      0.57059797
      0.03901771      0.59590482
      5.63142485     -0.02526257
      1.46014437     -0.12635132
      0.51474608     -0.24399000
      0.20492928     -0.11639603
 
          24   0
s              4   1.000000
     34.90439440     -0.01198412
      6.01082554     -0.05472052
      0.48299548      0.58055871
      0.18408153      0.47700800
p              4   1.000000
      5.62575502      0.05713170
      1.45867427      0.28574555
      0.51422782      0.55178731
      0.20472296      0.26323149
s              7   1.000000
      0.38350848     -0.19625995
      0.04707223      0.94825596
      0.02222627      0.24902642
     34.90439440      0.00552021
      6.01082554      0.02520578
      0.48299548     -0.26742135
      0.18408153     -0.21972303
p              7   1.000000
      1.83062075     -0.01161315
      0.10124670      0.57068816
      0.03901771      0.59599901
      5.62575502     -0.02528697
      1.45867427     -0.12647338
      0.51422782     -0.24422569
      0.20472296     -0.11650847
 
          25   0
s              4   1.000000
     35.06522753     -0.01198412
      6.03852233     -0.05472052
      0.48522104      0.58055871
      0.18492975      0.47700799
p              4   1.000000
      5.65167748      0.05713170
      1.46539558      0.28574555
      0.51659729      0.55178731
      0.20566628      0.26323149
s              7   1.000000
      0.38350848     -0.19610973
      0.04707223      0.94753016
      0.02222627      0.24883581
     35.06522753      0.00549603
      6.03852233      0.02509536
      0.48522104     -0.26624985
      0.18492975     -0.21876048
p              7   1.000000
      1.83062075     -0.01160480
      0.10124670      0.57027781
      0.03901771      0.59557046
      5.65167748     -0.02517577
      1.46539558     -0.12591720
      0.51659729     -0.24315169
      0.20566628     -0.11599611
 
          26   0
s              4   1.000000
     57.17073272     -0.01198412
      9.84527324     -0.05472053
      0.79110971      0.58055871
      0.30151149      0.47700799
p              4   1.000000
      6.73882723      0.05713170
      1.74727728      0.28574555
      0.61596931      0.55178731
      0.24522800      0.26323149
s              7   1.000000
      0.47894987     -0.18911508
      0.05878681      0.91373457
      0.02775758      0.23996058
     57.17073272      0.00424592
      9.84527324      0.01938723
      0.79110971     -0.20568932
      0.30151149     -0.16900177
p              7   1.000000
      2.28619608     -0.01169189
      0.12644335      0.57455745
      0.04872781      0.60003991
      6.73882723     -0.02631619
      1.74727728     -0.13162102
      0.61596931     -0.25416602
      0.24522800     -0.12125052
 
          27   0
s              4   1.000000
     57.42587580     -0.01198412
      9.88921099     -0.05472052
      0.79464030      0.58055871
      0.30285709      0.47700799
p              4   1.000000
      6.76890145      0.05713170
      1.75507507      0.28574555
      0.61871827      0.55178731
      0.24632241      0.26323149
s              7   1.000000
      0.47894987     -0.18902312
      0.05878681      0.91329025
      0.02775758      0.23984388
     57.42587580      0.00422737
      9.88921099      0.01930254
      0.79464030     -0.20479074
      0.30285709     -0.16826347
p              7   1.000000
      2.28619608     -0.01168322
      0.12644335      0.57413142
      0.04872781      0.59959496
      6.76890145     -0.02620451
      1.75507507     -0.13106246
      0.61871827     -0.25308741
      0.24632241     -0.12073597
 
          28   0
s              4   1.000000
     35.03312967     -0.01198412
      6.03299482     -0.05472052
      0.48477687      0.58055871
      0.18476047      0.47700799
p              4   1.000000
      5.64650407      0.05713170
      1.46405419      0.28574555
      0.51612441      0.55178731
      0.20547802      0.26323149
s              7   1.000000
      0.38350848     -0.19613957
      0.04707223      0.94767430
      0.02222627      0.24887366
     35.03312967      0.00550084
      6.03299482      0.02511732
      0.48477687     -0.26648284
      0.18476047     -0.21895192
p              7   1.000000
      1.83062075     -0.01160646
      0.10124670      0.57035930
      0.03901771      0.59565558
      5.64650407     -0.02519789
      1.46405419     -0.12602782
      0.51612441     -0.24336530
      0.20547802     -0.11609802
 
          29   0
s              4   1.000000
     34.92533204     -0.01198412
      6.01443117     -0.05472052
      0.48328521      0.58055871
      0.18419195      0.47700799
p              4   1.000000
      5.62912967      0.05713170
      1.45954927      0.28574555
      0.51453628      0.55178731
      0.20484576      0.26323149
s              7   1.000000
      0.38350848     -0.19624029
      0.04707223      0.94816096
      0.02222627      0.24900146
     34.92533204      0.00551705
      6.01443117      0.02519135
      0.48328521     -0.26726827
      0.18419195     -0.21959725
p              7   1.000000
      1.83062075     -0.01161206
      0.10124670      0.57063446
      0.03901771      0.59594293
      5.62912967     -0.02527244
      1.45954927     -0.12640070
      0.51453628     -0.24408535
      0.20484576     -0.11644152
 
          30   0
s              4   1.000000
      8.30883417      0.05675242
      1.52041428      0.26014135
      0.42238774      0.53284611
      0.14018669      0.29162544
s              7   1.000000
      0.92936822     -0.06732857
      0.05643440      0.66945685
      0.02166600      0.51461576
      8.30883417     -0.02902302
      1.52041428     -0.13303550
      0.42238774     -0.27249588
      0.14018669     -0.14913636
p              4   1.000000
      0.64737396      0.05713170
      0.16785440      0.28574555
      0.05917387      0.55178731
      0.02355814      0.26323150
 
          31   0
s              4   1.000000
      8.30885870      0.05675242
      1.52041877      0.26014135
      0.42238898      0.53284611
      0.14018711      0.29162544
s              7   1.000000
      0.92936822     -0.06732854
      0.05643440      0.66945653
      0.02166600      0.51461551
      8.30885870     -0.02902295
      1.52041877     -0.13303520
      0.42238898     -0.27249526
      0.14018711     -0.14913602
p              4   1.000000
      0.64737396      0.05713170
      0.16785440      0.28574555
      0.05917387      0.55178731
      0.02355814      0.26323150
 
          32   0
s              4   1.000000
      8.30929746      0.05675242
      1.52049906      0.26014135
      0.42241129      0.53284611
      0.14019451      0.29162544
s              7   1.000000
      0.92936822     -0.06732797
      0.05643440      0.66945091
      0.02166600      0.51461119
      8.30929746     -0.02902178
      1.52049906     -0.13302981
      0.42241129     -0.27248424
      0.14019451     -0.14912999
p              4   1.000000
      0.64737396      0.05713170
      0.16785440      0.28574555
      0.05917387      0.55178731
      0.02355814      0.26323150
 
          33   0
s              4   1.000000
      8.30915713      0.05675242
      1.52047338      0.26014135
      0.42240416      0.53284611
      0.14019214      0.29162544
s              7   1.000000
      0.92936822     -0.06732816
      0.05643440      0.66945272
      0.02166600      0.51461258
      8.30915713     -0.02902215
      1.52047338     -0.13303154
      0.42240416     -0.27248777
      0.14019214     -0.14913192
p              4   1.000000
      0.64737396      0.05713170
      0.16785440      0.28574555
      0.05917387      0.55178731
      0.02355814      0.26323150
 
          34   0
s              4   1.000000
      8.30861235      0.05675242
      1.52037369      0.26014135
      0.42237646      0.53284611
      0.14018295      0.29162544
s              7   1.000000
      0.92936822     -0.06732886
      0.05643440      0.66945968
      0.02166600      0.51461792
      8.30861235     -0.02902361
      1.52037369     -0.13303822
      0.42237646     -0.27250145
      0.14018295     -0.14913941
p              4   1.000000
      0.64737396      0.05713170
      0.16785440      0.28574555
      0.05917387      0.55178731
      0.02355814      0.26323150
 
          35   0
s              4   1.000000
      8.30886666      0.05675242
      1.52042023      0.26014135
      0.42238939      0.53284611
      0.14018724      0.29162544
s              7   1.000000
      0.92936822     -0.06732853
      0.05643440      0.66945642
      0.02166600      0.51461544
      8.30886666     -0.02902293
      1.52042023     -0.13303510
      0.42238939     -0.27249506
      0.14018724     -0.14913591
p              4   1.000000
      0.64737396      0.05713170
      0.16785440      0.28574555
      0.05917387      0.55178731
      0.02355814      0.26323150
 
          36   0
s              4   1.000000
      8.31005525      0.05675242
      1.52063773      0.26014135
      0.42244981      0.53284611
      0.14020730      0.29162544
s              7   1.000000
      0.92936822     -0.06732700
      0.05643440      0.66944123
      0.02166600      0.51460374
      8.31005525     -0.02901975
      1.52063773     -0.13302052
      0.42244981     -0.27246521
      0.14020730     -0.14911958
p              4   1.000000
      0.64737396      0.05713170
      0.16785440      0.28574555
      0.05917387      0.55178731
      0.02355814      0.26323150
 
          37   0
s              4   1.000000
      8.30779791      0.05675242
      1.52022466      0.26014135
      0.42233506      0.53284611
      0.14016921      0.29162544
s              7   1.000000
      0.92936822     -0.06732990
      0.05643440      0.66947011
      0.02166600      0.51462595
      8.30779791     -0.02902579
      1.52022466     -0.13304821
      0.42233506     -0.27252191
      0.14016921     -0.14915061
p              4   1.000000
      0.64737396      0.05713170
      0.16785440      0.28574555
      0.05917387      0.55178731
      0.02355814      0.26323150
 
          38   0
s              4   1.000000
      8.31073590      0.05675242
      1.52076228      0.26014135
      0.42248441      0.53284611
      0.14021878      0.29162544
s              7   1.000000
      0.92936822     -0.06732612
      0.05643440      0.66943252
      0.02166600      0.51459705
      8.31073590     -0.02901793
      1.52076228     -0.13301218
      0.42248441     -0.27244812
      0.14021878     -0.14911022
p              4   1.000000
      0.64737396      0.05713170
      0.16785440      0.28574555
      0.05917387      0.55178731
      0.02355814      0.26323150
 
          39   0
s              4   1.000000
      8.31008379      0.05675242
      1.52064295      0.26014135
      0.42245126      0.53284611
      0.14020778      0.29162544
s              7   1.000000
      0.92936822     -0.06732696
      0.05643440      0.66944087
      0.02166600      0.51460346
      8.31008379     -0.02901967
      1.52064295     -0.13302017
      0.42245126     -0.27246449
      0.14020778     -0.14911918
p              4   1.000000
      0.64737396      0.05713170
      0.16785440      0.28574555
      0.05917387      0.55178731
      0.02355814      0.26323150
 
          40   0
s              4   1.000000
      8.31052399      0.05675242
      1.52072350      0.26014135
      0.42247364      0.53284611
      0.14021520      0.29162544
s              7   1.000000
      0.92936822     -0.06732640
      0.05643440      0.66943523
      0.02166600      0.51459914
      8.31052399     -0.02901849
      1.52072350     -0.13301478
      0.42247364     -0.27245344
      0.14021520     -0.14911314
p              4   1.000000
      0.64737396      0.05713170
      0.16785440      0.28574555
      0.05917387      0.55178731
      0.02355814      0.26323150
 
          41   0
s              4   1.000000
      8.30869160      0.05675242
      1.52038820      0.26014135
      0.42238049      0.53284611
      0.14018429      0.29162544
s              7   1.000000
      0.92936822     -0.06732875
      0.05643440      0.66945867
      0.02166600      0.51461715
      8.30869160     -0.02902340
      1.52038820     -0.13303724
      0.42238049     -0.27249946
      0.14018429     -0.14913832
p              4   1.000000
      0.64737396      0.05713170
      0.16785440      0.28574555
      0.05917387      0.55178731
      0.02355814      0.26323150
 
          42   0
s              4   1.000000
      8.30857258      0.05675242
      1.52036642      0.26014135
      0.42237444      0.53284611
      0.14018228      0.29162544
s              7   1.000000
      0.92936822     -0.06732891
      0.05643440      0.66946019
      0.02166600      0.51461832
      8.30857258     -0.02902371
      1.52036642     -0.13303870
      0.42237444     -0.27250245
      0.14018228     -0.14913996
p              4   1.000000
      0.64737396      0.05713170
      0.16785440      0.28574555
      0.05917387      0.55178731
      0.02355814      0.26323150
 
          43   0
s              4   1.000000
      8.30884204      0.05675242
      1.52041573      0.26014135
      0.42238814      0.53284611
      0.14018683      0.29162543
s              7   1.000000
      0.92936822     -0.06732856
      0.05643440      0.66945674
      0.02166600      0.51461566
      8.30884204     -0.02902299
      1.52041573     -0.13303540
      0.42238814     -0.27249568
      0.14018683     -0.14913625
p              4   1.000000
      0.64737396      0.05713170
      0.16785440      0.28574555
      0.05917387      0.55178731
      0.02355814      0.26323150
 
          44   0
s              4   1.000000
      8.30963421      0.05675242
      1.52056068      0.26014135
      0.42242841      0.53284611
      0.14020019      0.29162544
s              7   1.000000
      0.92936822     -0.06732754
      0.05643440      0.66944661
      0.02166600      0.51460789
      8.30963421     -0.02902087
      1.52056068     -0.13302569
      0.42242841     -0.27247578
      0.14020019     -0.14912536
p              4   1.000000
      0.64737396      0.05713170
      0.16785440      0.28574555
      0.05917387      0.55178731
      0.02355814      0.26323150
 
          45   0
s              4   1.000000
      8.30894748      0.05675242
      1.52043502      0.26014135
      0.42239350      0.53284611
      0.14018860      0.29162544
s              7   1.000000
      0.92936822     -0.06732842
      0.05643440      0.66945539
      0.02166600      0.51461464
      8.30894748     -0.02902271
      1.52043502     -0.13303411
      0.42239350     -0.27249303
      0.14018860     -0.14913480
p              4   1.000000
      0.64737396      0.05713170
      0.16785440      0.28574555
      0.05917387      0.55178731
      0.02355814      0.26323150
 
 [MO]
 Sym= Hole
 Ene= -0.5639151    
 Spin= Alpha
 Occup= 0
           1  1.4603049E-03
           2 -7.0451975E-02
           3 -9.5223360E-02
           4 -8.9761809E-02
           5 -4.7329953E-04
           6  1.1803085E-03
           7 -6.8464538E-04
           8  2.7801143E-03
           9 -2.9438629E-03
          10 -2.5635025E-02
          11 -2.5316166E-02
          12 -2.0632876E-02
          13  7.5108081E-04
          14  3.0506030E-03
          15 -3.3607308E-04
          16  6.1748939E-04
          17  1.6139176E-02
          18  9.5716842E-02
          19  8.5087948E-02
          20  7.2858401E-02
          21 -9.3711121E-03
          22 -3.5198036E-04
          23  6.3665345E-04
          24  3.8628618E-03
          25  1.4853759E-02
          26  7.1558185E-02
          27  7.0020773E-02
          28  0.1122746    
          29 -5.8270954E-03
          30 -2.2238970E-03
          31 -4.2915596E-03
          32  5.6033852E-03
          33 -2.6046224E-02
          34 -1.1993977E-02
          35 -0.1091593    
          36 -0.3037171    
          37 -3.1551621E-03
          38 -1.1792037E-02
          39  1.7989991E-03
          40 -7.6085650E-03
          41  1.7705834E-02
          42  4.5360480E-02
          43  7.0234044E-03
          44 -5.9124354E-02
          45 -9.2419786E-03
          46  3.8340806E-03
          47  3.8827150E-03
          48 -9.6741243E-04
          49 -3.4304943E-02
          50 -0.1439344    
          51  4.8960086E-02
          52  0.2277332    
          53  1.8464407E-04
          54 -1.3413040E-02
          55  9.6633920E-04
          56 -9.0026460E-04
          57  2.6703762E-02
          58  3.5043068E-02
          59  0.1088262    
          60  0.2495132    
          61 -2.2084825E-02
          62 -7.3107942E-03
          63 -1.3599163E-02
          64  7.1351149E-04
          65 -0.1683603    
          66 -0.2724012    
          67 -5.3527750E-02
          68 -0.1096028    
          69  5.6604426E-02
          70  9.9660724E-04
          71  1.9024587E-03
          72 -2.6262188E-03
          73  2.0398023E-02
          74  0.1625774    
          75 -7.5850263E-02
          76 -0.2331448    
          77 -1.9971915E-02
          78 -1.1612258E-02
          79  1.6313976E-02
          80 -8.1601003E-03
          81  3.0262731E-02
          82 -1.5781371E-02
          83 -6.5396786E-02
          84  0.2018748    
          85 -2.7486671E-02
          86 -8.3579286E-04
          87  1.5719878E-02
          88 -5.0654784E-03
          89 -1.8778069E-02
          90  8.8639721E-02
          91 -8.7281745E-03
          92  0.2786931    
          93 -3.1294206E-03
          94  2.1641620E-03
          95  8.5842945E-03
          96  2.5476934E-03
          97  8.9568291E-03
          98 -3.7002214E-03
          99 -1.6933588E-02
         100  2.2149233E-02
         101 -1.2672619E-03
         102 -2.3762414E-03
         103 -1.9841935E-03
         104  2.8564364E-03
         105 -4.3709250E-03
         106  2.1802066E-03
         107  4.4011245E-03
         108 -1.9603353E-02
         109  2.3353819E-03
         110 -1.4995920E-03
         111  1.3117989E-03
         112  1.2873739E-03
         113  2.9151496E-03
         114 -6.3358122E-03
         115 -6.3766405E-04
         116 -1.7792275E-02
         117 -9.9101383E-04
         118  5.0407200E-04
         119  1.9909930E-03
         120  4.5549733E-04
         121 -2.9585554E-04
         122  2.3461902E-03
         123 -3.0381286E-03
         124  1.0844206E-02
         125  6.3700817E-04
         126 -5.6896883E-04
         127  1.6719996E-03
         128  3.6122954E-05
         129 -1.6342606E-03
         130  1.4598562E-03
         131 -5.3806877E-04
         132  1.1889995E-02
         133  5.5579311E-04
         134  7.3496188E-04
         135  9.0218108E-04
         136 -2.8065010E-04
         137  8.2147925E-04
         138 -1.0122526E-03
         139 -3.1637487E-03
         140 -1.2174970E-02
         141 -8.9469882E-05
         142 -5.9096853E-04
         143 -1.2639939E-03
         144  6.9325621E-04
         145 -8.2193164E-04
         146 -5.2727178E-02
         147 -8.2873469E-03
         148 -0.2425947    
         149  5.8528492E-03
         150 -7.1904538E-03
         151  9.4861386E-04
         152 -4.4164746E-05
         153 -6.3768183E-03
         154 -1.6900115E-02
         155 -2.7227424E-02
         156 -0.1853803    
         157  9.5673800E-03
         158  5.1684952E-03
         159  3.6613650E-03
         160  5.7708152E-04
         161 -7.2986181E-03
         162 -1.6998433E-02
         163 -1.8180925E-02
         164  0.1268038    
         165  7.6146354E-03
         166  2.8492426E-03
         167  9.2302393E-03
         168 -1.4727978E-03
         169  1.2474738E-02
         170  8.4795780E-02
         171  1.2856505E-02
         172  0.1746240    
         173 -5.0479843E-04
         174  6.3869157E-03
         175  4.2246142E-03
         176  1.1687179E-03
         177 -1.9344883E-03
         178 -7.2951764E-03
         179 -1.3510283E-03
         180  3.8696770E-02
         181  4.1531987E-04
         182 -2.8746519E-03
         183 -4.0299166E-04
         184  7.9740112E-04
         185  1.3882897E-02
         186  1.7509414E-02
         187 -1.6009402E-03
         188 -0.1477213    
         189  6.6460087E-04
         190  4.5347451E-03
         191 -4.2553013E-04
         192 -1.3358688E-03
         193 -1.0636983E-02
         194 -6.2042948E-02
         195  8.4109791E-03
         196 -0.1095092    
         197  9.5703136E-03
         198  2.8631927E-03
         199 -5.3542242E-03
         200 -1.5369931E-04
         201  7.3999584E-02
         202  0.1467357    
         203  9.3330024E-03
         204  1.7274825E-02
         205 -2.3377091E-02
         206 -1.4965646E-03
         207  4.5519616E-04
         208  1.9666741E-03
         209 -3.7770229E-03
         210  2.1928689E-02
         211 -3.5268555E-03
         212  1.5181476E-02
         213  4.5346371E-03
         214 -4.4900598E-03
         215 -1.4076407E-02
         216  7.3069464E-03
         217 -1.9913899E-02
         218  8.5945204E-02
         219  0.1175870    
         220  4.6248488E-02
         221  4.8553706E-03
         222 -1.4358716E-03
         223  4.3007857E-03
         224 -4.7409197E-04
         225  8.7105632E-03
         226 -1.1833242E-02
         227 -3.0642197E-02
         228 -5.4924595E-03
         229 -3.2870073E-03
         230 -2.8219095E-03
         231  1.3946388E-03
         232  1.8454173E-03
         233  1.8674221E-03
         234  1.1001033E-03
         235 -1.6702486E-03
         236 -4.7010602E-03
         237 -1.6324935E-03
         238  8.0308886E-03
         239  1.8970876E-03
         240 -4.4448208E-04
         241 -3.2229691E-03
         242 -2.1999180E-03
         243 -1.2131024E-02
         244  2.4930716E-03
         245  2.2806365E-03
         246  3.1073771E-03
         247 -8.6709246E-04
         248 -4.6751570E-02
         249  2.8857088E-04
         250 -1.8531727E-04
         251  7.1023789E-04
         252  8.1205863E-04
         253  5.8461145E-02
         254  2.1806643E-03
         255  3.6379772E-03
         256  1.3906268E-03
         257  2.6203477E-04
         258  7.6754257E-02
         259 -1.1083074E-02
         260 -3.7628724E-03
         261 -2.2450445E-02
         262  3.8645610E-03
         263  1.7440808E-04
         264 -3.0188262E-03
         265  1.5247229E-02
         266  4.1532558E-03
         267 -1.0921968E-02
         268 -1.9370369E-05
         269 -1.2400915E-04
         270 -1.6541808E-03
         271 -1.9519278E-03
         272 -1.1953438E-03
         273  9.4748219E-04
         274  3.1905563E-04
         275 -5.2267433E-06
         276 -2.8813971E-04
         277  2.5237214E-03
         278 -2.4664768E-03
         279  1.6954269E-03
         280 -8.6378027E-03
         281  5.6730080E-03
         282 -9.4531622E-04
         283 -2.5883485E-02
         284 -1.4721816E-03
         285 -4.0939576E-03
         286  3.1851709E-03
         287 -2.5686929E-03
         288  2.5100823E-02
         289  6.1380054E-04
         290  2.4198763E-04
         291 -4.6490500E-04
         292 -3.3642515E-03
         293 -2.0668054E-02
         294  2.7612009E-04
         295 -2.5446771E-03
         296 -2.3471651E-04
         297 -2.1987807E-03
         298 -4.0255271E-02
         299  6.1369613E-03
         300  2.6414439E-03
         301 -1.0681536E-02
         302  1.0845462E-03
         303  7.1701952E-03
         304  3.2532297E-03
         305  6.7300061E-03
         306 -4.1503510E-03
         307 -2.2836174E-03
         308 -1.6754238E-02
         309  7.1132998E-04
         310 -4.0997351E-03
         311 -2.5433348E-03
         312 -7.6048035E-04
 Sym= Particle
 Ene= -0.5639151    
 Spin= Alpha
 Occup= 2
           1  2.3766593E-03
           2  2.8544348E-02
           3  3.5424534E-02
           4  3.4398243E-02
           5 -6.4725536E-03
           6 -8.7264245E-03
           7 -6.7601828E-03
           8 -8.6607886E-03
           9  3.0364075E-03
          10 -4.4993162E-03
          11 -5.9274370E-03
          12 -3.3480898E-03
          13 -5.1804287E-03
          14 -2.9466078E-03
          15 -2.6681700E-03
          16  4.9224409E-04
          17 -7.5826719E-03
          18 -4.7627702E-02
          19 -3.8337264E-02
          20 -2.1414509E-02
          21  5.5149505E-03
          22  1.9411145E-02
          23  9.5466804E-03
          24  9.3118018E-03
          25  2.4686053E-03
          26  2.7917493E-02
          27  3.8421895E-02
          28  3.4140121E-02
          29 -1.9317564E-03
          30 -1.5848510E-02
          31 -1.1549910E-02
          32  9.0164468E-03
          33  8.0676740E-03
          34 -3.0145932E-02
          35  4.5925036E-02
          36  0.1581034    
          37 -4.5476411E-03
          38  1.0639724E-02
          39 -1.8313671E-02
          40 -5.7679027E-02
          41 -2.9461435E-03
          42  9.9751011E-02
          43 -0.1129705    
          44 -0.3904786    
          45  3.5109546E-03
          46 -2.8574966E-02
          47  3.3251606E-02
          48  0.1066688    
          49  3.7099367E-03
          50 -4.2307988E-02
          51  5.4576010E-02
          52  0.2039066    
          53 -2.4646982E-03
          54  9.9492837E-03
          55 -1.0855823E-02
          56 -4.8140619E-02
          57 -2.8838930E-04
          58 -5.2596014E-02
          59  6.5622829E-02
          60  0.2591244    
          61 -1.5806188E-03
          62  1.8823160E-02
          63 -2.3693658E-02
          64 -9.1551222E-02
          65 -1.2188392E-03
          66  0.1013068    
          67 -0.1074776    
          68 -0.3867957    
          69 -2.0716046E-03
          70 -3.1444319E-02
          71  2.7297711E-02
          72  0.1070707    
          73 -4.4525121E-03
          74 -5.2195828E-02
          75  4.7455605E-02
          76  0.2174326    
          77  4.6343002E-03
          78  1.6673828E-02
          79 -1.4859047E-02
          80 -7.8705922E-02
          81  3.9929603E-03
          82  2.9961895E-02
          83 -9.9773528E-03
          84  0.2019820    
          85 -2.0298406E-03
          86 -1.4616490E-02
          87  1.2440126E-02
          88 -6.5954186E-02
          89  3.7115572E-03
          90 -5.9098005E-02
          91  1.2424173E-02
          92 -0.2850085    
          93 -2.1648644E-03
          94  1.6097695E-02
          95 -9.3613043E-03
          96  4.4733975E-02
          97 -5.4013485E-04
          98  1.0207850E-03
          99 -1.9846912E-03
         100 -2.4289700E-04
         101  2.3796335E-03
         102 -2.8252103E-03
         103 -1.1279680E-03
         104 -1.5495976E-03
         105  1.5613930E-03
         106 -3.5578008E-03
         107 -7.9902785E-04
         108 -3.7577653E-03
         109  1.8951519E-03
         110 -1.8369072E-03
         111 -1.3180001E-03
         112  1.3209927E-03
         113 -1.2194486E-03
         114  9.7357924E-04
         115 -1.2560770E-03
         116  5.9616268E-03
         117  2.7863299E-03
         118 -1.0160075E-03
         119 -4.2876357E-04
         120  2.0383920E-03
         121  1.4385021E-03
         122 -2.4690481E-03
         123  1.1752194E-03
         124 -1.1008305E-02
         125 -5.2123063E-04
         126  1.4418769E-03
         127 -4.5173263E-04
         128  1.5547851E-03
         129 -5.9806363E-05
         130  1.0222310E-03
         131 -2.3745927E-03
         132  1.0157055E-02
         133  3.1218841E-04
         134  6.9791371E-05
         135  3.3849049E-03
         136 -9.3968376E-04
         137 -1.1394330E-03
         138  4.7764322E-04
         139  1.0315232E-03
         140  4.2878673E-04
         141  1.9106269E-03
         142 -3.3365726E-03
         143  1.4269062E-04
         144  7.0833589E-04
         145 -2.0769846E-03
         146  4.5855507E-02
         147 -5.2969591E-03
         148  0.2923051    
         149  4.7047874E-03
         150 -8.7861363E-03
         151 -1.3171491E-03
         152 -5.7767361E-02
         153  3.7751994E-03
         154 -3.7094824E-02
         155 -5.0558457E-03
         156 -0.2085699    
         157  1.9323559E-03
         158  1.0373754E-02
         159 -2.8842462E-03
         160  6.1349999E-02
         161 -2.4436794E-03
         162 -4.4704132E-02
         163 -2.9226253E-03
         164 -0.2102080    
         165  4.9269348E-03
         166  1.5260294E-02
         167 -4.6806192E-04
         168  6.5016083E-02
         169  4.4212968E-04
         170  1.6362226E-02
         171  1.8479845E-03
         172  8.5693039E-02
         173  2.7868256E-03
         174 -3.6598046E-03
         175 -7.4015406E-04
         176 -1.9924628E-02
         177 -1.3894606E-03
         178  2.8962594E-02
         179  6.4106584E-03
         180  0.1516001    
         181  3.0256915E-03
         182 -8.4187118E-03
         183 -2.6296722E-03
         184 -3.7831232E-02
         185 -5.0679059E-04
         186 -3.8188279E-02
         187 -8.6506288E-03
         188 -0.1981669    
         189  2.0318225E-03
         190  7.5002490E-03
         191  3.0315595E-03
         192  4.2681776E-02
         193 -7.5997651E-04
         194 -6.1547859E-03
         195 -7.2245189E-04
         196 -2.5588565E-02
         197  3.0967097E-03
         198  4.0314733E-03
         199  1.8521040E-04
         200  1.5978308E-02
         201 -1.4107217E-03
         202  3.9857615E-02
         203  5.9383493E-03
         204  0.1978770    
         205  2.6686019E-03
         206 -1.0432555E-02
         207 -1.9479167E-03
         208 -5.5802699E-02
         209 -1.1669011E-02
         210 -5.3539099E-03
         211  8.0368165E-03
         212  9.6363714E-03
         213  1.1252157E-02
         214 -5.1310463E-03
         215 -1.0637626E-02
         216  2.5831664E-04
         217  1.1446473E-02
         218 -2.2870300E-02
         219 -3.0949425E-02
         220 -8.1061739E-03
         221 -8.8160699E-03
         222 -6.0145538E-03
         223  2.0501336E-02
         224  2.2930598E-03
         225 -5.7413056E-03
         226 -1.6007269E-02
         227 -1.0192552E-02
         228 -1.4282238E-02
         229  9.6887373E-04
         230  3.0794262E-03
         231  7.5492528E-03
         232  4.1349065E-03
         233 -1.0907856E-03
         234 -4.8145205E-03
         235  2.2054729E-03
         236  6.8049557E-03
         237  5.7778223E-03
         238 -6.1183549E-03
         239  3.1497900E-04
         240 -2.5403031E-04
         241 -2.7608078E-03
         242  2.2748306E-04
         243  2.1464243E-03
         244 -3.2158766E-03
         245 -6.7100008E-03
         246  4.3473518E-03
         247 -5.8493423E-03
         248  6.3272459E-03
         249  2.1654943E-03
         250  1.6168935E-02
         251 -2.4105132E-02
         252 -8.4414452E-02
         253 -2.8112032E-03
         254  2.0723080E-03
         255 -8.7007303E-03
         256  1.5912715E-02
         257  4.6611372E-02
         258 -3.4832291E-03
         259  3.9282124E-03
         260 -6.8246876E-03
         261  1.1676569E-02
         262  4.5288000E-02
         263 -3.2355028E-04
         264  5.8197705E-03
         265 -2.0753546E-02
         266 -2.1975277E-02
         267 -7.0102543E-02
         268 -5.2335981E-05
         269  3.4744150E-03
         270 -3.4029027E-03
         271 -3.9137914E-04
         272  9.2200041E-03
         273 -5.8470783E-04
         274  1.2538944E-03
         275 -1.3778858E-03
         276 -8.1768015E-04
         277 -5.6122914E-03
         278  2.7389755E-03
         279  1.9862487E-03
         280  1.1450116E-02
         281  1.3171069E-03
         282  7.1930647E-02
         283 -1.4874424E-03
         284  3.4417270E-03
         285  5.4175295E-03
         286 -1.0447321E-03
         287  1.1010526E-02
         288  6.0124655E-04
         289  7.1905518E-04
         290  4.9277167E-03
         291 -1.1901337E-03
         292  2.6689675E-02
         293  6.0704350E-04
         294 -5.8324629E-04
         295 -8.5960757E-03
         296  4.3174288E-05
         297 -3.9830141E-02
         298 -1.3885547E-04
         299  6.4332754E-04
         300  1.4831536E-03
         301 -6.2883855E-04
         302  1.2201959E-03
         303 -1.9851308E-03
         304 -6.4817788E-03
         305 -1.1923135E-02
         306  1.0063595E-02
         307 -1.6021064E-02
         308  6.0840282E-03
         309 -5.5084317E-03
         310 -1.8165074E-03
         311 -1.6962091E-04
         312 -5.0146123E-03
 Sym= Hole
 Ene= -0.2468453    
 Spin= Alpha
 Occup= 0
           1 -8.3324517E-04
           2 -4.8653476E-02
           3 -5.1075641E-02
           4 -4.1963831E-02
           5  2.2799354E-03
           6  5.1995576E-03
           7 -2.1199218E-03
           8  3.7485737E-04
           9  8.3326548E-03
          10 -1.2359030E-02
          11 -4.6007510E-02
          12 -2.6196055E-02
          13 -1.5611298E-03
          14  5.1898500E-03
          15 -1.9138337E-03
          16 -1.5318716E-03
          17 -1.5294187E-02
          18 -3.7235306E-03
          19  5.2671533E-02
          20  4.2522591E-02
          21 -2.9903182E-03
          22 -5.4874746E-03
          23  5.1375837E-03
          24 -9.9196890E-04
          25  2.5850032E-02
          26  8.7178610E-02
          27  2.8432246E-02
          28  4.3780401E-02
          29 -1.9674614E-02
          30 -3.2369767E-03
          31 -1.3024795E-02
          32 -1.2777867E-02
          33 -4.1074876E-02
          34 -0.1624620    
          35 -3.4875353E-04
          36  2.8137786E-02
          37 -4.7178799E-03
          38 -1.4088681E-02
          39 -5.0028060E-03
          40 -6.1416044E-03
          41  2.3770252E-02
          42  4.5597404E-03
          43  7.8001581E-02
          44  0.1721383    
          45 -7.8656636E-03
          46  7.6267566E-03
          47  1.1086189E-02
          48  9.1394866E-03
          49 -3.2583479E-02
          50 -0.1438524    
          51  3.0199831E-02
          52  0.1377572    
          53  1.9848035E-03
          54 -1.2072586E-02
          55  5.1972526E-03
          56  1.7884892E-03
          57  2.6766960E-02
          58  9.5409907E-02
          59  5.1460952E-02
          60  2.6190706E-02
          61 -2.1989731E-02
          62 -7.4611460E-03
          63 -1.0954282E-02
          64 -6.8162424E-03
          65 -0.1710184    
          66 -0.2981744    
          67 -5.9840903E-02
          68 -0.2066474    
          69  6.2083278E-02
          70  2.2259918E-03
          71  1.5592462E-02
          72  5.0878352E-03
          73  4.4024181E-02
          74  0.1722984    
          75 -1.0192849E-02
          76 -7.9168022E-02
          77 -4.5201983E-02
          78 -1.0419737E-02
          79  2.5061850E-04
          80 -1.7703317E-02
          81  5.9013158E-02
          82 -0.1466322    
          83 -1.0941590E-02
          84 -8.7465651E-02
          85 -5.0149079E-02
          86  5.7440177E-03
          87  3.1465671E-03
          88 -4.6741227E-03
          89 -3.8252331E-02
          90  0.1058782    
          91  3.3315734E-03
          92 -0.1962532    
          93 -6.4475005E-03
          94  5.5146650E-03
          95  9.3215415E-03
          96 -4.3796166E-03
          97  1.6573787E-02
          98 -3.6740426E-02
          99 -1.0968907E-02
         100 -1.8576408E-02
         101 -3.0742451E-03
         102 -1.3540529E-02
         103 -7.2471832E-04
         104  4.2817085E-03
         105 -2.7188677E-02
         106  5.2144703E-02
         107 -4.3706847E-03
         108  3.5271514E-02
         109  8.5122278E-03
         110 -9.5526571E-04
         111  4.6645993E-04
         112  3.0076675E-04
         113  7.6837339E-03
         114 -1.0078730E-03
         115 -1.5630787E-02
         116  3.9430443E-02
         117 -4.8948177E-03
         118  3.9900020E-03
         119  4.4590360E-03
         120 -1.8331283E-03
         121 -6.4205877E-03
         122 -3.3723822E-04
         123  3.4021251E-03
         124 -1.8647818E-02
         125  1.5857482E-03
         126  5.5619940E-04
         127  3.7544640E-04
         128 -7.6425553E-04
         129  3.1348029E-03
         130  5.3483425E-03
         131 -2.7695505E-03
         132 -3.4681961E-02
         133 -2.6875641E-03
         134  8.7267649E-04
         135 -1.7693140E-04
         136  1.3916482E-03
         137  3.6412731E-03
         138 -3.6889352E-03
         139  2.5981115E-03
         140  2.0411670E-02
         141 -3.5911589E-03
         142  5.7028881E-03
         143 -3.7060808E-03
         144 -2.4521134E-03
         145 -2.6306089E-02
         146  0.1371463    
         147  1.2959149E-02
         148  0.1147138    
         149 -5.2892347E-03
         150  2.6771335E-03
         151 -4.8721633E-03
         152  4.1285129E-03
         153  4.6130262E-02
         154 -8.2471699E-02
         155 -2.1087937E-02
         156  0.1672741    
         157 -3.8684417E-02
         158  1.1721672E-02
         159  2.1747258E-03
         160  5.0017731E-03
         161  3.9993994E-02
         162  5.9712775E-02
         163 -1.3575984E-02
         164 -0.1990887    
         165 -3.9821271E-02
         166 -3.7381419E-03
         167  1.9398386E-03
         168 -1.1456588E-04
         169 -2.0546678E-02
         170 -0.1441159    
         171 -3.2635652E-02
         172 -0.1956999    
         173 -1.0212816E-02
         174 -6.6341711E-03
         175  4.9037198E-03
         176 -2.9589988E-03
         177  7.4601262E-03
         178  1.8046850E-02
         179 -1.1841273E-03
         180 -3.3379696E-02
         181 -2.8061087E-03
         182  9.5432000E-03
         183 -3.1979461E-03
         184 -3.1074160E-03
         185 -1.9402949E-02
         186 -3.7478242E-02
         187 -1.0779245E-03
         188  0.1947167    
         189 -5.6371943E-04
         190 -2.9410417E-03
         191 -1.8287427E-03
         192  3.4157117E-03
         193  2.1165317E-02
         194  9.6941561E-02
         195 -2.0494565E-02
         196  0.1517130    
         197 -1.5012044E-02
         198 -6.1599505E-03
         199  4.5783650E-03
         200  2.1110212E-03
         201 -0.1194573    
         202 -0.2324494    
         203 -1.2352274E-02
         204 -1.0389545E-03
         205  4.3628640E-02
         206 -7.1313558E-04
         207 -1.2311314E-02
         208 -1.9295653E-03
         209 -0.1630805    
         210  0.3264571    
         211  3.0427918E-04
         212  6.6569783E-02
         213  6.3035302E-02
         214 -5.3548388E-04
         215 -6.3434341E-03
         216  1.0398689E-02
         217  1.1599119E-02
         218  3.8970925E-02
         219  5.4373041E-02
         220  7.5102039E-02
         221 -1.3970593E-02
         222 -1.4882907E-03
         223 -2.2352587E-03
         224 -8.2704006E-03
         225  2.7202137E-03
         226  1.3962056E-02
         227  3.9105439E-03
         228  8.6157752E-04
         229 -4.3386547E-04
         230  5.6843688E-03
         231  1.1917125E-03
         232  3.0686678E-03
         233  6.8494319E-03
         234  5.5863173E-03
         235  1.1007942E-03
         236 -4.5454022E-03
         237 -8.3487731E-04
         238 -1.5930342E-02
         239  4.2054406E-03
         240  1.6601125E-03
         241 -1.3512964E-03
         242 -5.5319341E-03
         243  6.2502082E-03
         244  5.5832420E-03
         245  1.1124642E-03
         246  3.4680441E-03
         247  5.5626896E-03
         248 -7.4684933E-02
         249  3.7513655E-03
         250  4.8930496E-03
         251 -2.4858490E-03
         252 -9.5374165E-03
         253  6.4921834E-02
         254  5.1964270E-03
         255  7.0083370E-03
         256 -6.1223906E-04
         257 -8.5780444E-03
         258  9.3777776E-02
         259 -1.1415311E-02
         260 -6.5832203E-03
         261 -2.5593415E-02
         262  6.3861590E-03
         263  4.9726196E-02
         264  1.7111445E-03
         265  1.2260878E-02
         266  5.3967950E-03
         267 -4.8857839E-03
         268 -1.0670003E-03
         269 -8.1491499E-04
         270 -8.1103866E-04
         271  3.6240425E-03
         272  2.1100030E-03
         273  5.2939137E-03
         274 -1.2757402E-03
         275  9.7470777E-04
         276  2.7678045E-05
         277 -3.7204174E-03
         278  5.5699721E-02
         279 -2.2655755E-05
         280  9.3703019E-03
         281 -9.0451781E-03
         282 -6.8591502E-03
         283  5.0957520E-02
         284 -5.2272895E-04
         285 -9.8218685E-03
         286  9.3378723E-03
         287  1.2753953E-02
         288 -4.7999877E-02
         289  4.4885003E-03
         290 -6.4516754E-04
         291  1.1817688E-03
         292  1.3922809E-03
         293  3.3336136E-02
         294  9.8045229E-04
         295  3.4194724E-03
         296  1.1541840E-03
         297 -1.5866498E-03
         298  6.2097788E-02
         299 -8.8291643E-03
         300 -4.5274519E-03
         301  1.7922597E-02
         302 -1.5081532E-03
         303 -1.4750200E-02
         304  4.3394561E-03
         305  3.6796804E-03
         306  1.1668091E-03
         307 -5.7288236E-04
         308  1.1312827E-02
         309  9.6868277E-03
         310  3.2871978E-03
         311 -5.9309677E-04
         312  8.7664966E-03
 Sym= Particle
 Ene= -0.2468453    
 Spin= Alpha
 Occup= 2
           1 -2.3568317E-04
           2  6.3260131E-02
           3  8.1209302E-02
           4  7.9140365E-02
           5  1.8072962E-03
           6 -1.4381671E-02
           7 -1.2201333E-02
           8 -1.2707627E-02
           9  9.2702862E-03
          10 -7.4256468E-03
          11 -2.5611635E-02
          12 -1.0259488E-02
          13 -3.3061064E-03
          14 -4.5635276E-03
          15  2.0546201E-03
          16  5.2968203E-04
          17 -2.8705588E-02
          18 -0.1068061    
          19 -7.1264572E-02
          20 -5.4057173E-02
          21  2.5445705E-02
          22  3.6229528E-02
          23  1.0966952E-02
          24  2.1072878E-02
          25 -1.4151611E-04
          26  5.5191040E-02
          27  7.3970579E-02
          28  5.9674613E-02
          29  3.3938456E-03
          30 -2.1044992E-02
          31 -1.9017342E-02
          32  1.2030025E-02
          33 -3.7355234E-03
          34 -0.1235770    
          35  0.1215433    
          36  0.4052439    
          37  4.8361947E-03
          38  4.3631624E-02
          39 -2.9640445E-02
          40 -0.1196666    
          41  8.0020167E-03
          42  8.1508614E-02
          43 -7.1130544E-02
          44 -0.2878455    
          45 -4.1559301E-03
          46 -2.4161385E-02
          47  2.2191277E-02
          48  8.8756941E-02
          49  2.6683472E-04
          50  2.1622296E-02
          51 -3.3979569E-02
          52 -0.1099707    
          53 -4.3279910E-03
          54 -1.1854270E-03
          55  8.4584355E-03
          56  2.2018604E-02
          57 -2.3003423E-03
          58 -7.5034499E-02
          59  9.1019452E-02
          60  0.3606432    
          61 -6.0742269E-03
          62  2.1627782E-02
          63 -3.1290215E-02
          64 -0.1113784    
          65  8.6241746E-03
          66  2.5546800E-02
          67 -3.9153855E-02
          68 -0.2024560    
          69 -1.1672854E-02
          70 -1.2051983E-02
          71  6.7801625E-03
          72  5.9801619E-02
          73 -6.9198958E-03
          74  4.1157365E-02
          75 -2.1828499E-02
          76 -9.5264383E-02
          77 -1.2302807E-03
          78 -1.9595696E-02
          79  1.4650621E-02
          80  7.3799631E-03
          81  1.7080731E-03
          82 -3.2138102E-02
          83  6.6951867E-03
          84 -0.1990961    
          85 -5.7745907E-03
          86  7.9847099E-03
          87  2.5691586E-03
          88  4.9890779E-02
          89 -4.0597362E-03
          90  2.8527964E-02
          91 -5.5709234E-03
          92  0.1224410    
          93 -2.5473807E-03
          94 -5.5099288E-03
          95  4.0149808E-04
          96 -2.8402798E-02
          97  3.8052369E-03
          98  2.6191223E-02
          99 -7.4061560E-03
         100  0.1622067    
         101 -5.0137001E-03
         102 -1.0224649E-02
         103  2.5707334E-03
         104 -5.4531503E-02
         105 -2.3983675E-03
         106  1.1513677E-02
         107 -5.0957715E-03
         108  5.2464709E-02
         109  1.9923032E-03
         110 -4.2067175E-03
         111  9.2169503E-04
         112 -9.6736639E-04
         113  7.8217406E-04
         114 -1.3903022E-02
         115  1.0193519E-02
         116 -8.7997817E-02
         117  3.5581162E-04
         118  3.2555833E-03
         119 -2.8218902E-03
         120  2.5664408E-02
         121 -3.6515234E-04
         122  6.7452267E-03
         123 -4.4473629E-03
         124  3.7606858E-02
         125  2.3268196E-03
         126 -3.7826379E-03
         127  8.3445210E-04
         128 -1.0863642E-02
         129 -5.9126801E-04
         130  5.5129966E-03
         131 -2.3244864E-03
         132  2.3956703E-02
         133  3.3594025E-03
         134 -3.9349669E-03
         135 -1.0997907E-03
         136 -9.0039633E-03
         137  3.4557814E-03
         138 -1.1386104E-02
         139  7.5415033E-03
         140 -6.2652536E-02
         141 -5.2391726E-04
         142  4.0688398E-03
         143 -4.1769692E-03
         144  2.5927335E-02
         145  1.6177181E-03
         146 -4.6372339E-02
         147  8.9560468E-03
         148 -0.3191507    
         149 -5.2600601E-03
         150  9.9379476E-03
         151 -8.7984558E-03
         152  7.6207481E-02
         153  1.4981229E-03
         154  1.5347027E-02
         155 -1.7289176E-03
         156  9.9934936E-02
         157 -4.0624021E-03
         158 -1.1589966E-03
         159 -3.3022410E-03
         160 -2.0454817E-02
         161  6.0137582E-04
         162  4.7304921E-02
         163  4.0499964E-03
         164  0.2140042    
         165 -2.3121024E-03
         166 -1.6494237E-02
         167 -3.8002720E-03
         168 -7.5556897E-02
         169  9.5025910E-04
         170  8.6272205E-04
         171 -8.3194021E-04
         172  1.7315865E-03
         173  1.3216514E-03
         174  4.5961866E-04
         175 -1.3016034E-03
         176 -6.8541907E-04
         177 -2.8469756E-05
         178 -4.1762333E-02
         179 -8.3357152E-03
         180 -0.2188287    
         181  2.1454345E-03
         182  1.1681501E-02
         183  3.0342592E-03
         184  5.6642175E-02
         185  8.9184998E-04
         186  3.7155919E-02
         187  8.0390461E-03
         188  0.1892831    
         189 -1.8245736E-04
         190 -8.2231201E-03
         191 -4.4581601E-03
         192 -4.5761164E-02
         193  4.4429011E-04
         194  1.6356315E-02
         195  2.1256886E-03
         196  7.4558720E-02
         197 -2.8893191E-03
         198 -6.0639312E-03
         199 -9.7663549E-04
         200 -3.1576313E-02
         201  3.5274159E-03
         202 -4.4286441E-02
         203 -7.7361055E-03
         204 -0.2299176    
         205 -4.7510895E-03
         206  1.1963774E-02
         207  2.9087928E-03
         208  6.2924854E-02
         209 -1.4513594E-04
         210  2.7771611E-02
         211 -6.6448068E-03
         212  8.6142406E-02
         213  4.9839327E-03
         214 -1.0101690E-02
         215 -1.8387227E-03
         216 -8.5752364E-03
         217  2.9654521E-02
         218 -7.1909048E-02
         219 -9.5083758E-02
         220 -2.5707508E-02
         221 -2.5921844E-02
         222  7.8663845E-03
         223  2.5830070E-02
         224 -2.2150970E-03
         225 -1.1943771E-02
         226 -2.8663982E-02
         227 -1.8017812E-02
         228 -2.7656890E-02
         229  5.4691085E-03
         230 -1.6455677E-03
         231  6.1918894E-05
         232  2.8261025E-03
         233 -2.8297881E-04
         234  6.2955555E-04
         235  1.3377062E-02
         236  1.8306371E-02
         237  2.0281726E-02
         238 -1.3021300E-02
         239  4.2017167E-03
         240  1.5528369E-04
         241 -6.9801589E-03
         242 -4.5113149E-03
         243  7.2729401E-03
         244  4.4729291E-03
         245 -1.2156510E-03
         246 -1.1375092E-02
         247 -9.0104929E-04
         248 -8.6825490E-03
         249  4.6130093E-03
         250  1.3998496E-02
         251 -2.0232497E-02
         252 -6.7029148E-02
         253 -2.5584020E-05
         254 -1.2244339E-03
         255  5.5506057E-03
         256 -7.3813123E-04
         257 -2.1448767E-02
         258  7.7127381E-03
         259 -3.9043403E-03
         260 -1.4384220E-02
         261  1.5769025E-02
         262  7.3330157E-02
         263  2.1530755E-03
         264  1.4074654E-03
         265 -7.4886684E-03
         266 -7.4133142E-03
         267  1.7906990E-03
         268  1.3651846E-03
         269 -8.9772110E-04
         270  3.4475126E-04
         271  1.3579096E-03
         272 -2.4446268E-02
         273 -8.6287349E-05
         274  2.6093263E-03
         275  7.9601974E-04
         276 -3.0643854E-03
         277  1.4024473E-02
         278 -5.4581068E-04
         279 -2.4490288E-04
         280 -1.1402336E-02
         281 -1.0507651E-02
         282 -8.0364667E-02
         283 -8.7071175E-04
         284  3.1172484E-03
         285  1.0954373E-02
         286 -9.9613843E-04
         287  1.2389489E-02
         288 -1.3565337E-03
         289  1.7914911E-03
         290 -7.3985574E-03
         291  1.4472114E-04
         292 -4.9144875E-02
         293 -1.5964172E-03
         294  1.0867664E-03
         295  9.2074899E-03
         296 -2.5820795E-03
         297  4.5088336E-02
         298  7.2536140E-04
         299 -8.0188178E-04
         300  2.5032922E-03
         301 -4.5274571E-04
         302  9.1623785E-03
         303 -8.1684450E-03
         304 -7.7441842E-03
         305 -1.0689840E-02
         306 -1.5647301E-03
         307 -1.1257341E-02
         308  1.4363440E-02
         309 -6.7208377E-03
         310 -3.1454198E-03
         311 -1.5959744E-03
         312 -9.9967634E-03
 Sym= Hole
 Ene= -0.1094510    
 Spin= Alpha
 Occup= 0
           1 -4.7950872E-04
           2 -3.5976118E-03
           3  3.7317763E-03
           4  8.1874914E-03
           5  2.0574071E-03
           6  8.8927764E-03
           7 -2.7917378E-04
           8  2.1641639E-03
           9  6.8827532E-03
          10  5.9310516E-04
          11 -1.8233800E-02
          12 -1.0730502E-02
          13 -6.1644713E-04
          14  8.0618914E-03
          15  3.2964846E-04
          16  9.1314752E-04
          17 -1.8093793E-02
          18 -4.4955574E-02
          19 -5.6883502E-03
          20 -7.0274924E-03
          21  1.5299256E-03
          22 -2.4789345E-04
          23  7.5523527E-03
          24 -1.7919970E-03
          25  5.6684809E-04
          26  1.8322777E-02
          27  1.3009265E-02
          28 -3.3114471E-02
          29 -1.4111751E-02
          30 -5.9290403E-03
          31 -6.4619030E-03
          32 -1.7380323E-02
          33 -1.6830583E-03
          34 -8.1510477E-02
          35  7.6655701E-02
          36  0.2458376    
          37 -8.1960773E-03
          38 -4.0837363E-03
          39 -9.1321031E-03
          40  3.9921007E-03
          41  9.1674877E-03
          42 -4.8458744E-02
          43  7.5168245E-02
          44  0.2005218    
          45  1.2957207E-03
          46  3.8109030E-04
          47  7.4635269E-03
          48  8.6603044E-03
          49  1.3089577E-02
          50  3.0588485E-02
          51  5.6469133E-03
          52 -2.5169626E-03
          53  3.1559693E-03
          54  7.5161722E-03
          55  4.9389219E-03
          56 -6.0199236E-04
          57  1.0647719E-03
          58  1.9903777E-02
          59 -4.4324607E-02
          60 -0.2054350    
          61  4.8542060E-03
          62 -2.5409795E-03
          63  8.4466860E-04
          64 -1.3836930E-02
          65  4.2156678E-02
          66  0.1190299    
          67 -4.5008492E-02
          68 -0.1509024    
          69 -7.0825825E-03
          70 -6.4443722E-03
          71  1.1294169E-02
          72  8.4440745E-03
          73  3.4193382E-02
          74  7.0571038E-03
          75  0.1125781    
          76  9.2611074E-02
          77 -2.7989469E-02
          78  2.6505908E-03
          79 -2.7565606E-02
          80 -6.4449920E-03
          81  1.9575747E-02
          82 -0.1204399    
          83  5.1854651E-02
          84  3.9065345E-03
          85 -2.3886824E-02
          86  2.4597757E-03
          87 -2.9440101E-02
          88 -8.2324725E-03
          89 -4.2532086E-02
          90  0.1407218    
          91 -6.2089474E-03
          92  6.1759981E-03
          93 -1.1763908E-04
          94  1.7616268E-02
          95 -6.6080573E-03
          96 -1.9260137E-03
          97  5.1862858E-03
          98 -2.8220981E-02
          99 -4.9873730E-03
         100  1.6866745E-02
         101 -2.9147887E-03
         102 -2.7102584E-03
         103 -1.0986947E-03
         104  2.9665818E-03
         105 -2.2793550E-02
         106  5.0059721E-02
         107 -4.9541681E-03
         108  4.8414666E-02
         109  4.6987133E-03
         110  4.0275217E-03
         111  1.7603057E-03
         112  7.9601893E-04
         113  6.7156232E-03
         114 -2.0418398E-03
         115 -1.4458774E-02
         116  3.9806221E-02
         117 -2.7763711E-03
         118  2.2982387E-03
         119  1.0604884E-03
         120 -3.2370712E-04
         121 -6.0864524E-03
         122  9.8957110E-04
         123  3.7416469E-03
         124 -1.6681278E-02
         125  1.0471313E-03
         126  5.6448014E-05
         127  6.5999856E-04
         128 -1.8029293E-03
         129  3.0873064E-03
         130  3.6488820E-03
         131 -2.0696344E-03
         132 -4.1174289E-02
         133 -2.9193442E-03
         134  1.0194600E-03
         135 -1.3698338E-03
         136  5.3026830E-04
         137  3.0145834E-03
         138 -5.0468477E-03
         139  4.8680347E-03
         140  1.4335602E-02
         141 -4.1617271E-03
         142  6.4870981E-03
         143  1.5297056E-03
         144 -7.1137575E-03
         145 -4.1634664E-02
         146  0.1084562    
         147  6.7086064E-04
         148 -7.8489408E-02
         149  6.5537603E-03
         150  1.0619905E-02
         151  9.5929941E-03
         152 -2.3588508E-03
         153  1.0341100E-02
         154 -0.1022696    
         155 -0.1018497    
         156 -4.9443111E-02
         157 -1.1455367E-02
         158  6.9094612E-03
         159  3.4487855E-02
         160 -5.6353938E-03
         161  2.2890948E-02
         162  1.2912777E-02
         163 -9.4085902E-02
         164  0.1858409    
         165 -1.7779000E-02
         166  8.6689746E-04
         167  3.3044234E-02
         168  8.3633576E-04
         169  2.3568252E-02
         170  9.5136210E-02
         171 -4.8348978E-03
         172  0.2420952    
         173 -1.1024661E-02
         174  9.9828830E-03
         175  9.0294629E-03
         176  6.7871958E-03
         177 -1.0982961E-03
         178 -1.9039231E-03
         179 -5.2345269E-03
         180  9.2926122E-02
         181  1.9688846E-03
         182  2.3387559E-03
         183 -3.6135688E-03
         184  2.4241444E-03
         185  2.9540380E-02
         186  5.5456579E-02
         187 -8.3823428E-03
         188 -0.1543927    
         189  1.0521376E-03
         190  1.5314652E-02
         191 -3.1387547E-04
         192 -6.6196257E-03
         193 -1.2846285E-02
         194 -0.1108892    
         195  1.7066263E-03
         196 -0.1834482    
         197  1.5291866E-02
         198 -1.5371019E-03
         199 -9.9460622E-03
         200 -6.4536757E-03
         201  0.1296724    
         202  0.2324404    
         203  1.5351138E-02
         204 -8.3260141E-02
         205 -3.8274873E-02
         206 -5.5060065E-03
         207 -6.0950941E-03
         208  1.3873023E-03
         209 -0.2401985    
         210  0.4175168    
         211  2.4347950E-02
         212 -0.2126108    
         213  7.7995770E-02
         214 -1.2913108E-03
         215  1.3541151E-04
         216  3.0378215E-03
         217  2.5567492E-02
         218 -1.9830987E-02
         219 -3.3199888E-02
         220  3.6234129E-02
         221 -1.8689567E-02
         222 -3.3730001E-04
         223 -5.2054957E-03
         224 -6.0181329E-03
         225 -5.8807367E-03
         226  2.7221499E-03
         227  1.3378162E-02
         228 -6.1073168E-03
         229  8.8659627E-04
         230  7.3036170E-03
         231 -1.3866658E-04
         232  6.4539728E-03
         233  2.0043270E-03
         234  5.0159167E-03
         235  6.5276521E-04
         236 -2.6329241E-03
         237 -8.0812065E-04
         238 -1.1840313E-02
         239  5.0616162E-03
         240  1.6351645E-03
         241 -5.0699862E-04
         242 -2.3991396E-03
         243  1.3887490E-02
         244  4.6576303E-03
         245 -7.8883895E-04
         246  2.0462957E-03
         247  6.5334761E-03
         248 -1.8112294E-03
         249  5.7600476E-03
         250  6.1467583E-03
         251 -2.0578832E-03
         252 -9.8362286E-03
         253 -1.2143211E-02
         254  9.0660382E-04
         255 -1.4900791E-03
         256  1.3414434E-04
         257 -1.4889539E-03
         258 -3.5262134E-02
         259  3.6788853E-03
         260 -2.1759435E-03
         261  6.5462580E-03
         262  6.4016725E-03
         263  7.7748500E-02
         264  1.1387119E-02
         265 -1.3971966E-02
         266 -2.5214171E-03
         267  6.6493615E-03
         268 -1.3486398E-03
         269 -4.2442321E-03
         270  1.5443896E-03
         271  1.3144006E-04
         272 -7.6448929E-04
         273  4.9170856E-03
         274 -1.2991001E-03
         275  1.8229487E-03
         276  1.6181177E-03
         277 -1.7291467E-03
         278  7.2754346E-02
         279  9.9390140E-03
         280 -2.3189729E-02
         281  1.1601434E-02
         282  4.9086846E-03
         283 -4.0227156E-02
         284 -1.1857690E-02
         285 -3.1827997E-02
         286  1.6782567E-02
         287 -4.0183235E-03
         288  2.9396160E-02
         289  3.8977396E-03
         290  3.2330875E-03
         291  3.5538550E-03
         292 -8.0424258E-03
         293 -4.2223677E-02
         294 -1.4574380E-03
         295 -3.7324650E-03
         296  8.4543834E-04
         297  3.5078640E-03
         298 -8.0045134E-02
         299  8.5219620E-03
         300  5.2918559E-03
         301 -1.6958522E-02
         302  5.9646298E-03
         303 -1.1252113E-02
         304  1.1659814E-04
         305 -6.6119857E-04
         306  5.1111536E-04
         307 -5.0670124E-04
         308  1.8335754E-02
         309  5.4183519E-03
         310  3.6428117E-03
         311 -3.9710514E-03
         312  5.1408103E-03
 Sym= Particle
 Ene= -0.1094510    
 Spin= Alpha
 Occup= 2
           1  1.2218400E-03
           2  2.0823432E-02
           3  2.6069533E-02
           4  2.6623022E-02
           5 -5.2926014E-03
           6 -4.9572354E-03
           7 -4.5443452E-03
           8 -1.0936733E-02
           9  4.7336253E-03
          10 -1.1726814E-02
          11 -2.2867685E-02
          12 -1.3283694E-02
          13 -2.5840851E-03
          14 -5.8612565E-04
          15  4.4301939E-03
          16 -4.3643797E-03
          17 -1.3831254E-02
          18 -2.9636186E-02
          19 -9.7266752E-03
          20 -1.6136101E-02
          21  1.4243107E-02
          22  4.9439054E-03
          23  1.7100341E-03
          24  6.7677977E-03
          25  2.4329780E-03
          26  2.5555661E-02
          27  3.4064222E-02
          28  1.8636178E-02
          29 -1.9836836E-03
          30 -1.8178515E-02
          31 -1.2067606E-02
          32  1.2112738E-03
          33 -5.5528339E-03
          34 -6.0472205E-02
          35  4.8440456E-02
          36  0.1533072    
          37  7.7342312E-03
          38  2.4495866E-02
          39 -6.8395459E-03
          40 -3.7612878E-02
          41  7.7973418E-03
          42 -2.9518604E-02
          43  4.8424982E-02
          44  0.1416488    
          45 -5.1218444E-03
          46  8.0762161E-03
          47 -1.2916243E-02
          48 -3.9313011E-02
          49 -2.5235994E-03
          50  5.8810927E-02
          51 -7.9393774E-02
          52 -0.2777450    
          53 -3.0729678E-04
          54 -1.3588025E-02
          55  1.7370190E-02
          56  6.7819946E-02
          57 -2.7637081E-03
          58 -1.7024387E-02
          59  1.4981844E-02
          60  6.7662083E-02
          61  2.0635363E-03
          62  3.2490510E-03
          63 -4.9767997E-03
          64 -1.3469621E-02
          65  3.9667101E-03
          66 -6.4685054E-02
          67  5.7199661E-02
          68  0.1859804    
          69 -3.3330354E-03
          70  1.9435903E-02
          71 -1.6236845E-02
          72 -5.4536402E-02
          73 -1.9209038E-03
          74  8.4526286E-02
          75 -6.5164462E-02
          76 -0.2918599    
          77  8.5137179E-03
          78 -3.2333259E-02
          79  3.2941211E-02
          80  9.2475876E-02
          81 -3.7287798E-04
          82 -3.0183567E-02
          83  1.0411098E-02
          84 -0.2384759    
          85  8.9462399E-03
          86  3.5479825E-03
          87 -8.8763544E-03
          88  8.5405186E-02
          89 -1.6561002E-02
          90  9.3437806E-03
          91  4.3069664E-03
          92 -8.8060535E-02
          93  1.5596952E-02
          94 -1.2003837E-02
          95 -6.8866466E-03
          96  9.1217831E-03
          97  2.8449658E-03
          98  3.7541624E-02
          99 -1.1141285E-02
         100  0.2410926    
         101 -1.0728643E-04
         102 -1.0459175E-02
         103  4.2811171E-03
         104 -5.9468545E-02
         105 -2.7228291E-03
         106  4.3337108E-03
         107 -3.7043034E-03
         108  1.9927887E-02
         109  1.2900681E-03
         110  4.0930738E-03
         111  1.1938151E-04
         112  1.4587060E-03
         113 -5.5728311E-04
         114 -1.5737807E-02
         115  9.8193502E-03
         116 -0.1040560    
         117  1.8932286E-03
         118  4.4888211E-03
         119 -1.9604696E-03
         120  2.0037232E-02
         121 -2.9737249E-03
         122  5.7828268E-03
         123 -2.0744582E-03
         124  3.7065022E-02
         125  3.3255150E-03
         126 -1.3817583E-03
         127 -1.3863475E-03
         128 -1.0253353E-02
         129 -5.2896788E-04
         130  1.0751625E-02
         131 -4.1622249E-03
         132  5.4133173E-02
         133 -7.2303745E-05
         134 -5.5019148E-03
         135  4.9594669E-03
         136 -1.7280798E-02
         137  1.7552806E-05
         138 -1.3705403E-02
         139  1.2455576E-02
         140 -8.1930801E-02
         141 -6.9185760E-04
         142 -1.3359039E-03
         143 -2.8545628E-03
         144  1.8471181E-02
         145 -4.4662780E-03
         146 -7.2601424E-03
         147 -1.2785974E-02
         148 -8.2083486E-02
         149  8.2995174E-03
         150 -2.7595437E-03
         151  1.2603424E-02
         152  1.8691674E-02
         153 -4.4068978E-03
         154 -3.3775400E-02
         155  7.3458520E-03
         156 -0.2337172    
         157  1.5989443E-02
         158  6.1668558E-03
         159 -4.7861510E-03
         160  8.3529487E-02
         161  5.5481489E-03
         162 -6.0345069E-02
         163 -1.6054058E-02
         164 -0.2982823    
         165  7.9027247E-03
         166  2.2831323E-02
         167  5.9207086E-03
         168  9.9506818E-02
         169 -7.6568648E-03
         170  1.8898390E-02
         171  1.0869677E-02
         172  8.9382514E-02
         173  1.4711539E-02
         174 -6.9797514E-03
         175 -1.2450036E-02
         176 -7.2668097E-03
         177 -3.6709683E-04
         178  4.4077605E-02
         179  2.5374522E-03
         180  0.2148731    
         181  2.2217191E-03
         182 -1.7017389E-02
         183  3.5941794E-03
         184 -6.4338692E-02
         185 -1.9600140E-03
         186 -5.4964952E-02
         187 -1.4525477E-02
         188 -0.2744959    
         189  2.9167200E-03
         190  1.0879953E-02
         191  8.3547663E-03
         192  6.1503336E-02
         193 -6.4682384E-04
         194 -6.8971873E-03
         195 -7.6352851E-03
         196 -1.9470995E-02
         197  5.9290626E-03
         198  5.1009166E-03
         199  5.5169421E-03
         200  1.6267860E-02
         201 -1.0145531E-02
         202  4.9684647E-02
         203  1.0929005E-02
         204  0.2665567    
         205  8.9660333E-03
         206 -1.1773343E-02
         207 -1.7663392E-03
         208 -8.2696542E-02
         209 -1.9802288E-04
         210  9.0872221E-02
         211 -3.2158185E-02
         212  0.4127363    
         213  7.1578627E-03
         214 -3.0489463E-02
         215  1.0083142E-02
         216 -0.1193618    
         217  1.4809364E-02
         218 -2.9411975E-02
         219 -4.1905623E-02
         220 -8.8434489E-03
         221 -1.8042943E-02
         222 -1.2982769E-03
         223  9.3044536E-03
         224 -2.2568151E-02
         225 -1.2692596E-03
         226  9.2665730E-03
         227  1.3881920E-02
         228  1.0673240E-02
         229 -5.8215954E-03
         230 -3.7002396E-03
         231  4.1996837E-03
         232 -1.1220002E-02
         233  4.6843127E-03
         234 -7.2640710E-04
         235  1.8328623E-03
         236  8.7344652E-04
         237  4.2522191E-03
         238 -2.3835911E-03
         239  1.0001394E-03
         240  2.4395490E-03
         241 -4.2843227E-03
         242 -6.4988127E-03
         243  4.0777274E-03
         244  8.4106103E-03
         245  5.1945942E-03
         246 -7.6140785E-03
         247  1.0160684E-03
         248 -9.8954355E-03
         249 -1.0496122E-03
         250 -7.0172204E-03
         251  6.8856878E-03
         252  3.1624954E-02
         253  4.7653946E-04
         254 -5.5293983E-04
         255  1.2356653E-02
         256 -1.8567819E-02
         257 -5.7997063E-02
         258  4.6816003E-03
         259 -2.8562378E-03
         260 -4.1295188E-03
         261  1.3191728E-03
         262  2.2519542E-02
         263  1.0820521E-02
         264 -5.4249698E-03
         265  5.9526991E-03
         266  2.1363313E-03
         267 -1.6295776E-02
         268 -6.7899225E-04
         269  1.5808103E-03
         270 -6.3154805E-03
         271  2.3148481E-03
         272 -1.0794251E-02
         273 -1.5236302E-04
         274 -1.6685200E-03
         275  4.2216791E-04
         276 -4.8329560E-03
         277  1.6304197E-02
         278  4.2950017E-03
         279  8.7615009E-04
         280  2.1313822E-03
         281  1.1046676E-02
         282  3.3242689E-03
         283  8.3431583E-03
         284  1.7206577E-03
         285  5.8061234E-03
         286 -1.7268773E-02
         287  4.1323088E-02
         288  3.5516045E-03
         289 -2.5494460E-03
         290  5.5192364E-03
         291  3.7331475E-04
         292  3.5414293E-02
         293  2.8127481E-03
         294 -1.0958923E-03
         295 -1.5206083E-02
         296 -9.9878502E-04
         297 -5.5494349E-02
         298  7.8661647E-04
         299 -4.0117502E-03
         300  2.0447788E-04
         301 -1.7104403E-04
         302  8.3276993E-03
         303  7.7690277E-03
         304 -6.0384278E-03
         305  4.9651032E-03
         306 -1.5595411E-02
         307 -1.2982991E-02
         308  1.1823273E-02
         309 -1.8395323E-03
         310  1.0054524E-02
         311  6.7889518E-03
         312  8.5284626E-03
